Ge Se 
 1.0000000000000000
    12.4388164962862113   -0.0000011078115498   -0.0000005245495461
    -0.0000011139956481   12.5082532159667927   -0.0000026729729303
    -0.0000006010587069   -0.0000030458417275   11.0723458073875403
 Ge  Se 
  36  36
Cartesian
  0.9999677694880087  0.3210018744600124  1.2679229506308145
  3.2012046646353589 10.9278765848109423  4.4507844668799521
  7.3399565037594350  2.5511443014328115  3.8884077736858891
  6.8590312927980817  6.8792757260551776  4.3739860028959248
  7.3151598321019735 10.9122883640434711  4.0704954580158876
 11.3577753473309144  2.3576272242770653  4.0921028048008727
 11.4381282719812969  6.7950833748162438  4.1164362529886960
 11.2483302980550164 10.8586137587886054  4.0126332626186212
  1.0662375876953021  1.6721312607233418  6.9706372663125471
  0.6726351866047251  5.9621024787251091  7.0222811531986853
  0.7776026322998477 10.1396008371830781  7.0076693835030355
  5.2690396123262762  1.6998280335323381  6.9056439230482258
  4.8750699286856891  6.0122512202395537  7.0646038523382062
  5.1418150613021441  9.8999072000132244  6.9219788144600845
  9.0698276671098395  1.9929668010773969  6.9058256182639663
  8.8671280231471066  5.9711133451260308  7.0983773171970466
  2.8545825736095209  6.7308383737118342  4.4366388078468191
  3.0030450407958083  2.3650137805335363  4.0419247227441319
  8.9945643074716397 10.0857465003209974  6.7543090216212915
 11.0992724230249600  7.8010359610180355  9.7465478995413246
 11.1590611229457295 12.2146411991217487  9.5861977353530001
  0.8784356515214324  4.6113363630306949  1.6214491622066176
  1.1423659367182968  8.7541744271362507  1.3120133214685479
  5.0561224769091933  0.6003166002502728  1.6761683876705551
  5.0198635673942889  4.7264247136673374  1.4313369415981985
  9.3386087172294516  0.5793653860565069  1.5271646198048530
  9.3408336031248300  4.7250025102729243  1.5078931356702241
  5.0633171378081601  8.9239077003681295  1.2152471958043305
  2.9350376138689245  3.9577346211078357  9.6696698305242315
  2.7090853251877607  8.1397362764300318  9.4745516864619308
  3.0012853171831773 12.2526746993181632  9.6205162595651199
  6.9633306353582940  3.9470699642826883  9.8594529561775772
  7.2669538271006298  7.9548758992326096  9.6941922668571383
  7.3078032631165133 12.2340135847538836  9.7274623143982524
 11.2716534487680153  3.7119714411706175  9.6369909529080395
  9.2326996403671160  8.8361979144840710  1.3269907851210645
 11.2794216961061888  0.1806162079287327  7.1342933412155896
  3.0370745306024527  4.2572671265049324  7.0884141935340237
  3.0783438757362016  8.4846374273637704  6.9804949873326798
  7.2408989414532998  0.1214555442016533  7.2007463054232552
  7.0280567790926813  4.1091668183260612  7.1958393853623077
  7.1697198966902445  8.3549295712614047  7.0664508676974673
 11.1455474350700712  4.3477818350466109  7.1757352039301701
  9.3012370146010888  0.0418939291459152  4.0455275077594823
  0.8726935238935454 -0.1090633780821026  3.8201678697151205
  0.8407787298073077  4.1626975857129480  4.1580694851954396
  1.0102794255090666  8.5357911736180299  3.9540086630186257
  5.0816376648625452  0.1248315188117329  4.0734271902118566
  5.0301533298830368  4.0496095385851012  3.9263340608232027
  5.0581482812950478  8.4799591458141972  3.9392663170035576
  3.1054009951150534  0.1011135149421774  7.1215846336697437
 11.2376401189791899  8.3294259938532367  7.2962683157590265
 11.3475686063235628 10.4116372895625400  1.4319683102684979
  2.8844227538042757  2.2062802429099615  1.4508921290444701
 11.4976832149756056  2.1546933653119993  1.4328767266220441
  9.4813055112621143  4.1680159902336866  3.9870083706496282
  1.0022672982743739  2.2050317100467014  9.4284894262646581
  0.9027118716588250  6.2750017026270299  9.4576044070990513
  0.9508439866764659 10.5583490221987670  9.5711010093193991
  5.0415975816728844  2.2431726518328299  9.5317731355258495
  5.0538217486893213  6.3674026207395054  9.5178380122173447
  5.0030667591471660 10.4805108084739427  9.5319271547803694
  9.3364397626858633  2.1279615874413991  9.4087624423881309
  9.1377644814872259  6.1940648002157124  9.6299018384374211
  9.2044997684684038 10.4358564622066794  9.5030542759257681
  2.9240849731963752  6.3368638586451063  1.9475827301992683
  3.1509969372026481 10.5859100001499442  1.6328595365294856
  7.2351618176229335  2.2205342617857711  1.3960396887268212
  7.1370731961763854  6.3943884612296653  1.8006525342145339
  7.1193760389304037 10.4975052656145564  1.5381593145143220
 11.3355687389588908  6.3303188462857385  1.5711226055431380
  9.1426148025378140  8.5963983337424423  4.0536798234064317
