Ge Se 
 1.0000000000000000
    12.4291650189538974   -0.0000025059074504    0.0000018424160673
    -0.0000025258325280   12.5279954073977606   -0.0000007219631433
     0.0000021196293638   -0.0000008240389072   11.1082242580759250
 Ge  Se 
  36  36
Cartesian
  0.5694311899097660  0.8410551287034216  1.4991467356492767
  2.7816985588937650 11.3385638006832039  4.2469975705751120
  7.1664362022057500  2.5722402964595630  4.1084724647658790
  7.0827095500748563  6.9240587122549488  4.2061356818218361
  7.3627466138538917 10.7759748034670526  4.2427847346461318
 11.2538484485331391  2.7230205249785504  4.0769135365157689
 11.3525792134197534  6.6894791138041629  4.0710941052359146
 11.5370178540772574 10.9111527327095992  4.0387938636431038
  0.8827323808431168  1.9846250588387966  6.7915651438445499
  0.9002479336900042  6.1636385515501733  7.0190204014861832
  0.9337988237189850 10.0965906827639280  6.8752030641587671
  4.9070479384001109  1.9365594602793903  7.0891982827685753
  5.2447718517028852  6.1456362309848078  7.1177774230011330
  4.9279536108022350 10.2360669951730934  6.9609652563195050
  9.1533706678399120  2.0886101637174228  6.9448077675815272
  9.2229521489234561  6.0730793665934506  6.7840809229965160
  2.8925705144300644  6.6999753961941053  4.1183332220511861
  3.0689065203117476  2.5858666179722389  4.0372385665606654
  9.2350931051472411 10.6270004729048697  6.9683944876304134
 11.1216533096668790  8.1817928358304410  9.5757629870384182
 11.5030963121144989 12.3260067394916994  9.7154048379025770
  1.0558361320637357  4.4819319308248353  1.3047740817352513
  1.0200333404379280  9.0673120374977429  1.2787405608113154
  5.2146242914840260  0.2983898760051064  1.5075675709002059
  5.1111811511408565  4.7309214668725277  1.2987989479959314
  9.0425304084457476  0.3656514326387081  1.3387748454319179
  8.9342483102477477  4.8121724238714023  1.3516773427222748
  4.8431001317828919  8.8607249131785100  1.3440220758150092
  3.0030890134684847  3.8152112799127180  9.5298676659897055
  3.1469841046558678  8.2257027832038379  9.7236289658572836
  3.0348461438394292 12.2069181939752305  9.7262072071595238
  7.1701963856402182  3.9345640545004126  9.7793031050236632
  7.1133916173678617  8.2216641609002359  9.6510010627788922
  7.0587023915646574 12.1971411433145640  9.5032451320871409
 11.2263841295208504  3.9869222675980427  9.7735034800101257
  9.4914623568047354  8.7820282958158913  1.2578482775122624
 11.0153088648532993  0.2347162700466557  7.1377324318081508
  2.9286911154178101  4.4070969704191230  7.1677384662912402
  3.0424151430742161  8.4622345128077789  7.2071692745954508
  7.0457771739335620  0.2036388482940223  7.0426021918305812
  7.1128223030734885  4.4317488297072645  7.1916205702187366
  6.8477280208587370  8.5890518003965468  7.0818142370738801
 11.2478026785949474  4.4696910067741475  7.2318779758134815
  9.2825385663887747 -0.0273351218131753  3.8574566149185965
  0.7642498941582172  0.4140260167785731  3.9630551982182127
  0.6489661310010080  4.4717189465018414  3.8629151470752237
  0.8168622805736443  8.3240846234377290  3.9132719754711771
  4.8069004158740309  0.4675247896441936  4.1000968999256342
  4.9161647955099790  4.2026779894000565  3.8650536969269194
  4.8958930108055547  8.4047928097928679  3.8012822317951729
  2.9688667015663679  0.3194444257078510  7.1526027728000452
 11.2173241123524861  8.4010863520358043  7.0989542936937431
 11.4858963028018124 10.6405860375081485  1.4475091095218779
  2.5669766767359410  2.4264718793682567  1.4829785109657005
 10.9475280204111556  2.2671166563690375  1.6970660892434153
  8.9412615821412444  4.2494639047237248  3.9057047797796169
  0.7442176469200175  2.1935702954375027  9.3981765105682626
  0.9306449516053370  6.6474902056394924  9.4509006936517626
  0.8974667255115090 10.5266626975510178  9.5088511760839722
  5.0554188059409357  2.3601163572237986  9.5124290657622499
  5.0074390097208479  6.3202313423911178  9.7058580168092963
  4.9555676591655837 10.5735999197216213  9.5687568082141059
  9.3441943529085503  2.2557973806362184  9.4269858788058976
  9.1245174059359737  6.5052145551510394  9.3991797223472471
  9.1551482618460316 10.4354365390373438  9.5112294668493309
  2.9199675294499325  6.4550147008518000  1.5371876985880208
  2.7679281789960379 10.8303988151916091  1.6005387797246275
  7.1307576431239283  2.0791267767493351  1.5571352727266863
  6.9951045912103620  6.5911672337746356  1.6218135734949235
  6.7672609377989401 10.8288039223493993  1.7540807567361290
 11.0965845970655188  6.6438479287831518  1.7639590838024790
  8.9966142433212273  8.7362339703257490  3.7516829194275516
