Ge Se 
 1.0000000000000000
    12.4489319219705514   -0.0000025098927567    0.0000018453461805
    -0.0000025237042855   12.5174394378737350   -0.0000007213548240
     0.0000021161680624   -0.0000008226932724   11.0900848074780338
 Ge  Se 
  36  36
Cartesian
  0.7455872765584681  0.6412077563485493  1.4149629623458286
  2.8942466883888742 10.9344714293158933  4.0286380652790550
  7.2756289652464146  2.5911512269355574  4.0445681336231774
  7.1297081303035075  7.0856103088766842  4.3023628271849876
  7.2534997122504734 10.8640791327382367  4.0302859513129539
 11.5236878251444441  2.5659249820005923  4.1208626772570449
 11.3729086931734411  6.7526030390334757  4.2185883298054376
 11.3336924902393310 11.0657888941901010  4.3196372448548956
  0.7855554666152044  1.8588452739806267  6.8192306471838062
  0.8451627081823090  6.0931552457996805  6.9747585444791920
  0.7388711520090792 10.3689434395517530  6.8980089131863584
  4.9689780336130358  1.9458357296701885  7.0122207263758813
  5.1756665142748624  6.2749747454337452  7.0163618604345528
  4.6907851504839639 10.1792345599817473  6.9918104703391100
  8.9642959474423591  1.7409831220055882  7.0296754510892505
  9.3232984566059791  6.2108940196759095  6.8340581728597192
  2.6168387076885411  6.9177992146523168  4.0456424134896070
  3.4986590631991170  2.6178734353727764  4.1676223664721794
  8.9995645088523020 10.2215533465803752  6.9002496844577026
 11.0624218958031406  8.2542964106549785  9.6469381540314743
 11.2222144418171208 12.2348454740536603  9.5270540968306605
  1.3242687172820002  4.3173134117151166  1.2646515900908446
  0.8038731586602887  8.9458288067092315  1.2428215643136820
  5.3988045538334521  0.2794445237445082  1.3944370670581578
  5.1703884384215906  4.6725708690634100  1.4282164903037660
  9.3860455243303331  0.6035702310519274  1.2263748483228067
  9.1389523389515723  4.8355167440491096  1.4810398374625777
  4.8095654317067060  9.0200578806118248  1.2838381757437136
  2.7809492393545394  3.7626295360749533  9.5561062647462602
  2.9349050957557976  8.0343421358426284  9.4115204561625507
  2.9916409755295064 12.2966037581024406  9.7444254329763336
  7.1525726948732657  4.1600257650180090  9.8038032650848503
  7.0198907581210364  8.1194544452477402  9.6038144340911415
  7.1612926674050073 12.4720403054122198  9.7093488728583992
 11.5385927372689867  4.2760205862722049  9.8020287669940487
  9.5645362516655688  8.7541766479292100  1.4872215353811509
 11.2087466199019019  0.0870271041521592  7.1162569530896986
  2.9293560722288454  4.2654997873984914  7.0331063127129596
  2.7831232966527244  8.4385854112282956  6.9673999700989508
  7.0153316874258289  0.2448222154000081  7.1290875736627335
  6.9450089817725349  4.3351262441856608  7.1951550140590887
  6.8028825708809828  8.5953142778804423  7.0341808198116347
 11.1529796839772395  4.5283418887072537  7.2515913290370859
  9.2647768546904281  0.0926619419406876  3.7714475179285891
  0.9669168838122951  0.1226205064229763  3.9372964647426310
  0.8045741712296002  4.4392459582938342  3.8610927362378269
  0.8398592362743454  8.6101733025894642  3.8780733115566814
  4.9896753375927663  0.2704543816515763  3.9388340128205837
  5.2083667757462679  4.3666074156679153  3.8346211421942198
  4.9559704229315136  8.7878421527452559  3.8368802686160048
  2.8894172769040076  0.2758473777145911  7.0595847254161281
 11.1221955995008770  8.6788730583854008  7.0907743409614907
 11.3908190412529002 10.5901360961577318  1.6821661396139016
  2.8479185053542517  2.2495678086963680  1.7018583252994719
 11.2296120067522285  2.3926764879014470  1.5134308172242261
  9.1925155084818773  4.3218777925539715  4.0865661484486715
  0.6855695828658194  2.2265037926078497  9.4344458404584124
  0.7313478103677374  6.3163998661927607  9.4787308668515013
  0.7990193843424003 10.5492056322190670  9.4357884414116704
  4.7559003646836597  2.2202891746325726  9.5832676588579115
  5.0140403862857257  6.5184599643618855  9.6585413836573260
  4.9109525480886509 10.6868966878877369  9.4883741298220752
  9.1181626450656843  2.2437161144446480  9.4617809972134754
  8.9444936409278721  6.4333504387551930  9.3704034703092418
  9.0834126181702590 10.5713586136512134  9.5018277318359825
  2.9531094880081667  6.4165655626174622  1.5553029219329422
  2.7519859305176153 10.6297341187326850  1.3157109951600650
  7.2856794296136727  2.1784208810696377  1.6330081684748758
  7.2061405893917136  6.4674730061670740  1.7031125453533946
  6.8695127921807417 10.6121368647203482  1.5296115486888338
 11.1523307225425530  6.5620246333082468  1.5719234960997688
  9.2229554754147518  8.6159209572372895  4.0798988722849518
