 S  O 
 1.0000000000000000
    32.3722991942999982    0.0000000000000000    0.0000000000000000
     0.0000000000000000   19.9214134216000005    0.0000000000000000
     0.0000000000000000    0.0000000000000000   40.4480476378999967
 S   O  
   1   3
Cartesian
 14.2642704749999574  8.9969237264164388 19.8053813322910592
 14.2642704749999574  7.5623031865703059 19.8765931764686279
 14.2642704749999574  9.7774030269258017 21.0113467090489578
 14.2642704749999574  9.6506064130874289 18.5266065561911049
