Ge Se                                   
    1.000000000000000     
    12.4361787007138833   -0.0000023817792822    0.0000009837952424
    -0.0000023966951348   12.5140601408575201   -0.0000002815626449
     0.0000011279468508   -0.0000003208098345   11.0764659024270511
   Ge   Se
    36    36
Direct
  0.0886916209201232  0.0242678324472791  0.1442968842276855
  0.2535180718646117  0.8698489805935310  0.3653033500746687
  0.5656798073142753  0.1999695249584690  0.3715682753552088
  0.5722153594764947  0.5216745439054122  0.3755136488075834
  0.5792008981754719  0.8570656298245112  0.3657032133281319
  0.9227658782381596  0.1760778096693514  0.3724423546833577
  0.9070278470428050  0.5289685390714141  0.3658357368521123
  0.8846895325215414  0.8630558892727720  0.3520882177563180
  0.0791326856473233  0.1399679407413856  0.6379871989450194
  0.0747744024494637  0.4767930935283005  0.6323184073404562
  0.0802191600992970  0.8083174743587591  0.6296410207970027
  0.3994327247271272  0.1562357867331841  0.6288407208806177
  0.3843325880143809  0.4794077282887770  0.6179056395055298
  0.4235000628160464  0.8238452838156078  0.6389631357538832
  0.7429884026809148  0.1527485767254717  0.6151089931264195
  0.7553967056810365  0.4905637678305652  0.6568303313152697
  0.2470341169340315  0.5445236224270147  0.3549791543310121
  0.2357872573965381  0.2082210380848721  0.3699515908670250
  0.7397412478071388  0.8101069846916999  0.6289712403277719
  0.9223452366413696  0.6630685473079225  0.8911577992123725
  0.9033551476492221  0.9769753508043095  0.8579336670461473
  0.0841561183610580  0.3790562319698836  0.1366748372907907
  0.0801860029529777  0.7121211927540330  0.1248181262880337
  0.4258823592060352  0.0474376523232891  0.1413870874467875
  0.3910327355448899  0.3878773244271869  0.1180072352480153
  0.7347881874850302  0.0453626004838767  0.1337596422113947
  0.7479985623848577  0.3696322533478309  0.1359259832354383
  0.4284295447838957  0.7119989917295939  0.1152252790938206
  0.2033053779582374  0.3088243508393518  0.8553027206866872
  0.2510102650246822  0.6526996455530139  0.8708688227553125
  0.2547346725893718  0.9998683594427291  0.8740997421273917
  0.5817769671155446  0.3384544942096213  0.8696704941280515
  0.5611275370562225  0.6449184929904490  0.8535762090592343
  0.5935300586200185  0.0114631702497903  0.8687940262674729
  0.8980755294791507  0.3179752050659843  0.8833937469125672
  0.7488739112842779  0.7098723327366301  0.1159155712255000
  0.9018334925958271  0.0159782592235373  0.6391506289473625
  0.2175599658720415  0.3319246149125945  0.6217061881985444
  0.2322422603196870  0.6797862434142132  0.6473200802127010
  0.5738400985849950  0.0096191583375500  0.6451266734915251
  0.5622935096800035  0.3544792871637270  0.6430483716076694
  0.5671426767165642  0.6765967941627409  0.6347591747708918
  0.9018564122277084  0.3411794807980471  0.6508212138412688
  0.7251852125908513  0.0144057638839641  0.3681450598358467
  0.0432110698345696  0.0105786867044628  0.3692227784365443
  0.0663029201605951  0.3311723109339013  0.3553602048546480
  0.0640145665943379  0.6858939349812232  0.3669404418421465
  0.4196324789002546  0.9990240751128638  0.3599752886832945
  0.3918023004956979  0.3472201614911583  0.3627011198467756
  0.3811090221243205  0.7104336306270014  0.3510477271344143
  0.2301535756258275  0.0005098583919860  0.6462418458527779
  0.8844118876609102  0.6701166771552991  0.6540412333008447
  0.8982515237683089  0.8503675824025407  0.1319277972406994
  0.2427997473350700  0.1609852287884976  0.1466892563391582
  0.8771808325481416  0.1939179234718367  0.1499284883013843
  0.6999575723075040  0.3658463782591994  0.3635607942623125
  0.0537746676267616  0.1725533329410922  0.8674378494470716
  0.0659895154687362  0.5128760325914286  0.8692313351115004
  0.0571214462206413  0.8434337513852199  0.8567062449787102
  0.3843898391806704  0.1677286628252546  0.8605665302343084
  0.4005103150512781  0.5091478671783989  0.8457393071934405
  0.3912206479958371  0.8454468137504563  0.8568713266023167
  0.7297723172876047  0.1815709462587378  0.8538704259424179
  0.7218918630157347  0.5119071961294566  0.8801736320489724
  0.7283823051163125  0.8463519416637055  0.8511090058094197
  0.2342624858259370  0.5272043672143241  0.1309915149346850
  0.2338571618399143  0.8534630271628956  0.1318970676724760
  0.5633081340233375  0.1906871609410388  0.1394515044991707
  0.5434863947975757  0.5225086977634419  0.1295490408647098
  0.5911174966631023  0.8460444819960813  0.1394985004808902
  0.9112023866581325  0.5069927601981874  0.1388816178254402
  0.7416812091856926  0.6537659463929160  0.3663469075530656
 
  0.00000000E+00  0.00000000E+00  0.00000000E+00
  0.00000000E+00  0.00000000E+00  0.00000000E+00
  0.00000000E+00  0.00000000E+00  0.00000000E+00
  0.00000000E+00  0.00000000E+00  0.00000000E+00
  0.00000000E+00  0.00000000E+00  0.00000000E+00
  0.00000000E+00  0.00000000E+00  0.00000000E+00
  0.00000000E+00  0.00000000E+00  0.00000000E+00
  0.00000000E+00  0.00000000E+00  0.00000000E+00
  0.00000000E+00  0.00000000E+00  0.00000000E+00
  0.00000000E+00  0.00000000E+00  0.00000000E+00
  0.00000000E+00  0.00000000E+00  0.00000000E+00
  0.00000000E+00  0.00000000E+00  0.00000000E+00
  0.00000000E+00  0.00000000E+00  0.00000000E+00
  0.00000000E+00  0.00000000E+00  0.00000000E+00
  0.00000000E+00  0.00000000E+00  0.00000000E+00
  0.00000000E+00  0.00000000E+00  0.00000000E+00
  0.00000000E+00  0.00000000E+00  0.00000000E+00
  0.00000000E+00  0.00000000E+00  0.00000000E+00
  0.00000000E+00  0.00000000E+00  0.00000000E+00
  0.00000000E+00  0.00000000E+00  0.00000000E+00
  0.00000000E+00  0.00000000E+00  0.00000000E+00
  0.00000000E+00  0.00000000E+00  0.00000000E+00
  0.00000000E+00  0.00000000E+00  0.00000000E+00
  0.00000000E+00  0.00000000E+00  0.00000000E+00
  0.00000000E+00  0.00000000E+00  0.00000000E+00
  0.00000000E+00  0.00000000E+00  0.00000000E+00
  0.00000000E+00  0.00000000E+00  0.00000000E+00
  0.00000000E+00  0.00000000E+00  0.00000000E+00
  0.00000000E+00  0.00000000E+00  0.00000000E+00
  0.00000000E+00  0.00000000E+00  0.00000000E+00
  0.00000000E+00  0.00000000E+00  0.00000000E+00
  0.00000000E+00  0.00000000E+00  0.00000000E+00
  0.00000000E+00  0.00000000E+00  0.00000000E+00
  0.00000000E+00  0.00000000E+00  0.00000000E+00
  0.00000000E+00  0.00000000E+00  0.00000000E+00
  0.00000000E+00  0.00000000E+00  0.00000000E+00
  0.00000000E+00  0.00000000E+00  0.00000000E+00
  0.00000000E+00  0.00000000E+00  0.00000000E+00
  0.00000000E+00  0.00000000E+00  0.00000000E+00
  0.00000000E+00  0.00000000E+00  0.00000000E+00
  0.00000000E+00  0.00000000E+00  0.00000000E+00
  0.00000000E+00  0.00000000E+00  0.00000000E+00
  0.00000000E+00  0.00000000E+00  0.00000000E+00
  0.00000000E+00  0.00000000E+00  0.00000000E+00
  0.00000000E+00  0.00000000E+00  0.00000000E+00
  0.00000000E+00  0.00000000E+00  0.00000000E+00
  0.00000000E+00  0.00000000E+00  0.00000000E+00
  0.00000000E+00  0.00000000E+00  0.00000000E+00
  0.00000000E+00  0.00000000E+00  0.00000000E+00
  0.00000000E+00  0.00000000E+00  0.00000000E+00
  0.00000000E+00  0.00000000E+00  0.00000000E+00
  0.00000000E+00  0.00000000E+00  0.00000000E+00
  0.00000000E+00  0.00000000E+00  0.00000000E+00
  0.00000000E+00  0.00000000E+00  0.00000000E+00
  0.00000000E+00  0.00000000E+00  0.00000000E+00
  0.00000000E+00  0.00000000E+00  0.00000000E+00
  0.00000000E+00  0.00000000E+00  0.00000000E+00
  0.00000000E+00  0.00000000E+00  0.00000000E+00
  0.00000000E+00  0.00000000E+00  0.00000000E+00
  0.00000000E+00  0.00000000E+00  0.00000000E+00
  0.00000000E+00  0.00000000E+00  0.00000000E+00
  0.00000000E+00  0.00000000E+00  0.00000000E+00
  0.00000000E+00  0.00000000E+00  0.00000000E+00
  0.00000000E+00  0.00000000E+00  0.00000000E+00
  0.00000000E+00  0.00000000E+00  0.00000000E+00
  0.00000000E+00  0.00000000E+00  0.00000000E+00
  0.00000000E+00  0.00000000E+00  0.00000000E+00
  0.00000000E+00  0.00000000E+00  0.00000000E+00
  0.00000000E+00  0.00000000E+00  0.00000000E+00
  0.00000000E+00  0.00000000E+00  0.00000000E+00
  0.00000000E+00  0.00000000E+00  0.00000000E+00
  0.00000000E+00  0.00000000E+00  0.00000000E+00
