 C 
 1.0000000000000000
    32.3722991942999982    0.0000000000000000    0.0000000000000000
     0.0000000000000000   19.9214134216000005    0.0000000000000000
     0.0000000000000000    0.0000000000000000   40.4480476378999967
 C  
 364
Cartesian
 12.0098279114437805 10.7247656698899601  0.0995669294782641
 11.9398154553471159 10.8347072976080270  2.5425670461698533
 10.9447243850234912 11.8541443777557642  2.4697981219825160
 10.3757260950669892 12.1811822225732271  1.2103659571030010
  8.9939453047394498 12.5272284845874733  1.1372314334402924
 11.8658251588607513 10.9421670868723453  4.9857719776874747
 10.8361524217366014 11.9266407725472057  4.9129514887852368
 10.2562464842162626 12.2337824973042633  3.6535183413671133
  8.8632844903248653 12.5316788543638804  3.5800795862416415
  8.2084270599980513 12.4890038776661196  2.3207421099838594
  6.8664173441607756 12.0115338974942603  2.2476719885612066
  6.3315154731477685 11.6314271971961940  0.9882078199412073
  5.4393953844374661 10.5208585981957352  0.9150903424172705
 11.7876514259934364 11.0469436706410331  7.4294586589394092
 10.7246941386090491 11.9952555244730767  7.3565526553457010
 10.1349186522271388 12.2821634026820998  6.0968784702812453
  8.7325173781446761 12.5318273209729867  6.0233032888572211
  8.0797053277450761 12.4664486412741162  4.7638192319501851
  6.7549917075853063 11.9429476909468075  4.6908461131144978
  6.2334855753776379 11.5447755930700513  3.4312742433825436
  5.3802257519311398 10.4041888690088395  3.3580124863414520
  5.1451443294135863  9.7916039949858540  2.0985765597989143
  5.0172964881307571  8.3728310827232608  2.0252628073374686
  5.1389405268539736  7.7279414741321943  0.7658819444440780
  5.7747172617485631  6.4531458131510631  0.6928764293893813
 11.7059814642688398 11.1490309437558928  9.8737311806464785
 10.6109771699295745 12.0600242598367107  9.8006836241639466
 10.0116651700905841 12.3264284136896745  8.5407063447138469
  8.6016201339865095 12.5277035263905461  8.4670825800632556
  7.9516130290035667 12.4398057376961280  7.2072406068107435
  6.6457550461113319 11.8708647495792015  7.1343539957058439
  6.1383870467065531 11.4549589243440391  5.8746401833534376
  5.3249762827172038 10.2855937417616303  5.8012032514812546
  5.1114200073219882  9.6652109432452811  4.5416177531639415
  5.0325575825824709  8.2429113748268907  4.4684600243415886
  5.1763926639339379  7.6026789088811944  3.2088427181093566
  5.8555827190070380  6.3505580607684866  3.1357328046843467
  6.3139110792443809  5.8808888162625541  1.8764094472816810
  7.5491083027521979  5.1712976388742993  1.8028492876298170
  8.1858055320805221  5.0120174721514310  0.5435839943612486
  9.6096138454575186  5.0563147102974408  0.4706465875580798
 12.0096940193661172 10.7204616301956559 13.5793931604384035
 11.6209092283798192 11.2484091781836391 12.3187054485637777
 10.4952531396415392 12.1212272571689432 12.2454311900241031
  9.8871294191604306 12.3665205830480218 10.9851253669929392
  8.4709669681999848 12.5191086653637296 10.9115738963861251
  7.8244631512726635 12.4088600457825322  9.6513553285057760
  6.5389603279947250 11.7953172410629641  9.5784338311873896
  6.0465635369200346 11.3618996621775068  8.3184781310363025
  5.2742892147583333 10.1650544824905911  8.2448918981912964
  5.0822540048066722  9.5377327126690741  6.9851187881334065
  5.0525458657696163  8.1136131156629485  6.9120751392737985
  5.2180351897774280  7.4788016959369354  5.6522640465881997
  5.9400489958770608  6.2508852181976078  5.5789287265659340
  6.4143917201067664  5.7974735217823081  4.3194096005817100
  7.6733597433702148  5.1311193242438575  4.2459680546045639
  8.3150932596533060  4.9938507197603723  2.9865300785419504
  9.7365184742813149  5.0873667463217620  2.9135535949873645
 10.3547516307419016  5.3073375036040504  1.6542292393496152
 11.5157045772658204  6.1327295638639807  1.5806641598449001
 11.9267457042947473  6.6444099025061210  0.3213770215445304
 12.4824467895908153  7.9559753991408106  0.2485513914989931
 11.9396025247171558 10.8307342189184350 16.0252615098095283
 11.5325888589572578 11.3447672515479443 14.7643694921222171
 10.3776253630890665 12.1783342042586256 14.6908513289676570
  9.7615326701391645 12.4025671242720374 13.4302427900915919
  8.3409665497559153 12.5061342582421329 13.3568618767560867
  7.6987277811972046 12.3734928222022056 12.0962627927640174
  6.4352022877424675 11.7159769508479403 12.0232071528358677
  5.9578803802822105 11.2661138820242144 10.7629590302405926
  5.2275316848101170 10.0431803022076060 10.6893197762712244
  5.0574294064875813  9.4095968313187033  9.4292542693815360
  5.0771411927623751  7.9853403646452863  9.3562675657907821
  5.2644615979670810  7.3566486197985341  8.0962576477888710
  6.0283255445377693  6.1543890812619804  8.0227085590541272
  6.5176692202368232  5.7175827321066111  6.7628810763159777
  7.7987695334415621  5.0949995358745257  6.6896146877309866
  8.4448228122224105  4.9800932166848977  5.4298673238588169
  9.8620817572742290  5.1226207942181876  5.3567564078465697
 10.4725062934480526  5.3636614293957612  4.0973287005743870
 11.6043965725313498  6.2285003629203759  4.0237787493871870
 11.9975025514755664  6.7539885986748383  2.7643752355533855
 12.5078291005823736  8.0839091775915399  2.6916201039920038
 12.5668015896170466  8.7376033626168415  1.4321933234966420
 12.3027387943804403 10.1374205693250961  1.3588767875165504
 11.8657345461687669 10.9386161697788769 18.4714674565403705
 11.4416057703159773 11.4384964300929202 17.2104383070382809
 10.2585249360878752 12.2317145961500824 17.1367599963734385
  9.6348770097714258 12.4343964862685326 15.8759437461263229
  8.2115784539294321 12.4886738942240640 15.8027285757307911
  7.5742344589837725 12.3340591208098953 14.5418571862551840
  6.3342915443348424 11.6330698179875007 14.4685878465414604
  5.8730631474639985 11.1668663577450644 13.2080175556512902
  5.1854186654167469  9.9194960742978360 13.1344711345869793
  5.0371401307256392  9.2806623173967076 11.8739697241112214
  5.1060590380683841  7.8579468432075892 11.8009918729418111
  5.3149292779597541  7.2361574485632563 10.5407099531344368
  6.1198135967919498  6.0609575774823696 10.4670392521175870
  6.6239571313661845  5.6412889645886297  9.2069424733314751
  7.9256596628474538  5.0630308425489563  9.1338220712209264
  8.5750477484295367  4.9705279201442840  7.8736992752463824
  9.9864901064274587  5.1619562319967551  7.8004661846117944
 10.5879906559731705  5.4241136772775400  6.5407593345606134
 11.6894216782871450  6.3274279739726635  6.4673530840424291
 12.0643564185516734  6.8660026170769131  5.2077031942205938
 12.5283532721674256  8.2127480274519105  5.1348457910065370
 12.5649797516102737  8.8679972578054418  3.8753786405155441
 12.2528300285841425 10.2578767223298044  3.8019079094746577
 11.7882209786494663 11.0437551338221578 20.9177520969260904
 11.3469361268071438 11.5286359095801387 19.6567469491233773
 10.1373481119721767 12.2806442526751720 19.5830145878757058
  9.5072417256460113 12.4617209322503033 18.3220324602341726
  8.0828891243245131 12.4667167534123475 18.2490084912569195
  7.4515071572993055 12.2900146560505892 16.9879781298314860
  6.2366512009723847 11.5465029838913757 16.9144733009241115
  5.7917736523542933 11.0648227202547744 15.6536689825822375
  5.1473000990169151  9.7946375234955845 15.5802649765739112
  5.0211980976282913  9.1510960551682281 14.3194246700143690
  5.1390789871015219  7.7316065292951546 14.2463327648055795
  5.3694982029575442  7.1175993783837459 12.9857710291315520
  6.2143895985014881  5.9708446046609529 12.9120801779931380
  6.7325347586110951  5.5687637936878502 11.6516247992030895
  8.0533978142701965  5.0356568829011374 11.5786224567657818
  8.7055859753817249  4.9655326006941216 10.3182573914677320
 10.1095513787843458  5.2057850416840532 10.2448243598151620
 10.7014947186869911  5.4883921410286085  8.9847362841891272
 11.7710380080983370  6.4292295279244556  8.9115411984161668
 12.1270132840453684  6.9803533487112803  7.6515279993789971
 12.5441974268023628  8.3423181683736445  7.5785220785179730
 12.5581129388181303  8.9983049141513707  6.3188566305822276
 12.1980306915631580 10.3764978407872821  6.2453575051702179
 11.7074482086485947 11.1462947655901008 23.3639693374201656
 11.2497909229086304 11.6157929460643174 22.1030706683306164
 10.0148917865592271 12.3255755966065017 22.0294464633820830
  9.3787495199225503 12.4846324901228414 20.7684168424654203
  7.9551422359304542 12.4402912188991905 20.6954029929360530
  7.3301137319495417 12.2419675067527045 19.4343695541280930
  6.1415528681122735 11.4570085076600705 19.3607092619697667
  5.7137912076579376 10.9601512659659708 18.0997428595552456
  5.1135754039781656  9.6685168921777880 18.0265165247728270
  5.0098413968698896  9.0210476905949921 16.7654501652533128
  5.1768290787276339  7.6065384860787075 16.6921540178682619
  5.4279570332428131  7.0008145341200532 15.4313584922155922
  6.3120018293529272  5.8840153233805159 15.3577634220178112
  6.8436259389117389  5.5001825314151711 14.0969758798526339
  8.1819959664028126  5.0129586901150116 14.0239713970119819
  8.8361088510346164  4.9653111431501413 12.7633664239383613
 10.2309015446662048  5.2538504075268193 12.6897763541847297
 10.8127009989470597  5.5567000804924751 11.4294062675697887
 11.8491016451827633  6.5339358157855143 11.3563912124905624
 12.1857020917493788  7.0968710204568870 10.0959941406300100
 12.5554982566530189  8.4724086185364715 10.0228207916661276
 12.5467644775456453  9.1283191712212268  8.7627889615903332
 12.1392866952935456 10.4932153102882353  8.6893823008433699
 11.6230393218295074 11.2460135554992871 25.8098986644225761
 11.1492493031543205 11.6992138970883435 24.5491648534444380
  9.8905330399677140 12.3657520406708272 24.4757617648225647
  9.2494686467020681 12.5029670000587636 23.2147489501015087
  7.8282555957615854 12.4094331419300783 23.1416968144596851
  7.2106520851925602 12.1895381607458404 21.8807407764708231
  6.0498907265928628 11.3640988522417494 21.8070164735700622
  5.6393538871837272 10.8528444520645007 20.5460342345393165
  5.0840610662080312  9.5412871237169661 20.4729450994492410
  5.0027310363620590  8.8906856160405532 19.2118264667362979
  5.2182728301269936  7.4827779882672347 19.1383151503148525
  5.4905409685542148  6.8862756996991985 17.8774026227663470
  6.4124886369631406  5.8005826354410628 17.8039672426073921
  6.9570332520075455  5.4353569698852064 16.5429188001764444
  8.3114064330947564  4.9946053077155863 16.4697961179551839
  8.9666309223920688  4.9695999276279599 15.2089975091016374
 10.3505923184611177  5.3061456128677840 15.1353638148716758
 10.9214074619952122  5.6288685675449637 13.8746770836066915
 11.9232756257474311  6.6413443343322864 13.8017579106935742
 12.2403162182052725  7.2154461132980714 12.5411262781744561
 12.5622498270709375  8.6029393002131638 12.4677199092865880
 12.5308196988639171  9.2580171441568844 11.2073397253791480
 12.0765263332995954 10.6079566047449863 11.1340849944050468
 11.5354229366488585 11.3428606347224950 28.2553625735534553
 11.0460185317180795 11.7793087527838605 26.9948911885077969
  9.7650340305104635 12.4021065703423936 26.9217387483505526
  9.1195304808161772 12.5168784788058325 25.6609055909250614
  7.7023538636569082 12.3743677638802705 25.5877024601525420
  7.0926545862883845 12.1333390140557196 24.3269171069049044
  5.9608641793008665 11.2685471003238611 24.2532966964906933
  5.5684999716767960 10.7432750416317226 22.9923348555835467
  5.0586530312193654  9.4133968111387585 22.9193307839844067
  5.0000221883164553  8.7602820376880182 21.6583401794725070
  5.2640121722477256  7.3606788444091782 21.5846734552958210
  5.5565134710078592  6.7737966092952515 20.3237114522664051
  6.5155271272337121  5.7207021324873173 20.2504856546603094
  7.0723164090432356  5.3743592292960543 18.9893366586414203
  8.4410895443276246  4.9805779402431893 18.9160459483956664
  9.0968031631298523  4.9781927709506961 17.6551005659955216
 10.4683621341479878  5.3622093168551013 17.5814988668314491
 11.0276716411631437  5.7046022214397230 16.3205717479507300
 11.9938655191089403  6.7511138267456561 16.2476390430388840
 12.2906612033685398  7.3358338870553128 14.9868230508202451
 12.5644517188766685  8.7335533833146943 14.9132094481724540
 12.5103749764333791  9.3870715895985466 13.6525539972010996
 11.4447386822769968 11.4369048578104593 30.7002101474353850
 10.9402683035878976 11.8561001331959393 29.4400358347012236
  9.6385202411718822 12.4343138222521343 29.3671034020962693
  8.9891472800312897 12.5267029557438274 28.1065971741210312
  7.5777052399918912 12.3354928115460254 28.0332656834294554
  6.9765883325832085 12.0732657244849531 26.7727158745035290
  5.8754202999364260 11.1698412970380989 26.6993362494018172
  5.5011289858230787 10.6314244842130723 25.4384801059433521
  5.0374649899058879  9.2847108806339129 25.3654171833323296
  5.0015044201735570  8.6298744025818248 24.1046224219341276
  5.3137894973009310  7.2402473801604410 24.0309135608107205
  5.6265590915032195  6.6638296306655045 22.7700337539893916
  6.6212573922520086  5.6443277283500501 22.6969865115893192
  7.1897880644833787  5.3176489120822765 21.4359046732771716
  8.5712421772120315  4.9711467006807029 21.3624230083732520
  9.2266399147322566  4.9913491973813171 20.1014149672106015
 10.5840862165073446  5.4223771504683302 20.0279755741133272
 11.1312609415733164  5.7837129179351763 18.7668527481697858
 12.0607068603251673  6.8630565060399116 18.6938087790471599
 12.3370114561143538  7.4577843728082183 17.4329288705274053
 12.5623366908316090  8.8641522735512002 17.3592470105179828
 12.4857308000276852  9.5152883820432699 16.0983383018606183
 11.3506355236206051 11.5275292499667792 33.1444062386503333
 10.8319289336269051 11.9292338735958499 31.8845486290255700
  9.5109654215316777 12.4620978703099450 31.8117243989986029
  8.8586180625607245 12.5319760320542137 30.5516590403490582
  7.4545822026308119 12.2921073103263865 30.4782585021517747
  6.8627672012013630 12.0094212656969255 29.2180051566883137
  5.7934877491772783 11.0683781527451313 29.1448816203240000
  5.4378666013429449 10.5172678846247845 27.8842979566396174
  5.0208219841553534  9.1553483829090716 27.8110916868876039
  5.0074708935034611  8.4996153010791176 26.5505052425387795
  5.3676826435230858  7.1216210786223240 26.4768505159818410
  5.7001609268173725  6.5562663857249897 25.2161227210502794
  6.7292973055731258  5.5715161076939062 25.1431583993777963
  7.3088549222674688  5.2645063801586502 23.8823172272847550
  8.7015403048137578  4.9660899549242510 23.8086839652973481
  9.3559174781891059  5.0089370367757766 22.5477992853133884
 10.6977320618156142  5.4865644112296881 22.4745678600996932
 11.2321273402391384  5.8664031325275126 21.2133927882140263
 12.1235886851643855  6.9772503772591410 21.1401126942166400
 12.3791002531469712  7.5811843230359486 19.8791794091062428
 12.5556052442765118  8.9945087462040423 19.8055488824063524
 12.4567310919552892  9.6427190082633327 18.5445218161308532
 11.2537678729795623 11.6149450188708592 35.5881855554506785
 10.7214624971412178 11.9985975164040095 34.3285675041258855
  9.3827727250660651 12.4854601434639445 34.2557357280973065
  8.7282443317316467 12.5327085043186788 32.9960679166912314
  7.3333349068549554 12.2442839208108474 32.9225650122739140
  6.7512903332290497 11.9412950724104370 31.6627224968939309
  5.7150311573509187 10.9639364137820330 31.5897658907306145
  5.3787697933398730 10.4008293296307279 30.3294905859759147
  5.0088731275677931  9.0253224267714174 30.2561371218240076
  5.0179406000419382  8.3695217092425285 28.9958299647433968
  5.4253071147290308  7.0046534888736609 28.9223654166028687
  5.7773563073018428  6.4512120957476879 27.6618319605244984
  6.8399399828984055  5.5026652740454045 27.5888169853538940
  7.4297391084504278  5.2157504672056012 26.3282712536857098
  8.8319281275145300  4.9656903103738843 26.2546384020762922
  9.4844127197382893  5.0311010800709619 24.9939238544328575
 10.8088749037329031  5.5549439039744355 24.9208522054202533
 11.3299260922344356  5.9529787173670696 23.6598832897100202
 12.1827560893009945  7.0937878874355871 23.5863648450449404
 12.4170916731321590  7.7059882582666415 22.3254172290518191
 12.5447833282857157  9.1245543378273517 22.2519619047185806
 12.4232881109082225  9.7688977519850066 20.9908792737904228
 11.1537347601073247 11.6984467886708341 38.0316087234189339
 10.6084214000190062 12.0637642795077280 36.7721167432854230
  9.2537336899496463 12.5042083388843572 36.6992288096202870
  8.5978986127525818 12.5288928878616161 35.4397730275769476
  7.2138427713241429 12.1922508582104037 35.3662755578586854
  6.6425585414531270 11.8692661481311017 34.1067321165484074
  5.6404715856794230 10.8568350912739717 34.0338499490134225
  5.3234023680206040 10.2823654713031392 32.7740256245636203
  5.0012974303771474  8.8948380788576920 32.7004901560083781
  5.0329582066905827  8.2395964502344068 31.4405233252768674
  5.4870691268213774  6.8895353904039904 31.3672883175985469
  5.8578990354618385  6.3485258579679753 30.1069969501389778
  6.9526193537666297  5.4371995850600552 30.0338202448314355
  7.5522606443695581  5.1710767374587459 28.7736189623220326
  8.9623101845168538  4.9698460496357288 28.6999987598103417
  9.6123359023129176  5.0577880477529069 27.4395739440437474
 10.9179599740363074  5.6270539858104245 27.3665558897002796
 11.4249150102713521  6.0428486304616618 26.1058717839646093
 12.2381333332454609  7.2122485138409944 26.0322143661368735
 12.4513713815619962  7.8322760443322936 24.7714820721018789
 12.5299674378643040  9.2544535734764466 24.6982305276945766
 12.3862327251886075  9.8941336002286704 23.4372159155614455
 11.0506697814109867 11.7780917191305452  0.0267581046984564
 10.4932812134286273 12.1247064624139593 39.2153277364835091
  9.1241830193950033 12.5182149890033525 39.1423500840005687
  8.4677894696322635 12.5204642096504770 37.8830050566318661
  7.0961157137881026 12.1362232541151176 37.8096204486986380
  6.5362831426941463 11.7936519398965363 36.5502148876727446
  5.5698513158829410 10.7471249949441070 36.4773254727817289
  5.2727742289317678 10.1620286618640314 35.2178506845729089
  4.9986587813201000  8.7642593095572554 35.1442081570912990
  5.0526878179876826  8.1103150125161960 33.8845976381000753
  5.5530487979850474  6.7767009927917554 33.8115331609834584
  5.9422003265836683  6.2485862347915919 32.5515852193188877
  7.0679996217467425  5.3758814275797207 32.4782345758094380
  7.6763205819116358  5.1306485987724813 31.2183066862083081
  9.0925414882879672  4.9784358769431529 31.1448273943750209
  9.7390803520333069  5.0889745281378742 29.8846456885053620
 11.0243309596189505  5.7028569970392216 29.8115439138749281
 11.5167675286822426  6.1360491283183851 28.5512837418288221
 12.2892382603608610  7.3327573790842315 28.4775882775239886
 12.4810790065770565  7.9597216301164773 27.2170982417406968
 12.5106798624619113  9.3837784025211342 27.1440397760133791
 12.3448753935805833 10.0181067199739005 25.8833002049885756
  8.3379969465416934 12.5070837137648123 40.3259175308106705
  6.9804224939992707 12.0758253012536478 40.2527154318396398
  6.4326713457799194 11.7143019533623516 38.9933162427141937
  5.5028759371557046 10.6350997340300903 38.9203422015874452
  5.2261823915826255 10.0400147347437443 37.6610664954905161
  5.0004917284920785  8.6335582092221781 37.5874414408728867
  5.0771990051329050  7.9819312269827405 36.3280579349157478
  5.6233049402351440  6.6663395662041482 36.2551237925762848
  6.0304373654954144  6.1519537909671653 34.9954567729353627
  7.1856295969119710  5.3185968365863721 34.9219559915745066
  7.8021843586181987  5.0945907657023737 33.6622987719424813
  9.2228016768899632  4.9912358828959853 33.5890368021730339
  9.8651273628124159  5.1240862120212460 32.3290674716411317
 11.1285938246681901  5.7817232355278234 32.2559076775139317
 11.6056021461448786  6.2319449420745574 30.9959805284904633
 12.3362876551008931  7.4546701934620350 30.9223766132752331
 12.5063769661804098  8.0881099772238674 29.6622202581571095
 12.4870492169625678  9.5123628887221425 29.5892939365133714
 12.2993167332098903 10.1406476794291986 28.3288857003619796
  5.1836508503826018  9.9164606182905857 40.1038698358151464
  5.0066734019401808  8.5029892218169500 40.0303493195141940
  5.1059236767002361  7.8542864552111009 38.7710655462835945
  5.6971663137171742  6.5582930673559074 38.6981447808600620
  6.1218587250401502  6.0581627301047076 37.4387238036688785
  7.3051685853218311  5.2650628053581618 37.3651474896846381
  7.9291526949299689  5.0624697352371495 36.1056866248990218
  9.3525648498580409  5.0083118846531116 36.0326558158239649
  9.9900126633126369  5.1632518764746171 34.7729132337071505
 11.2301101795567781  5.8641600176294251 34.6996611175235472
 11.6913194160127940  6.3307388964397271 33.4400131207155198
 12.3792039305277797  7.5780756394755180 33.3665704999333883
 12.5273192644963167  8.2171727698670605 32.1066901026285194
 12.4589210106709967  9.6399617523790386 32.0337396397566465
 12.2498235236957189 10.2617799046605516 30.7737827098077688
  6.2165281792561435  5.9678965242488493 39.8816694776686376
  7.4264715665990417  5.2160126351497658 39.8080551462977041
  8.0570603936699356  5.0348084128561803 38.5487396466188628
  9.4815800616027275  5.0299091123000483 38.4758657142007010
 10.1133403255722296  5.2070020632962066 37.2163083503150105
 11.3283631032951870  5.9504450272757063 37.1429298955838263
 11.7733799396250713  6.4325787567271382 35.8834701619462777
 12.4177294768410160  7.7029338038481443 35.8102347060426780
 12.5436608549758351  8.3468819345781124 34.5505842595935135
 12.4259766134292278  9.7664938062816944 34.4775584295671393
 12.1955674127519202 10.3806804965020714 33.2179176648623198
 10.2352369516429427  5.2547423659766208 39.6593566357140617
 11.4239286911575260  6.0397695074362536 39.5858503299831739
 11.8519596274819481  6.5371797317295934 38.3265351282964630
 12.4523988347995456  7.8288518078268536 38.2535282313354870
 12.5559061497027020  8.4769754151450734 36.9940130662613171
 12.3894100455907825  9.8916986504184248 36.9208841824349960
 12.1376964089686155 10.4978208377882360 35.6615315310394010
 12.5637899684927170  8.6072453802035724 39.4371195264645351
 12.3483571801389314 10.0153745697865233 39.3639563996149349
 12.0758852301032285 10.6125638481008089 38.1046781126367833
