 running  256 mpi-ranks, with    1 threads/rank, on    7 nodes
 distrk:  each k-point on  128 cores,    2 groups
 distr:  one band on    4 cores,   32 groups
 vasp.6.4.1 05Apr23 (build May 18 2023 13:19:41) complex                         
 POSCAR found type information on POSCAR C 
 POSCAR found :  1 types and     364 ions
 Reading from existing POTCAR
 -----------------------------------------------------------------------------
|                                                                             |
|           W    W    AA    RRRRR   N    N  II  N    N   GGGG   !!!           |
|           W    W   A  A   R    R  NN   N  II  NN   N  G    G  !!!           |
|           W    W  A    A  R    R  N N  N  II  N N  N  G       !!!           |
|           W WW W  AAAAAA  RRRRR   N  N N  II  N  N N  G  GGG   !            |
|           WW  WW  A    A  R   R   N   NN  II  N   NN  G    G                |
|           W    W  A    A  R    R  N    N  II  N    N   GGGG   !!!           |
|                                                                             |
|     You use a magnetic or noncollinear calculation, but did not specify     |
|     the initial magnetic moment with the MAGMOM tag. Note that a            |
|     default of 1 will be used for all atoms. This ferromagnetic setup       |
|     may break the symmetry of the crystal, in particular it may rule        |
|     out finding an antiferromagnetic solution. Thence, we recommend         |
|     setting the initial magnetic moment manually or verifying carefully     |
|     that this magnetic setup is desired.                                    |
|                                                                             |
 -----------------------------------------------------------------------------

 scaLAPACK will be used
 Reading from existing POTCAR
 -----------------------------------------------------------------------------
|                                                                             |
|               ----> ADVICE to this user running VASP <----                  |
|                                                                             |
|     You have a (more or less) 'large supercell' and for larger cells it     |
|     might be more efficient to use real-space projection operators.         |
|     Therefore, try LREAL= Auto in the INCAR file.                           |
|     Mind: If you want to do very accurate calculations, keep the            |
|     reciprocal projection scheme (i.e. LREAL=.FALSE.).                      |
|                                                                             |
 -----------------------------------------------------------------------------

 LDA part: xc-table for Pade appr. of Perdew
 POSCAR, INCAR and KPOINTS ok, starting setup
 FFT: planning ... GRIDC
 FFT: planning ... GRID_SOFT
 FFT: planning ... GRID
 WAVECAR not read
 WARNING: random wavefunctions but no delay for mixing, default for NELMDL
 entering main loop
       N       E                     dE             d eps       ncg     rms          rms(c)
DAV:   1     0.129906369493E+05    0.12991E+05   -0.44986E+05  9152   0.922E+02
DAV:   2     0.170639798040E+03   -0.12820E+05   -0.12031E+05 10624   0.237E+02
DAV:   3    -0.320271721859E+04   -0.33734E+04   -0.33243E+04  9024   0.129E+02
DAV:   4    -0.338594972991E+04   -0.18323E+03   -0.18028E+03  8800   0.384E+01
DAV:   5    -0.339089013212E+04   -0.49404E+01   -0.48815E+01  9600   0.556E+00    0.116E+02
DAV:   6    -0.229537379920E+04    0.10955E+04   -0.17209E+03  7552   0.349E+01    0.642E+01
DAV:   7    -0.250010215698E+04   -0.20473E+03   -0.20220E+02  7904   0.134E+01    0.421E+01
DAV:   8    -0.263972197292E+04   -0.13962E+03   -0.92252E+01  7904   0.855E+00    0.317E+01
DAV:   9    -0.278953345565E+04   -0.14981E+03   -0.35712E+01  7840   0.579E+00    0.265E+01
DAV:  10    -0.301419488144E+04   -0.22466E+03   -0.17115E+02  7520   0.103E+01    0.191E+01
DAV:  11    -0.315154712557E+04   -0.13735E+03   -0.10104E+02  7648   0.735E+00    0.153E+01
DAV:  12    -0.322659032879E+04   -0.75043E+02   -0.31066E+01  7776   0.415E+00    0.130E+01
DAV:  13    -0.326862767862E+04   -0.42037E+02   -0.16203E+01  7552   0.301E+00    0.101E+01
DAV:  14    -0.327451613574E+04   -0.58885E+01   -0.28265E+00  7648   0.148E+00    0.863E+00
DAV:  15    -0.329079485506E+04   -0.16279E+02   -0.46272E+00  7552   0.155E+00    0.627E+00
DAV:  16    -0.330064513564E+04   -0.98503E+01   -0.28352E+00  7904   0.108E+00    0.464E+00
DAV:  17    -0.329739771362E+04    0.32474E+01   -0.53519E-01  7456   0.835E-01    0.348E+00
DAV:  18    -0.329765810526E+04   -0.26039E+00   -0.71169E-01  7712   0.832E-01    0.203E+00
DAV:  19    -0.329931685225E+04   -0.16587E+01   -0.46123E-01  7488   0.758E-01    0.116E+00
DAV:  20    -0.330178551200E+04   -0.24687E+01   -0.16637E-01  7520   0.485E-01    0.791E-01
DAV:  21    -0.330499478154E+04   -0.32093E+01   -0.10301E-01  7328   0.369E-01    0.473E-01
DAV:  22    -0.330640757467E+04   -0.14128E+01   -0.71226E-02  7616   0.259E-01    0.289E-01
DAV:  23    -0.330759240151E+04   -0.11848E+01   -0.46954E-02  8000   0.168E-01    0.171E-01
DAV:  24    -0.330834578296E+04   -0.75338E+00   -0.21534E-02  8160   0.118E-01    0.794E-02
DAV:  25    -0.330853049310E+04   -0.18471E+00   -0.47430E-03  8288   0.612E-02    0.436E-02
DAV:  26    -0.330862200953E+04   -0.91516E-01   -0.10056E-03  8192   0.303E-02    0.207E-02
DAV:  27    -0.330864321984E+04   -0.21210E-01   -0.29514E-04  7872   0.189E-02    0.108E-02
DAV:  28    -0.330865016477E+04   -0.69449E-02   -0.82511E-05  7936   0.941E-03    0.645E-03
DAV:  29    -0.330865428404E+04   -0.41193E-02   -0.46223E-05  7392   0.605E-03    0.376E-03
DAV:  30    -0.330865592890E+04   -0.16449E-02   -0.14571E-05  6592   0.363E-03    0.229E-03
DAV:  31    -0.330865684153E+04   -0.91263E-03   -0.10824E-05  6464   0.256E-03    0.117E-03
DAV:  32    -0.330865695698E+04   -0.11545E-03   -0.10449E-06  6048   0.131E-03    0.734E-04
DAV:  33    -0.330865699550E+04   -0.38523E-04    0.41895E-07  5088   0.679E-04    0.472E-04
DAV:  34    -0.330865702452E+04   -0.29020E-04    0.45671E-07  4960   0.480E-04    0.288E-04
DAV:  35    -0.330865704564E+04   -0.21113E-04    0.66996E-07  5024   0.304E-04    0.181E-04
DAV:  36    -0.330865707136E+04   -0.25722E-04    0.66950E-07  4800   0.276E-04    0.113E-04
DAV:  37    -0.330865708092E+04   -0.95629E-05    0.71184E-07  4864   0.208E-04    0.703E-05
DAV:  38    -0.330865708456E+04   -0.36396E-05    0.72975E-07  4544   0.144E-04    0.397E-05
DAV:  39    -0.330865708566E+04   -0.10948E-05    0.74187E-07  4384   0.944E-05    0.304E-05
DAV:  40    -0.330865708587E+04   -0.21124E-06    0.75041E-07  4672   0.532E-05
   1 F= -.33225962E+04 E0= -.33225962E+04  d E =-.235706E-41  mag=     0.0000
 writing wavefunctions
 PROFILE, used timers:     317
