Ge Se 
 1.0000000000000000
    12.4241981852625294    0.0000012401353351   -0.0000018201613483
     0.0000012493346658   12.5163605611448876   -0.0000009536041497
    -0.0000020895058390   -0.0000010866561066   11.0798117348383727
 Ge  Se 
  36  36
Cartesian
  0.8939162316456870  0.7402622795790583  1.4876906787796718
  3.0990596598636229 10.9852222845603418  3.9717145846283830
  6.7178280180322085  2.5233018838349106  4.1230339163064533
  7.2210665903287925  6.8567927473819870  4.0068755578798374
  6.9306454924989200 10.7851659807285607  4.1447427320812809
 10.7887308748769737  2.4718448497050520  4.0582071035864526
 11.3388907719697460  6.6442025219598033  4.1474470627717510
 11.2615571437148123 10.9821747275100456  3.9643491528326025
  0.6532991967428569  2.2419865214224557  6.8319368946310863
  0.8343796192071171  6.2256140122386858  6.9675912189518119
  1.0286775071077952 10.2870266762167724  7.0044815280753010
  4.9532060111759728  2.0112390949007217  7.1642773506446167
  5.0336320652760982  6.1192275907561138  6.8010505801425776
  5.3015022501560392 10.2781531504306596  7.1231874938062063
  9.2038781051188376  1.9626066890242000  6.9776256369114398
  9.1591981818719432  5.9422132278857589  7.1669017361146681
  2.7548296857424539  6.7570898718230090  3.8575685220047689
  2.8679255716966092  2.5684058159110377  4.2425951729735969
  9.2171379692967417 10.3829136672923550  6.9367631036829192
 10.9437360105826755  8.2418907219549382  9.7820165628811520
 11.2561835364109601 12.3508999432039008  9.8308857918646808
  0.5455753522846041  4.5972355633386144  1.4488904771834425
  0.7507316224688535  8.8948900468513639  1.1551811371042215
  4.8800059604894930  0.5096542270940636  1.5291103394042564
  5.1086137509679004  4.8660104011907226  1.5159050003752526
  8.8409525824078923  0.3280627934145100  1.4090098972072691
  9.1099851078637375  4.6814526113609958  1.3648103904799098
  4.9717544883639437  8.9133692744133040  1.3890480327327837
  2.7580223707622618  3.9667839149659412  9.8416785611473951
  2.8422734281393329  8.0921844289707963  9.5948881725861881
  2.7978427699380291 12.5385413481890993  9.4690200408382470
  6.8460203749866784  4.0711638578851703  9.4547439783435117
  6.8476511724753282  8.0880935181268363  9.6681839402818692
  7.0589638271917909 12.5007495305709213  9.6286414007930841
 11.1052789757528974  3.9721591042247866  9.5445085228991289
  9.2991136595792376  8.9109518940943087  1.4663234377639442
 11.1460792696413780  0.2042880128561557  7.2255788913389125
  3.1265903935779149  4.4686024661612258  7.2079941908145209
  3.0985818267785996  8.7369253839308314  7.0807472399394795
  7.2341129724406459  0.2598933675464493  7.0714399337307627
  7.0958864871418514  4.2990951004663609  6.9704320643360340
  7.2056226243323414  8.6505425162838847  7.2120613276833385
 11.2125423013283925  4.4145878942309960  7.0428541767604376
  9.3620608467396522  0.3387271651706206  3.9481770934088054
  0.9731694764013296  0.1233723548183245  4.0394586496655771
  1.0641591274511673  4.6886201147114086  4.0117933406485813
  0.7785561070750057  8.4023751606688535  3.6889262993616674
  5.0592511204647499  0.1295707077105359  4.2185766264076907
  5.0347038594172853  4.4041138204893544  4.0772541891783289
  5.2210778524594401  8.7182991460634440  3.9213077121793054
  2.6788379090665977  0.1916563216030306  7.0719189231138264
 11.1630816632822771  8.6050008432451239  7.2069233820767407
 11.2066364066951909 10.5618946750052736  1.4082351168464269
  2.9513582267176615  2.3173603295871312  1.6892925942843060
 11.3586937528593577  2.3024585012311722  1.5072573547976111
  8.8245780089608878  4.1686214860343442  3.9412163247293948
  0.8877407708332153  2.2209094557124094  9.4993136540265510
  0.8342554506791586  6.3350511378654213  9.4769846590936719
  1.0230035014741448 10.6316561571226185  9.4749503003766158
  5.1292390008803963  2.1937499476254749  9.6056575304264982
  4.9740786990287198  6.4104745193981003  9.2885455454648547
  5.1387882898134238 10.8295170753176322  9.6608235616910374
  9.0824241440100781  2.3577351766595394  9.4998951805569067
  9.1020517484382264  6.4368195930338690  9.5875408510014815
  9.1985194787166424 10.6037357475892300  9.5964015608257807
  3.3263405033006230  6.6589193757812870  1.3739718760578141
  3.0139993182045051 10.5791622136284929  1.4821705181053002
  7.0369265848684996  2.0620713531937764  1.5865116303919766
  7.2454410371429088  6.4252516849526282  1.5748289089844307
  7.2624402855348853 10.6079655968143278  1.5116383345204050
 11.1427135863449465  6.3562883641906840  1.6096471200322422
  9.1027595309449261  8.6523721066125567  4.0923444382698655
