 C Se 
 1.0000000000000000
    32.3722991942999982    0.0000000000000000    0.0000000000000000
     0.0000000000000000   19.9214134216000005    0.0000000000000000
     0.0000000000000000    0.0000000000000000   40.4480476378999967
 C   Se 
 364   1
Cartesian
 12.0090660601828763 10.7244942634843046  0.0993076021075149
 11.9386330797060332 10.8345515120907283  2.5438644319599204
 10.9434894377040699 11.8537935082515560  2.4706688341151337
 10.3750026242643365 12.1806020105272914  1.2104821617114208
  8.9933007864549772 12.5264681987613962  1.1369935195779142
 11.8635940499745214 10.9424150198525236  4.9882121226524658
 10.8338381807620827 11.9265743565224192  4.9148768768206121
 10.2546872209353026 12.2333711436124570  3.6546778261984696
  8.8617994894721939 12.5311259762753977  3.5808662602503865
  8.2077001223493369 12.4882813406866564  2.3209407454110704
  6.8658172124388708 12.0106847678989777  2.2477064940444729
  6.3315435373769891 11.6305679676099789  0.9877057560626544
  5.4396263487436789 10.5199867679363006  0.9145674540392331
 11.7836328803326200 11.0483097745382537  7.4322898126317414
 10.7208631202613009 11.9966091584019345  7.3588369825615256
 10.1319582439831262 12.2825494120831014  6.0986450456645311
  8.7296339946826436 12.5319758097113265  6.0247199427686251
  8.0777625054953202 12.4660553033354233  4.7647005323693854
  6.7532785243759168 11.9424439911767646  4.6916366200590218
  6.2326318620538377 11.5441653639296238  3.4316059953715063
  5.3795941606673505 10.4035539867908771  3.3583252567899748
  5.1451894244298266  9.7910031144664309  2.0986144964760349
  5.0174662651597215  8.3723656246292428  2.0253521491558990
  5.1394016678796390  7.7275745736876189  0.7655907067711877
  5.7751793767077872  6.4529527402895068  0.6926950726051174
 11.7000352014172577 11.1529559228881787  9.8762164279736009
 10.6055833760370444 12.0648940170599985  9.8028734268325568
 10.0070086873350945 12.3290719035442535  8.5424449706340440
  8.5971028595971841 12.5296271258620830  8.4686213525850835
  7.9480610213233689 12.4404090181726570  7.2084413303516666
  6.6425462243929871 11.8711252690466615  7.1356600812113964
  6.1361562834951942 11.4547982283530327  5.8756715414983995
  5.3230314405952157 10.2853567585622940  5.8023328952283970
  5.1103761974425632  9.6648951235459233  4.5424535831411648
  5.0317479909605556  8.2427566804759120  4.4693590991878205
  5.1761224352618500  7.6025501410103162  3.2095143943938065
  5.8554219225836199  6.3505612059190462  3.1365206579598635
  6.3140830278386044  5.8809991669424617  1.8769005274637671
  7.5492669741414371  5.1716157918025836  1.8034999685856570
  8.1859784613363669  5.0123823960069105  0.5436485554115033
  9.6096914594740497  5.0568816120330116  0.4707402456173304
 12.0001647646370611 10.7274510365084712 13.5799188459399200
 11.6130825016725403 11.2556093478845263 12.3200505807941685
 10.4887513342672527 12.1299547865872697 12.2474182960858506
  9.8811520133556900 12.3734219434522910 10.9864410985744101
  8.4650636333437745 12.5245532321526571 10.9129274991333975
  7.8193315433431971 12.4117426536031417  9.6527057530538762
  6.5345809192554958 11.7967684459650819  9.5800433110949665
  6.0430779202171561 11.3624018163888039  8.3200113875840689
  5.2714269313496436 10.1652985717938851  8.2466599333623787
  5.0799001210086896  9.5378783095530153  6.9866665810479489
  5.0504954855039506  8.1138132622899803  6.9137031781038623
  5.2166679364972675  7.4790032423357840  5.6537631918654068
  5.9388096811378919  6.2512507334921583  5.5804984283802437
  6.4136979617906178  5.7978521946188470  4.3208325546463557
  7.6726995063947960  5.1317004400830744  4.2476273394976234
  8.3147414840754994  4.9944139501600153  2.9878754508053165
  9.7361487213271953  5.0880782700984692  2.9151265700881250
 10.3543500263802741  5.3079829340355049  1.6551786591962439
 11.5151992335124813  6.1334384265372615  1.5816528572825976
 11.9260734291638233  6.6448409611837898  0.3214783857032762
 12.4816749659420765  7.9564129511383710  0.2484621655969292
 11.9238859962077690 10.8263003666876152 16.0233395202991460
 11.5215641785224125 11.3489843795880212 14.7637935514464331
 10.3693544241795124 12.1849553363544505 14.6925657821468718
  9.7546878365585012 12.4127690132025243 13.4317274838265135
  8.3338260437965914 12.5153263479745167 13.3584238751534716
  7.6924175317872843 12.3794528839958975 12.0976481748438047
  6.4307725365250867 11.7186767897357154 12.0247478874681377
  5.9541192612290237 11.2673549169244431 10.7646908159570973
  5.2250968897297714 10.0436675645014457 10.6913820712045542
  5.0547891651479695  9.4100103929400447  9.4313697216024632
  5.0745812798799008  7.9857695780579094  9.3584117285562769
  5.2620653787225091  7.3571044433911847  8.0982113125254838
  6.0257038948903112  6.1548814067306949  8.0245820660955776
  6.5155740074801702  5.7180574197879066  6.7648920070175373
  7.7967090624184205  5.0953835819003155  6.6918798471497034
  8.4434591682292606  4.9808247341750995  5.4321572690474822
  9.8606846409975955  5.1233876162576557  5.3593847288856722
 10.4715103452194587  5.3644055588317379  4.0996321837570298
 11.6034025765913462  6.2292162619410636  4.0263294927893760
 11.9966198961794817  6.7544673293225541  2.7662223132949877
 12.5068274307244476  8.0844131163160053  2.6933615406446925
 12.5658277233702567  8.7377410894898588  1.4330806560893927
 12.3017010618026195 10.1374102993797983  1.3594445490820160
 11.8513222928768052 10.9012405315285079 18.4670081733756390
 11.4210562312541093 11.4155741532495814 17.2099928681115983
 10.2458803565196490 12.2185104319871840 17.1389816940748645
  9.6262296569330310 12.4373387870345251 15.8782413852730890
  8.2036147970361935 12.4966540701629185 15.8045960346642502
  7.5667058707908845 12.3425024585784957 14.5429406633062310
  6.3292869098101061 11.6371118419605502 14.4696300863485927
  5.8697193875518474 11.1686867024054521 13.2096033119970890
  5.1846212711537172  9.9198680054186017 13.1363293100356806
  5.0359275359579536  9.2808610951267472 11.8760337228409689
  5.1040284601070125  7.8583132323240132 11.8029734397385351
  5.3119198818910807  7.2363903885994443 10.5427142698502099
  6.1155188882053375  6.0603203438272901 10.4688707294326502
  6.6202317233691970  5.6410058708240172  9.2090784893126028
  7.9214791413061389  5.0618723110052395  9.1361572278129497
  8.5719632592944297  4.9703282634831911  7.8762990854749972
  9.9833865205770245  5.1619090296698174  7.8034392386175435
 10.5857552186592017  5.4246152736884765  6.5440545527968181
 11.6871973303640644  6.3281820475979353  6.4710255844965694
 12.0626987792133136  6.8666616239043838  5.2109934794171444
 12.5265278389912211  8.2134547368226407  5.1380992656639046
 12.5635832934983327  8.8683421686570210  3.8778503998346254
 12.2512279005868248 10.2580979867579920  3.8040240952622604
 11.7712768940709562 11.0003725771178829 20.9225237215593616
 11.3285383484812066 11.4869710070605926 19.6573741611392521
 10.1282229752453521 12.2424930485901413 19.5838172995372126
  9.4976754847940263 12.4448543747313121 18.3234158482164275
  8.0751503580335395 12.4670497506123858 18.2500554495342584
  7.4427120889272205 12.2970185974061668 16.9889275271054494
  6.2293327087391397 11.5508888405964907 16.9150997553236699
  5.7877154310664531 11.0668075542154014 15.6542877308311787
  5.1472895313557956  9.7950256908773472 15.5810530330382289
  5.0212236034434250  9.1510800513636088 14.3207033536595354
  5.1368428869564084  7.7314399226159551 14.2475391712830390
  5.3660976369081084  7.1169270502899993 12.9874787917185053
  6.2079694649737718  5.9679732581057845 12.9137067893340731
  6.7267492707848140  5.5661611198092116 11.6533899291606478
  8.0465916112215936  5.0312114319681909 11.5804998306983844
  8.7000081789905988  4.9621837959279853 10.3209214998779029
 10.1042601450491354  5.2033536851224484 10.2477782317974810
 10.6970741746415001  5.4880991344152044  8.9884044358006019
 11.7656217691708296  6.4301454029209166  8.9154260650641231
 12.1231505883107697  6.9813510742879776  7.6556191647798926
 12.5399688034065484  8.3435824519478672  7.5825548929312987
 12.5553524633009950  8.9991034174409137  6.3224867668008748
 12.1950541295057917 10.3773071295125767  6.2486052780335175
 11.6908590200324500 11.1387429581672190 23.3641540732160955
 11.2277672198860152 11.5869155364158818 22.1033281238306216
 10.0016936861999586 12.3088663756133201 22.0278367237437465
  9.3682475061610884 12.4654595264675283 20.7682550654561453
  7.9470677160332261 12.4393793658127390 20.6951407238585503
  7.3199579942414443 12.2435095049185119 19.4342018377313615
  6.1338849662592692 11.4600578082388509 19.3604298771559726
  5.7076192687743905 10.9621457101578255 18.0991365671512625
  5.1119600654540216  9.6689537818263744 18.0261599475363958
  5.0090638959623757  9.0210005503177086 16.7658493809931954
  5.1724535937252325  7.6062097387298335 16.6925468652017024
  5.4230393371878272  6.9991993089401214 15.4321464830861181
  6.3028322341954448  5.8794726878775236 15.3585668663194923
  6.8349904033241442  5.4946032100691342 14.0985067132286943
  8.1733868521083455  5.0064926534999135 14.0257803658108084
  8.8284679939970161  4.9592068125980431 12.7661770054808841
 10.2230643823924368  5.2495003190618172 12.6923829256447700
 10.8054037313879689  5.5546193191879745 11.4324342080048567
 11.8388662279669052  6.5351756277959865 11.3588979544467481
 12.1773363995054478  7.0985677827580416 10.0999053312949538
 12.5463738134758476  8.4748287689349677 10.0264949063276720
 12.5403484898440656  9.1301593805456296  8.7665493958503973
 12.1336882522982599 10.4952615743208231  8.6928586859997932
 11.6136002977008097 11.2536086921343834 25.8080290206807739
 11.1375450035847212 11.7023687338517473 24.5483625430557204
  9.8813711438414380 12.3711955470762920 24.4735922386641747
  9.2398471733131089 12.5047256534264815 23.2126540414809313
  7.8184798868806862 12.4174946245710771 23.1401237409523546
  7.2001605356624685 12.1961789657184756 21.8806209631088890
  6.0412855270001335 11.3681560304366638 21.8068985005988907
  5.6332037618656408 10.8537582441100273 20.5465243517825051
  5.0831346297707842  9.5418459984688191 20.4732163633351547
  5.0019530751995038  8.8907186039387138 19.2114349549527184
  5.2129364726533884  7.4838618239808694 19.1377684179943408
  5.4823995946611674  6.8849839612386043 17.8775211299901038
  6.4024675786947673  5.7977922822085590 17.8042074945798312
  6.9473647557531306  5.4311400104392833 16.5446311638027055
  8.3036224694426046  4.9971455502787743 16.4720832400668620
  8.9583162435578618  4.9685778684912503 15.2113418390764608
 10.3402071681594592  5.3086032749191263 15.1363745210191496
 10.9118725278731628  5.6263168468633422 13.8766804944177640
 11.9104105911655171  6.6437495293937818 13.8018247016010598
 12.2260663802284260  7.2189680260229379 12.5425462484790753
 12.5471594714744814  8.6062979552882251 12.4686543752164152
 12.5193904648250545  9.2614534382074680 11.2093483216276812
 12.0684228357982679 10.6126203511078661 11.1364519986251622
 11.5283672997629925 11.3486076400734426 28.2522527652873094
 11.0385388374964464 11.7876486935117413 26.9924074204045965
  9.7579278156446669 12.4116148588558168 26.9190155496629338
  9.1113567983456090 12.5270280074668570 25.6592518858633589
  7.6939865720771143 12.3830008839723629 25.5862535608001807
  7.0835772831824872 12.1409821169007852 24.3261867206857012
  5.9555721582969223 11.2717831682064009 24.2524512323254555
  5.5636087156213359 10.7450965275728496 22.9918717156302144
  5.0576608424893541  9.4138710911544941 22.9187785054590307
  4.9983562181826935  8.7605755503604570 21.6585325061131044
  5.2583178447982801  7.3607180770754308 21.5851239826371888
  5.5494921479350943  6.7733831931302824 20.3239203380900406
  6.5071256052948669  5.7229687444213067 20.2506699749174750
  7.0667081314165001  5.3787445348743601 18.9896985895159887
  8.4377627563466202  5.0039956784581783 18.9163609800263508
  9.0901584580835575  5.0000606172867421 17.6568527679935947
 10.4558085603353046  5.3988870951570505 17.5814196031644094
 11.0148803230387067  5.7194189549994787 16.3205668881349553
 11.9844648432418772  6.7601691977882679 16.2437471359774683
 12.2776629243360311  7.3405638989743762 14.9815451456032243
 12.5511337585931120  8.7363745959518493 14.9072758956432523
 12.4968093108582536  9.3914141250713215 13.6513617183758349
 11.4402028457933387 11.4394981753915470 30.6962238693061593
 10.9350737264409190 11.8610964316536993 29.4369563336033728
  9.6330568860236525 12.4397823463248294 29.3642981392038287
  8.9824860704717491 12.5336486669774256 28.1047346438027326
  7.5716499616792916 12.3399079184179552 28.0313900398574951
  6.9698857300633135 12.0781575470930509 26.7710568476423951
  5.8715064000443347 11.1713662857210370 26.6974094294099515
  5.4983471890946758 10.6322061769411640 25.4370754254446076
  5.0372881532612901  9.2846237844867172 25.3638389913823410
  5.0014568198040674  8.6295558110066590 24.1035455207167679
  5.3101608648817562  7.2395377348238101 24.0299366169835338
  5.6196200973110848  6.6619582416982359 22.7691359547587560
  6.6129222687083447  5.6409641541682021 22.6958013911548662
  7.1843029607987967  5.3208670688554918 21.4347541347270081
  8.5683794965745292  4.9922178533687491 21.3610073157671536
  9.2293498889065528  5.0332862205027338 20.1006964577330010
 10.5783086092627840  5.4709361874392979 20.0275034625527084
 11.1267295795976615  5.8339803163273531 18.7622233884079996
 12.1125276200869969  6.8448641278252156 18.6741079582620451
 12.3668465649801558  7.4485864694455426 17.4241440798415006
 12.5925212022798139  8.8684841104151388 17.3494620675645912
 12.4745570684719915  9.5146547715141327 16.0928699985159547
 11.3482505325991028 11.5283243466183656 33.1405090477592950
 10.8284863728215033 11.9308576561085999 31.8811581849142236
  9.5074147037734456 12.4633569715330985 31.8086798746312454
  8.8539957089405767 12.5344189578214991 30.5490503139893903
  7.4502699315098742 12.2931762954366963 30.4756949430217254
  6.8578446700165880 12.0110217766072012 29.2159156927742494
  5.7898671644453614 11.0685362027185903 29.1423864427449786
  5.4352430747013507 10.5170848492806908 27.8819016375487685
  5.0194981017559162  9.1549817331235346 27.8084473308294591
  5.0066972318015548  8.4991204752431635 26.5481520361962637
  5.3647239746545301  7.1204871803619225 26.4746374844695289
  5.6954954022525976  6.5537956462423654 25.2145413980599429
  6.7218096730585071  5.5661184390562752 25.1415285207676291
  7.3013070458432079  5.2602019302211813 23.8800629481461080
  8.6947127250921650  4.9674517160915332 23.8060160290747085
  9.3492318114404700  5.0274144326447132 22.5453726027238694
 10.6855408200613340  5.5171527676232808 22.4748327598221351
 11.2290623197460810  5.9103111367937116 21.2178276889124149
 12.1760385938005395  6.9605468512195072 21.1621950062822819
 12.6249426395883528  7.4852514182114600 19.8796010951868496
 12.8178783516026051  9.0316444813419032 19.8051568700803493
 12.5113807357287339  9.6505746102387739 18.5224726857574389
 11.2526227932253100 11.6148830186962932 35.5850386081566512
 10.7196743965513850 11.9986625850976800 34.3252191232138060
  9.3809155826159607 12.4850687540398724 34.2526806956704135
  8.7255799898022115 12.5327249821947593 32.9932049167543369
  7.3307212927076622 12.2437768360327102 32.9198074141696111
  6.7480370414595550 11.9408882803276821 31.6602530643255413
  5.7122642821037717 10.9632969292010323 31.5870121963475654
  5.3757950098727711 10.4003211999989293 30.3266653607205576
  5.0063023884067555  9.0247315299184869 30.2531400759211735
  5.0157514630132738  8.3689394760751057 28.9930123924141299
  5.4223046574006943  7.0038537475023741 28.9196726174590637
  5.7736208123812185  6.4494950857759870 27.6594478921371234
  6.8341896287455359  5.4989005786876826 27.5865736426132635
  7.4226357376603476  5.2096761917136636 26.3260043697522548
  8.8249651129740325  4.9591422170159936 26.2524500085940424
  9.4770278331168338  5.0288604772664582 24.9917024955353391
 10.7992386291101621  5.5561435930866319 24.9209900895066347
 11.3177171421518068  5.9643787209227845 23.6615691178216423
 12.1733872256569029  7.1008798031937994 23.5916969484636567
 12.4466813564829959  7.6985591903533441 22.3352611268410506
 12.5768758860102867  9.1304833321901615 22.2609112958107609
 12.4787907370233082  9.7783427447032025 21.0108134077210558
 11.1530802448310329 11.6981060754171757 38.0295907978661276
 10.6076893390080489 12.0633886179517269 36.7695705257014538
  9.2529456162382822 12.5035315149595068 36.6967876621546267
  8.5967152197232295 12.5281150609222802 35.4371931785830654
  7.2128011855245786 12.1912254537189373 35.3637928831826756
  6.6409491062603063 11.8682922235234098 34.1041738032768365
  5.6390023149388835 10.8558671513804708 34.0312397409070542
  5.3212774027179170 10.2815831323329245 32.7713901982102911
  4.9991668029761396  8.8941122773865491 32.6977713358968884
  5.0305203317153078  8.2390143475835771 31.4376597783247220
  5.4844767440191964  6.8890283145211662 31.3645100465976086
  5.8545793464202713  6.3476519448460786 30.1042313680159985
  6.9486435024965090  5.4355859008929945 30.0313067754199317
  7.5471654182614856  5.1676786283330456 28.7712511022479127
  8.9568765201740259  4.9654997777693879 28.6977288995757895
  9.6060178382848012  5.0523633874220559 27.4368152477689620
 10.9105956562002078  5.6238754780016862 27.3645955405844177
 11.4157338341715811  6.0409755008963435 26.1049142821492701
 12.2249641187114744  7.2144059577050443 26.0331320081584785
 12.4383710754719736  7.8364223326573113 24.7773471527237241
 12.5162077932319562  9.2566639765315983 24.7035460343642974
 12.3749623256259262  9.8916371501292879 23.4413190567262006
 11.0499877009745973 11.7776721003587976  0.0261679064167738
 10.4928335371055486 12.1241683969212435 39.2140858332753481
  9.1237878849520762 12.5174685988397485 39.1409405888155675
  8.4674516522728567 12.5196053295611591 37.8811609033092722
  7.0959472422209622 12.1351605278736869 37.8077624344294847
  6.5359101472043681 11.7926232685624708 36.5480922078010053
  5.5695763837674948 10.7461031905260693 36.4752650838325252
  5.2720484444768996 10.1611114584860136 35.2156127848381644
  4.9978752834053681  8.7635128347212206 35.1419723695238275
  5.0511752313468055  8.1097409381742889 33.8820424781845588
  5.5515800951079655  6.7762415730783498 33.8090200403303811
  5.9400339344399766  6.2482138431825023 32.5488666534834863
  7.0657628624318454  5.3756094658716957 32.4756524029668583
  7.6731477884775217  5.1297579841861998 31.2155148890660925
  9.0891501322601815  4.9772987533333657 31.1418981965486772
  9.7346322468153055  5.0863334664493696 29.8814416792617727
 11.0194128660254691  5.7017358495083981 29.8082618993327877
 11.5095607129252198  6.1353117564864039 28.5482797692802741
 12.2787188330817667  7.3343562580255872 28.4750984536905065
 12.4666952552150452  7.9628720662285879 27.2158844669071307
 12.4965067055899759  9.3866159084466858 27.1425161709901346
 12.3315660546581096 10.0220546392055248 25.8833318072758019
  8.3378157298067404 12.5062680464204323 40.3251236299025422
  6.9803463630857507 12.0748346653500871 40.2517707920331773
  6.4328639635126450 11.7133211334825926 38.9919470502729268
  5.5032240510053150 10.6341187407981455 38.9190151021586601
  5.2264174469571021 10.0391594144608298 37.6594062019380686
  5.0007310915353447  8.6328566017466208 37.5858454523442020
  5.0769522292828810  7.9813686202045346 36.3261054898241440
  5.6230504392791207  6.6659168086906861 36.2531734691190834
  6.0296205119826638  6.1517456408156059 34.9931060221572352
  7.1848499931002205  5.3186784783691987 34.9195609401827056
  7.8006247786762453  5.0946769392909435 33.6594784602997379
  9.2212159442642321  4.9915636555887053 33.5859314700736036
  9.8626226050767833  5.1240392573488718 32.3256318184104074
 11.1258009708087648  5.7821561984989698 32.2521020392779505
 11.6011983073132807  6.2324855320832331 30.9917252701072776
 12.3307915744579191  7.4559006141730260 30.9179449589371700
 12.4979940451576130  8.0899017160057731 29.6580794682416027
 12.4789711065880677  9.5147066918437968 29.5850971366655635
 12.2892937912677578 10.1442895920696508 28.3262496391407943
  5.1841335678408420  9.9157166994925721 40.1030058753106360
  5.0072176724553374  8.5023641927653397 40.0295659506062691
  5.1064177362572654  7.8537915157571980 38.7698782845583665
  5.6976114545635328  6.5579633773877530 38.6970094488180649
  6.1219611475055622  6.0579832240192424 37.4371053538453538
  7.3053085582888784  5.2651275496999270 37.3634379837176169
  7.9287824766161883  5.0627528307989644 36.1034437720792241
  9.3521239030159098  5.0089007943351227 36.0300984809552673
  9.9888865822645823  5.1639491410039771 34.7697808638087267
 11.2288974768495553  5.8649036941453847 34.6961353363749083
 11.6893118697906786  6.3313800592360847 33.4358731453828142
 12.3771965666765329  7.5788866163113129 33.3621039243539528
 12.5237688265936082  8.2182240939373550 32.1020251103897536
 12.4553579036477604  9.6411929361361448 32.0291439783333161
 12.2444821648985673 10.2637614490028017 30.7695886918274830
  6.2169619440857282  5.9678064388456251 39.8810624551816346
  7.4268997149887559  5.2161248986732920 39.8074734267798647
  8.0572471221018542  5.0351070063913594 38.5475298681798932
  9.4816664864738964  5.0304424130792391 38.4744582558763426
 10.1129570490133567  5.2075852553380511 37.2142137133293218
 11.3279178562827934  5.9511265636979411 37.1405325709373244
 11.7724776086510126  6.4331286966472598 35.8803445935020946
 12.4168488495516449  7.7034734914248615 35.8068342035349971
 12.5423238745261703  8.3473954299308186 34.5465074800986969
 12.4245906516411004  9.7670083816102053 34.4735615261240724
 12.1934455517514468 10.3814998933122880 33.2137038306352324
 10.2350502018536869  5.2552732958290003 39.6587484243253741
 11.4236159783338227  6.0404450644393517 39.5850955613919595
 11.8513163930398253  6.5376390870743464 38.3248962514571119
 12.4516867960449513  7.8293037654264364 38.2516621531678709
 12.5551444791284599  8.4771437512086525 36.9913135705078062
 12.3886398263666742  9.8918812139756707 36.9181574545439659
 12.1367447038623144 10.4979716673404564 35.6582165869376269
 12.5630028980708577  8.6073080675226237 39.4362083082306114
 12.3475654665116430 10.0153618166698681 39.3628092424863212
 12.0752169326391368 10.6123611804953377 38.1027622776383481
 14.6109546304392879  8.0223806645886651 19.8420489066814874
