 S  O 
 1.0000000000000000
    32.3722991942999982    0.0000000000000000    0.0000000000000000
     0.0000000000000000   19.9214134216000005    0.0000000000000000
     0.0000000000000000    0.0000000000000000   40.4480476378999967
 S   O  
   1   1
Cartesian
 14.2627960466877255  8.9910565282431474 19.8065955810008028
 13.7477897373121785  7.5845555397567468 19.8777935329991067
