Ge Se                                   
    1.000000000000000     
    12.4089779703902803   -0.0000043782372274   -0.0000042967751494
    -0.0000044168410644   12.5183884041469007    0.0000002628982174
    -0.0000049377564386    0.0000002994761182   11.0777927601138195
   Ge   Se
    36    36
Direct
  0.0505443279661435  0.0429230771639695  0.1291988300970885
  0.2277784220677432  0.8685067396767963  0.3598079349834507
  0.5705362484799537  0.2147698071436537  0.3811812852254874
  0.5556839632846788  0.5448216460073922  0.3586570608043118
  0.5624086388318830  0.8964462095482517  0.3734542868548516
  0.8966756713614927  0.2136859839809162  0.3615432397901941
  0.8924614986244208  0.5569555472068402  0.3907796347492578
  0.8946300520778863  0.8814622114171584  0.3590790390685896
  0.0623220737361976  0.1503768153156457  0.6315964380439141
  0.0656576283356785  0.4763334548623064  0.6125843910288253
  0.0860571931179379  0.8056841197403344  0.6134784547044276
  0.3943304488319868  0.1510442789699198  0.6433786056011854
  0.4143496879244921  0.4786251687268219  0.6166862004761384
  0.3972071907242309  0.8108325318539542  0.6164342526577187
  0.7485641391095541  0.1531682444228366  0.6354192375742258
  0.7353256066190426  0.4824942830116044  0.6266104147509992
  0.2359075512813860  0.5595145693602603  0.3879012835644957
  0.2382613934393589  0.2284974345714659  0.3768574941987382
  0.7197376291208926  0.8256461637597070  0.6309740710439300
  0.8989494614201874  0.6478768418598335  0.8762134351931223
  0.9148477725861284  0.9744077839854057  0.8532127041226545
  0.0671477762462871  0.3888689621359731  0.1330219914279525
  0.0512410732454427  0.6959729077663752  0.1385204513099580
  0.3771191378158889  0.0388993501157273  0.1501525193521829
  0.3853623799688108  0.3762938555843718  0.1173426065135317
  0.7335697015060489  0.0407465803575633  0.1371403431209544
  0.7027516274042398  0.3447573292626345  0.1201005113402545
  0.4027943137456447  0.7172486947394390  0.1136556604572974
  0.2387680874691682  0.2975716954270524  0.8691088807345295
  0.2356216939167624  0.6327106613635252  0.8687007342835926
  0.2267540382966047  0.9881285283661967  0.8769423057772201
  0.5764905206313387  0.3122507554824381  0.8641897372279246
  0.5565521724842313  0.6543658106509653  0.8707646921101215
  0.5575837496078861  0.9802653803672499  0.8800760005845660
  0.8919076382331212  0.3173818925627216  0.8664846006841742
  0.7263482997862170  0.7137129816557746  0.1194063934300118
  0.8914575598682504  0.0239312345947269  0.6335750891538510
  0.2475652524171750  0.3418662902901985  0.6356530815522206
  0.2590884033148626  0.6702111766821730  0.6377099193866300
  0.5716905245347732  0.0111129463140145  0.6453638235866705
  0.5726395654563134  0.3314894982573193  0.6413220880474526
  0.5809661886449149  0.6806561249834573  0.6431164689598958
  0.9033488695025014  0.3495756958857541  0.6351328933475173
  0.7332265363402968  0.0198270748153035  0.3721648009666652
  0.0682906056170651  0.0113022589328153  0.3604760318383242
  0.0631128183889444  0.3441555028045471  0.3525075537440969
  0.0668635439273828  0.6940526328968772  0.3724228723760135
  0.4073115637137690  0.0195177911374955  0.3709770706249600
  0.4006612619119494  0.3519711527627294  0.3458561721521676
  0.3994482026027200  0.6947774087410465  0.3525015340037569
  0.2404817743895507  0.0065237589412064  0.6383458110400611
  0.9018193914524417  0.6969020429287767  0.6545980760635075
  0.8947400030026458  0.8425980542911944  0.1331059896675271
  0.2186870396918792  0.1822459772219744  0.1523772715713747
  0.8973068201049301  0.1728588373014048  0.1284524486292113
  0.7491359518928462  0.3655791150334693  0.3527670387695636
  0.0503572223127762  0.1802416184723938  0.8573603928840328
  0.0654686762519177  0.5017733924805796  0.8497852394808092
  0.0847098989491144  0.8436467208796827  0.8425033477094175
  0.4131697714753741  0.1757682507066036  0.8735698736825839
  0.4078644678981931  0.5127806913210620  0.8379533838877080
  0.3893300623774039  0.8346182445719137  0.8428126349015415
  0.7461577444320895  0.1753784101437930  0.8712286812897716
  0.7435846316979422  0.5102171865649012  0.8565342151144861
  0.7305143381064099  0.8538806559908565  0.8559389182520718
  0.2388732018626456  0.5311097022303670  0.1472293534076528
  0.2299117614204178  0.8615949152916755  0.1353749448212085
  0.5675508716312834  0.1881670957211696  0.1570922983151988
  0.5667702933881387  0.5032532390895241  0.1391961384117977
  0.5735657895909796  0.8570538149431854  0.1445262640267302
  0.9152544354774506  0.5252723651853159  0.1639981507847992
  0.7261707129060326  0.6819092277832084  0.3743573315716162
 
  0.00000000E+00  0.00000000E+00  0.00000000E+00
  0.00000000E+00  0.00000000E+00  0.00000000E+00
  0.00000000E+00  0.00000000E+00  0.00000000E+00
  0.00000000E+00  0.00000000E+00  0.00000000E+00
  0.00000000E+00  0.00000000E+00  0.00000000E+00
  0.00000000E+00  0.00000000E+00  0.00000000E+00
  0.00000000E+00  0.00000000E+00  0.00000000E+00
  0.00000000E+00  0.00000000E+00  0.00000000E+00
  0.00000000E+00  0.00000000E+00  0.00000000E+00
  0.00000000E+00  0.00000000E+00  0.00000000E+00
  0.00000000E+00  0.00000000E+00  0.00000000E+00
  0.00000000E+00  0.00000000E+00  0.00000000E+00
  0.00000000E+00  0.00000000E+00  0.00000000E+00
  0.00000000E+00  0.00000000E+00  0.00000000E+00
  0.00000000E+00  0.00000000E+00  0.00000000E+00
  0.00000000E+00  0.00000000E+00  0.00000000E+00
  0.00000000E+00  0.00000000E+00  0.00000000E+00
  0.00000000E+00  0.00000000E+00  0.00000000E+00
  0.00000000E+00  0.00000000E+00  0.00000000E+00
  0.00000000E+00  0.00000000E+00  0.00000000E+00
  0.00000000E+00  0.00000000E+00  0.00000000E+00
  0.00000000E+00  0.00000000E+00  0.00000000E+00
  0.00000000E+00  0.00000000E+00  0.00000000E+00
  0.00000000E+00  0.00000000E+00  0.00000000E+00
  0.00000000E+00  0.00000000E+00  0.00000000E+00
  0.00000000E+00  0.00000000E+00  0.00000000E+00
  0.00000000E+00  0.00000000E+00  0.00000000E+00
  0.00000000E+00  0.00000000E+00  0.00000000E+00
  0.00000000E+00  0.00000000E+00  0.00000000E+00
  0.00000000E+00  0.00000000E+00  0.00000000E+00
  0.00000000E+00  0.00000000E+00  0.00000000E+00
  0.00000000E+00  0.00000000E+00  0.00000000E+00
  0.00000000E+00  0.00000000E+00  0.00000000E+00
  0.00000000E+00  0.00000000E+00  0.00000000E+00
  0.00000000E+00  0.00000000E+00  0.00000000E+00
  0.00000000E+00  0.00000000E+00  0.00000000E+00
  0.00000000E+00  0.00000000E+00  0.00000000E+00
  0.00000000E+00  0.00000000E+00  0.00000000E+00
  0.00000000E+00  0.00000000E+00  0.00000000E+00
  0.00000000E+00  0.00000000E+00  0.00000000E+00
  0.00000000E+00  0.00000000E+00  0.00000000E+00
  0.00000000E+00  0.00000000E+00  0.00000000E+00
  0.00000000E+00  0.00000000E+00  0.00000000E+00
  0.00000000E+00  0.00000000E+00  0.00000000E+00
  0.00000000E+00  0.00000000E+00  0.00000000E+00
  0.00000000E+00  0.00000000E+00  0.00000000E+00
  0.00000000E+00  0.00000000E+00  0.00000000E+00
  0.00000000E+00  0.00000000E+00  0.00000000E+00
  0.00000000E+00  0.00000000E+00  0.00000000E+00
  0.00000000E+00  0.00000000E+00  0.00000000E+00
  0.00000000E+00  0.00000000E+00  0.00000000E+00
  0.00000000E+00  0.00000000E+00  0.00000000E+00
  0.00000000E+00  0.00000000E+00  0.00000000E+00
  0.00000000E+00  0.00000000E+00  0.00000000E+00
  0.00000000E+00  0.00000000E+00  0.00000000E+00
  0.00000000E+00  0.00000000E+00  0.00000000E+00
  0.00000000E+00  0.00000000E+00  0.00000000E+00
  0.00000000E+00  0.00000000E+00  0.00000000E+00
  0.00000000E+00  0.00000000E+00  0.00000000E+00
  0.00000000E+00  0.00000000E+00  0.00000000E+00
  0.00000000E+00  0.00000000E+00  0.00000000E+00
  0.00000000E+00  0.00000000E+00  0.00000000E+00
  0.00000000E+00  0.00000000E+00  0.00000000E+00
  0.00000000E+00  0.00000000E+00  0.00000000E+00
  0.00000000E+00  0.00000000E+00  0.00000000E+00
  0.00000000E+00  0.00000000E+00  0.00000000E+00
  0.00000000E+00  0.00000000E+00  0.00000000E+00
  0.00000000E+00  0.00000000E+00  0.00000000E+00
  0.00000000E+00  0.00000000E+00  0.00000000E+00
  0.00000000E+00  0.00000000E+00  0.00000000E+00
  0.00000000E+00  0.00000000E+00  0.00000000E+00
  0.00000000E+00  0.00000000E+00  0.00000000E+00
