Ge Se                                   
    1.000000000000000     
    12.4130566216365352   -0.0000016449019801   -0.0000034008266090
    -0.0000016568955032   12.5035631509912317    0.0000014020588290
    -0.0000039004586085    0.0000015964022243   11.0596193839400900
   Ge   Se
    36    36
Direct
  0.0701417170236454  0.0462939387071728  0.1315305299554907
  0.2327980951387545  0.8734233586292959  0.3705001345926604
  0.5567772635377395  0.1957606982597824  0.3667003988739026
  0.5727677222692407  0.5480009050565258  0.3624951464245285
  0.5778662262554093  0.8648688958843067  0.3574255800979813
  0.8984760956248508  0.2169586485879051  0.3638074463694210
  0.9137097455692711  0.5410087097463503  0.3731738826971949
  0.8978628611971970  0.8758002882452587  0.3901139468707058
  0.0588469486596992  0.1510526958685858  0.6453132649566982
  0.0977778227682720  0.4929326576486304  0.6378465358724270
  0.0639722803992413  0.8103316937904452  0.6348651010927355
  0.3943454664122683  0.1465061703183537  0.6244297934748388
  0.3981094949765165  0.4863112293926903  0.6430985626928560
  0.4263886610066194  0.8207069079439364  0.6152886585911617
  0.7713060427555760  0.1926982690942722  0.6211102896514333
  0.7247051460219041  0.4781626547609648  0.6037338749318408
  0.2281000226832148  0.5318210148626861  0.3613250659759828
  0.2348564484648890  0.2087959252319393  0.3697297679321281
  0.7464903492364172  0.8234307120336837  0.6373905215759024
  0.9082040159231042  0.6410787450172037  0.8963208905864235
  0.9037665258210765  0.9984846781910406  0.8404980459794587
  0.0757306177326598  0.3774374470354900  0.1352202881529436
  0.0704326284969383  0.7091957935707356  0.1365437425531582
  0.4254006798082699  0.0234172203548013  0.1188275234033966
  0.4133524724426820  0.3689585053819044  0.1263863485004180
  0.7432141852626870  0.0464246876833414  0.1383354916735939
  0.7307500081961251  0.3782750549563119  0.1299480237545652
  0.3864739914047917  0.7176346461778849  0.1135288091741700
  0.2442851932051440  0.3123559756894210  0.8729561759072553
  0.2594815959051999  0.6776922031243657  0.8636912256354918
  0.2451846937216189  0.9967842032458165  0.8753385868698516
  0.5752312653926737  0.3209181408640802  0.8595316988462329
  0.5882164094096680  0.6439045885100043  0.8705826873939486
  0.6007012438894677  0.9941699996197784  0.8554116896325681
  0.8946172318523082  0.3505777528689080  0.8883057662443861
  0.7467380926531959  0.7035705978382580  0.1533471300906157
  0.8996092679022922  0.0208416727268954  0.6152713386154289
  0.2423840375564623  0.3563155956517434  0.6556426381090148
  0.2195590742286910  0.6723744426418961  0.6277540825462964
  0.5684242835676088  0.0192101617974814  0.6328705928528962
  0.5674524823426239  0.3474054975297420  0.6395562714447678
  0.5678861901352334  0.6708392170312152  0.6484268731294733
  0.8932178961076644  0.3499026536326610  0.6677165423208038
  0.7289221617204262  0.0027224723138630  0.3662490331856461
  0.0716791970407797  0.0131453159843105  0.3665201415173058
  0.0644916958787647  0.3416192547938479  0.3774519338686417
  0.0710353292070280  0.6768569697194948  0.3603294100018815
  0.3979616423013610  0.0184845265731326  0.3562212011371599
  0.4075874873394341  0.3343370637198859  0.3532295279169730
  0.3974899058690013  0.6647264195966187  0.3325731864388501
  0.2366705829137672  0.0167699749302201  0.6458055565887690
  0.8985978377897865  0.6766589948521258  0.6563398018014368
  0.9078865607726669  0.8486215704119147  0.1651108089629858
  0.2398820117952383  0.1718585506714589  0.1479733562212644
  0.9099403014702716  0.1782957708314470  0.1432182219239593
  0.7416950919014909  0.3653210435844372  0.3528827715407914
  0.0727385705483101  0.1850090425110906  0.8664034344830469
  0.0720148758704084  0.5094236666366854  0.8625468176146001
  0.0572612222794575  0.8516382788093679  0.8606046138682615
  0.3899161608481378  0.1757667247340322  0.8475954782677491
  0.4177699614966102  0.5138158823771022  0.8676425950855631
  0.3907503670352455  0.8528321010156148  0.8486920404793494
  0.7249475446892504  0.1818052597102451  0.8549861810876678
  0.7343741761107694  0.5011584673803497  0.8371154725866958
  0.7430176868542944  0.8496229852753814  0.8760446149021917
  0.2394778863943969  0.4977150908537169  0.1343524018275204
  0.2279806741706167  0.8478809531147746  0.1426485887572824
  0.5709259617940248  0.1816584313255163  0.1410807311784481
  0.5701983568827842  0.5223370921361266  0.1295971591589051
  0.5547777849074436  0.8467670837777916  0.1267744039281666
  0.8997592081116110  0.5167889219404458  0.1401263951120768
  0.7344068433163358  0.6897659479363512  0.3771424277977360
 
  0.00000000E+00  0.00000000E+00  0.00000000E+00
  0.00000000E+00  0.00000000E+00  0.00000000E+00
  0.00000000E+00  0.00000000E+00  0.00000000E+00
  0.00000000E+00  0.00000000E+00  0.00000000E+00
  0.00000000E+00  0.00000000E+00  0.00000000E+00
  0.00000000E+00  0.00000000E+00  0.00000000E+00
  0.00000000E+00  0.00000000E+00  0.00000000E+00
  0.00000000E+00  0.00000000E+00  0.00000000E+00
  0.00000000E+00  0.00000000E+00  0.00000000E+00
  0.00000000E+00  0.00000000E+00  0.00000000E+00
  0.00000000E+00  0.00000000E+00  0.00000000E+00
  0.00000000E+00  0.00000000E+00  0.00000000E+00
  0.00000000E+00  0.00000000E+00  0.00000000E+00
  0.00000000E+00  0.00000000E+00  0.00000000E+00
  0.00000000E+00  0.00000000E+00  0.00000000E+00
  0.00000000E+00  0.00000000E+00  0.00000000E+00
  0.00000000E+00  0.00000000E+00  0.00000000E+00
  0.00000000E+00  0.00000000E+00  0.00000000E+00
  0.00000000E+00  0.00000000E+00  0.00000000E+00
  0.00000000E+00  0.00000000E+00  0.00000000E+00
  0.00000000E+00  0.00000000E+00  0.00000000E+00
  0.00000000E+00  0.00000000E+00  0.00000000E+00
  0.00000000E+00  0.00000000E+00  0.00000000E+00
  0.00000000E+00  0.00000000E+00  0.00000000E+00
  0.00000000E+00  0.00000000E+00  0.00000000E+00
  0.00000000E+00  0.00000000E+00  0.00000000E+00
  0.00000000E+00  0.00000000E+00  0.00000000E+00
  0.00000000E+00  0.00000000E+00  0.00000000E+00
  0.00000000E+00  0.00000000E+00  0.00000000E+00
  0.00000000E+00  0.00000000E+00  0.00000000E+00
  0.00000000E+00  0.00000000E+00  0.00000000E+00
  0.00000000E+00  0.00000000E+00  0.00000000E+00
  0.00000000E+00  0.00000000E+00  0.00000000E+00
  0.00000000E+00  0.00000000E+00  0.00000000E+00
  0.00000000E+00  0.00000000E+00  0.00000000E+00
  0.00000000E+00  0.00000000E+00  0.00000000E+00
  0.00000000E+00  0.00000000E+00  0.00000000E+00
  0.00000000E+00  0.00000000E+00  0.00000000E+00
  0.00000000E+00  0.00000000E+00  0.00000000E+00
  0.00000000E+00  0.00000000E+00  0.00000000E+00
  0.00000000E+00  0.00000000E+00  0.00000000E+00
  0.00000000E+00  0.00000000E+00  0.00000000E+00
  0.00000000E+00  0.00000000E+00  0.00000000E+00
  0.00000000E+00  0.00000000E+00  0.00000000E+00
  0.00000000E+00  0.00000000E+00  0.00000000E+00
  0.00000000E+00  0.00000000E+00  0.00000000E+00
  0.00000000E+00  0.00000000E+00  0.00000000E+00
  0.00000000E+00  0.00000000E+00  0.00000000E+00
  0.00000000E+00  0.00000000E+00  0.00000000E+00
  0.00000000E+00  0.00000000E+00  0.00000000E+00
  0.00000000E+00  0.00000000E+00  0.00000000E+00
  0.00000000E+00  0.00000000E+00  0.00000000E+00
  0.00000000E+00  0.00000000E+00  0.00000000E+00
  0.00000000E+00  0.00000000E+00  0.00000000E+00
  0.00000000E+00  0.00000000E+00  0.00000000E+00
  0.00000000E+00  0.00000000E+00  0.00000000E+00
  0.00000000E+00  0.00000000E+00  0.00000000E+00
  0.00000000E+00  0.00000000E+00  0.00000000E+00
  0.00000000E+00  0.00000000E+00  0.00000000E+00
  0.00000000E+00  0.00000000E+00  0.00000000E+00
  0.00000000E+00  0.00000000E+00  0.00000000E+00
  0.00000000E+00  0.00000000E+00  0.00000000E+00
  0.00000000E+00  0.00000000E+00  0.00000000E+00
  0.00000000E+00  0.00000000E+00  0.00000000E+00
  0.00000000E+00  0.00000000E+00  0.00000000E+00
  0.00000000E+00  0.00000000E+00  0.00000000E+00
  0.00000000E+00  0.00000000E+00  0.00000000E+00
  0.00000000E+00  0.00000000E+00  0.00000000E+00
  0.00000000E+00  0.00000000E+00  0.00000000E+00
  0.00000000E+00  0.00000000E+00  0.00000000E+00
  0.00000000E+00  0.00000000E+00  0.00000000E+00
  0.00000000E+00  0.00000000E+00  0.00000000E+00
