Ge Se                                   
    1.000000000000000     
    12.4674211423463497    0.0000048229956843   -0.0000015882929961
     0.0000048321238946   12.4910189593490148    0.0000022481114391
    -0.0000018126464372    0.0000025608204469   11.0532384616284762
   Ge   Se
    36    36
Direct
  0.0931556141533818  0.0137301674092569  0.1306527171369254
  0.2574658231311986  0.8437953573361270  0.3704533380630792
  0.5940223601270773  0.1938559661570309  0.3813837518980634
  0.5905716750557559  0.5317745604885928  0.3623133945470514
  0.5637682230647627  0.8668273397762505  0.3770213410882448
  0.9227480168665636  0.1641475791765643  0.3725526666497032
  0.8951576250005715  0.5531259420980561  0.3718198892784983
  0.9163986542060201  0.8627734660023165  0.3711099293329880
  0.0695838602777101  0.1505641876886514  0.6077068399643508
  0.0811673291630228  0.4932592428316838  0.6317157214034381
  0.0560769937047922  0.8131254127109244  0.6231004217503084
  0.3958949976189174  0.1450469496696414  0.6219168104934809
  0.4003478208818052  0.5083515181912759  0.6245774142636620
  0.4154549373867198  0.8215797760634089  0.6392639547535808
  0.7566414654825309  0.1716825298811528  0.6365531720740876
  0.7159046955671329  0.4815181953614811  0.6142013628129845
  0.2366602695733846  0.5278706745698472  0.3710916368697852
  0.2388004921312898  0.2125336760539511  0.3801761360187115
  0.7302302826437526  0.8314578242463924  0.6163473260992447
  0.8939966699273540  0.6460483793048226  0.8640826225598701
  0.9228104010106080  0.9816069044341518  0.8819130402395459
  0.0666429673313331  0.3867630920666656  0.1249928249647994
  0.0886762850704699  0.6917623856262907  0.1214968305278035
  0.3965185397625177  0.0437753373088157  0.1321205912559833
  0.4140398083887860  0.3547948247683479  0.1371419044679882
  0.7330397819565846  0.0230951218839976  0.1454721243646517
  0.7570562605930249  0.3466014963085371  0.1352273876150321
  0.4267055032276659  0.6665432172722348  0.1424469607473995
  0.2275551609266770  0.3331300985767882  0.8603192761531488
  0.2676154561597031  0.6537153007022170  0.8826273013004879
  0.2135140502739290  0.9647598478232524  0.8648704580419206
  0.5687932262432298  0.3096922437387590  0.8637652607283854
  0.5840864356982038  0.6790625263963790  0.8616272090581631
  0.5774409987261464  0.9908384827247971  0.8578676368437144
  0.9201548420726198  0.3203943039528809  0.8658484807181779
  0.7376541288995568  0.7311238426038287  0.1108037590714162
  0.9122087044742457  0.0108929231179644  0.6541407209392318
  0.2296896541425113  0.3653258211642409  0.6333159208639003
  0.2165672298348511  0.6656814021740018  0.6279020569835225
  0.5559445922641828  0.0138842827243195  0.6379365834544615
  0.5594573222553407  0.3497106991265113  0.6245805804843059
  0.5727824488339621  0.6784080755620892  0.6329551495316537
  0.8842607180557067  0.3380320773212304  0.6397136470119662
  0.7191883561724310  0.0187619264953938  0.3755326663354595
  0.0747846811606223  0.0099976359574541  0.3548573219541140
  0.0600784964168213  0.3325942344613892  0.3511687404805599
  0.0467340026427507  0.6951274792412079  0.3498979146881211
  0.4045571341347198  0.9924195153171809  0.3634184682681081
  0.3744787878135085  0.3670776129013191  0.3593195489729695
  0.4054018324375974  0.6775388727002394  0.3687215726583375
  0.2138401360988667  0.9990025816279129  0.6404432981285808
  0.8868874193833918  0.6876885369453944  0.6429272074894001
  0.8781994104481825  0.8689875981977053  0.1373519673159862
  0.2412571873748419  0.1738403586962392  0.1477996976020535
  0.8823851737016710  0.1649957131702209  0.1422345934638471
  0.7255862348993674  0.3545575173689031  0.3581336179708714
  0.0746164995961323  0.1916330824820491  0.8364544218641754
  0.0631112167823602  0.5210744445144684  0.8606935827945179
  0.0656253578257093  0.8248503463517309  0.8603338362613826
  0.3847186758685979  0.1993859091726122  0.8384468134701493
  0.4108225970814345  0.5311689009213154  0.8599619430103331
  0.3798609928475543  0.8425474419353307  0.8566804425378010
  0.7221383796366041  0.1650819310298033  0.8526217265670866
  0.7238097836326816  0.5151474326441488  0.8442435276969960
  0.7450431765187133  0.8670452329317868  0.8620589741646896
  0.2209050585263483  0.5302882346598992  0.1416356102489686
  0.2298320295592617  0.8442995021412472  0.1314114617218962
  0.5504702834060566  0.2012281929090634  0.1651877900269838
  0.5493437191022821  0.5017717072874319  0.1444491788352167
  0.5516957153861171  0.8196130848698786  0.1323227824130768
  0.8966909154756735  0.5091780958793777  0.1469838838367181
  0.7259363461983881  0.6920683505650302  0.3520742983127363
 
  0.00000000E+00  0.00000000E+00  0.00000000E+00
  0.00000000E+00  0.00000000E+00  0.00000000E+00
  0.00000000E+00  0.00000000E+00  0.00000000E+00
  0.00000000E+00  0.00000000E+00  0.00000000E+00
  0.00000000E+00  0.00000000E+00  0.00000000E+00
  0.00000000E+00  0.00000000E+00  0.00000000E+00
  0.00000000E+00  0.00000000E+00  0.00000000E+00
  0.00000000E+00  0.00000000E+00  0.00000000E+00
  0.00000000E+00  0.00000000E+00  0.00000000E+00
  0.00000000E+00  0.00000000E+00  0.00000000E+00
  0.00000000E+00  0.00000000E+00  0.00000000E+00
  0.00000000E+00  0.00000000E+00  0.00000000E+00
  0.00000000E+00  0.00000000E+00  0.00000000E+00
  0.00000000E+00  0.00000000E+00  0.00000000E+00
  0.00000000E+00  0.00000000E+00  0.00000000E+00
  0.00000000E+00  0.00000000E+00  0.00000000E+00
  0.00000000E+00  0.00000000E+00  0.00000000E+00
  0.00000000E+00  0.00000000E+00  0.00000000E+00
  0.00000000E+00  0.00000000E+00  0.00000000E+00
  0.00000000E+00  0.00000000E+00  0.00000000E+00
  0.00000000E+00  0.00000000E+00  0.00000000E+00
  0.00000000E+00  0.00000000E+00  0.00000000E+00
  0.00000000E+00  0.00000000E+00  0.00000000E+00
  0.00000000E+00  0.00000000E+00  0.00000000E+00
  0.00000000E+00  0.00000000E+00  0.00000000E+00
  0.00000000E+00  0.00000000E+00  0.00000000E+00
  0.00000000E+00  0.00000000E+00  0.00000000E+00
  0.00000000E+00  0.00000000E+00  0.00000000E+00
  0.00000000E+00  0.00000000E+00  0.00000000E+00
  0.00000000E+00  0.00000000E+00  0.00000000E+00
  0.00000000E+00  0.00000000E+00  0.00000000E+00
  0.00000000E+00  0.00000000E+00  0.00000000E+00
  0.00000000E+00  0.00000000E+00  0.00000000E+00
  0.00000000E+00  0.00000000E+00  0.00000000E+00
  0.00000000E+00  0.00000000E+00  0.00000000E+00
  0.00000000E+00  0.00000000E+00  0.00000000E+00
  0.00000000E+00  0.00000000E+00  0.00000000E+00
  0.00000000E+00  0.00000000E+00  0.00000000E+00
  0.00000000E+00  0.00000000E+00  0.00000000E+00
  0.00000000E+00  0.00000000E+00  0.00000000E+00
  0.00000000E+00  0.00000000E+00  0.00000000E+00
  0.00000000E+00  0.00000000E+00  0.00000000E+00
  0.00000000E+00  0.00000000E+00  0.00000000E+00
  0.00000000E+00  0.00000000E+00  0.00000000E+00
  0.00000000E+00  0.00000000E+00  0.00000000E+00
  0.00000000E+00  0.00000000E+00  0.00000000E+00
  0.00000000E+00  0.00000000E+00  0.00000000E+00
  0.00000000E+00  0.00000000E+00  0.00000000E+00
  0.00000000E+00  0.00000000E+00  0.00000000E+00
  0.00000000E+00  0.00000000E+00  0.00000000E+00
  0.00000000E+00  0.00000000E+00  0.00000000E+00
  0.00000000E+00  0.00000000E+00  0.00000000E+00
  0.00000000E+00  0.00000000E+00  0.00000000E+00
  0.00000000E+00  0.00000000E+00  0.00000000E+00
  0.00000000E+00  0.00000000E+00  0.00000000E+00
  0.00000000E+00  0.00000000E+00  0.00000000E+00
  0.00000000E+00  0.00000000E+00  0.00000000E+00
  0.00000000E+00  0.00000000E+00  0.00000000E+00
  0.00000000E+00  0.00000000E+00  0.00000000E+00
  0.00000000E+00  0.00000000E+00  0.00000000E+00
  0.00000000E+00  0.00000000E+00  0.00000000E+00
  0.00000000E+00  0.00000000E+00  0.00000000E+00
  0.00000000E+00  0.00000000E+00  0.00000000E+00
  0.00000000E+00  0.00000000E+00  0.00000000E+00
  0.00000000E+00  0.00000000E+00  0.00000000E+00
  0.00000000E+00  0.00000000E+00  0.00000000E+00
  0.00000000E+00  0.00000000E+00  0.00000000E+00
  0.00000000E+00  0.00000000E+00  0.00000000E+00
  0.00000000E+00  0.00000000E+00  0.00000000E+00
  0.00000000E+00  0.00000000E+00  0.00000000E+00
  0.00000000E+00  0.00000000E+00  0.00000000E+00
  0.00000000E+00  0.00000000E+00  0.00000000E+00
