Ge Se                                   
    1.000000000000000     
     4.5000000000000000    0.0000000000000000    0.0000000000000000
     0.0000000000000000    3.8000000000000003    0.0000000000000000
     0.0000000000000000    0.0000000000000000   11.1422209999999993
   Ge   Se
     4     4
Selective dynamics
Direct
  0.1104347422912682  0.2500000000000000  0.1235953335022089   T   T   T
  0.6104347422912682  0.7500000000000000  0.3764046664977911   T   T   T
  0.8895652577087318  0.7500000000000000  0.8764046664977911   T   T   T
  0.3895652577087318  0.2500000000000000  0.6235953335022089   T   T   T
  0.9943736618324692  0.2500000000000000  0.3523100606194589   T   T   T
  0.4943736618324692  0.7500000000000000  0.1476899393805411   T   T   T
  0.0056263381675308  0.7500000000000000  0.6476899393805411   T   T   T
  0.5056263381675308  0.2500000000000000  0.8523100606194589   T   T   T
 
  0.00000000E+00  0.00000000E+00  0.00000000E+00
  0.00000000E+00  0.00000000E+00  0.00000000E+00
  0.00000000E+00  0.00000000E+00  0.00000000E+00
  0.00000000E+00  0.00000000E+00  0.00000000E+00
  0.00000000E+00  0.00000000E+00  0.00000000E+00
  0.00000000E+00  0.00000000E+00  0.00000000E+00
  0.00000000E+00  0.00000000E+00  0.00000000E+00
  0.00000000E+00  0.00000000E+00  0.00000000E+00
