Ge Se                                   
    1.000000000000000     
     4.0499999999999998    0.0000000000000000    0.0000000000000000
     0.0000000000000000    4.3499999999999996    0.0000000000000000
     0.0000000000000000    0.0000000000000000   11.1422209999999993
   Ge   Se
     4     4
Selective dynamics
Direct
  0.2500000000000000  0.1042930130335407  0.1284009571445495   T   T   T
  0.7500000000000000  0.6042930130335407  0.3715990428554505   T   T   T
  0.7500000000000000  0.8957069869664664  0.8715990428554505   T   T   T
  0.2500000000000000  0.3957069869664593  0.6284009571445495   T   T   T
  0.2500000000000000  0.9933678937999062  0.3552566002323445   T   T   T
  0.7500000000000000  0.4933678937998991  0.1447433997676555   T   T   T
  0.7500000000000000  0.0066321062000938  0.6447433997676555   T   T   T
  0.2500000000000000  0.5066321062001009  0.8552566002323445   T   T   T
 
  0.00000000E+00  0.00000000E+00  0.00000000E+00
  0.00000000E+00  0.00000000E+00  0.00000000E+00
  0.00000000E+00  0.00000000E+00  0.00000000E+00
  0.00000000E+00  0.00000000E+00  0.00000000E+00
  0.00000000E+00  0.00000000E+00  0.00000000E+00
  0.00000000E+00  0.00000000E+00  0.00000000E+00
  0.00000000E+00  0.00000000E+00  0.00000000E+00
  0.00000000E+00  0.00000000E+00  0.00000000E+00
