Ge Se                                   
    1.000000000000000     
     4.7000000000000002    0.0000000000000000    0.0000000000000000
     0.0000000000000000    3.7500000000000009    0.0000000000000000
     0.0000000000000000    0.0000000000000000   11.1422209999999993
   Ge   Se
     4     4
Selective dynamics
Direct
  0.1169332535252323  0.2500000000000000  0.1231007091919949   T   T   T
  0.6169332535252323  0.7500000000000000  0.3768992908080051   T   T   T
  0.8830667464747677  0.7500000000000000  0.8768992908080051   T   T   T
  0.3830667464747677  0.2500000000000000  0.6231007091919949   T   T   T
  0.9861043975646808  0.2500000000000000  0.3504834793228753   T   T   T
  0.4861043975646808  0.7500000000000000  0.1495165206771247   T   T   T
  0.0138956024353192  0.7500000000000000  0.6495165206771247   T   T   T
  0.5138956024353192  0.2500000000000000  0.8504834793228753   T   T   T
 
  0.00000000E+00  0.00000000E+00  0.00000000E+00
  0.00000000E+00  0.00000000E+00  0.00000000E+00
  0.00000000E+00  0.00000000E+00  0.00000000E+00
  0.00000000E+00  0.00000000E+00  0.00000000E+00
  0.00000000E+00  0.00000000E+00  0.00000000E+00
  0.00000000E+00  0.00000000E+00  0.00000000E+00
  0.00000000E+00  0.00000000E+00  0.00000000E+00
  0.00000000E+00  0.00000000E+00  0.00000000E+00
