
     Program PWSCF v.7.2 starts on  3Jun2024 at 20:51:52 

     This program is part of the open-source Quantum ESPRESSO suite
     for quantum simulation of materials; please cite
         "P. Giannozzi et al., J. Phys.:Condens. Matter 21 395502 (2009);
         "P. Giannozzi et al., J. Phys.:Condens. Matter 29 465901 (2017);
         "P. Giannozzi et al., J. Chem. Phys. 152 154105 (2020);
          URL http://www.quantum-espresso.org", 
     in publications or presentations arising from this work. More details at
     http://www.quantum-espresso.org/quote

     Parallel version (MPI & OpenMP), running on    6144 processor cores
     Number of MPI processes:              1536
     Threads/MPI process:                     4

     MPI processes distributed on    24 nodes
     484215 MiB available memory on the printing compute node when the environment starts

     Reading input from espresso.pwi
Warning: card &IONS ignored
Warning: card / ignored
Warning: card &CELL ignored
Warning: card / ignored

     Current dimensions of program PWSCF are:
     Max number of different atomic species (ntypx) = 10
     Max number of k-points (npk) =  40000
     Max angular momentum in pseudopotentials (lmaxx) =  4

     Atomic positions and unit cell read from directory:
     ./CNT_PBE.save/
     Atomic positions from file used, from input discarded


     K-points division:     npool     =       2
     R & G space division:  proc/nbgrp/npool/nimage =     768
     WARNING: too many processors for an effective parallelization!
     wavefunctions fft division:  task group distribution
                                  #TG    x Z-proc =      12     64
     Subspace diagonalization in iterative solution of the eigenvalue problem:
     one sub-group per band group will be used
     custom distributed-memory algorithm (size of sub-group:  9*  9 procs)


     Parallelization info
     --------------------
     sticks:   dense  smooth     PW     G-vecs:    dense   smooth      PW
     Min          57      57     14                14383    14383    1818
     Max          58      58     15                14402    14402    1843
     Sum       43977   43977  11115             11053081 11053081 1403735

     Using Pencil Decomposition



     bravais-lattice index     =            0
     lattice parameter (alat)  =      61.1748  a.u.
     unit-cell volume          =  176044.1909 (a.u.)^3
     number of atoms/cell      =          365
     number of atomic types    =            2
     number of electrons       =      1462.00
     number of Kohn-Sham states=          896
     kinetic-energy cutoff     =      60.0000  Ry
     charge density cutoff     =     240.0000  Ry
     Exchange-correlation= PBE
                           (   1   4   3   4   0   0   0)

     celldm(1)=  61.174780  celldm(2)=   0.000000  celldm(3)=   0.000000
     celldm(4)=   0.000000  celldm(5)=   0.000000  celldm(6)=   0.000000

     crystal axes: (cart. coord. in units of alat)
               a(1) = (   1.000000   0.000000   0.000000 )  
               a(2) = (   0.000000   0.615409   0.000000 )  
               a(3) = (   0.000000   0.000000   1.249513 )  

     reciprocal axes: (cart. coord. in units 2 pi/alat)
               b(1) = (  1.000000  0.000000  0.000000 )  
               b(2) = (  0.000000  1.624937  0.000000 )  
               b(3) = (  0.000000  0.000000  0.800312 )  


     PseudoPot. # 1 for C  read from file:
     ./C_ONCV_PBE-1.2.upf
     MD5 check sum: 1a5f83a7b1f58d24996abe00ed223ac6
     Pseudo is Norm-conserving, Zval =  4.0
     Generated using ONCVPSP code by D. R. Hamann
     Using radial grid of  602 points,  4 beta functions with: 
                l(1) =   0
                l(2) =   0
                l(3) =   1
                l(4) =   1

     PseudoPot. # 2 for Se read from file:
     ./Se_ONCV_PBE-1.2.upf
     MD5 check sum: e78e48a4f5d8ce1f8dc76ec1271f249c
     Pseudo is Norm-conserving, Zval =  6.0
     Generated using ONCVPSP code by D. R. Hamann
     Using radial grid of  602 points,  6 beta functions with: 
                l(1) =   0
                l(2) =   0
                l(3) =   1
                l(4) =   1
                l(5) =   2
                l(6) =   2

     atomic species   valence    mass     pseudopotential
        C              4.00    12.01100     C ( 1.00)
        Se             6.00    78.96000     Se( 1.00)

     No symmetry found


                                    s                        frac. trans.

      isym =  1     identity                                     

 cryst.   s( 1) = (     1          0          0      )
                  (     0          1          0      )
                  (     0          0          1      )

 cart.    s( 1) = (  1.0000000  0.0000000  0.0000000 )
                  (  0.0000000  1.0000000  0.0000000 )
                  (  0.0000000  0.0000000  1.0000000 )


   Cartesian axes

     site n.     atom                  positions (alat units)
         1           C   tau(   1) = (   0.3709523   0.3312801   0.0030741  )
         2           C   tau(   2) = (   0.3687838   0.3346697   0.0785826  )
         3           C   tau(   3) = (   0.3380579   0.3661670   0.0763370  )
         4           C   tau(   4) = (   0.3204920   0.3762715   0.0374121  )
         5           C   tau(   5) = (   0.2778096   0.3869622   0.0351483  )
         6           C   tau(   6) = (   0.3664899   0.3379787   0.1540878  )
         7           C   tau(   7) = (   0.3346992   0.3684085   0.1518475  )
         8           C   tau(   8) = (   0.3167985   0.3778983   0.1129272  )
         9           C   tau(   9) = (   0.2737695   0.3871058   0.1106582  )
        10           C   tau(  10) = (   0.2535530   0.3857814   0.0717338  )
        11           C   tau(  11) = (   0.2121011   0.3710300   0.0694718  )
        12           C   tau(  12) = (   0.1955883   0.3592947   0.0305405  )
        13           C   tau(  13) = (   0.1680310   0.3249898   0.0282736  )
        14           C   tau(  14) = (   0.3640472   0.3411963   0.2295953  )
        15           C   tau(  15) = (   0.3312466   0.3705345   0.2273627  )
        16           C   tau(  16) = (   0.3130406   0.3793996   0.1884370  )
        17           C   tau(  17) = (   0.2697274   0.3871232   0.1861688  )
        18           C   tau(  18) = (   0.2495713   0.3850977   0.1472441  )
        19           C   tau(  19) = (   0.2086532   0.3689157   0.1449866  )
        20           C   tau(  20) = (   0.1925566   0.3566176   0.1060578  )
        21           C   tau(  21) = (   0.1662006   0.3213827   0.1037852  )
        22           C   tau(  22) = (   0.1589421   0.3024718   0.0648562  )
        23           C   tau(  23) = (   0.1549811   0.2586509   0.0625801  )
        24           C   tau(  24) = (   0.1587343   0.2387390   0.0236517  )
        25           C   tau(  25) = (   0.1783597   0.1993578   0.0213869  )
        26           C   tau(  26) = (   0.3614855   0.3443298   0.3050816  )
        27           C   tau(  27) = (   0.3277368   0.3725418   0.3028697  )
        28           C   tau(  28) = (   0.3092366   0.3807946   0.2639507  )
        29           C   tau(  29) = (   0.2656727   0.3870259   0.2616855  )
        30           C   tau(  30) = (   0.2456072   0.3842948   0.2227632  )
        31           C   tau(  31) = (   0.2052705   0.3666951   0.2205048  )
        32           C   tau(  32) = (   0.1896147   0.3538404   0.1815739  )
        33           C   tau(  33) = (   0.1644937   0.3177161   0.1792959  )
        34           C   tau(  34) = (   0.1578951   0.2985636   0.1403675  )
        35           C   tau(  35) = (   0.1554447   0.2546298   0.1380979  )
        36           C   tau(  36) = (   0.1598819   0.2348644   0.0991626  )
        37           C   tau(  37) = (   0.1808465   0.1961829   0.0968909  )
        38           C   tau(  38) = (   0.1949995   0.1816799   0.0579669  )
        39           C   tau(  39) = (   0.2331472   0.1597544   0.0556858  )
        40           C   tau(  40) = (   0.2528140   0.1548387   0.0167669  )
        41           C   tau(  41) = (   0.2967934   0.1562052   0.0145111  )
        42           C   tau(  42) = (   0.3710249   0.3311000   0.4194176  )
        43           C   tau(  43) = (   0.3589598   0.3474448   0.3805698  )
        44           C   tau(  44) = (   0.3242051   0.3744837   0.3783789  )
        45           C   tau(  45) = (   0.3054140   0.3820649   0.3395017  )
        46           C   tau(  46) = (   0.2616294   0.3867633   0.3372291  )
        47           C   tau(  47) = (   0.2416732   0.3833401   0.2982901  )
        48           C   tau(  48) = (   0.2019756   0.3643621   0.2960218  )
        49           C   tau(  49) = (   0.1867734   0.3509701   0.2570879  )
        50           C   tau(  50) = (   0.1629269   0.3139888   0.2548072  )
        51           C   tau(  51) = (   0.1569963   0.2946179   0.2158813  )
        52           C   tau(  52) = (   0.1560686   0.2506251   0.2136186  )
        53           C   tau(  53) = (   0.1611641   0.2310257   0.1746784  )
        54           C   tau(  54) = (   0.1834446   0.1930857   0.1723985  )
        55           C   tau(  55) = (   0.1980880   0.1790866   0.1334733  )
        56           C   tau(  56) = (   0.2369689   0.1584915   0.1311925  )
        57           C   tau(  57) = (   0.2567941   0.1542643   0.0922683  )
        58           C   tau(  58) = (   0.3006969   0.1571519   0.0900089  )
        59           C   tau(  59) = (   0.3197968   0.1639515   0.0510935  )
        60           C   tau(  60) = (   0.3556595   0.1894469   0.0488227  )
        61           C   tau(  61) = (   0.3683577   0.2052506   0.0099085  )
        62           C   tau(  62) = (   0.3855299   0.2457633   0.0076621  )
        63           C   tau(  63) = (   0.3695775   0.3347835   0.4948241  )
        64           C   tau(  64) = (   0.3565926   0.3505008   0.4562106  )
        65           C   tau(  65) = (   0.3205960   0.3760650   0.4539649  )
        66           C   tau(  66) = (   0.3015478   0.3830313   0.4150669  )
        67           C   tau(  67) = (   0.2576534   0.3862147   0.4127773  )
        68           C   tau(  68) = (   0.2377999   0.3822065   0.3738140  )
        69           C   tau(  69) = (   0.1987538   0.3619077   0.3715348  )
        70           C   tau(  70) = (   0.1840217   0.3480147   0.3326059  )
        71           C   tau(  71) = (   0.1614731   0.3102179   0.3303229  )
        72           C   tau(  72) = (   0.1562354   0.2906479   0.2913924  )
        73           C   tau(  73) = (   0.1568451   0.2466533   0.2891337  )
        74           C   tau(  74) = (   0.1626076   0.2272383   0.2502013  )
        75           C   tau(  75) = (   0.1861778   0.1900803   0.2479197  )
        76           C   tau(  76) = (   0.2012756   0.1765946   0.2089818  )
        77           C   tau(  77) = (   0.2408300   0.1573415   0.2067032  )
        78           C   tau(  78) = (   0.2607845   0.1538025   0.1677727  )
        79           C   tau(  79) = (   0.3045625   0.1581992   0.1655049  )
        80           C   tau(  80) = (   0.3234209   0.1656671   0.1265958  )
        81           C   tau(  81) = (   0.3583837   0.1923821   0.1243248  )
        82           C   tau(  82) = (   0.3705308   0.2086253   0.0854113  )
        83           C   tau(  83) = (   0.3862994   0.2497014   0.0831687  )
        84           C   tau(  84) = (   0.3881347   0.2698946   0.0442520  )
        85           C   tau(  85) = (   0.3799902   0.3131365   0.0419906  )
        86           C   tau(  86) = (   0.3676804   0.3381789   0.5705842  )
        87           C   tau(  87) = (   0.3536654   0.3527116   0.5318454  )
        88           C   tau(  88) = (   0.3167744   0.3766927   0.5295029  )
        89           C   tau(  89) = (   0.2975937   0.3834696   0.4905465  )
        90           C   tau(  90) = (   0.2536352   0.3854632   0.4882733  )
        91           C   tau(  91) = (   0.2339327   0.3809166   0.4493395  )
        92           C   tau(  92) = (   0.1955391   0.3593504   0.4470495  )
        93           C   tau(  93) = (   0.1813486   0.3449405   0.4081102  )
        94           C   tau(  94) = (   0.1601364   0.3063949   0.4058289  )
        95           C   tau(  95) = (   0.1555924   0.2866572   0.3668980  )
        96           C   tau(  96) = (   0.1577446   0.2427045   0.3646445  )
        97           C   tau(  97) = (   0.1641960   0.2235026   0.3257185  )
        98           C   tau(  98) = (   0.1890317   0.1871819   0.3234408  )
        99           C   tau(  99) = (   0.2045704   0.1742062   0.2844940  )
       100           C   tau( 100) = (   0.2447503   0.1562908   0.2822207  )
       101           C   tau( 101) = (   0.2647999   0.1534444   0.2432888  )
       102           C   tau( 102) = (   0.3084012   0.1593410   0.2410111  )
       103           C   tau( 103) = (   0.3269777   0.1674856   0.2020926  )
       104           C   tau( 104) = (   0.3609868   0.1953947   0.1998208  )
       105           C   tau( 105) = (   0.3725789   0.2120552   0.1609120  )
       106           C   tau( 106) = (   0.3869131   0.2536574   0.1586667  )
       107           C   tau( 107) = (   0.3880632   0.2739082   0.1197612  )
       108           C   tau( 108) = (   0.3784399   0.3168469   0.1175001  )
       109           C   tau( 109) = (   0.3641102   0.3396797   0.6463761  )
       110           C   tau( 110) = (   0.3505424   0.3546121   0.6068489  )
       111           C   tau( 111) = (   0.3130169   0.3777970   0.6047942  )
       112           C   tau( 112) = (   0.2936268   0.3838483   0.5660089  )
       113           C   tau( 113) = (   0.2495394   0.3847236   0.5637565  )
       114           C   tau( 114) = (   0.2300452   0.3794501   0.5248340  )
       115           C   tau( 115) = (   0.1924180   0.3566688   0.5225489  )
       116           C   tau( 116) = (   0.1787184   0.3417985   0.4836007  )
       117           C   tau( 117) = (   0.1588549   0.3025268   0.4813381  )
       118           C   tau( 118) = (   0.1550429   0.2826438   0.4424111  )
       119           C   tau( 119) = (   0.1587284   0.2387913   0.4401581  )
       120           C   tau( 120) = (   0.1658825   0.2198268   0.4012262  )
       121           C   tau( 121) = (   0.1919506   0.1843861   0.3989528  )
       122           C   tau( 122) = (   0.2079366   0.1719389   0.3600247  )
       123           C   tau( 123) = (   0.2487152   0.1553876   0.3577707  )
       124           C   tau( 124) = (   0.2688483   0.1532264   0.3188155  )
       125           C   tau( 125) = (   0.3122050   0.1606088   0.3165237  )
       126           C   tau( 126) = (   0.3304884   0.1693755   0.2775954  )
       127           C   tau( 127) = (   0.3635040   0.1984675   0.2753161  )
       128           C   tau( 128) = (   0.3744914   0.2155393   0.2364158  )
       129           C   tau( 129) = (   0.3873620   0.2576189   0.2341583  )
       130           C   tau( 130) = (   0.3878137   0.2779071   0.1952570  )
       131           C   tau( 131) = (   0.3767191   0.3204831   0.1930039  )
       132           C   tau( 132) = (   0.3616224   0.3440491   0.7217921  )
       133           C   tau( 133) = (   0.3473768   0.3579251   0.6827897  )
       134           C   tau( 134) = (   0.3093359   0.3798904   0.6804155  )
       135           C   tau( 135) = (   0.2896857   0.3844478   0.6413850  )
       136           C   tau( 136) = (   0.2457731   0.3837342   0.6391959  )
       137           C   tau( 137) = (   0.2263069   0.3779188   0.6002790  )
       138           C   tau( 138) = (   0.1893863   0.3539034   0.5980407  )
       139           C   tau( 139) = (   0.1761819   0.3385868   0.5591286  )
       140           C   tau( 140) = (   0.1577066   0.2986223   0.5568778  )
       141           C   tau( 141) = (   0.1546066   0.2786111   0.5179271  )
       142           C   tau( 142) = (   0.1598005   0.2349295   0.5156686  )
       143           C   tau( 143) = (   0.1675938   0.2162080   0.4767437  )
       144           C   tau( 144) = (   0.1948766   0.1816670   0.4744815  )
       145           C   tau( 145) = (   0.2113601   0.1698162   0.4355604  )
       146           C   tau( 146) = (   0.2526878   0.1547225   0.4333260  )
       147           C   tau( 147) = (   0.2728946   0.1531830   0.3943555  )
       148           C   tau( 148) = (   0.3159845   0.1620429   0.3920603  )
       149           C   tau( 149) = (   0.3339484   0.1713965   0.3531324  )
       150           C   tau( 150) = (   0.3659194   0.2016338   0.3508282  )
       151           C   tau( 151) = (   0.3762759   0.2190878   0.3119043  )
       152           C   tau( 152) = (   0.3876456   0.2615809   0.3096156  )
       153           C   tau( 153) = (   0.3874167   0.2818783   0.2707332  )
       154           C   tau( 154) = (   0.3748650   0.3240601   0.2684966  )
       155           C   tau( 155) = (   0.3589999   0.3473889   0.7972796  )
       156           C   tau( 156) = (   0.3443491   0.3613108   0.7583436  )
       157           C   tau( 157) = (   0.3055401   0.3818776   0.7559684  )
       158           C   tau( 158) = (   0.2857734   0.3859230   0.7169382  )
       159           C   tau( 159) = (   0.2418260   0.3832106   0.7147191  )
       160           C   tau( 160) = (   0.2226930   0.3763700   0.6758348  )
       161           C   tau( 161) = (   0.1867349   0.3510360   0.6735837  )
       162           C   tau( 162) = (   0.1739596   0.3352407   0.6346464  )
       163           C   tau( 163) = (   0.1568413   0.2947125   0.6324037  )
       164           C   tau( 164) = (   0.1543154   0.2746173   0.5934652  )
       165           C   tau( 165) = (   0.1609887   0.2310745   0.5912129  )
       166           C   tau( 166) = (   0.1694244   0.2126576   0.5522795  )
       167           C   tau( 167) = (   0.1978546   0.1790798   0.5500282  )
       168           C   tau( 168) = (   0.2147450   0.1677973   0.5110822  )
       169           C   tau( 169) = (   0.2566033   0.1542822   0.5088441  )
       170           C   tau( 170) = (   0.2768952   0.1534409   0.4699489  )
       171           C   tau( 171) = (   0.3196538   0.1639554   0.4677000  )
       172           C   tau( 172) = (   0.3372983   0.1737472   0.4286692  )
       173           C   tau( 173) = (   0.3681712   0.2049921   0.4263069  )
       174           C   tau( 174) = (   0.3779818   0.2226977   0.3873809  )
       175           C   tau( 175) = (   0.3878319   0.2655942   0.3850281  )
       176           C   tau( 176) = (   0.3868701   0.2858519   0.3461862  )
       177           C   tau( 177) = (   0.3729121   0.3275841   0.3439874  )
       178           C   tau( 178) = (   0.3562667   0.3503911   0.8727542  )
       179           C   tau( 179) = (   0.3411770   0.3639118   0.8338214  )
       180           C   tau( 180) = (   0.3016313   0.3832073   0.8315077  )
       181           C   tau( 181) = (   0.2817009   0.3867171   0.7925710  )
       182           C   tau( 182) = (   0.2379312   0.3823086   0.7902994  )
       183           C   tau( 183) = (   0.2190984   0.3748039   0.7513394  )
       184           C   tau( 184) = (   0.1841151   0.3481177   0.7490965  )
       185           C   tau( 185) = (   0.1718991   0.3318883   0.7101832  )
       186           C   tau( 186) = (   0.1561526   0.2907877   0.7079428  )
       187           C   tau( 187) = (   0.1543108   0.2705877   0.6690165  )
       188           C   tau( 188) = (   0.1624399   0.2273564   0.6667497  )
       189           C   tau( 189) = (   0.1713928   0.2091871   0.6278047  )
       190           C   tau( 190) = (   0.2009674   0.1765667   0.6255597  )
       191           C   tau( 191) = (   0.2181382   0.1658699   0.5866417  )
       192           C   tau( 192) = (   0.2605291   0.1539191   0.5844172  )
       193           C   tau( 193) = (   0.2808335   0.1541281   0.5454904  )
       194           C   tau( 194) = (   0.3229651   0.1665305   0.5432770  )
       195           C   tau( 195) = (   0.3403410   0.1767393   0.5042304  )
       196           C   tau( 196) = (   0.3700631   0.2090820   0.5018686  )
       197           C   tau( 197) = (   0.3794878   0.2266060   0.4628694  )
       198           C   tau( 198) = (   0.3879570   0.2696861   0.4603893  )
       199           C   tau( 199) = (   0.3862303   0.2898830   0.4215225  )
       200           C   tau( 200) = (   0.3534835   0.3533112   0.9482429  )
       201           C   tau( 201) = (   0.3379071   0.3662858   0.9093337  )
       202           C   tau( 202) = (   0.2977095   0.3841857   0.9070544  )
       203           C   tau( 203) = (   0.2776492   0.3870453   0.8681149  )
       204           C   tau( 204) = (   0.2340680   0.3811288   0.8658347  )
       205           C   tau( 205) = (   0.2155021   0.3730293   0.8268873  )
       206           C   tau( 206) = (   0.1814984   0.3450908   0.8246321  )
       207           C   tau( 207) = (   0.1699309   0.3284403   0.7857080  )
       208           C   tau( 208) = (   0.1556064   0.2868441   0.7834623  )
       209           C   tau( 209) = (   0.1544449   0.2665986   0.7445322  )
       210           C   tau( 210) = (   0.1640552   0.2236552   0.7422646  )
       211           C   tau( 211) = (   0.1736461   0.2058186   0.7033429  )
       212           C   tau( 212) = (   0.2043438   0.1742798   0.7010978  )
       213           C   tau( 213) = (   0.2218587   0.1641672   0.6621459  )
       214           C   tau( 214) = (   0.2645627   0.1536295   0.6598694  )
       215           C   tau( 215) = (   0.2847394   0.1543682   0.6209424  )
       216           C   tau( 216) = (   0.3265615   0.1683340   0.6186753  )
       217           C   tau( 217) = (   0.3432572   0.1798577   0.5798680  )
       218           C   tau( 218) = (   0.3721476   0.2131899   0.5778238  )
       219           C   tau( 219) = (   0.3805853   0.2314900   0.5382857  )
       220           C   tau( 220) = (   0.3892760   0.2738807   0.5353925  )
       221           C   tau( 221) = (   0.3863111   0.2939262   0.4968058  )
       222           C   tau( 222) = (   0.3505911   0.3561030   1.0237490  )
       223           C   tau( 223) = (   0.3345642   0.3685240   0.9848314  )
       224           C   tau( 224) = (   0.2937724   0.3850000   0.9825700  )
       225           C   tau( 225) = (   0.2736207   0.3871864   0.9436399  )
       226           C   tau( 226) = (   0.2302504   0.3797667   0.9413617  )
       227           C   tau( 227) = (   0.2119762   0.3710378   0.9024354  )
       228           C   tau( 228) = (   0.1789698   0.3419488   0.9001694  )
       229           C   tau( 229) = (   0.1679992   0.3249206   0.8612242  )
       230           C   tau( 230) = (   0.1551140   0.2828510   0.8589700  )
       231           C   tau( 231) = (   0.1546801   0.2625897   0.8200477  )
       232           C   tau( 232) = (   0.1657781   0.2200087   0.8177772  )
       233           C   tau( 233) = (   0.1760173   0.2025243   0.7788508  )
       234           C   tau( 234) = (   0.2077882   0.1720861   0.7765921  )
       235           C   tau( 235) = (   0.2256400   0.1625687   0.7376543  )
       236           C   tau( 236) = (   0.2687178   0.1534416   0.7353614  )
       237           C   tau( 237) = (   0.2888770   0.1549479   0.6964307  )
       238           C   tau( 238) = (   0.3302435   0.1699488   0.6941547  )
       239           C   tau( 239) = (   0.3465286   0.1820938   0.6551765  )
       240           C   tau( 240) = (   0.3746047   0.2159710   0.6528374  )
       241           C   tau( 241) = (   0.3836242   0.2340017   0.6140817  )
       242           C   tau( 242) = (   0.3957036   0.2778652   0.6124121  )
       243           C   tau( 243) = (   0.3922930   0.2999178   0.5722227  )
       244           C   tau( 244) = (   0.3476061   0.3587914   1.0992572  )
       245           C   tau( 245) = (   0.3311664   0.3706537   1.0603354  )
       246           C   tau( 246) = (   0.2898172   0.3856978   1.0580808  )
       247           C   tau( 247) = (   0.2695984   0.3871705   1.0191621  )
       248           C   tau( 248) = (   0.2265118   0.3782532   1.0168829  )
       249           C   tau( 249) = (   0.2085366   0.3688979   0.9779554  )
       250           C   tau( 250) = (   0.1765397   0.3387029   0.9756911  )
       251           C   tau( 251) = (   0.1661561   0.3213182   0.9367520  )
       252           C   tau( 252) = (   0.1547308   0.2788247   0.9344854  )
       253           C   tau( 253) = (   0.1550145   0.2585689   0.8955588  )
       254           C   tau( 254) = (   0.1675782   0.2164028   0.8932871  )
       255           C   tau( 255) = (   0.1784356   0.1992936   0.8543567  )
       256           C   tau( 256) = (   0.2112534   0.1699699   0.8520968  )
       257           C   tau( 257) = (   0.2294654   0.1611042   0.8131728  )
       258           C   tau( 258) = (   0.2727883   0.1533843   0.8108815  )
       259           C   tau( 259) = (   0.2929359   0.1554731   0.7719260  )
       260           C   tau( 260) = (   0.3338847   0.1715963   0.7696434  )
       261           C   tau( 261) = (   0.3500044   0.1838889   0.7307331  )
       262           C   tau( 262) = (   0.3767752   0.2189991   0.7284819  )
       263           C   tau( 263) = (   0.3844869   0.2378405   0.6898531  )
       264           C   tau( 264) = (   0.3882854   0.2818343   0.6878560  )
       265           C   tau( 265) = (   0.3851006   0.3018316   0.6492528  )
       266           C   tau( 266) = (   0.3445178   0.3613658   1.1747701  )
       267           C   tau( 267) = (   0.3276790   0.3726542   1.1358481  )
       268           C   tau( 268) = (   0.2858351   0.3862604   1.1335928  )
       269           C   tau( 269) = (   0.2655783   0.3870258   1.0946713  )
       270           C   tau( 270) = (   0.2228301   0.3766239   1.0923931  )
       271           C   tau( 271) = (   0.2051841   0.3666559   1.0534679  )
       272           C   tau( 272) = (   0.1742342   0.3353790   1.0512076  )
       273           C   tau( 273) = (   0.1644421   0.3176424   1.0122795  )
       274           C   tau( 274) = (   0.1544905   0.2747838   1.0100016  )
       275           C   tau( 275) = (   0.1554687   0.2545507   0.9710689  )
       276           C   tau( 276) = (   0.1694825   0.2128397   0.9688038  )
       277           C   tau( 277) = (   0.1809314   0.1961236   0.9298736  )
       278           C   tau( 278) = (   0.2147367   0.1679536   0.9276130  )
       279           C   tau( 279) = (   0.2332607   0.1597247   0.8886844  )
       280           C   tau( 280) = (   0.2768125   0.1534735   0.8864004  )
       281           C   tau( 281) = (   0.2968917   0.1561575   0.8474692  )
       282           C   tau( 282) = (   0.3372789   0.1737067   0.8452139  )
       283           C   tau( 283) = (   0.3529682   0.1865206   0.8063325  )
       284           C   tau( 284) = (   0.3781056   0.2226752   0.8041274  )
       285           C   tau( 285) = (   0.3847773   0.2418418   0.7652719  )
       286           C   tau( 286) = (   0.3869862   0.2857218   0.7631580  )
       287           C   tau( 287) = (   0.3826095   0.3054821   0.7242680  )
       288           C   tau( 288) = (   0.3413334   0.3638216   0.0008231  )
       289           C   tau( 289) = (   0.3241217   0.3745282   1.2113618  )
       290           C   tau( 290) = (   0.2818350   0.3866844   1.2091024  )
       291           C   tau( 291) = (   0.2615656   0.3867573   1.1701803  )
       292           C   tau( 292) = (   0.2191974   0.3748850   1.1679057  )
       293           C   tau( 293) = (   0.2019091   0.3643086   1.1289813  )
       294           C   tau( 294) = (   0.1720589   0.3319820   1.1267219  )
       295           C   tau( 295) = (   0.1628835   0.3139160   1.0877953  )
       296           C   tau( 296) = (   0.1544088   0.2707433   1.0855134  )
       297           C   tau( 297) = (   0.1560700   0.2505505   1.0465855  )
       298           C   tau( 298) = (   0.1715163   0.2093500   1.0443243  )
       299           C   tau( 299) = (   0.1835319   0.1930376   1.0053926  )
       300           C   tau( 300) = (   0.2182975   0.1660663   1.0031275  )
       301           C   tau( 301) = (   0.2370796   0.1584740   0.9642002  )
       302           C   tau( 302) = (   0.2808338   0.1537446   0.9619300  )
       303           C   tau( 303) = (   0.3008051   0.1571334   0.9230095  )
       304           C   tau( 304) = (   0.3405177   0.1760956   0.9207670  )
       305           C   tau( 305) = (   0.3557312   0.1894714   0.8818489  )
       306           C   tau( 306) = (   0.3795355   0.2264603   0.8796169  )
       307           C   tau( 307) = (   0.3854765   0.2458201   0.8407076  )
       308           C   tau( 308) = (   0.3863430   0.2898174   0.8385056  )
       309           C   tau( 309) = (   0.3812323   0.3094036   0.7996435  )
       310           C   tau( 310) = (   0.2575584   0.3863398   1.2456903  )
       311           C   tau( 311) = (   0.2156238   0.3730158   1.2434221  )
       312           C   tau( 312) = (   0.1987137   0.3618530   1.2044924  )
       313           C   tau( 313) = (   0.1699931   0.3285195   1.2022304  )
       314           C   tau( 314) = (   0.1614465   0.3101468   1.1633062  )
       315           C   tau( 315) = (   0.1544682   0.2667051   1.1610245  )
       316           C   tau( 316) = (   0.1568305   0.2465828   1.1220991  )
       317           C   tau( 317) = (   0.1736894   0.2059431   1.1198400  )
       318           C   tau( 318) = (   0.1862551   0.1900548   1.0809090  )
       319           C   tau( 319) = (   0.2219333   0.1643018   1.0786380  )
       320           C   tau( 320) = (   0.2409694   0.1573733   1.0397153  )
       321           C   tau( 321) = (   0.2848541   0.1541702   1.0374543  )
       322           C   tau( 322) = (   0.3046925   0.1582602   0.9985256  )
       323           C   tau( 323) = (   0.3437149   0.1785791   0.9962773  )
       324           C   tau( 324) = (   0.3584502   0.1924692   0.9573541  )
       325           C   tau( 325) = (   0.3809977   0.2302597   0.9551006  )
       326           C   tau( 326) = (   0.3862332   0.2498206   0.9161974  )
       327           C   tau( 327) = (   0.3856294   0.2938253   0.9139657  )
       328           C   tau( 328) = (   0.3798096   0.3132350   0.8750677  )
       329           C   tau( 329) = (   0.1601340   0.3063306   1.2388137  )
       330           C   tau( 330) = (   0.1546603   0.2626732   1.2365333  )
       331           C   tau( 331) = (   0.1577206   0.2426417   1.1976070  )
       332           C   tau( 332) = (   0.1759710   0.2026068   1.1953473  )
       333           C   tau( 333) = (   0.1890809   0.1871595   1.1564216  )
       334           C   tau( 334) = (   0.2256279   0.1626546   1.1541453  )
       335           C   tau( 335) = (   0.2448952   0.1563939   1.1152224  )
       336           C   tau( 336) = (   0.2888617   0.1547187   1.1129651  )
       337           C   tau( 337) = (   0.3085464   0.1594931   1.0740376  )
       338           C   tau( 338) = (   0.3468534   0.1811481   1.0717805  )
       339           C   tau( 339) = (   0.3610939   0.1955509   1.0328625  )
       340           C   tau( 340) = (   0.3823378   0.2340874   1.0306033  )
       341           C   tau( 341) = (   0.3868954   0.2538268   0.9916846  )
       342           C   tau( 342) = (   0.3847860   0.2977747   0.9894417  )
       343           C   tau( 343) = (   0.3783250   0.3169881   0.9505308  )
       344           C   tau( 344) = (   0.1920026   0.1843722   1.2319292  )
       345           C   tau( 345) = (   0.2293705   0.1611436   1.2296491  )
       346           C   tau( 346) = (   0.2488445   0.1555448   1.1907272  )
       347           C   tau( 347) = (   0.2928468   0.1553918   1.1884735  )
       348           C   tau( 348) = (   0.3123557   0.1608576   1.1495506  )
       349           C   tau( 349) = (   0.3498890   0.1838231   1.1472859  )
       350           C   tau( 350) = (   0.3636296   0.1987104   1.1083652  )
       351           C   tau( 351) = (   0.3835336   0.2379499   1.1061073  )
       352           C   tau( 352) = (   0.3874230   0.2578354   1.0671837  )
       353           C   tau( 353) = (   0.3837946   0.3016898   1.0649352  )
       354           C   tau( 354) = (   0.3766756   0.3206639   1.0260233  )
       355           C   tau( 355) = (   0.3161162   0.1623357   1.2250568  )
       356           C   tau( 356) = (   0.3528333   0.1865842   1.2227876  )
       357           C   tau( 357) = (   0.3660547   0.2019414   1.1838684  )
       358           C   tau( 358) = (   0.3846063   0.2418413   1.1816158  )
       359           C   tau( 359) = (   0.3878060   0.2618542   1.1426939  )
       360           C   tau( 360) = (   0.3826724   0.3055571   1.1404398  )
       361           C   tau( 361) = (   0.3748986   0.3242791   1.1015232  )
       362           C   tau( 362) = (   0.3880461   0.2658756   1.2182044  )
       363           C   tau( 363) = (   0.3814019   0.3093717   1.2159459  )
       364           C   tau( 364) = (   0.3729955   0.3278185   1.1770285  )
       365           Se  tau( 365) = (   0.4535840   0.2979624   0.5922331  )

   Crystallographic axes

     site n.     atom                  positions (cryst. coord.)
         1           C   tau(   1) = (  0.3709523  0.5383092  0.0024602  )
         2           C   tau(   2) = (  0.3687838  0.5438171  0.0628906  )
         3           C   tau(   3) = (  0.3380579  0.5949982  0.0610934  )
         4           C   tau(   4) = (  0.3204920  0.6114174  0.0299413  )
         5           C   tau(   5) = (  0.2778096  0.6287891  0.0281296  )
         6           C   tau(   6) = (  0.3664899  0.5491941  0.1233182  )
         7           C   tau(   7) = (  0.3346992  0.5986405  0.1215253  )
         8           C   tau(   8) = (  0.3167985  0.6140608  0.0903769  )
         9           C   tau(   9) = (  0.2737695  0.6290225  0.0885611  )
        10           C   tau(  10) = (  0.2535530  0.6268704  0.0574093  )
        11           C   tau(  11) = (  0.2121011  0.6029003  0.0555991  )
        12           C   tau(  12) = (  0.1955883  0.5838312  0.0244419  )
        13           C   tau(  13) = (  0.1680310  0.5280878  0.0226277  )
        14           C   tau(  14) = (  0.3640472  0.5544225  0.1837477  )
        15           C   tau(  15) = (  0.3312466  0.6020952  0.1819610  )
        16           C   tau(  16) = (  0.3130406  0.6165003  0.1508083  )
        17           C   tau(  17) = (  0.2697274  0.6290508  0.1489930  )
        18           C   tau(  18) = (  0.2495713  0.6257594  0.1178412  )
        19           C   tau(  19) = (  0.2086532  0.5994647  0.1160344  )
        20           C   tau(  20) = (  0.1925566  0.5794811  0.0848793  )
        21           C   tau(  21) = (  0.1662006  0.5222266  0.0830605  )
        22           C   tau(  22) = (  0.1589421  0.4914976  0.0519051  )
        23           C   tau(  23) = (  0.1549811  0.4202913  0.0500836  )
        24           C   tau(  24) = (  0.1587343  0.3879357  0.0189288  )
        25           C   tau(  25) = (  0.1783597  0.3239439  0.0171162  )
        26           C   tau(  26) = (  0.3614855  0.5595142  0.2441603  )
        27           C   tau(  27) = (  0.3277368  0.6053569  0.2423901  )
        28           C   tau(  28) = (  0.3092366  0.6187672  0.2112428  )
        29           C   tau(  29) = (  0.2656727  0.6288926  0.2094299  )
        30           C   tau(  30) = (  0.2456072  0.6244548  0.1782799  )
        31           C   tau(  31) = (  0.2052705  0.5958564  0.1764725  )
        32           C   tau(  32) = (  0.1896147  0.5749683  0.1453157  )
        33           C   tau(  33) = (  0.1644937  0.5162686  0.1434926  )
        34           C   tau(  34) = (  0.1578951  0.4851469  0.1123377  )
        35           C   tau(  35) = (  0.1554447  0.4137574  0.1105213  )
        36           C   tau(  36) = (  0.1598819  0.3816398  0.0793610  )
        37           C   tau(  37) = (  0.1808465  0.3187848  0.0775429  )
        38           C   tau(  38) = (  0.1949995  0.2952183  0.0463916  )
        39           C   tau(  39) = (  0.2331472  0.2595908  0.0445660  )
        40           C   tau(  40) = (  0.2528140  0.2516030  0.0134187  )
        41           C   tau(  41) = (  0.2967934  0.2538236  0.0116134  )
        42           C   tau(  42) = (  0.3710249  0.5380166  0.3356648  )
        43           C   tau(  43) = (  0.3589598  0.5645758  0.3045744  )
        44           C   tau(  44) = (  0.3242051  0.6085123  0.3028210  )
        45           C   tau(  45) = (  0.3054140  0.6208313  0.2717071  )
        46           C   tau(  46) = (  0.2616294  0.6284660  0.2698883  )
        47           C   tau(  47) = (  0.2416732  0.6229035  0.2387250  )
        48           C   tau(  48) = (  0.2019756  0.5920654  0.2369097  )
        49           C   tau(  49) = (  0.1867734  0.5703042  0.2057504  )
        50           C   tau(  50) = (  0.1629269  0.5102120  0.2039251  )
        51           C   tau(  51) = (  0.1569963  0.4787354  0.1727723  )
        52           C   tau(  52) = (  0.1560686  0.4072500  0.1709614  )
        53           C   tau(  53) = (  0.1611641  0.3754021  0.1397971  )
        54           C   tau(  54) = (  0.1834446  0.3137520  0.1379725  )
        55           C   tau(  55) = (  0.1980880  0.2910045  0.1068202  )
        56           C   tau(  56) = (  0.2369689  0.2575387  0.1049949  )
        57           C   tau(  57) = (  0.2567941  0.2506698  0.0738434  )
        58           C   tau(  58) = (  0.3006969  0.2553619  0.0720352  )
        59           C   tau(  59) = (  0.3197968  0.2664109  0.0408907  )
        60           C   tau(  60) = (  0.3556595  0.3078392  0.0390734  )
        61           C   tau(  61) = (  0.3683577  0.3335193  0.0079299  )
        62           C   tau(  62) = (  0.3855299  0.3993498  0.0061320  )
        63           C   tau(  63) = (  0.3695775  0.5440020  0.3960134  )
        64           C   tau(  64) = (  0.3565926  0.5695416  0.3651106  )
        65           C   tau(  65) = (  0.3205960  0.6110818  0.3633133  )
        66           C   tau(  66) = (  0.3015478  0.6224017  0.3321828  )
        67           C   tau(  67) = (  0.2576534  0.6275745  0.3303504  )
        68           C   tau(  68) = (  0.2377999  0.6210614  0.2991677  )
        69           C   tau(  69) = (  0.1987538  0.5880771  0.2973436  )
        70           C   tau(  70) = (  0.1840217  0.5655018  0.2661884  )
        71           C   tau(  71) = (  0.1614731  0.5040845  0.2643612  )
        72           C   tau(  72) = (  0.1562354  0.4722844  0.2332047  )
        73           C   tau(  73) = (  0.1568451  0.4007960  0.2313970  )
        74           C   tau(  74) = (  0.1626076  0.3692478  0.2002390  )
        75           C   tau(  75) = (  0.1861778  0.3088685  0.1984130  )
        76           C   tau(  76) = (  0.2012756  0.2869551  0.1672506  )
        77           C   tau(  77) = (  0.2408300  0.2556700  0.1654269  )
        78           C   tau(  78) = (  0.2607845  0.2499193  0.1342704  )
        79           C   tau(  79) = (  0.3045625  0.2570637  0.1324555  )
        80           C   tau(  80) = (  0.3234209  0.2691985  0.1013161  )
        81           C   tau(  81) = (  0.3583837  0.3126088  0.0994985  )
        82           C   tau(  82) = (  0.3705308  0.3390029  0.0683557  )
        83           C   tau(  83) = (  0.3862994  0.4057489  0.0665609  )
        84           C   tau(  84) = (  0.3881347  0.4385617  0.0354154  )
        85           C   tau(  85) = (  0.3799902  0.5088271  0.0336055  )
        86           C   tau(  86) = (  0.3676804  0.5495194  0.4566451  )
        87           C   tau(  87) = (  0.3536654  0.5731340  0.4256420  )
        88           C   tau(  88) = (  0.3167744  0.6121018  0.4237672  )
        89           C   tau(  89) = (  0.2975937  0.6231139  0.3925900  )
        90           C   tau(  90) = (  0.2536352  0.6263534  0.3907708  )
        91           C   tau(  91) = (  0.2339327  0.6189654  0.3596116  )
        92           C   tau(  92) = (  0.1955391  0.5839217  0.3577788  )
        93           C   tau(  93) = (  0.1813486  0.5605065  0.3266153  )
        94           C   tau(  94) = (  0.1601364  0.4978723  0.3247895  )
        95           C   tau(  95) = (  0.1555924  0.4657998  0.2936327  )
        96           C   tau(  96) = (  0.1577446  0.3943794  0.2918292  )
        97           C   tau(  97) = (  0.1641960  0.3631776  0.2606763  )
        98           C   tau(  98) = (  0.1890317  0.3041588  0.2588534  )
        99           C   tau(  99) = (  0.2045704  0.2830740  0.2276839  )
       100           C   tau( 100) = (  0.2447503  0.2539628  0.2258645  )
       101           C   tau( 101) = (  0.2647999  0.2493375  0.1947068  )
       102           C   tau( 102) = (  0.3084012  0.2589191  0.1928839  )
       103           C   tau( 103) = (  0.3269777  0.2721536  0.1617371  )
       104           C   tau( 104) = (  0.3609868  0.3175041  0.1599189  )
       105           C   tau( 105) = (  0.3725789  0.3445763  0.1287797  )
       106           C   tau( 106) = (  0.3869131  0.4121772  0.1269828  )
       107           C   tau( 107) = (  0.3880632  0.4450834  0.0958463  )
       108           C   tau( 108) = (  0.3784399  0.5148561  0.0940367  )
       109           C   tau( 109) = (  0.3641102  0.5519580  0.5173023  )
       110           C   tau( 110) = (  0.3505424  0.5762222  0.4856682  )
       111           C   tau( 111) = (  0.3130169  0.6138962  0.4840238  )
       112           C   tau( 112) = (  0.2936268  0.6237292  0.4529835  )
       113           C   tau( 113) = (  0.2495394  0.6251515  0.4511808  )
       114           C   tau( 114) = (  0.2300452  0.6165824  0.4200307  )
       115           C   tau( 115) = (  0.1924180  0.5795643  0.4182019  )
       116           C   tau( 116) = (  0.1787184  0.5554010  0.3870312  )
       117           C   tau( 117) = (  0.1588549  0.4915869  0.3852205  )
       118           C   tau( 118) = (  0.1550429  0.4592783  0.3540667  )
       119           C   tau( 119) = (  0.1587284  0.3880208  0.3522636  )
       120           C   tau( 120) = (  0.1658825  0.3572047  0.3211060  )
       121           C   tau( 121) = (  0.1919506  0.2996158  0.3192865  )
       122           C   tau( 122) = (  0.2079366  0.2793899  0.2881319  )
       123           C   tau( 123) = (  0.2487152  0.2524950  0.2863280  )
       124           C   tau( 124) = (  0.2688483  0.2489832  0.2551517  )
       125           C   tau( 125) = (  0.3122050  0.2609791  0.2533176  )
       126           C   tau( 126) = (  0.3304884  0.2752245  0.2221628  )
       127           C   tau( 127) = (  0.3635040  0.3224971  0.2203386  )
       128           C   tau( 128) = (  0.3744914  0.3502378  0.1892063  )
       129           C   tau( 129) = (  0.3873620  0.4186145  0.1873996  )
       130           C   tau( 130) = (  0.3878137  0.4515816  0.1562664  )
       131           C   tau( 131) = (  0.3767191  0.5207647  0.1544632  )
       132           C   tau( 132) = (  0.3616224  0.5590581  0.5776585  )
       133           C   tau( 133) = (  0.3473768  0.5816057  0.5464445  )
       134           C   tau( 134) = (  0.3093359  0.6172979  0.5445443  )
       135           C   tau( 135) = (  0.2896857  0.6247033  0.5133078  )
       136           C   tau( 136) = (  0.2457731  0.6235438  0.5115558  )
       137           C   tau( 137) = (  0.2263069  0.6140942  0.4804102  )
       138           C   tau( 138) = (  0.1893863  0.5750707  0.4786189  )
       139           C   tau( 139) = (  0.1761819  0.5501822  0.4474770  )
       140           C   tau( 140) = (  0.1577066  0.4852424  0.4456757  )
       141           C   tau( 141) = (  0.1546066  0.4527255  0.4145030  )
       142           C   tau( 142) = (  0.1598005  0.3817455  0.4126955  )
       143           C   tau( 143) = (  0.1675938  0.3513244  0.3815435  )
       144           C   tau( 144) = (  0.1948766  0.2951974  0.3797330  )
       145           C   tau( 145) = (  0.2113601  0.2759407  0.3485840  )
       146           C   tau( 146) = (  0.2526878  0.2514143  0.3467958  )
       147           C   tau( 147) = (  0.2728946  0.2489127  0.3156073  )
       148           C   tau( 148) = (  0.3159845  0.2633095  0.3137704  )
       149           C   tau( 149) = (  0.3339484  0.2785084  0.2826159  )
       150           C   tau( 150) = (  0.3659194  0.3276423  0.2807719  )
       151           C   tau( 151) = (  0.3762759  0.3560039  0.2496206  )
       152           C   tau( 152) = (  0.3876456  0.4250525  0.2477889  )
       153           C   tau( 153) = (  0.3874167  0.4580344  0.2166709  )
       154           C   tau( 154) = (  0.3748650  0.5265772  0.2148809  )
       155           C   tau( 155) = (  0.3589999  0.5644850  0.6380720  )
       156           C   tau( 156) = (  0.3443491  0.5871073  0.6069111  )
       157           C   tau( 157) = (  0.3055401  0.6205269  0.6050102  )
       158           C   tau( 158) = (  0.2857734  0.6271004  0.5737739  )
       159           C   tau( 159) = (  0.2418260  0.6226929  0.5719979  )
       160           C   tau( 160) = (  0.2226930  0.6115774  0.5408784  )
       161           C   tau( 161) = (  0.1867349  0.5704113  0.5390768  )
       162           C   tau( 162) = (  0.1739596  0.5447449  0.5079148  )
       163           C   tau( 163) = (  0.1568413  0.4788892  0.5061200  )
       164           C   tau( 164) = (  0.1543154  0.4462358  0.4749571  )
       165           C   tau( 165) = (  0.1609887  0.3754814  0.4731545  )
       166           C   tau( 166) = (  0.1694244  0.3455552  0.4419957  )
       167           C   tau( 167) = (  0.1978546  0.2909933  0.4401939  )
       168           C   tau( 168) = (  0.2147450  0.2726600  0.4090250  )
       169           C   tau( 169) = (  0.2566033  0.2506988  0.4072338  )
       170           C   tau( 170) = (  0.2768952  0.2493318  0.3761055  )
       171           C   tau( 171) = (  0.3196538  0.2664171  0.3743057  )
       172           C   tau( 172) = (  0.3372983  0.2823282  0.3430689  )
       173           C   tau( 173) = (  0.3681712  0.3330992  0.3411783  )
       174           C   tau( 174) = (  0.3779818  0.3618697  0.3100254  )
       175           C   tau( 175) = (  0.3878319  0.4315738  0.3081425  )
       176           C   tau( 176) = (  0.3868701  0.4644913  0.2770568  )
       177           C   tau( 177) = (  0.3729121  0.5323034  0.2752971  )
       178           C   tau( 178) = (  0.3562667  0.5693634  0.6984752  )
       179           C   tau( 179) = (  0.3411770  0.5913337  0.6673168  )
       180           C   tau( 180) = (  0.3016313  0.6226876  0.6654652  )
       181           C   tau( 181) = (  0.2817009  0.6283909  0.6343037  )
       182           C   tau( 182) = (  0.2379312  0.6212274  0.6324857  )
       183           C   tau( 183) = (  0.2190984  0.6090326  0.6013056  )
       184           C   tau( 184) = (  0.1841151  0.5656692  0.5995106  )
       185           C   tau( 185) = (  0.1718991  0.5392975  0.5683678  )
       186           C   tau( 186) = (  0.1561526  0.4725116  0.5665747  )
       187           C   tau( 187) = (  0.1543108  0.4396879  0.5354216  )
       188           C   tau( 188) = (  0.1624399  0.3694398  0.5336074  )
       189           C   tau( 189) = (  0.1713928  0.3399159  0.5024393  )
       190           C   tau( 190) = (  0.2009674  0.2869097  0.5006426  )
       191           C   tau( 191) = (  0.2181382  0.2695281  0.4694961  )
       192           C   tau( 192) = (  0.2605291  0.2501089  0.4677158  )
       193           C   tau( 193) = (  0.2808335  0.2504484  0.4365622  )
       194           C   tau( 194) = (  0.3229651  0.2706015  0.4347908  )
       195           C   tau( 195) = (  0.3403410  0.2871902  0.4035414  )
       196           C   tau( 196) = (  0.3700631  0.3397451  0.4016512  )
       197           C   tau( 197) = (  0.3794878  0.3682204  0.3704397  )
       198           C   tau( 198) = (  0.3879570  0.4382229  0.3684549  )
       199           C   tau( 199) = (  0.3862303  0.4710416  0.3373493  )
       200           C   tau( 200) = (  0.3534835  0.5741083  0.7588897  )
       201           C   tau( 201) = (  0.3379071  0.5951912  0.7277503  )
       202           C   tau( 202) = (  0.2977095  0.6242775  0.7259261  )
       203           C   tau( 203) = (  0.2776492  0.6289241  0.6947623  )
       204           C   tau( 204) = (  0.2340680  0.6193103  0.6929374  )
       205           C   tau( 205) = (  0.2155021  0.6061491  0.6617674  )
       206           C   tau( 206) = (  0.1814984  0.5607508  0.6599626  )
       207           C   tau( 207) = (  0.1699309  0.5336948  0.6288112  )
       208           C   tau( 208) = (  0.1556064  0.4661036  0.6270139  )
       209           C   tau( 209) = (  0.1544449  0.4332060  0.5958577  )
       210           C   tau( 210) = (  0.1640552  0.3634255  0.5940429  )
       211           C   tau( 211) = (  0.1736461  0.3344423  0.5628935  )
       212           C   tau( 212) = (  0.2043438  0.2831937  0.5610966  )
       213           C   tau( 213) = (  0.2218587  0.2667613  0.5299230  )
       214           C   tau( 214) = (  0.2645627  0.2496382  0.5281011  )
       215           C   tau( 215) = (  0.2847394  0.2508386  0.4969474  )
       216           C   tau( 216) = (  0.3265615  0.2735321  0.4951330  )
       217           C   tau( 217) = (  0.3432572  0.2922575  0.4640750  )
       218           C   tau( 218) = (  0.3721476  0.3464201  0.4624391  )
       219           C   tau( 219) = (  0.3805853  0.3761567  0.4307962  )
       220           C   tau( 220) = (  0.3892760  0.4450389  0.4284808  )
       221           C   tau( 221) = (  0.3863111  0.4776115  0.3975994  )
       222           C   tau( 222) = (  0.3505911  0.5786448  0.8193181  )
       223           C   tau( 223) = (  0.3345642  0.5988282  0.7881719  )
       224           C   tau( 224) = (  0.2937724  0.6256006  0.7863621  )
       225           C   tau( 225) = (  0.2736207  0.6291534  0.7552058  )
       226           C   tau( 226) = (  0.2302504  0.6170969  0.7533826  )
       227           C   tau( 227) = (  0.2119762  0.6029130  0.7222295  )
       228           C   tau( 228) = (  0.1789698  0.5556452  0.7204159  )
       229           C   tau( 229) = (  0.1679992  0.5279754  0.6892476  )
       230           C   tau( 230) = (  0.1551140  0.4596149  0.6874436  )
       231           C   tau( 231) = (  0.1546801  0.4266917  0.6562936  )
       232           C   tau( 232) = (  0.1657781  0.3575003  0.6544765  )
       233           C   tau( 233) = (  0.1760173  0.3290892  0.6233232  )
       234           C   tau( 234) = (  0.2077882  0.2796290  0.6215156  )
       235           C   tau( 235) = (  0.2256400  0.2641638  0.5903533  )
       236           C   tau( 236) = (  0.2687178  0.2493330  0.5885182  )
       237           C   tau( 237) = (  0.2888770  0.2517805  0.5573615  )
       238           C   tau( 238) = (  0.3302435  0.2761560  0.5555400  )
       239           C   tau( 239) = (  0.3465286  0.2958909  0.5243453  )
       240           C   tau( 240) = (  0.3746047  0.3509392  0.5224733  )
       241           C   tau( 241) = (  0.3836242  0.3802379  0.4914566  )
       242           C   tau( 242) = (  0.3957036  0.4515133  0.4901204  )
       243           C   tau( 243) = (  0.3922930  0.4873475  0.4579564  )
       244           C   tau( 244) = (  0.3476061  0.5830134  0.8797482  )
       245           C   tau( 245) = (  0.3311664  0.6022889  0.8485986  )
       246           C   tau( 246) = (  0.2898172  0.6267345  0.8467942  )
       247           C   tau( 247) = (  0.2695984  0.6291277  0.8156472  )
       248           C   tau( 248) = (  0.2265118  0.6146375  0.8138231  )
       249           C   tau( 249) = (  0.2085366  0.5994358  0.7826690  )
       250           C   tau( 250) = (  0.1765397  0.5503708  0.7808568  )
       251           C   tau( 251) = (  0.1661561  0.5221217  0.7496934  )
       252           C   tau( 252) = (  0.1547308  0.4530725  0.7478794  )
       253           C   tau( 253) = (  0.1550145  0.4201580  0.7167260  )
       254           C   tau( 254) = (  0.1675782  0.3516409  0.7149080  )
       255           C   tau( 255) = (  0.1784356  0.3238395  0.6837515  )
       256           C   tau( 256) = (  0.2112534  0.2761904  0.6819429  )
       257           C   tau( 257) = (  0.2294654  0.2617841  0.6507916  )
       258           C   tau( 258) = (  0.2727883  0.2492398  0.6489578  )
       259           C   tau( 259) = (  0.2929359  0.2526340  0.6177813  )
       260           C   tau( 260) = (  0.3338847  0.2788331  0.6159545  )
       261           C   tau( 261) = (  0.3500044  0.2988079  0.5848141  )
       262           C   tau( 262) = (  0.3767752  0.3558597  0.5830125  )
       263           C   tau( 263) = (  0.3844869  0.3864759  0.5520974  )
       264           C   tau( 264) = (  0.3882854  0.4579629  0.5504991  )
       265           C   tau( 265) = (  0.3851006  0.4904573  0.5196045  )
       266           C   tau( 266) = (  0.3445178  0.5871967  0.9401821  )
       267           C   tau( 267) = (  0.3276790  0.6055395  0.9090323  )
       268           C   tau( 268) = (  0.2858351  0.6276488  0.9072273  )
       269           C   tau( 269) = (  0.2655783  0.6288925  0.8760780  )
       270           C   tau( 270) = (  0.2228301  0.6119900  0.8742548  )
       271           C   tau( 271) = (  0.2051841  0.5957927  0.8431025  )
       272           C   tau( 272) = (  0.1742342  0.5449697  0.8412935  )
       273           C   tau( 273) = (  0.1644421  0.5161488  0.8101390  )
       274           C   tau( 274) = (  0.1544905  0.4465062  0.8083159  )
       275           C   tau( 275) = (  0.1554687  0.4136288  0.7771576  )
       276           C   tau( 276) = (  0.1694825  0.3458510  0.7753449  )
       277           C   tau( 277) = (  0.1809314  0.3186884  0.7441885  )
       278           C   tau( 278) = (  0.2147367  0.2729139  0.7423794  )
       279           C   tau( 279) = (  0.2332607  0.2595425  0.7112244  )
       280           C   tau( 280) = (  0.2768125  0.2493848  0.7093964  )
       281           C   tau( 281) = (  0.2968917  0.2537460  0.6782393  )
       282           C   tau( 282) = (  0.3372789  0.2822624  0.6764345  )
       283           C   tau( 283) = (  0.3529682  0.3030842  0.6453172  )
       284           C   tau( 284) = (  0.3781056  0.3618332  0.6435524  )
       285           C   tau( 285) = (  0.3847773  0.3929777  0.6124559  )
       286           C   tau( 286) = (  0.3869862  0.4642798  0.6107641  )
       287           C   tau( 287) = (  0.3826095  0.4963892  0.5796400  )
       288           C   tau( 288) = (  0.3413334  0.5911871  0.0006588  )
       289           C   tau( 289) = (  0.3241217  0.6085846  0.9694668  )
       290           C   tau( 290) = (  0.2818350  0.6283376  0.9676586  )
       291           C   tau( 291) = (  0.2615656  0.6284562  0.9365088  )
       292           C   tau( 292) = (  0.2191974  0.6091644  0.9346884  )
       293           C   tau( 293) = (  0.2019091  0.5919784  0.9035367  )
       294           C   tau( 294) = (  0.1720589  0.5394498  0.9017285  )
       295           C   tau( 295) = (  0.1628835  0.5100937  0.8705751  )
       296           C   tau( 296) = (  0.1544088  0.4399407  0.8687489  )
       297           C   tau( 297) = (  0.1560700  0.4071287  0.8375944  )
       298           C   tau( 298) = (  0.1715163  0.3401805  0.8357848  )
       299           C   tau( 299) = (  0.1835319  0.3136738  0.8046273  )
       300           C   tau( 300) = (  0.2182975  0.2698472  0.8028145  )
       301           C   tau( 301) = (  0.2370796  0.2575103  0.7716605  )
       302           C   tau( 302) = (  0.2808338  0.2498253  0.7698436  )
       303           C   tau( 303) = (  0.3008051  0.2553318  0.7386952  )
       304           C   tau( 304) = (  0.3405177  0.2861442  0.7369004  )
       305           C   tau( 305) = (  0.3557312  0.3078790  0.7057538  )
       306           C   tau( 306) = (  0.3795355  0.3679837  0.7039676  )
       307           C   tau( 307) = (  0.3854765  0.3994422  0.6728280  )
       308           C   tau( 308) = (  0.3863430  0.4709350  0.6710657  )
       309           C   tau( 309) = (  0.3812323  0.5027613  0.6399639  )
       310           C   tau( 310) = (  0.2575584  0.6277778  0.9969403  )
       311           C   tau( 311) = (  0.2156238  0.6061271  0.9951250  )
       312           C   tau( 312) = (  0.1987137  0.5879882  0.9639692  )
       313           C   tau( 313) = (  0.1699931  0.5338234  0.9621589  )
       314           C   tau( 314) = (  0.1614465  0.5039689  0.9310074  )
       315           C   tau( 315) = (  0.1544682  0.4333789  0.9291813  )
       316           C   tau( 316) = (  0.1568305  0.4006815  0.8980289  )
       317           C   tau( 317) = (  0.1736894  0.3346445  0.8962208  )
       318           C   tau( 318) = (  0.1862551  0.3088270  0.8650639  )
       319           C   tau( 319) = (  0.2219333  0.2669800  0.8632464  )
       320           C   tau( 320) = (  0.2409694  0.2557216  0.8320961  )
       321           C   tau( 321) = (  0.2848541  0.2505168  0.8302866  )
       322           C   tau( 322) = (  0.3046925  0.2571628  0.7991315  )
       323           C   tau( 323) = (  0.3437149  0.2901797  0.7973322  )
       324           C   tau( 324) = (  0.3584502  0.3127503  0.7661815  )
       325           C   tau( 325) = (  0.3809977  0.3741575  0.7643780  )
       326           C   tau( 326) = (  0.3862332  0.4059426  0.7332433  )
       327           C   tau( 327) = (  0.3856294  0.4774475  0.7314573  )
       328           C   tau( 328) = (  0.3798096  0.5089870  0.7003268  )
       329           C   tau( 329) = (  0.1601340  0.4977679  0.9914369  )
       330           C   tau( 330) = (  0.1546603  0.4268274  0.9896118  )
       331           C   tau( 331) = (  0.1577206  0.3942774  0.9584586  )
       332           C   tau( 332) = (  0.1759710  0.3292232  0.9566502  )
       333           C   tau( 333) = (  0.1890809  0.3041224  0.9254975  )
       334           C   tau( 334) = (  0.2256279  0.2643034  0.9236758  )
       335           C   tau( 335) = (  0.2448952  0.2541302  0.8925253  )
       336           C   tau( 336) = (  0.2888617  0.2514082  0.8907188  )
       337           C   tau( 337) = (  0.3085464  0.2591663  0.8595647  )
       338           C   tau( 338) = (  0.3468534  0.2943542  0.8577582  )
       339           C   tau( 339) = (  0.3610939  0.3177579  0.8266117  )
       340           C   tau( 340) = (  0.3823378  0.3803772  0.8248037  )
       341           C   tau( 341) = (  0.3868954  0.4124525  0.7936566  )
       342           C   tau( 342) = (  0.3847860  0.4838651  0.7918616  )
       343           C   tau( 343) = (  0.3783250  0.5150856  0.7607207  )
       344           C   tau( 344) = (  0.1920026  0.2995932  0.9859271  )
       345           C   tau( 345) = (  0.2293705  0.2618482  0.9841024  )
       346           C   tau( 346) = (  0.2488445  0.2527505  0.9529527  )
       347           C   tau( 347) = (  0.2928468  0.2525018  0.9511490  )
       348           C   tau( 348) = (  0.3123557  0.2613835  0.9199986  )
       349           C   tau( 349) = (  0.3498890  0.2987010  0.9181861  )
       350           C   tau( 350) = (  0.3636296  0.3228918  0.8870374  )
       351           C   tau( 351) = (  0.3835336  0.3866535  0.8852304  )
       352           C   tau( 352) = (  0.3874230  0.4189663  0.8540794  )
       353           C   tau( 353) = (  0.3837946  0.4902268  0.8522799  )
       354           C   tau( 354) = (  0.3766756  0.5210585  0.8211383  )
       355           C   tau( 355) = (  0.3161162  0.2637853  0.9804270  )
       356           C   tau( 356) = (  0.3528333  0.3031876  0.9786110  )
       357           C   tau( 357) = (  0.3660547  0.3281420  0.9474635  )
       358           C   tau( 358) = (  0.3846063  0.3929768  0.9456608  )
       359           C   tau( 359) = (  0.3878060  0.4254966  0.9145111  )
       360           C   tau( 360) = (  0.3826724  0.4965110  0.9127071  )
       361           C   tau( 361) = (  0.3748986  0.5269331  0.8815617  )
       362           C   tau( 362) = (  0.3880461  0.4320311  0.9749430  )
       363           C   tau( 363) = (  0.3814019  0.5027095  0.9731355  )
       364           C   tau( 364) = (  0.3729955  0.5326844  0.9419894  )
       365           Se  tau( 365) = (  0.4535840  0.4841700  0.4739710  )

     number of k points=     2
                       cart. coord. in units 2pi/alat
        k(    1) = (   0.0000000   0.0000000   0.0008003), wk =   1.0000000
        k(    2) = (   0.0000000   0.0000000   0.4009561), wk =   1.0000000

                       cryst. coord.
        k(    1) = (   0.0000000   0.0000000   0.0010000), wk =   1.0000000
        k(    2) = (   0.0000000   0.0000000   0.5010000), wk =   1.0000000

     Dense  grid: 11053081 G-vectors     FFT dimensions: ( 320, 192, 384)

     Dynamical RAM for                 wfc:      24.60 MB

     Dynamical RAM for     wfc (w. buffer):      24.60 MB

     Dynamical RAM for           str. fact:       0.44 MB

     Dynamical RAM for           local pot:       0.00 MB

     Dynamical RAM for          nlocal pot:      80.43 MB

     Dynamical RAM for                qrad:       2.49 MB

     Dynamical RAM for          rho,v,vnew:       2.07 MB

     Dynamical RAM for           G-vectors:       0.93 MB

     Dynamical RAM for          h,s,v(r/c):       1.81 MB

     Dynamical RAM for          <psi|beta>:      40.06 MB

     Dynamical RAM for                 psi:      49.19 MB

     Dynamical RAM for                hpsi:      49.19 MB

     Dynamical RAM for      wfcinit/wfcrot:      67.57 MB

     Estimated static dynamical RAM per process >     113.96 MB

     Estimated max dynamical RAM per process >     254.21 MB

     Estimated total dynamical RAM >     381.31 GB

     The potential is recalculated from file :
     ./CNT_PBE.save/charge-density

     Starting wfcs are random

     Band Structure Calculation
     Davidson diagonalization with overlap

     Computing kpt #:     1  of     1 on this pool
     c_bands:  5 eigenvalues not converged
     total cpu time spent up to now is     2561.0 secs

     ethr =  5.03E-12,  avg # of iterations =120.0

     total cpu time spent up to now is     2561.0 secs

     End of band structure calculation

          k = 0.0000 0.0000 0.0008 (****** PWs)   bands (ev):

   -22.6870 -22.6238 -22.6162 -22.4816 -22.4691 -22.4293 -22.4187 -22.4122
   -22.4048 -22.4038 -22.4027 -22.2204 -22.2086 -22.2068 -22.2050 -22.0953
   -22.0901 -21.8982 -21.8811 -21.8786 -21.8772 -21.8513 -21.8402 -21.7920
   -21.7769 -21.7756 -21.7743 -21.6384 -21.6314 -21.5962 -21.5828 -21.5799
   -21.5791 -21.4345 -21.4241 -21.4213 -21.4199 -21.2725 -21.2588 -21.2553
   -21.2542 -21.0534 -21.0447 -20.8773 -20.8403 -20.8376 -20.8361 -20.8334
   -20.8251 -20.8126 -20.8064 -20.8028 -20.8012 -20.7750 -20.7619 -20.7613
   -20.7606 -20.5895 -20.5709 -20.5693 -20.5684 -20.3469 -20.3349 -20.2799
   -20.2525 -20.2509 -20.2493 -20.2352 -20.2292 -20.2253 -20.2231 -20.1433
   -20.1331 -20.1295 -20.1285 -19.8331 -19.8089 -19.8069 -19.8056 -19.5710
   -19.5319 -19.5273 -19.5255 -19.5131 -19.5078 -19.4876 -19.4666 -19.4303
   -19.4053 -19.4046 -19.4039 -19.3259 -19.3096 -19.3070 -19.3055 -19.2676
   -19.2446 -19.2412 -19.2399 -19.2302 -19.2191 -19.2189 -19.2175 -18.9425
   -18.9113 -18.9108 -18.9088 -18.7432 -18.7238 -18.7182 -18.7165 -18.6059
   -18.5743 -18.5711 -18.5666 -18.5628 -18.5613 -18.5076 -18.4845 -18.4829
   -18.4802 -18.3944 -18.3827 -18.3800 -18.3777 -18.0471 -17.9454 -17.9428
   -17.9407 -17.9115 -17.8768 -17.8578 -17.8383 -17.8346 -17.8278 -17.8248
   -17.8215 -17.8175 -17.8127 -17.8063 -17.8037 -17.8015 -17.8003 -17.6822
   -17.6537 -17.6418 -17.6319 -17.5585 -17.5506 -17.4330 -17.3964 -17.3933
   -17.3773 -17.3736 -17.3715 -17.3526 -17.3369 -17.3324 -17.3271 -17.3143
   -17.3130 -17.2571 -17.2182 -17.2175 -17.0751 -17.0481 -17.0048 -16.9811
   -16.9487 -16.9343 -16.7840 -16.7820 -16.5654 -16.4991 -16.4970 -16.4880
   -16.4755 -16.4616 -16.4406 -16.4317 -16.2586 -16.2532 -16.2211 -16.0345
   -16.0287 -15.9985 -15.9654 -15.8922 -15.7907 -15.7234 -15.6184 -15.6112
   -15.6074 -15.5952 -15.5774 -15.5596 -15.5289 -15.5236 -15.5233 -15.4981
   -15.4628 -15.4554 -15.4296 -15.4275 -15.4263 -15.4201 -15.4118 -15.3938
   -15.3870 -15.3789 -15.3700 -15.3687 -15.3665 -15.3474 -15.3299 -15.2120
   -15.1486 -15.1375 -15.1213 -15.1042 -15.0731 -15.0480 -15.0462 -15.0241
   -14.9947 -14.9529 -14.8816 -14.8651 -14.8540 -14.8223 -14.8109 -14.7638
   -14.6103 -14.6047 -14.5510 -14.5488 -14.5445 -14.5293 -14.4779 -14.4582
   -14.4219 -14.4104 -14.3481 -14.3431 -14.2873 -14.2775 -14.2730 -14.2460
   -14.0123 -14.0036 -13.8747 -13.8641 -13.5377 -13.5330 -13.5181 -13.5144
   -13.4796 -13.4718 -13.4433 -13.4395 -13.4201 -13.4175 -13.4158 -13.4132
   -13.4099 -13.4024 -13.4017 -13.3936 -13.3853 -13.3764 -13.3694 -13.3627
   -13.3615 -13.3527 -13.3456 -13.3403 -13.3341 -13.3288 -13.1491 -13.1395
   -13.0857 -13.0839 -13.0781 -13.0743 -13.0615 -13.0588 -13.0529 -13.0508
   -13.0278 -13.0267 -13.0027 -12.9962 -12.8765 -12.8741 -12.5781 -12.5768
   -12.3921 -12.3896 -12.3732 -12.3706 -12.2636 -12.2582 -12.2533 -12.2530
   -12.1993 -12.1938 -12.1573 -12.1546 -12.1422 -12.1376 -12.0728 -12.0699
   -12.0274 -12.0238 -12.0080 -12.0055 -11.9827 -11.9808 -11.9116 -11.9093
   -11.8892 -11.8861 -11.7035 -11.7004 -11.6580 -11.6544 -11.5931 -11.5887
   -11.5574 -11.5560 -11.5090 -11.4969 -11.4784 -11.4760 -11.4011 -11.3911
   -11.3798 -11.3625 -11.3567 -11.3506 -11.3266 -11.3207 -11.2921 -11.2870
   -11.2274 -11.2230 -11.1957 -11.1948 -11.1318 -11.1231 -11.1122 -11.1101
   -11.0595 -11.0572 -11.0387 -11.0336 -11.0260 -11.0238 -11.0212 -11.0167
   -10.9527 -10.9496 -10.9454 -10.9425 -10.8957 -10.8935 -10.8139 -10.8108
   -10.8094 -10.7411 -10.7365 -10.7360 -10.7276 -10.6453 -10.6426 -10.5730
   -10.5675 -10.5121 -10.5116 -10.5065 -10.5054 -10.5007 -10.4993 -10.4975
   -10.4803 -10.4773 -10.4679 -10.4374 -10.4292 -10.4229 -10.4172 -10.3146
   -10.3081 -10.3016 -10.2992 -10.2868 -10.2812 -10.2727 -10.2715 -10.2576
   -10.2524 -10.2125 -10.2012 -10.1380 -10.1309 -10.1064 -10.0859 -10.0747
   -10.0702 -10.0651 -10.0511 -10.0486 -10.0456 -10.0381 -10.0259 -10.0218
   -10.0162 -10.0033  -9.9850  -9.9839  -9.9793  -9.9790  -9.9775  -9.9725
    -9.9689  -9.9478  -9.9469  -9.9443  -9.9416  -9.9393  -9.9300  -9.9133
    -9.9018  -9.8847  -9.8840  -9.8817  -9.8807  -9.8706  -9.8703  -9.8640
    -9.8623  -9.8371  -9.8245  -9.8157  -9.8133  -9.7952  -9.7918  -9.7908
    -9.7853  -9.6984  -9.6855  -9.6775  -9.6741  -9.6509  -9.6447  -9.5814
    -9.5732  -9.5599  -9.5444  -9.5237  -9.5186  -9.5139  -9.5107  -9.4951
    -9.4137  -9.4038  -9.3918  -9.3885  -9.3776  -9.3642  -9.3626  -9.3541
    -9.3477  -9.3434  -9.3330  -9.3261  -9.2628  -9.2411  -9.2318  -9.2184
    -9.2130  -9.2054  -9.1953  -9.1934  -9.1828  -9.1553  -9.1473  -9.1374
    -9.1193  -9.1156  -9.0978  -9.0957  -9.0522  -9.0420  -9.0341  -9.0311
    -9.0192  -9.0158  -9.0043  -9.0012  -8.9981  -8.9948  -8.9919  -8.9847
    -8.9460  -8.9424  -8.9338  -8.9304  -8.8968  -8.8873  -8.7857  -8.7847
    -8.6905  -8.6659  -8.6093  -8.5999  -8.5963  -8.5934  -8.5819  -8.5637
    -8.5445  -8.5382  -8.5355  -8.5234  -8.5188  -8.5169  -8.4812  -8.4798
    -8.3688  -8.3678  -8.3401  -8.3289  -8.3072  -8.3030  -8.2383  -8.2268
    -8.2240  -8.2176  -8.2172  -8.2158  -8.1759  -8.1742  -8.1706  -8.1640
    -8.1476  -8.1382  -8.0967  -8.0933  -8.0388  -8.0342  -8.0255  -8.0242
    -8.0168  -8.0154  -8.0028  -8.0018  -7.9731  -7.9716  -7.9654  -7.9593
    -7.9375  -7.9348  -7.9230  -7.9169  -7.8465  -7.8431  -7.8346  -7.8325
    -7.7559  -7.7364  -7.7079  -7.7036  -7.6917  -7.6906  -7.6809  -7.6793
    -7.6759  -7.6722  -7.6657  -7.6644  -7.6269  -7.6229  -7.5958  -7.5936
    -7.5310  -7.5267  -7.4382  -7.4364  -7.3963  -7.3898  -7.3448  -7.3337
    -7.2645  -7.2493  -7.2420  -7.2396  -7.2301  -7.2201  -7.2092  -7.2072
    -7.1166  -7.0975  -7.0843  -7.0680  -7.0530  -7.0512  -7.0414  -7.0381
    -7.0220  -7.0132  -6.9860  -6.9813  -6.9595  -6.9334  -6.9313  -6.9275
    -6.9253  -6.9241  -6.8935  -6.8808  -6.8542  -6.8514  -6.8365  -6.8341
    -6.7843  -6.7756  -6.7610  -6.7600  -6.6737  -6.6700  -6.6643  -6.6628
    -6.6460  -6.6290  -6.5843  -6.5694  -6.5609  -6.5553  -6.5526  -6.5512
    -6.5450  -6.5403  -6.3595  -6.3567  -6.3393  -6.3114  -6.2991  -6.2937
    -6.2503  -6.2489  -6.2296  -6.2249  -6.2186  -6.2137  -6.2053  -6.2041
    -6.1771  -6.1239  -6.0868  -6.0459  -6.0399  -6.0247  -5.9903  -5.9538
    -5.9514  -5.9360  -5.8973  -5.8950  -5.8055  -5.7880  -5.7724  -5.7586
    -5.6318  -5.5760  -5.5335  -5.4928  -5.4761  -5.4748  -5.4539  -5.4142
    -5.3828  -5.3316  -5.3096  -5.3063  -5.2916  -5.2829  -5.2723  -5.2438
    -5.2218  -5.2204  -5.2117  -5.1947  -5.1771  -5.1168  -5.1149  -5.0844
    -5.0697  -5.0399  -5.0382  -5.0034  -4.9775  -4.9528  -4.9428  -4.9254
    -4.9244  -4.9141  -4.9092  -4.8074  -4.7800  -4.7429  -4.7120  -4.6278
    -4.6184  -4.6110  -4.5591  -4.3634  -4.3259  -4.2259  -4.1980  -4.1829
    -4.1031  -4.0719  -4.0222  -3.9914  -3.8569  -3.8554  -3.7818  -3.7391
    -3.6210  -3.3517  -3.2573  -2.6416  -2.4216  -2.2391  -2.0189  -1.9940
    -1.9566  -1.9426  -1.8454  -1.8281  -1.7862  -1.7813  -1.6875  -1.6814
    -1.6675  -1.5801  -1.5775  -1.5664  -1.5307  -1.5084  -1.5032  -1.4591
    -1.4411  -1.3691  -1.3547  -1.3366  -1.3253  -1.3082  -1.2967  -1.2917
    -1.2846  -1.2757  -1.2576  -1.2452  -1.2109  -1.1987  -1.1886  -1.1741
    -1.1359  -1.1091  -1.1019  -1.0872  -1.0542  -1.0360  -1.0358  -1.0230
    -1.0147  -1.0079  -1.0043  -0.9872  -0.9811  -0.9617  -0.9171  -0.9074
    -0.7750  -0.6793  -0.6751  -0.6616  -0.6229  -0.5859  -0.5458  -0.5026
    -0.4636  -0.4438  -0.4191  -0.4158  -0.2821  -0.2482  -0.2217  -0.1769
    -0.1183  -0.0515  -0.0068  -0.0049   0.0169   0.1051   0.1453   0.1731
     0.2344   0.2419   0.3284   0.3661   0.3679   0.3914   0.4223   0.4642
     0.4690   0.5011   0.5025   0.5096   0.5123   0.5151   0.5165   0.5643
     0.6034   0.6340   0.6451   0.6525   0.7361   0.7562   0.7727   0.7983
     0.8135   0.8154   0.8297   0.8403   0.8451   0.8577   0.8654   0.8906
     0.9027   0.9144   0.9449   0.9474   0.9503   0.9547   1.1353   1.1452
     1.1736   1.1811   1.1832   1.2122   1.2169   1.2179   1.2240   1.2314
     1.2374   1.2675   1.2886   1.2996   1.3063   1.3090   1.3231   1.3357
     1.3396   1.3621   1.3658   1.3873   1.4065   1.4939   1.4971   1.4997
     1.5107   1.5122   1.5567   1.5599   1.5621   1.5717   1.5730   1.5945
     1.5999   1.6027   1.6065   1.6314   1.6375   1.6476   1.6627   1.6638
     1.6648   1.6703   1.6991   1.7484   1.7573   1.7663   1.7753   1.7876

          k = 0.0000 0.0000 0.4010 (****** PWs)   bands (ev):

   -22.6750 -22.6649 -22.5427 -22.5331 -22.4712 -22.4534 -22.4525 -22.4520
   -22.3367 -22.3228 -22.3223 -22.3193 -22.2759 -22.2701 -22.0739 -22.0604
   -22.0594 -22.0568 -21.8853 -21.8765 -21.8470 -21.8246 -21.8242 -21.8236
   -21.7161 -21.6955 -21.6940 -21.6930 -21.6744 -21.6681 -21.6661 -21.6642
   -21.4524 -21.4363 -21.4341 -21.4323 -21.3598 -21.3537 -21.1616 -21.1476
   -21.1450 -21.1434 -21.0624 -21.0482 -21.0452 -21.0433 -20.8405 -20.8095
   -20.8089 -20.8087 -20.7196 -20.7049 -20.6979 -20.6820 -20.6809 -20.6802
   -20.5522 -20.5338 -20.5297 -20.5278 -20.5090 -20.5014 -20.4982 -20.4968
   -20.4427 -20.4274 -20.4252 -20.4244 -20.0712 -20.0455 -20.0443 -20.0432
   -19.9471 -19.9360 -19.9073 -19.8950 -19.8910 -19.8883 -19.7507 -19.7352
   -19.7326 -19.7309 -19.5757 -19.5416 -19.5389 -19.5377 -19.4833 -19.4518
   -19.4506 -19.4504 -19.3557 -19.3278 -19.3264 -19.3262 -19.1645 -19.1408
   -19.1354 -19.1340 -19.1052 -19.0800 -19.0792 -19.0790 -19.0583 -19.0533
   -18.9386 -18.9197 -18.9153 -18.9142 -18.8676 -18.8575 -18.8556 -18.8535
   -18.7388 -18.7121 -18.7112 -18.7093 -18.3350 -18.2861 -18.2804 -18.2768
   -18.2573 -18.2283 -18.2260 -18.2234 -18.2007 -18.1927 -18.1889 -18.1875
   -18.0800 -18.0711 -17.9608 -17.8908 -17.8886 -17.8838 -17.8816 -17.8643
   -17.8605 -17.8591 -17.7867 -17.7524 -17.7439 -17.7366 -17.6615 -17.6383
   -17.6376 -17.6362 -17.5576 -17.5271 -17.5109 -17.4986 -17.4553 -17.4391
   -17.4323 -17.4308 -17.4234 -17.4200 -17.3916 -17.3817 -17.2236 -17.1902
   -17.1642 -17.1483 -17.0839 -17.0631 -17.0262 -17.0205 -16.9978 -16.9953
   -16.9543 -16.9529 -16.8829 -16.8685 -16.7776 -16.7466 -16.7159 -16.7004
   -16.3521 -16.2895 -16.2379 -16.2142 -16.0994 -16.0514 -16.0476 -16.0454
   -16.0430 -16.0417 -15.9663 -15.9273 -15.8756 -15.8740 -15.8392 -15.7870
   -15.7798 -15.7590 -15.6625 -15.5671 -15.5633 -15.5630 -15.5302 -15.4641
   -15.4577 -15.4574 -15.4424 -15.4035 -15.4033 -15.4022 -15.3898 -15.3717
   -15.3035 -15.2647 -15.2580 -15.2574 -15.2295 -15.2089 -15.1728 -15.1047
   -15.0974 -15.0950 -15.0897 -15.0836 -15.0571 -15.0435 -15.0139 -14.9706
   -14.9672 -14.9649 -14.9356 -14.9203 -14.9035 -14.8970 -14.8851 -14.8641
   -14.8034 -14.7275 -14.7241 -14.6980 -14.6731 -14.6717 -14.6352 -14.4497
   -14.4341 -14.3486 -14.3285 -13.9824 -13.9741 -13.9713 -13.9625 -13.9561
   -13.9425 -13.8964 -13.8883 -13.8484 -13.8365 -13.8155 -13.8096 -13.6735
   -13.6663 -13.5520 -13.5483 -13.5467 -13.5425 -13.5334 -13.5302 -13.5155
   -13.5099 -13.4832 -13.4788 -13.4183 -13.4113 -13.4077 -13.4018 -13.3725
   -13.3707 -13.2742 -13.2732 -13.2494 -13.2391 -13.0974 -13.0949 -13.0782
   -13.0689 -13.0538 -13.0464 -12.8994 -12.8938 -12.8607 -12.8596 -12.8424
   -12.8365 -12.8227 -12.8141 -12.7779 -12.7728 -12.7587 -12.7526 -12.7208
   -12.7193 -12.6197 -12.6168 -12.5411 -12.5386 -12.5134 -12.5111 -12.4424
   -12.4401 -12.2489 -12.2467 -12.1209 -12.1181 -12.0141 -12.0108 -11.9944
   -11.9915 -11.8672 -11.8649 -11.7888 -11.7872 -11.7599 -11.7463 -11.6866
   -11.6788 -11.6605 -11.6579 -11.6411 -11.6388 -11.6163 -11.6094 -11.5753
   -11.5715 -11.5337 -11.5308 -11.5079 -11.5045 -11.5030 -11.5005 -11.4588
   -11.4564 -11.4332 -11.4210 -11.3790 -11.3703 -11.3553 -11.3531 -11.3288
   -11.3232 -11.3024 -11.2966 -11.2658 -11.2635 -11.2455 -11.2430 -11.1843
   -11.1711 -11.1696 -11.1681 -11.1675 -11.1661 -11.1479 -11.1473 -10.7944
   -10.7883 -10.7839 -10.7721 -10.7646 -10.7617 -10.7573 -10.7546 -10.7326
   -10.7225 -10.7066 -10.7049 -10.6410 -10.6358 -10.5556 -10.5540 -10.5539
   -10.5412 -10.5031 -10.4949 -10.4942 -10.4836 -10.4701 -10.4665 -10.4444
   -10.4363 -10.4296 -10.4261 -10.4134 -10.4096 -10.4051 -10.4012 -10.3976
   -10.3896 -10.3446 -10.3382 -10.3276 -10.3244 -10.3137 -10.3093 -10.3024
   -10.2951 -10.2501 -10.2414 -10.2329 -10.2223 -10.2000 -10.1929 -10.1379
   -10.1358 -10.1256 -10.1209 -10.1165 -10.1084 -10.1001 -10.0974 -10.0869
   -10.0696 -10.0507 -10.0441 -10.0292 -10.0211  -9.9947  -9.9787  -9.9764
    -9.9703  -9.9529  -9.9460  -9.9407  -9.9319  -9.9044  -9.9037  -9.9013
    -9.8991  -9.8958  -9.8950  -9.8227  -9.8187  -9.8008  -9.7971  -9.7918
    -9.7891  -9.7817  -9.7772  -9.7467  -9.7393  -9.7240  -9.7168  -9.7125
    -9.6914  -9.6901  -9.6878  -9.6646  -9.6513  -9.6233  -9.6213  -9.6124
    -9.6048  -9.5597  -9.5541  -9.5146  -9.5060  -9.4999  -9.4823  -9.4793
    -9.4721  -9.4676  -9.4622  -9.4321  -9.4291  -9.3478  -9.3370  -9.3225
    -9.3080  -9.3026  -9.3011  -9.2970  -9.2945  -9.2848  -9.2763  -9.1984
    -9.1915  -9.1632  -9.1585  -9.1506  -9.1386  -9.1202  -9.1153  -9.1136
    -9.1079  -9.1053  -9.0994  -9.0956  -9.0890  -9.0830  -9.0820  -9.0628
    -9.0548  -9.0466  -9.0379  -9.0348  -9.0263  -9.0160  -9.0075  -8.9629
    -8.9591  -8.9482  -8.9437  -8.9288  -8.9211  -8.9125  -8.9122  -8.8255
    -8.8083  -8.6384  -8.6301  -8.6282  -8.6002  -8.5966  -8.5962  -8.5503
    -8.5372  -8.5149  -8.5082  -8.4745  -8.4685  -8.3818  -8.3780  -8.3315
    -8.3207  -8.3115  -8.3085  -8.2870  -8.2855  -8.2738  -8.2626  -8.2445
    -8.2374  -8.2320  -8.2298  -8.1835  -8.1809  -8.1577  -8.1507  -8.1370
    -8.1358  -8.1039  -8.0997  -8.0925  -8.0874  -8.0815  -8.0784  -8.0653
    -8.0649  -8.0556  -8.0532  -8.0490  -8.0438  -8.0390  -8.0370  -8.0295
    -8.0259  -7.9531  -7.9404  -7.8878  -7.8862  -7.8803  -7.8779  -7.8622
    -7.8616  -7.7764  -7.7705  -7.7013  -7.6992  -7.6139  -7.6073  -7.5874
    -7.5788  -7.5746  -7.5720  -7.5640  -7.5474  -7.4875  -7.4838  -7.4590
    -7.4582  -7.4170  -7.4098  -7.3851  -7.3786  -7.3703  -7.3628  -7.3356
    -7.3308  -7.3206  -7.3090  -7.2993  -7.2976  -7.2807  -7.2739  -7.2687
    -7.2674  -7.2662  -7.2644  -7.1900  -7.1840  -7.1308  -7.1181  -7.0052
    -6.9880  -6.9653  -6.9573  -6.9519  -6.9452  -6.9374  -6.9307  -6.9240
    -6.9203  -6.8519  -6.8329  -6.8142  -6.8140  -6.7776  -6.7637  -6.7571
    -6.7430  -6.7318  -6.7106  -6.6730  -6.6722  -6.6691  -6.6502  -6.6434
    -6.6370  -6.5989  -6.5911  -6.5345  -6.5226  -6.4709  -6.4686  -6.4569
    -6.4521  -6.4075  -6.4068  -6.4000  -6.3983  -6.3942  -6.3933  -6.3891
    -6.3876  -6.3797  -6.3694  -6.3433  -6.3420  -6.3276  -6.3116  -6.2141
    -6.2061  -6.0635  -6.0601  -6.0121  -6.0089  -6.0016  -5.9948  -5.9404
    -5.8881  -5.8649  -5.8556  -5.7663  -5.7624  -5.7279  -5.6814  -5.6114
    -5.6059  -5.5443  -5.5325  -5.5295  -5.5021  -5.4830  -5.4814  -5.4275
    -5.4107  -5.3654  -5.3485  -5.3186  -5.3068  -5.2927  -5.2916  -5.2899
    -5.2858  -5.2503  -5.2296  -5.2196  -5.2045  -5.1742  -5.1625  -5.1284
    -5.1159  -5.0815  -5.0736  -5.0219  -4.9731  -4.9424  -4.9416  -4.8790
    -4.8577  -4.8235  -4.8181  -4.8062  -4.7404  -4.6530  -4.5796  -4.5565
    -4.5456  -4.5201  -4.5163  -4.4763  -4.4673  -4.4056  -4.4025  -4.2108
    -4.0581  -4.0428  -3.9779  -3.9496  -3.8731  -3.8415  -3.7962  -3.5937
    -3.5336  -3.4678  -3.3392  -2.5869  -2.2921  -2.2737  -2.2198  -2.0543
    -1.9607  -1.9587  -1.7949  -1.7801  -1.7490  -1.7457  -1.6123  -1.6018
    -1.5837  -1.5816  -1.5748  -1.5727  -1.5592  -1.5087  -1.4915  -1.4577
    -1.4508  -1.4386  -1.4272  -1.4138  -1.3859  -1.3832  -1.3732  -1.3690
    -1.3520  -1.3157  -1.2746  -1.2106  -1.1598  -1.1448  -1.0945  -1.0879
    -1.0694  -1.0607  -1.0221  -1.0178  -1.0135  -1.0102  -1.0078  -1.0057
    -1.0018  -0.9866  -0.9853  -0.9844  -0.9640  -0.9337  -0.9162  -0.9089
    -0.8899  -0.8375  -0.8293  -0.7010  -0.6613  -0.6581  -0.6397  -0.5270
    -0.4161  -0.3704  -0.3415  -0.3259  -0.3241  -0.2390  -0.1291  -0.0910
    -0.0451   0.0038   0.0143   0.0407   0.0421   0.1141   0.1612   0.1672
     0.1740   0.1971   0.2050   0.2434   0.2727   0.2952   0.3244   0.3436
     0.3467   0.3756   0.5093   0.5266   0.6053   0.6591   0.6697   0.6857
     0.6957   0.6974   0.7019   0.7152   0.7713   0.8003   0.8110   0.8299
     0.8320   0.8331   0.8485   0.8514   0.8522   0.8744   0.8778   0.8877
     0.8938   0.9240   0.9448   0.9636   0.9679   0.9881   1.0197   1.0281
     1.0602   1.0634   1.0823   1.0869   1.1535   1.1639   1.2270   1.2321
     1.2334   1.2432   1.2516   1.2697   1.3023   1.3197   1.3378   1.3402
     1.3829   1.3838   1.4163   1.4178   1.4194   1.4202   1.4384   1.4469
     1.5285   1.5435   1.5726   1.5888   1.6022   1.6664   1.6848   1.6966
     1.6985   1.6994   1.7038   1.7085   1.7130   1.7189   1.7195   1.7247
     1.7270   1.7284   1.7401   1.7420   1.7606   1.7641   1.7653   1.7779

     Writing all to output data dir ./CNT_PBE.save/

     init_run     :      6.56s CPU      9.20s WALL (       1 calls)
     electrons    :   2966.28s CPU   2548.94s WALL (       1 calls)

     Called by init_run:
     wfcinit      :      0.02s CPU      0.01s WALL (       1 calls)
     wfcinit:wfcr :     45.12s CPU     35.48s WALL (       1 calls)
     potinit      :      0.58s CPU      3.09s WALL (       1 calls)
     hinit0       :      1.09s CPU      1.13s WALL (       1 calls)

     Called by electrons:
     c_bands      :   2966.28s CPU   2548.89s WALL (       1 calls)
     v_of_rho     :      0.25s CPU      1.06s WALL (       1 calls)
     v_h          :      0.04s CPU      0.36s WALL (       1 calls)
     v_xc         :      0.21s CPU      0.70s WALL (       1 calls)

     Called by c_bands:
     init_us_2    :      0.13s CPU      0.13s WALL (       1 calls)
     init_us_2:cp :      0.13s CPU      0.13s WALL (       1 calls)
     cegterg      :   2914.86s CPU   2482.74s WALL (       6 calls)

     Called by sum_band:

     Called by *egterg:
     cdiaghg      :     76.73s CPU    155.31s WALL (     121 calls)
     cegterg:over :    223.30s CPU    242.64s WALL (     120 calls)
     cegterg:upda :    163.07s CPU    170.85s WALL (     120 calls)
     cegterg:last :    303.86s CPU    330.08s WALL (      53 calls)
     cdiaghg:chol :      1.44s CPU      7.51s WALL (     121 calls)
     cdiaghg:inve :      0.17s CPU      0.49s WALL (     121 calls)
     cdiaghg:para :     19.65s CPU     36.68s WALL (     242 calls)
     h_psi        :   2174.39s CPU   1601.09s WALL (     127 calls)
     g_psi        :      0.82s CPU      0.28s WALL (     120 calls)

     Called by h_psi:
     h_psi:calbec :    666.32s CPU    679.83s WALL (     127 calls)
     vloc_psi     :    850.02s CPU    263.99s WALL (     127 calls)
     vloc_psi:tg_ :      0.11s CPU      0.04s WALL (     127 calls)
     add_vuspsi   :    655.20s CPU    656.43s WALL (     127 calls)

     General routines
     calbec       :    666.32s CPU    679.83s WALL (     127 calls)
     fft          :      1.13s CPU      2.33s WALL (      10 calls)
     fftw         :    836.48s CPU    260.41s WALL (   94936 calls)
     davcio       :      0.00s CPU      0.11s WALL (       2 calls)

     Parallel routines
     fft_scatt_xy :     23.42s CPU      6.02s WALL (   94946 calls)
     fft_scatt_yz :    694.20s CPU    223.76s WALL (   94946 calls)
     fft_scatt_tg :      3.25s CPU      0.90s WALL (   94936 calls)

     PWSCF        :  49m49.77s CPU  43m41.18s WALL


   This run was terminated on:  21:35:33   3Jun2024            

=------------------------------------------------------------------------------=
   JOB DONE.
=------------------------------------------------------------------------------=
