Ge Se 
 1.0000000000000000
    12.3793026237227757   -0.0000046743534217   -0.0000023054720266
    -0.0000047329931412   12.5345924650549616    0.0000023412072135
    -0.0000026581294145    0.0000026658873163   11.0877308840874100
 Ge  Se 
  36  36
Cartesian
  0.8804930113149184  0.5079894023311234  1.3433808722529865
  3.0180279730103043 11.0961561248901877  4.1581492106356261
  7.1679712742308235  2.5712999538290147  4.0527941261626896
  7.2642028520300217  6.8094409960145317  4.2848545785975203
  7.0133967773193051 11.1237937936608464  4.0283827419635170
 11.1804418945215644  2.7279650782976144  3.9630921321381591
 11.0383998092805502  6.6157213588174786  4.2102055612342371
 11.3978796710251000 11.0155011629802804  4.2964982694477403
  0.9487124035578434  1.9607409645600531  6.9105109815282830
  0.9184892104233838  6.1267047111315236  7.1047199853255156
  0.8644415531732439 10.2709457595453575  6.9985778300287835
  5.0063399031322842  1.8599268108333542  6.9551176144215265
  4.8826908464909380  6.1523780744180012  7.1071738410369543
  5.1325957124510655  9.9936647443748825  6.6240663998523921
  8.8215144151264582  1.9208647229828884  6.6886663310266501
  9.0935436035525470  5.9210196870549279  7.0289172100265915
  2.9000257245347618  6.7484591118413277  4.2209855540452761
  3.0775095858916415  2.5445068042072454  4.0343659701193770
  9.2571920875269722 10.2271279226548035  6.8028963864739511
 11.2288117133357481  8.2216607808926376  9.6829389290762773
 10.8306725035428713 12.5095926205813512  9.5744568060261432
  1.0349724418726203  4.6771863880792468  1.5382009474206080
  0.9868243354032823  8.8078231648705732  1.5986855101453412
  5.2087391209392351  0.6472432434034127  1.3433787995597579
  5.1825296971655535  4.8709795491221843  1.3699103395326362
  9.2667860556890993  0.4560871134617856  1.4731973034114623
  9.0344952489723980  4.7391855374861578  1.2214540453910647
  4.9890866323240877  8.9760417579328617  1.5652716585600679
  2.8156113672424175  4.0123059649716781  9.6305324245242723
  2.8803753214036512  8.1135056050102516  9.7322750063510224
  2.8079554142772940 12.2489218939122857  9.5932324986352189
  6.9811913716445417  3.9114583273099819  9.5990458292523524
  7.0097054684829931  8.0830773235102420  9.5238223207253618
  6.7186802494428353 12.2055001013281874  9.6919824571266115
 10.9765947358907603  3.7516877681718510  9.5504927136487989
  9.3903231612312652  8.8241677525283269  1.5801752346399240
 11.1582827027016478  0.2194351799536718  7.1364848999114603
  2.9785337201599615  4.2736400591149692  7.2603681920106311
  3.0625129395678257  8.3910562853464778  7.1103213344100782
  6.9010076804920892  0.0874462088052902  7.2044924437307314
  7.0699457770904388  4.4566059477837996  7.0796211566617675
  7.1426207105695863  8.3680781670227287  6.9381302147448602
 11.1207072645620872  4.1536777183048379  6.9509236286616867
  9.1005124697834496  0.1425512525376538  3.9817770624476725
  1.0183154551984710  0.2606275504426704  3.9032517497178105
  0.8730280462666403  4.1862094167206099  4.0267033035839859
  0.7875818529487784  8.2568510637822605  4.0647269975861793
  4.9901096023044120  0.3162957404430238  3.9536252351865904
  5.0544706454329829  4.1354014989838390  3.9919323320840792
  5.0355132906298445  8.3553859396343384  4.0750691909348173
  2.9194371424905512  0.0955488686047706  7.2028277896476185
 11.3631136783420565  8.6773590571154049  7.1868770546238272
 11.3537105497891400 10.6990224038740980  1.7396368541307243
  3.0338191691069838  2.2483333916339805  1.4549285513744923
 11.2164358467083343  2.3043216629196013  1.5597387395966331
  9.1032691148935072  4.4852204758168428  3.7550256108515900
  0.8432939276169216  2.2257629725018946  9.5178323377533811
  0.8571981135868358  6.2809848113649034  9.5239336728678392
  0.9950301095787939 10.4851428054336520  9.7286202657668692
  5.0128697842123460  2.2384835689677440  9.5073614848325221
  5.0890636553758650  6.2615178453418290  9.5527838427055318
  5.0886198169796524 10.4090553147131430  9.3451012740628983
  8.9782297336470283  2.0056406687799915  9.3729383437229057
  9.2384354019180783  6.2799722782241112  9.4189526459377397
  9.0662384995831751 10.5655948486177884  9.4203480135059294
  2.8705065795085787  6.5118535738857206  1.6897905561578479
  3.0454033291590932 10.7416092025451952  1.5773059347098322
  7.1792120342384225  2.3641553859028894  1.5877923646876890
  7.1798033637591550  6.5087190981180889  1.4854913427474652
  6.9814727967670400 10.6157447276256196  1.6072336869066439
 11.2089168093583833  6.4275138547279740  1.6385206314291600
  9.0462845668503089  8.6120748301307160  4.1963411256690968
