 C 
 1.0000000000000000
    32.3722991942999982    0.0000000000000000    0.0000000000000000
     0.0000000000000000   19.9214134216000005    0.0000000000000000
     0.0000000000000000    0.0000000000000000   40.4480476378999967
 C  
 364
Cartesian
 12.0099083482731626 10.7248567720036956  0.0996031301791697
 11.9398866697894643 10.8347718560044992  2.5423712034669839
 10.9447955610586938 11.8542077165847193  2.4695870239001603
 10.3757549284579742 12.1812766326775694  1.2103161506789843
  8.9939627466709897 12.5273213885557801  1.1371178003589513
 11.8658634157794527 10.9422044921316477  4.9853666499747824
 10.8362041489166341 11.9266627760559238  4.9126056238497950
 10.2562730671860098 12.2338467596066831  3.6532194639519258
  8.8632943724938240 12.5317474075406778  3.5798139478391460
  8.2084100417268342 12.4890891713821564  2.3205781356564854
  6.8663718593069625 12.0116196083752698  2.2475229353112494
  6.3314311700541399 11.6315041356904221  0.9881369920956623
  5.4392941267356081 10.5209273889159860  0.9150290264884158
 11.7876798080317684 11.0469554989105863  7.4289340115332925
 10.7247284323394130 11.9952558234279945  7.3560969245621237
 10.1349266235403395 12.2821913896649573  6.0964115353566015
  8.7325364805266386 12.5318561455135171  6.0229082709782658
  8.0796849559881458 12.4664972063608612  4.7634421559149835
  6.7549653009090100 11.9430011186197795  4.6905195175951491
  6.2334260130564871 11.5448363259596256  3.4309957248524450
  5.3801431412625371 10.4042295333440737  3.3577499230592180
  5.1450349857071664  9.7916230530922537  2.0984297303605479
  5.0171899647141043  8.3728311600746199  2.0251349939905925
  5.1388371121231513  7.7279043966337424  0.7657994670145342
  5.7746351612445901  6.4530931846752919  0.6928427567544834
 11.7060016814022365 11.1490117817454610  9.8731777216561820
 10.6109812681188274 12.0600198371767178  9.8001559596114483
 10.0116890211803966 12.3264239940203915  8.5401664961064991
  8.6016278092616023 12.5277000049757419  8.4665855484839643
  7.9516075581222436 12.4398187197445100  7.2067417390757980
  6.6457489986338478 11.8708862904645098  7.1338971150561221
  6.1383574165600638 11.4549898007150137  5.8742051139652416
  5.3249280865293773 10.2856061666707692  5.8007872518300898
  5.1113472500051573  9.6652186227919099  4.5412872653951819
  5.0324799384046504  8.2429079466683746  4.4681326461694484
  5.1763066386872616  7.6026510680105766  3.2085680320437362
  5.8555160948791283  6.3505157774259029  3.1354774788411142
  6.3138586578830020  5.8808228642184783  1.8762436514270295
  7.5490601991607189  5.1712216892729597  1.8027126489745089
  8.1858139801840810  5.0119146894607125  0.5435032956718280
  9.6096175444089749  5.0562008527005506  0.4705837338120003
 12.0096583379570543 10.7204450049244819 13.5789109959401291
 11.6209013896756073 11.2483849127547462 12.3182031604715778
 10.4952488372049988 12.1211974634714377 12.2449118770432737
  9.8871462485827646 12.3664953570041511 10.9845955095895480
  8.4709777653422584 12.5190771555941556 10.9110354281553796
  7.8244763049266197 12.4088421843214789  9.6508206877564611
  6.5389749995976096 11.7953063538410863  9.5779075077203508
  6.0465544351348921 11.3619008127844143  8.3179663846073542
  5.2742696388953680 10.1650532625977217  8.2443797535358083
  5.0822150725268322  9.5377278128230998  6.9846574246593933
  5.0525001136353431  8.1136128942944588  6.9116028451783409
  5.2179839463350506  7.4787705152463415  5.6518424702701076
  5.9400083212451786  6.2508574981459262  5.5784956481705725
  6.4143673494841149  5.7974155375626450  4.3190856519890213
  7.6733222009489683  5.1310677825771238  4.2456259833395587
  8.3151181060455155  4.9937665302194381  2.9862619060088207
  9.7365211091457251  5.0872691872676983  2.9132831280712934
 10.3548230375647421  5.3072493647140870  1.6540847515176540
 11.5157752125365871  6.1326384107566518  1.5805073868760922
 11.9268519296539335  6.6443590372797710  0.3213322146525929
 12.4825591966785723  7.9559372574982206  0.2484728490015692
 11.9395376898836805 10.8307052516627955 16.0249280630591144
 11.5325552442218857 11.3447263558929770 14.7639699111709533
 10.3776033088328994 12.1782854936525951 14.6904340509419225
  9.7615288052344944 12.4025212538809146 13.4297897375352591
  8.3409802647377536 12.5060782930650074 13.3563796214710955
  7.6987441738319040 12.3734488228102890 12.0957635892396542
  6.4352340046668930 11.7159451364253826 12.0226942298900283
  5.9578925125779518 11.2660877201614760 10.7624338270640649
  5.2275429222939840 10.0431761821353263 10.6887940597729845
  5.0574183856878063  9.4095855957064085  9.4287251829281704
  5.0771294234723268  7.9853390595041311  9.3557256862620992
  5.2644397822458986  7.3566281150201789  8.0957467070083613
  6.0283117246204370  6.1543739254098355  8.0221815077227934
  6.5176648995775901  5.7175480561077352  6.7624237588812237
  7.7987619580957270  5.0949726758572682  6.6891209435903640
  8.4448442602234159  4.9800406047785488  5.4294469086708643
  9.8620966148980909  5.1225544370613081  5.3563285113748229
 10.4725792172444230  5.3635995418132891  4.0969947530107209
 11.6044529711605762  6.2284171044162795  4.0234443430400066
 11.9976112796685328  6.7539604055826166  2.7641252299501469
 12.5079240996169005  8.0838607634605335  2.6913540607311783
 12.5669158635151135  8.7376282651657267  1.4321006916290659
 12.3028547864452076 10.1374298478211067  1.3587279425281582
 11.8656526222433865 10.9385777733873564 18.4713190058950261
 11.4415543908081538 11.4384362178344876 17.2101931897713705
 10.2584804634967490 12.2316554454805182 17.1365075477566933
  9.6348699307577519 12.4343335221695686 15.8756163438474989
  8.2115844329356076 12.4886061551848453 15.8023819427250398
  7.5742631852326161 12.3339994831103343 14.5414462705980423
  6.3343267648618147 11.6330206482826295 14.4681633320408736
  5.8730970037317443 11.1668334115011145 13.2075553646201129
  5.1854525049321936  9.9194883327560461 13.1339948396131909
  5.0371570955708913  9.2806539249768409 11.8734477557184874
  5.1060797041023784  7.8579528628616018 11.8004678454941949
  5.3149378225202009  7.2361557073778258 10.5401715168773311
  6.1198245424955600  6.0609660323345711 10.4664976602861710
  6.6239592385099089  5.6412827323641332  9.2063966074014143
  7.9256678396829603  5.0630299199851354  9.1332607232631133
  8.5750568324042451  4.9705090204815763  7.8731771355813533
  9.9865111980514154  5.1619273591378017  7.7999376540701677
 10.5880401688112435  5.4240677358935585  6.5402809007888534
 11.6894677584255824  6.3273758196530530  6.4668914312053074
 12.0644368546324863  6.8659742917895166  5.2072705849746415
 12.5284256092572068  8.2127129167399566  5.1344481115072975
 12.5650672777187165  8.8680165459514644  3.8750675389539611
 12.2529132668116585 10.2578757219835506  3.8016016797772494
 11.7881446154132909 11.0437142797960810 20.9178061029706726
 11.3468809814904272 11.5285660556062055 19.6566943152421736
 10.1373003325263600 12.2805741542015436 19.5829624929501449
  9.5072340188263862 12.4616480407980443 18.3218785344912192
  8.0828866702410949 12.4666470329003349 18.2488418624316822
  7.4515408540210268 12.2899552197058828 16.9877240578067479
  6.2366890027467656 11.5464464405101612 16.9142066443781403
  5.7918258395029252 11.0647941101879024 15.6533291315290146
  5.1473547202605978  9.7946188259958475 15.5799036596163205
  5.0212442769544632  9.1510975590218244 14.3190007208655476
  5.1391280958161349  7.7316186516404040 14.2459001577354698
  5.3695292632855605  7.1176192049130833 12.9852856061327575
  6.2144177937437926  5.9708773313123142 12.9115882383529037
  6.7325491053616435  5.5687917989273101 11.6510846309522957
  8.0534084769692598  5.0356877987893327 11.5780801061052649
  8.7055862964043982  4.9655468323182452 10.3176972645218310
 10.1095597866471714  5.2057948597700721 10.2442702548359623
 10.7015133701586507  5.4883767343960148  8.9841831967877308
 11.7710643627975493  6.4292117756034903  8.9110011547258186
 12.1270580292559522  6.9803207064887012  7.6509843282217922
 12.5442443238765211  8.3423047037564331  7.5780357507630853
 12.5581736680628300  8.9983092753744742  6.3183708225644475
 12.1980912431083546 10.3764797623793648  6.2449312620435702
 11.7073796563426864 11.1462527670272245 23.3642137793533102
 11.2497397064186053 11.6157201173030753 22.1032197735862042
 10.0148490493446030 12.3254984001639354 22.0295973269810013
  9.3787434930430038 12.4845519338672126 20.7684607452549628
  7.9551398645361102 12.4402191453055853 20.6954463641240132
  7.3301503391975400 12.2419093934547796 19.4343076203379610
  6.1415976377272194 11.4569515760951113 19.3606394557379389
  5.7138591535640844 10.9601221413092595 18.0995757682048470
  5.1136441868658320  9.6684935494521351 18.0263298689704357
  5.0099061085171783  9.0210604891695656 16.7651824127260767
  5.1768899512766779  7.6065574471509292 16.6918673912683317
  5.4280017471682456  7.0008569985946014 15.4309948841944049
  6.3120416706392266  5.8840649480161726 15.3573836168028119
  6.8436451382710084  5.5002371613248071 14.0965261304909433
  8.1820077072970054  5.0130154699178888 14.0235190870133692
  8.8361033362929007  4.9653555401918839 12.7628573024861236
 10.2308918396551984  5.2538901977945383 12.6892675355083338
 10.8126868836701142  5.5567170829090875 11.4288620684107798
 11.8490859321521604  6.5339496795135341 11.3558371516663819
 12.1857045034087914  7.0968546583201979 10.0954294368895692
 12.5555057639274992  8.4724155595877040 10.0222793417621379
 12.5467935184214827  9.1282979628230407  8.7622312029172278
 12.1393103683080668 10.4932103933420837  8.6888643973807529
 11.6229948315044265 11.2459769200939572 25.8102950902116213
 11.1492120662680829 11.6991505376426321 24.5494985269916839
  9.8905054292032837 12.3656826019751982 24.4760929333916621
  9.2494647772497949 12.5028866604020461 23.2149936793621876
  7.8282610460982429 12.4093605720698221 23.1419378992887133
  7.2106897700083632 12.1894802325627012 21.8808801227710674
  6.0499334038254808 11.3640444809470509 21.8071556288189079
  5.6394229526309667 10.8528196371478582 20.5460620896694444
  5.0841341699102598  9.5412668433427168 20.4729671110765672
  5.0028049793186655  8.8907042350729686 19.2117475467826786
  5.2183426476878862  7.4828031333563949 19.1382222766234875
  5.4905921439069347  6.8863300485746253 17.8772139376624786
  6.4125333422665447  5.8006449193486063 17.8037569953336501
  6.9570500189073501  5.4354301534470943 16.5426259458298439
  8.3114136701797126  4.9946859649122439 16.4694921704272446
  8.9666134275943232  4.9696705768269949 15.2086085719492328
 10.3505653324800857  5.3062123361503488 15.1349675375916828
 10.9213691774528137  5.6289105513089313 13.8742185540914509
 11.9232293707290413  6.6413776760748613 13.8012858208583484
 12.2402779809493971  7.2154612494539263 12.5406186331374006
 12.5622146230646337  8.6029440572752485 12.4671996456806387
 12.5308093547222512  9.2579946946315346 11.2068013100782160
 12.0765157756603632 10.6079529704367861 11.1335365009414726
 11.5353948180524224 11.3428338944573355 28.2558602322144345
 11.0459975187110651 11.7792607695079568 26.9953713868799383
  9.7650184100523294 12.4020547858173309 26.9222043705463676
  9.1195310585014369 12.5168122144389002 25.6613191937567393
  7.7023706348951402 12.3743060851511455 25.5881062612963426
  7.0926953502578973 12.1332825762743006 24.3272420353276750
  5.9609108472632339 11.2684969175410643 24.2536183062349444
  5.5685677971101404 10.7432513575551063 22.9925628012671979
  5.0587228873524390  9.4133821679733476 22.9195555464972536
  5.0000961985358918  8.7603032739725837 21.6584585152644635
  5.2640833864429410  7.3607072084105587 21.5847839219533171
  5.5565687117499696  6.7738618802698740 20.3237168786096483
  6.5155780500421407  5.7207724973954974 20.2504817700932769
  7.0723319974786349  5.3744504122916341 18.9892270348706447
  8.4410974412440734  4.9806741119463869 18.9159294586427045
  9.0967754264479606  4.9782852826065831 17.6548789275797233
 10.4683251187998110  5.3622969287773667 17.5812738056495164
 11.0276117275187477  5.7046616903301794 16.3202558750508757
 11.9938049445139256  6.7511628228287162 16.2473176219675643
 12.2905965979236065  7.3358564199565830 14.9864214338304578
 12.5643862916487272  8.7335591764368949 14.9128043586660670
 12.5103283218825592  9.3870580246329283 13.6520968286360258
 11.4447216813884260 11.4368996266332150 30.7007587771574002
 10.9402646990035457 11.8560694182175705 29.4405803246101314
  9.6384999804813631 12.4342883561166460 29.3676485250894785
  8.9891518003138753 12.5266571641342814 28.1071260629964890
  7.5777185086847867 12.3354515717551507 28.0337723089291551
  6.9766183916694180 12.0732203816190538 26.7731891835739795
  5.8754557979928252 11.1698074596887800 26.6998044612087888
  5.5011874647840884 10.6314047297728216 25.4388834307908311
  5.0375222841547549  9.2847024495550841 25.3658095653060229
  5.0015704131437060  8.6298937801762872 24.1049293138174008
  5.3138539583808555  7.2402775723092914 24.0312078554338804
  5.6266085352314112  6.6638894030049673 22.7702439299359547
  6.6212989611170707  5.6443938372002895 22.6971781844556872
  7.1898012399261253  5.3177390547345373 21.4359995909184313
  8.5712490192097484  4.9712422120537534 21.3625013023054926
  9.2266049766297975  4.9914452816190087 20.1013936806654598
 10.5840466358751328  5.4224663690449910 20.0279475938215583
 11.1311900407350581  5.7837786084210476 18.7667155331407258
 12.0606359362806632  6.8631116220623412 18.6936716770848506
 12.3369299214233479  7.4578026448298029 17.4326901810719903
 12.5622533372804899  8.8641600739276889 17.3590066016706643
 12.4856580586720725  9.5152691996409384 16.0980132802548361
 11.3506560684088473 11.5275265617111025 33.1449288900946897
 10.8319300204336741 11.9292272678482956 31.8850631290289570
  9.5109516996628276 12.4620995597039386 31.8122845188211301
  8.8586304280826784 12.5319598937308285 30.5522055115552718
  7.4545708389318497 12.2920954189989260 30.4788187237374970
  6.8627776385158326 12.0094021132977353 29.2185564897537198
  5.7934932009691646 11.0683671537609403 29.1454333722506718
  5.4378953901240390 10.5172614618582472 27.8848140231258661
  5.0208510265851407  9.1553476708108175 27.8115999924877002
  5.0075173372862771  8.4996326612543847 26.5509584957636058
  5.3677305266964668  7.1216479861436612 26.4773040598334717
  5.7002068967906840  6.5563191123183557 25.2165032816232717
  6.7293361887842460  5.5715753534494059 25.1435248428941165
  7.3088673717321342  5.2645864429065332 23.8826047398180847
  8.7015451204886496  4.9661745528241257 23.8089474925860998
  9.3558845714181533  5.0090255302322699 22.5479825857813125
 10.6976936835886569  5.4866485412746817 22.4747342546409428
 11.2320555116378777  5.8664669575362343 21.2134616073615945
 12.1235191995192313  6.9773024264254939 21.1401726379940591
 12.3790165776716830  7.5811990601337795 19.8791368871899401
 12.5555219157602878  8.9945185836857551 19.8055063213403741
 12.4566481860179863  9.6426911506447226 18.5443732964766248
 11.2538157304958641 11.6149571467206449 35.5885919414701277
 10.7214534157771091 11.9986272183219818 34.3289929899425488
  9.3827857575557392 12.4854855848516841 34.2562195029033205
  8.7282400462801828 12.5327255029996820 32.9965549816200507
  7.3333099583932206 12.2443130422049915 32.9231036833496802
  6.7512803088888944 11.9413063554651568 31.6632574260537787
  5.7150136057733931 10.9639511847951123 31.5903224427557028
  5.3787665084122231 10.4008395150108761 30.3300501497877590
  5.0088673184726211  9.0253259206642653 30.2566907247555257
  5.0179563284415236  8.3695350807596913 28.9963680338342087
  5.4253279072060092  7.0046717253857071 28.9229115605978748
  5.7773853287040247  6.4512478651141976 27.6623277721173970
  6.8399610343248876  5.5027100595650360 27.5893039406220488
  7.4297501035959685  5.2158120640333285 26.3287049561314959
  8.8319291643863931  4.9657520783141740 26.2550586678187869
  9.4843893200212150  5.0311710852333684 24.9942786751224340
 10.8088444776807613  5.5550059155528979 24.9211890865861747
 11.3298640337277359  5.9530311023161762 23.6601471549439459
 12.1826971314875223  7.0938307917312420 23.5866115193291712
 12.4170167624658028  7.7059988971562667 22.3255800831246525
 12.5447090204045200  9.1245602274620747 22.2521166093639700
 12.4232154125657388  9.7688654162794926 20.9909326971032222
 11.1538089759550481 11.6984874130327228 38.0318063375640563
 10.6084306917564533 12.0638212501717863 36.7724247068164161
  9.2537618574522256 12.5042596163935986 36.6995371407195776
  8.5978729739105493 12.5289366835829856 35.4401695239148680
  7.2138219548009852 12.1923169095642621 35.3667045617032727
  6.6425082270682099 11.8693066991622480 34.1071892616680188
  5.6404210725718285 10.8568841111880250 34.0343272439951718
  5.3233646767946432 10.2823870143689131 32.7745571469400900
  5.0012573500694106  8.8948503146866891 32.7010045827574132
  5.0329415820466039  8.2396075692562842 31.4410777369774017
  5.4870637408516663  6.8895475091855154 31.3678386889402780
  5.8579114761909965  6.3485463300556670 30.1075436379110464
  6.9526278964174235  5.4372259941997365 30.0343575878479889
  7.5522737410105529  5.1711156729520633 28.7741423789127033
  8.9623078611732030  4.9698798844870185 28.7005213946316822
  9.6123304648385322  5.0578334106407947 27.4400459386112701
 10.9179374664814937  5.6270823758834512 27.3670153236621339
 11.4248737387212103  6.0428798285551624 26.1062930668435484
 12.2380854972837714  7.2122715317409254 26.0326146542471548
 12.4513059952243967  7.8322859583581250 24.7718221712762876
 12.5299033511319386  9.2544502770631762 24.6985587417245220
 12.3861690651246423  9.8940990352389786 23.4374704311610778
 11.0507732802811951 11.7781417742395540  0.0267224999343466
 10.4933012381615409 12.1247925353962476 39.2154771423913573
  9.1242189092091497 12.5182936669253788 39.1424419853618417
  8.4677501409544433 12.5205319233075318 37.8832689505893896
  7.0960955374737198 12.1363139132704045 37.8098699016721227
  6.5362021754613391 11.7937023556337213 36.5505469408135966
  5.5697786216559306 10.7472022952393189 36.4776560591965975
  5.2726894681017669 10.1620500008553076 35.2182780314554336
  4.9985832357908597  8.7642870621968640 35.1446211062173788
  5.0526396948192440  8.1103102757818828 33.8850847638729107
  5.5530110745637149  6.7767066751421616 33.8119923933574213
  5.9421918485231204  6.2485884433131194 32.5521162465602814
  7.0679901490285069  5.3758844932632099 32.4787413369996045
  7.6763309936208977  5.1306585277397190 31.2188455563433109
  9.0925412019438951  4.9784376930988570 31.1453621738810753
  9.7390883827868340  5.0889893778359632 29.8851726160304487
 11.0243281839569960  5.7028530442187586 29.8120682872256957
 11.5167584934706255  6.1360635181086085 28.5517939544553947
 12.2892150695490407  7.3327578369245163 28.4780799130228282
 12.4810349290079525  7.9597256587491465 27.2175719062716119
 12.5106339963348798  9.3837645620596213 27.1444935850993474
 12.3448236577552493 10.0180815363027129 25.8837211052891512
  8.3379707317910103 12.5071753796426197 40.3259947949718551
  6.9803777460288909 12.0759262011822912 40.2527615149602980
  6.4325789642652254 11.7143726113693276 38.9934727385438364
  5.5027779289378209 10.6351783961949344 38.9204860501907106
  5.2260633840348802 10.0400290849691682 37.6613349711980092
  5.0003871890942575  8.6335924267246913 37.5877062401369884
  5.0771227430687933  7.9819022594498117 36.3283946632891883
  5.6232371562746417  6.6663280230858870 36.2554462942738454
  6.0304063222755113  6.1519274537995274 34.9958914250346993
  7.1856014629656491  5.3185687364970322 34.9223725111530428
  7.8021898970877217  5.0945663107546872 33.6627672291317950
  9.2228034259683458  4.9912060495080697 33.5895053266041330
  9.8651366324963075  5.1240702190370069 32.3295865891668086
 11.1286152385157511  5.7817020501878114 32.2564214525873396
 11.6056215934231997  6.2319353601235710 30.9965067414413404
 12.3363006531675552  7.4546610798621602 30.9229109026342108
 12.5063666681429773  8.0881007238393963 29.6627533557808256
 12.4870270768821143  9.5123589237572510 29.5898234275546379
 12.2992836057314445 10.1406259133654295 28.3294073718090189
  5.1835194967958920  9.9164775066344522 40.1039311582742144
  5.0065540924709078  8.5030100909488873 40.0304288461218221
  5.1058263795871195  7.8542487157075422 38.7711989660891874
  5.6970896090136094  6.5582541448000420 38.6983072804182413
  6.1218077842773129  6.0581125786291858 37.4389770622112650
  7.3051341005719985  5.2649964855845042 37.3654171763914746
  7.9291456520119414  5.0624093867010211 36.1060100472088763
  9.3525703753846585  5.0082454849737363 36.0329906376679077
  9.9900306432096126  5.1632044606903316 34.7733371948907575
 11.2301537012782600  5.8641206173183429 34.7000977817312020
 11.6913608662037234  6.3307192360890276 33.4404711341807541
 12.3792469016583553  7.5780526534763171 33.3670750187433853
 12.5273446596207805  8.2171593379999592 32.1071863048828732
 12.4589318676859779  9.6399637545341719 32.0342782287957348
 12.2498182795235167 10.2617577668718223 30.7743092770109499
  6.2164631951362068  5.9678305343876632 39.8817001867114413
  7.4264221709889773  5.2159262038837042 39.8081343327725676
  8.0570495186295084  5.0347170729486690 38.5488650281962890
  9.4815891454070886  5.0298087464066006 38.4760131050067642
 10.1133765998989222  5.2069241866463445 37.2165762431804552
 11.3284264354620259  5.9503812547921839 37.1432080697246008
 11.7734501975621626  6.4325403518868631 35.8837968489722172
 12.4178071181794589  7.7028968294389246 35.8106169426906860
 12.5437251352717016  8.3468842125641594 34.5509837146068435
 12.4260322334955831  9.7664853748492639 34.4780249526828300
 12.1955876430824226 10.3806932285214000 33.2183718544939026
 10.2352953241043725  5.2546475561039516 39.6594202644875580
 11.4240010602778135  6.0396826424586116 39.5859206341342755
 11.8520503581525709  6.5371263281310812 38.3266859573124208
 12.4525047882929520  7.8288199172130195 38.2536941121786143
 12.5560060444977708  8.4769690138687359 36.9942833249583458
 12.3894998209372478  9.8917080676975839 36.9211812639161252
 12.1377435462703787 10.4978569242759328 35.6618759596832433
 12.5639122117786393  8.6072487511934899 39.4372355452095107
 12.3484773488068598 10.0153874325616492 39.3640046254718854
 12.0759683517034855 10.6126154126556340 38.1048880437922151
