 C  S                                   
    1.000000000000000     
    32.3722991942999982    0.0000000000000000    0.0000000000000000
     0.0000000000000000   19.9214134216000005    0.0000000000000000
     0.0000000000000000    0.0000000000000000   40.4480476378999967
   C    S 
   364     1
Direct
  0.3709624764998622  0.5383098836012343  0.0024725977903488
  0.3687815249585462  0.5438098305463755  0.0629118895487518
  0.3380573883969256  0.5949969024225745  0.0611123265306499
  0.3204994837810792  0.6114210657162017  0.0299556330080076
  0.2778173755204422  0.6287953723481540  0.0281428484951319
  0.3664569499589584  0.5491802150212939  0.1233450669119306
  0.3346741772445943  0.5986409327232670  0.1215475542585221
  0.3167887570097172  0.6140627996811515  0.0903947529973946
  0.2737613880853150  0.6290304603263186  0.0885757746993920
  0.2535542356106760  0.6268780351548956  0.0574209548569846
  0.2121019701273953  0.6029120301142550  0.0556100421274310
  0.1955935188096363  0.5838468008802832  0.0244516621411881
  0.1680315923398318  0.5281086859300496  0.0226376317564645
  0.3639731817339681  0.5544187874722087  0.1837731124896738
  0.3311915713559571  0.6021243978418425  0.1819836409593944
  0.3130038608725738  0.6165219085346364  0.1508265603802186
  0.2696935278202563  0.6290849856243961  0.1490087086817700
  0.2495511767272208  0.6257782953155335  0.1178533118915569
  0.2086343999391872  0.5994830743188223  0.1160453903348580
  0.1925480845931790  0.5794953095937635  0.0848888174293738
  0.1661897699043169  0.5222430721345712  0.0830694275062717
  0.1589352734396311  0.4915168124632314  0.0519134076749523
  0.1549690756093375  0.4203103392578801  0.0500914340472825
  0.1587234239408949  0.3879557990110459  0.0189368242725879
  0.1783458708969383  0.3239606145008778  0.0171235087946910
  0.3613889892446310  0.5595554430256607  0.2441784089334667
  0.3276657825971068  0.6054444685743587  0.2424121247820278
  0.3091764852850885  0.6188396120513808  0.2112617409826239
  0.2656134802309749  0.6289761813370753  0.2094491498011428
  0.2455621434092224  0.6245090194422440  0.1782949054358965
  0.2052309999535430  0.5958916210078490  0.1764864199948127
  0.1895880402468878  0.5749893207124646  0.1453269088186798
  0.1644713259694281  0.5162835346066302  0.1435030763277736
  0.1578772275900421  0.4851623866743868  0.1123469050364768
  0.1554241226257931  0.4137705140008243  0.1105295259177227
  0.1598638612770471  0.3816540957941978  0.0793687218541813
  0.1808265887710246  0.3187964183815071  0.0775496675096818
  0.1949829160962667  0.2952314472782787  0.0463988667555946
  0.2331299782052142  0.2596029583834977  0.0445732111591037
  0.2527991944977784  0.2516172348414969  0.0134257824776430
  0.2967782670103586  0.2538348070357371  0.0116207721732691
  0.3709994953591812  0.5381718510197380  0.3356668618563136
  0.3588962886889426  0.5646950773918864  0.3045875449280414
  0.3241448343692941  0.6086468095368400  0.3028445884974983
  0.3053487614558976  0.6209507913421675  0.2717335563179614
  0.2615595195781588  0.6285660401517069  0.2699165103202628
  0.2416110604641592  0.6229879429736013  0.2387472466886294
  0.2019248232141136  0.5921097202829044  0.2369294665773959
  0.1867344226305824  0.5703340754637479  0.2057657796360738
  0.1629019307977983  0.5102241129661989  0.2039390191780127
  0.1569740990587341  0.4787470460686688  0.1727840398299648
  0.1560475325927769  0.4072581927258880  0.1709723423124194
  0.1611406171017455  0.3754120976837466  0.1398060113429561
  0.1834181431691443  0.3137559933086449  0.1379807608431350
  0.1980634882402645  0.2910103998419319  0.1068278721915434
  0.2369425896164236  0.2575372567345053  0.1050040954982453
  0.2567723638264732  0.2506749713977472  0.0738526026728952
  0.3006753578808207  0.2553596652513633  0.0720471332579564
  0.3197797453895913  0.2664142022455030  0.0409016952804081
  0.3556466368576613  0.3078353184088451  0.0390866059101376
  0.3683490677150755  0.3335171000750980  0.0079403036328485
  0.3855290818329991  0.3993449915639411  0.0061430163162428
  0.3696843271380046  0.5442742557692285  0.3960097325058301
  0.3566161155459227  0.5697222508181713  0.3651345663640881
  0.3205510494177283  0.6111432840873029  0.3633461454442231
  0.3014906346867983  0.6224753436758647  0.3322215321437394
  0.2575906404644031  0.6275954286694956  0.3303891661295086
  0.2377359454887844  0.6211166378439605  0.2991998426561152
  0.1986992492060857  0.5880996919120206  0.2973693825842080
  0.1839785240426065  0.5655241462886301  0.2662089955797139
  0.1614508057613536  0.5040827879642722  0.2643774745775857
  0.1562186592013183  0.4722863753457475  0.2332181815903067
  0.1568297771920699  0.4007955080501183  0.2314085313961561
  0.1625856905799774  0.3692500030924117  0.2002488213261783
  0.1861422798207551  0.3088540383593281  0.1984229438033567
  0.2012412276253064  0.2869433521506737  0.1672595975411529
  0.2407881662668068  0.2556329214870854  0.1654386142922742
  0.2607500204659107  0.2498954235524234  0.1342824536136956
  0.3045288974272723  0.2570262751030500  0.1324725603960565
  0.3233943345923862  0.2691782604881867  0.1013336615179550
  0.3583600650970941  0.3125852315252161  0.0995205134574136
  0.3705152671397571  0.3389879958249110  0.0683756631298783
  0.3862892515489870  0.4057350024895559  0.0665829576741444
  0.3881341864072991  0.4385519193594331  0.0354329695438433
  0.3799943644603003  0.5088232032319906  0.0336230947654654
  0.3680041060534953  0.5500064983684294  0.4566874167215922
  0.3537429892690017  0.5732172794000456  0.4256974916420129
  0.3167219287630078  0.6118834343361053  0.4238118836234381
  0.2975372635156261  0.6229634137272938  0.3926341342071534
  0.2535785466857646  0.6262120334143295  0.3908118268523977
  0.2338723233604075  0.6189231975659655  0.3596492737242262
  0.1954714859054659  0.5838945691718760  0.3578080107212076
  0.1812948806944780  0.5604966306582420  0.3266378993512377
  0.1600995782096928  0.4978448899004801  0.3248059913293703
  0.1555714924537455  0.4657812167367843  0.2936455907848710
  0.1577149975381174  0.3943577143418397  0.2918395905512834
  0.1641679031188972  0.3631612122706182  0.2606858687102825
  0.1889723654481038  0.3041075506298801  0.2588648356101690
  0.2045158773049974  0.2830231174247731  0.2276948155291169
  0.2446843643921033  0.2538667161782779  0.2258813623182575
  0.2647462039628352  0.2492588612040065  0.1947251334258311
  0.3083495685537151  0.2588307417071656  0.1929087518839724
  0.3269348690456702  0.2720914263873925  0.1617630739493045
  0.3609386512093182  0.3174557524825646  0.1599491646412442
  0.3725426530235508  0.3445428175359634  0.1288104000374948
  0.3868720915688619  0.4121511487059664  0.1270138506511426
  0.3880417727959850  0.4450635022799809  0.0958746528353208
  0.3784215637443775  0.5148413817135604  0.0940633479086125
  0.3640679718781100  0.5518315651595324  0.5173762952206189
  0.3506569005247578  0.5762454549782589  0.4856716487722436
  0.3129751620169386  0.6136456578048788  0.4840506817627536
  0.2935732525247647  0.6234400091056339  0.4530227266338723
  0.2494717691911162  0.6249420745683483  0.4512141321936335
  0.2299806645349278  0.6164296032030733  0.4200647329909559
  0.1923263920788036  0.5794900730203379  0.4182295286770067
  0.1786364889593607  0.5553521753175916  0.3870518118604184
  0.1587735406183809  0.4915337411147270  0.3852377018197895
  0.1549860211150855  0.4592349905914552  0.3540788808745428
  0.1586462152143351  0.3879701194089471  0.3522746618884269
  0.1658130650092544  0.3571577584634138  0.3211154686934292
  0.1918415700571234  0.2995204093039546  0.3193009355415867
  0.2078430075048522  0.2792868873889358  0.2881485502138140
  0.2486151377632256  0.2523548429121928  0.2863566081522217
  0.2687668140345779  0.2488559150395173  0.2551817012075501
  0.3121212116211166  0.2608784102245192  0.2533549934894742
  0.3304172712313617  0.2751341519392140  0.2222012391489193
  0.3634119671685808  0.3224515449978436  0.2203774306197704
  0.3744129745211328  0.3501971833147768  0.1892460392762723
  0.3872642532921148  0.4185864501489393  0.1874342707406553
  0.3877450387606481  0.4515549640889805  0.1563008970422681
  0.3766586719507670  0.5207431999614507  0.1544934219184612
  0.3614311270400493  0.5590139285465657  0.5777269067352724
  0.3472327532348257  0.5815198640088151  0.5465075529397636
  0.3092164971126602  0.6172092564445094  0.5445821741108180
  0.2896054440406091  0.6244678948550508  0.5133156058935887
  0.2456968038525087  0.6233900465965724  0.5115682838719824
  0.2262227659261866  0.6139577577082891  0.4804265210281372
  0.1892668569932238  0.5750135035883658  0.4786401172031606
  0.1760646461600701  0.5501240010996744  0.4474988948429213
  0.1575833790524327  0.4851801959427292  0.4456998575335562
  0.1544962465616814  0.4526677150848647  0.4145193683442569
  0.1596465872836587  0.3816743343919785  0.4127130660299355
  0.1674488726979205  0.3512464314579370  0.3815577980779582
  0.1946994086725033  0.2950705676646097  0.3797547169117257
  0.2112136097810008  0.2758133050261395  0.3486100609726094
  0.2525521412592774  0.2513224734084941  0.3468385809613470
  0.2727772344938745  0.2488094929608547  0.3156497114885194
  0.3158543382634783  0.2633011603576563  0.3138211859048960
  0.3338299260601149  0.2784747269379923  0.2826661774496383
  0.3657690119041477  0.3276634181939800  0.2808151286029851
  0.3761418010274072  0.3559978871782165  0.2496613548731744
  0.3874970625686052  0.4250517071752132  0.2478170100085448
  0.3872908843405918  0.4580201408709744  0.2167009902095396
  0.3747612492549471  0.5265735950620782  0.2149075753480891
  0.3588071753110460  0.5644988556010997  0.6381255548959633
  0.3441620155072740  0.5871310900566920  0.6069693303903437
  0.3053905594309834  0.6206207444169027  0.6050466313693269
  0.2856446277175010  0.6271525365149431  0.5737954342234040
  0.2416945393146399  0.6227771454691380  0.5720173968453931
  0.2225851991092729  0.6115690466975601  0.5408942979665635
  0.1866206035294175  0.5704141523093006  0.5391005459325262
  0.1738426765661636  0.5447113146881380  0.5079393567530580
  0.1567273671435159  0.4788484157216157  0.5061520216925730
  0.1541787997395180  0.4461858797955461  0.4749848675584878
  0.1607985275185261  0.3754093866366391  0.4731868719857165
  0.1692150461549201  0.3454634733117923  0.4420219322872831
  0.1976250272946471  0.2908710468897606  0.4402258545820766
  0.2145470453661052  0.2725566278221329  0.4090590354358777
  0.2564412582766000  0.2507726122582318  0.4072816757930615
  0.2767454546624866  0.2493926445206950  0.3761593274982031
  0.3194800955691749  0.2666391831734364  0.3743706236728274
  0.3371258485299346  0.2824674353341767  0.3431228362225759
  0.3679729326258837  0.3332482877224431  0.3412160263217300
  0.3778061329286194  0.3619504080048432  0.3100579787789833
  0.3876884403847007  0.4316439735491947  0.3081538361872203
  0.3867280137999888  0.4645286577700125  0.2770705442307760
  0.3728083123175591  0.5323609552657886  0.2753134267288700
  0.3561084592658160  0.5693842060978426  0.6985139110261536
  0.3410124290488074  0.5913919462777358  0.6673634969164949
  0.3014931313512148  0.6228341691316085  0.6655034530183249
  0.2815556089421362  0.6285616784063760  0.6343422651917237
  0.2377854172629283  0.6214136071199469  0.6325198000520880
  0.2189610310679628  0.6091710103352255  0.6013316602894339
  0.1840069439590627  0.5657386695028718  0.5995424815956102
  0.1717992959588706  0.5393200035872878  0.5684010714879145
  0.1560810732454592  0.4725080367865656  0.5666146417409701
  0.1542108539666587  0.4396643089403562  0.5354624467104312
  0.1622854554996827  0.3693968463331500  0.5336517752015401
  0.1711789657434901  0.3398347948559233  0.5024767034758512
  0.2007326842952808  0.2867912379738083  0.5006798583527146
  0.2179094908843711  0.2694421864911333  0.4695325403951908
  0.2603467627310203  0.2502693851387587  0.4677564125335384
  0.2806669218134976  0.2507589940150186  0.4366146470122255
  0.3227533411809914  0.2711290888116032  0.4348576160986425
  0.3401277040109980  0.2875918664283693  0.4035896059158794
  0.3698669533716410  0.3400782348097610  0.4016849970252072
  0.3793009239446687  0.3684381771924796  0.3704643301001642
  0.3878780764769514  0.4383794763394003  0.3684392853293464
  0.3861532974871756  0.4711722207647037  0.3373387380575018
  0.3533814395299804  0.5741251782134171  0.7589205995851119
  0.3377878465122340  0.5952443502008539  0.7277913613709607
  0.2976064438160248  0.6243940867810046  0.7259676517807896
  0.2775279967026621  0.6290852698119277  0.6948091753441797
  0.2339478429661880  0.6194725281474182  0.6929812548748109
  0.2153721567858087  0.6063125677445563  0.6618086173997734
  0.1814051647514128  0.5608372692394650  0.6600045892566540
  0.1698556941871688  0.5337455846732074  0.6288520173124243
  0.1555729288540039  0.4661286380117818  0.6270576684351480
  0.1543949139738430  0.4332152474867199  0.5959033007292405
  0.1639627506273052  0.3634161525360151  0.5940911213604448
  0.1734922806954877  0.3343891169661665  0.5629388373764175
  0.2041588884776280  0.2830887034723839  0.5611386648760982
  0.2216562604920912  0.2666794325476847  0.5299544710218489
  0.2643887230730970  0.2497406677875505  0.5281225496618737
  0.2845552395851994  0.2511142332604090  0.4969714750453353
  0.3263537971832129  0.2740117310162397  0.4951557936416237
  0.3430655710803824  0.2927927690953883  0.4641254844670866
  0.3721807244508852  0.3467424297173321  0.4625259654679132
  0.3805082930202581  0.3765484763500589  0.4308229947547740
  0.3892758592737983  0.4452270709388469  0.4284118143760309
  0.3863715889164339  0.4778055735529619  0.3975742306752978
  0.3505428867458577  0.5786547868600245  0.8193499664325635
  0.3344951484700830  0.5988594804532658  0.7882105644077868
  0.2937104505792518  0.6256602620480495  0.7864059143515434
  0.2735383244983088  0.6292543918465425  0.7552559818669584
  0.2301682575714701  0.6171950485514933  0.7534331195967729
  0.2118789969280942  0.6030264047637970  0.7222806735436726
  0.1788977612073503  0.5557118986813750  0.7204650690768739
  0.1679379458050605  0.5280289592598959  0.6892927402181924
  0.1550876893887874  0.4596495575337252  0.6874894316262914
  0.1546554481954147  0.4267203257769142  0.6563400069098675
  0.1657247865568099  0.3575122947530384  0.6545247331100810
  0.1759247638132209  0.3290673738848515  0.6233707404001779
  0.2076574151330651  0.2795381075076881  0.6215584166789346
  0.2254807373898671  0.2640549951694745  0.5903859955493833
  0.2685697852799334  0.2492848765667574  0.5885400783446111
  0.2887097934888660  0.2518959013599295  0.5573773168007853
  0.3300530205028578  0.2763816410231255  0.5555553345559130
  0.3463153482529248  0.2962662622717717  0.5243709748874399
  0.3745555267192268  0.3511117239264580  0.5225014459823363
  0.3839266086993746  0.3801722023960032  0.4915162590262059
  0.3968701822671190  0.4516433262767597  0.4903315407059089
  0.3934642102378271  0.4880534422564969  0.4578722807961462
  0.3475947226505182  0.5830201004129192  0.8797846450158330
  0.3311396931161210  0.6023027803059823  0.8486372378356281
  0.2897918814387310  0.6267559149790040  0.8468391451533209
  0.2695547138487523  0.6291705066502012  0.8156967076265574
  0.2264680508104700  0.6146814091765487  0.8138756954528974
  0.2084765120231871  0.5994956597549300  0.7827228542389109
  0.1764888406746629  0.5504137393184105  0.7809089319861512
  0.1661044984555637  0.5221649588256181  0.7497423697562617
  0.1546956250003790  0.4531045090718390  0.7479270542468095
  0.1549877330764259  0.4201903962858956  0.7167718448406944
  0.1675365415968707  0.3516633018798476  0.7149558235055004
  0.1783726070145331  0.3238386957769403  0.6837991481967365
  0.2111592746944209  0.2761260035411440  0.6819873029487641
  0.2293469376904913  0.2616775360483858  0.6508295420153992
  0.2726685374587691  0.2491079217042984  0.6489870420860165
  0.2928001812262160  0.2525550416938704  0.6177992796157769
  0.3337445629596033  0.2787852019877290  0.6159745464051203
  0.3498491495902153  0.2988351941194834  0.5848436555567558
  0.3766684765007878  0.3558554314044056  0.5830607092269927
  0.3844672861770966  0.3864650406765676  0.5521886316096976
  0.3882071075355643  0.4579987180629340  0.5506226869965101
  0.3850059401744635  0.4904997075113647  0.5197847578036578
  0.3445250839519871  0.5872036871744177  0.9402250919043524
  0.3276790355724508  0.6055477084097413  0.9090749452998094
  0.2858344642570021  0.6276578216043721  0.9072734206112818
  0.2655657098259990  0.6289075479653574  0.8761267870225429
  0.2228171655689983  0.6120094557707410  0.8743061437719580
  0.2051562596764430  0.5958213049335404  0.8431558803887709
  0.1742046050365988  0.5449999201407031  0.8413462843097154
  0.1644036950721551  0.5161819219241044  0.8101910022087374
  0.1544529366196904  0.4465358596444916  0.8083654018020265
  0.1554315705860476  0.4136594939743860  0.7772044384906721
  0.1694398256504944  0.3458754721715119  0.7753925203135195
  0.1808792885342174  0.3187007525248635  0.7442359310801837
  0.2146648778596994  0.2728850256391934  0.7424265029925136
  0.2331695161252624  0.2594665022954797  0.7112680439442687
  0.2767182271733263  0.2492564388420767  0.7094341050802612
  0.2967826555472995  0.2535970256001558  0.6782674487759826
  0.3371663147728450  0.2821412544999313  0.6764627245742443
  0.3528337723984057  0.3029924396059225  0.6453473323882556
  0.3779356074859601  0.3617883655163981  0.6435996364188736
  0.3846208789702670  0.3929579934712397  0.6125238367721284
  0.3867926523028501  0.4642590408254502  0.6108537595868910
  0.3824252270655169  0.4963870725016494  0.5797504939089826
  0.3413438422260447  0.5911919056263893  0.0006708148161884
  0.3241327170548773  0.6085922030683889  0.9695149279395472
  0.2818455076163426  0.6283461108972931  0.9677072947931319
  0.2615715657810281  0.6284666433687655  0.9365582457413500
  0.2192024707537712  0.6091799989790929  0.9347386649385765
  0.2019043015442190  0.5919972945393429  0.9035889716625849
  0.1720490432874004  0.5394760181430152  0.9017799785782429
  0.1628616311569044  0.5101221374152364  0.8706277254197312
  0.1543816226024643  0.4399696685506514  0.8687996142792312
  0.1560346049668902  0.4071577111569203  0.8376442304276320
  0.1714785625273108  0.3402047451232579  0.8358335967083670
  0.1834870469517832  0.3136934914585425  0.8046750218310649
  0.2182440062927962  0.2698480742461685  0.8028619381681287
  0.2370114265988338  0.2574771007208529  0.7717065468892971
  0.2807628297385718  0.2497543867297834  0.7698863323903633
  0.3007214099117553  0.2552172541763351  0.7387328205562296
  0.3404298279194885  0.2860491105967072  0.7369332461392988
  0.3556169110977359  0.3077874639182191  0.7057820672605984
  0.3793779420706725  0.3679389942576496  0.7040018473967973
  0.3852849820661737  0.3994128923397495  0.6728695777859202
  0.3861286843407693  0.4709082192395115  0.6711191600472871
  0.3810147659563211  0.5027503016297162  0.6400335292115319
  0.2575689552927692  0.6277875766291459  0.9969904304261692
  0.2156333881159378  0.6061413150525400  0.9951753739136633
  0.1987205325697833  0.5880066574106770  0.9640198945920886
  0.1699950435229832  0.5338481015304269  0.9622091152662592
  0.1614401169484491  0.5039955500349741  0.9310581821375367
  0.1544550850328728  0.4334063207335129  0.9292310182669687
  0.1568083737040763  0.4007080823252746  0.8980787746077196
  0.1736640204183179  0.3346683731065733  0.8962699718416550
  0.1862215979561681  0.3088493442966970  0.8651124198482851
  0.2218975613946606  0.2669964115540916  0.8632933642924303
  0.2409230174489743  0.2557237128616173  0.8321419169399479
  0.2848056965531533  0.2505027317671928  0.8303295762932598
  0.3046333686863102  0.2571166360217236  0.7991708900154324
  0.3436543715556235  0.2901352603216409  0.7973660606155387
  0.3583683244959625  0.3126929100183863  0.7662099119521593
  0.3808921866821652  0.3741267145769184  0.7644031753785343
  0.3860846596725723  0.4059156837308863  0.7332701291585284
  0.3854659193802714  0.4774240189365920  0.7314877429249138
  0.3796186226570379  0.5089750907880738  0.7003695266853657
  0.1601335501518472  0.4977922953680187  0.9914855128606956
  0.1546531322645020  0.4268517434092817  0.9896603232153821
  0.1577090973562187  0.3943017849941117  0.9585063495991560
  0.1759561807964133  0.3292440845057966  0.9566976080718347
  0.1890607547911923  0.3041436992853023  0.9255444103383492
  0.2256066723345635  0.2643229918790272  0.9237221917417371
  0.2448666356948446  0.2541474877702202  0.8925704062742406
  0.2888326529209185  0.2514189563737874  0.8907614422451848
  0.3085087317891334  0.2591641427732988  0.8596039263894841
  0.3468180549037202  0.2943448954399943  0.8577929064512089
  0.3610456102763064  0.3177355266211809  0.8266410153126860
  0.3822849504695680  0.3803621130777750  0.8248288836418899
  0.3868110428437957  0.4124351618404150  0.7936793101169238
  0.3846960072252377  0.4838509369689028  0.7918846042458401
  0.3782012573647093  0.5150753519891158  0.7607497054557710
  0.1919890240261278  0.2996109183847458  0.9859729087272127
  0.2293561478258822  0.2618646928075375  0.9841479149196551
  0.2488275784655135  0.2527684043935594  0.9529974764033028
  0.2928295558582103  0.2525164973675155  0.9511930044284580
  0.3123339614094928  0.2613946009207752  0.9200402116028121
  0.3498707661236055  0.2987046118097416  0.9182247100198178
  0.3636057940046786  0.3228883199798376  0.8870710672605383
  0.3835152969394034  0.3866489469322643  0.8852608308121210
  0.3873900286111699  0.4189582182537423  0.8541048796496514
  0.3837632838556039  0.4902234126617730  0.8523064367506621
  0.3766205902647373  0.5210555275350117  0.8211652014269689
  0.3161015600299298  0.2637966926099899  0.9804722925571829
  0.3528219789933618  0.3031918799342439  0.9786556067731009
  0.3660434956919637  0.3281434486790412  0.9475047641568073
  0.3846031280260925  0.3929752446152190  0.9457003335187079
  0.3878003599830726  0.4254932307042154  0.9145457115276017
  0.3826711783699523  0.4965131170103285  0.9127417824856686
  0.3748869788786048  0.5269348985099005  0.8815939048994403
  0.3880490570389909  0.4320276061911758  0.9749887058808798
  0.3814105122341128  0.5027109683717088  0.9731807325111470
  0.3730027543848524  0.5326879575189238  0.9420309558663537
  0.4477844807036652  0.4829112861566021  0.4741245129078885
 
  0.00000000E+00  0.00000000E+00  0.00000000E+00
  0.00000000E+00  0.00000000E+00  0.00000000E+00
  0.00000000E+00  0.00000000E+00  0.00000000E+00
  0.00000000E+00  0.00000000E+00  0.00000000E+00
  0.00000000E+00  0.00000000E+00  0.00000000E+00
  0.00000000E+00  0.00000000E+00  0.00000000E+00
  0.00000000E+00  0.00000000E+00  0.00000000E+00
  0.00000000E+00  0.00000000E+00  0.00000000E+00
  0.00000000E+00  0.00000000E+00  0.00000000E+00
  0.00000000E+00  0.00000000E+00  0.00000000E+00
  0.00000000E+00  0.00000000E+00  0.00000000E+00
  0.00000000E+00  0.00000000E+00  0.00000000E+00
  0.00000000E+00  0.00000000E+00  0.00000000E+00
  0.00000000E+00  0.00000000E+00  0.00000000E+00
  0.00000000E+00  0.00000000E+00  0.00000000E+00
  0.00000000E+00  0.00000000E+00  0.00000000E+00
  0.00000000E+00  0.00000000E+00  0.00000000E+00
  0.00000000E+00  0.00000000E+00  0.00000000E+00
  0.00000000E+00  0.00000000E+00  0.00000000E+00
  0.00000000E+00  0.00000000E+00  0.00000000E+00
  0.00000000E+00  0.00000000E+00  0.00000000E+00
  0.00000000E+00  0.00000000E+00  0.00000000E+00
  0.00000000E+00  0.00000000E+00  0.00000000E+00
  0.00000000E+00  0.00000000E+00  0.00000000E+00
  0.00000000E+00  0.00000000E+00  0.00000000E+00
  0.00000000E+00  0.00000000E+00  0.00000000E+00
  0.00000000E+00  0.00000000E+00  0.00000000E+00
  0.00000000E+00  0.00000000E+00  0.00000000E+00
  0.00000000E+00  0.00000000E+00  0.00000000E+00
  0.00000000E+00  0.00000000E+00  0.00000000E+00
  0.00000000E+00  0.00000000E+00  0.00000000E+00
  0.00000000E+00  0.00000000E+00  0.00000000E+00
  0.00000000E+00  0.00000000E+00  0.00000000E+00
  0.00000000E+00  0.00000000E+00  0.00000000E+00
  0.00000000E+00  0.00000000E+00  0.00000000E+00
  0.00000000E+00  0.00000000E+00  0.00000000E+00
  0.00000000E+00  0.00000000E+00  0.00000000E+00
  0.00000000E+00  0.00000000E+00  0.00000000E+00
  0.00000000E+00  0.00000000E+00  0.00000000E+00
  0.00000000E+00  0.00000000E+00  0.00000000E+00
  0.00000000E+00  0.00000000E+00  0.00000000E+00
  0.00000000E+00  0.00000000E+00  0.00000000E+00
  0.00000000E+00  0.00000000E+00  0.00000000E+00
  0.00000000E+00  0.00000000E+00  0.00000000E+00
  0.00000000E+00  0.00000000E+00  0.00000000E+00
  0.00000000E+00  0.00000000E+00  0.00000000E+00
  0.00000000E+00  0.00000000E+00  0.00000000E+00
  0.00000000E+00  0.00000000E+00  0.00000000E+00
  0.00000000E+00  0.00000000E+00  0.00000000E+00
  0.00000000E+00  0.00000000E+00  0.00000000E+00
  0.00000000E+00  0.00000000E+00  0.00000000E+00
  0.00000000E+00  0.00000000E+00  0.00000000E+00
  0.00000000E+00  0.00000000E+00  0.00000000E+00
  0.00000000E+00  0.00000000E+00  0.00000000E+00
  0.00000000E+00  0.00000000E+00  0.00000000E+00
  0.00000000E+00  0.00000000E+00  0.00000000E+00
  0.00000000E+00  0.00000000E+00  0.00000000E+00
  0.00000000E+00  0.00000000E+00  0.00000000E+00
  0.00000000E+00  0.00000000E+00  0.00000000E+00
  0.00000000E+00  0.00000000E+00  0.00000000E+00
  0.00000000E+00  0.00000000E+00  0.00000000E+00
  0.00000000E+00  0.00000000E+00  0.00000000E+00
  0.00000000E+00  0.00000000E+00  0.00000000E+00
  0.00000000E+00  0.00000000E+00  0.00000000E+00
  0.00000000E+00  0.00000000E+00  0.00000000E+00
  0.00000000E+00  0.00000000E+00  0.00000000E+00
  0.00000000E+00  0.00000000E+00  0.00000000E+00
  0.00000000E+00  0.00000000E+00  0.00000000E+00
  0.00000000E+00  0.00000000E+00  0.00000000E+00
  0.00000000E+00  0.00000000E+00  0.00000000E+00
  0.00000000E+00  0.00000000E+00  0.00000000E+00
  0.00000000E+00  0.00000000E+00  0.00000000E+00
  0.00000000E+00  0.00000000E+00  0.00000000E+00
  0.00000000E+00  0.00000000E+00  0.00000000E+00
  0.00000000E+00  0.00000000E+00  0.00000000E+00
  0.00000000E+00  0.00000000E+00  0.00000000E+00
  0.00000000E+00  0.00000000E+00  0.00000000E+00
  0.00000000E+00  0.00000000E+00  0.00000000E+00
  0.00000000E+00  0.00000000E+00  0.00000000E+00
  0.00000000E+00  0.00000000E+00  0.00000000E+00
  0.00000000E+00  0.00000000E+00  0.00000000E+00
  0.00000000E+00  0.00000000E+00  0.00000000E+00
  0.00000000E+00  0.00000000E+00  0.00000000E+00
  0.00000000E+00  0.00000000E+00  0.00000000E+00
  0.00000000E+00  0.00000000E+00  0.00000000E+00
  0.00000000E+00  0.00000000E+00  0.00000000E+00
  0.00000000E+00  0.00000000E+00  0.00000000E+00
  0.00000000E+00  0.00000000E+00  0.00000000E+00
  0.00000000E+00  0.00000000E+00  0.00000000E+00
  0.00000000E+00  0.00000000E+00  0.00000000E+00
  0.00000000E+00  0.00000000E+00  0.00000000E+00
  0.00000000E+00  0.00000000E+00  0.00000000E+00
  0.00000000E+00  0.00000000E+00  0.00000000E+00
  0.00000000E+00  0.00000000E+00  0.00000000E+00
  0.00000000E+00  0.00000000E+00  0.00000000E+00
  0.00000000E+00  0.00000000E+00  0.00000000E+00
  0.00000000E+00  0.00000000E+00  0.00000000E+00
  0.00000000E+00  0.00000000E+00  0.00000000E+00
  0.00000000E+00  0.00000000E+00  0.00000000E+00
  0.00000000E+00  0.00000000E+00  0.00000000E+00
  0.00000000E+00  0.00000000E+00  0.00000000E+00
  0.00000000E+00  0.00000000E+00  0.00000000E+00
  0.00000000E+00  0.00000000E+00  0.00000000E+00
  0.00000000E+00  0.00000000E+00  0.00000000E+00
  0.00000000E+00  0.00000000E+00  0.00000000E+00
  0.00000000E+00  0.00000000E+00  0.00000000E+00
  0.00000000E+00  0.00000000E+00  0.00000000E+00
  0.00000000E+00  0.00000000E+00  0.00000000E+00
  0.00000000E+00  0.00000000E+00  0.00000000E+00
  0.00000000E+00  0.00000000E+00  0.00000000E+00
  0.00000000E+00  0.00000000E+00  0.00000000E+00
  0.00000000E+00  0.00000000E+00  0.00000000E+00
  0.00000000E+00  0.00000000E+00  0.00000000E+00
  0.00000000E+00  0.00000000E+00  0.00000000E+00
  0.00000000E+00  0.00000000E+00  0.00000000E+00
  0.00000000E+00  0.00000000E+00  0.00000000E+00
  0.00000000E+00  0.00000000E+00  0.00000000E+00
  0.00000000E+00  0.00000000E+00  0.00000000E+00
  0.00000000E+00  0.00000000E+00  0.00000000E+00
  0.00000000E+00  0.00000000E+00  0.00000000E+00
  0.00000000E+00  0.00000000E+00  0.00000000E+00
  0.00000000E+00  0.00000000E+00  0.00000000E+00
  0.00000000E+00  0.00000000E+00  0.00000000E+00
  0.00000000E+00  0.00000000E+00  0.00000000E+00
  0.00000000E+00  0.00000000E+00  0.00000000E+00
  0.00000000E+00  0.00000000E+00  0.00000000E+00
  0.00000000E+00  0.00000000E+00  0.00000000E+00
  0.00000000E+00  0.00000000E+00  0.00000000E+00
  0.00000000E+00  0.00000000E+00  0.00000000E+00
  0.00000000E+00  0.00000000E+00  0.00000000E+00
  0.00000000E+00  0.00000000E+00  0.00000000E+00
  0.00000000E+00  0.00000000E+00  0.00000000E+00
  0.00000000E+00  0.00000000E+00  0.00000000E+00
  0.00000000E+00  0.00000000E+00  0.00000000E+00
  0.00000000E+00  0.00000000E+00  0.00000000E+00
  0.00000000E+00  0.00000000E+00  0.00000000E+00
  0.00000000E+00  0.00000000E+00  0.00000000E+00
  0.00000000E+00  0.00000000E+00  0.00000000E+00
  0.00000000E+00  0.00000000E+00  0.00000000E+00
  0.00000000E+00  0.00000000E+00  0.00000000E+00
  0.00000000E+00  0.00000000E+00  0.00000000E+00
  0.00000000E+00  0.00000000E+00  0.00000000E+00
  0.00000000E+00  0.00000000E+00  0.00000000E+00
  0.00000000E+00  0.00000000E+00  0.00000000E+00
  0.00000000E+00  0.00000000E+00  0.00000000E+00
  0.00000000E+00  0.00000000E+00  0.00000000E+00
  0.00000000E+00  0.00000000E+00  0.00000000E+00
  0.00000000E+00  0.00000000E+00  0.00000000E+00
  0.00000000E+00  0.00000000E+00  0.00000000E+00
  0.00000000E+00  0.00000000E+00  0.00000000E+00
  0.00000000E+00  0.00000000E+00  0.00000000E+00