Ge Se                                   
    1.000000000000000     
    12.4490958611291340   -0.0000007626396139   -0.0000008180154190
    -0.0000007662187120   12.5075153378288473    0.0000021545009734
    -0.0000009367167064    0.0000024556138663   11.0742620997209578
   Ge   Se
    36    36
Direct
  0.0859853823685839  0.0220882677777539  0.1157751915775762
  0.2448448778554138  0.8605680333265724  0.3660452650619277
  0.5823260291517300  0.2105042760186322  0.3526417233406463
  0.5900684812194328  0.5157659612199197  0.3674049693820862
  0.5594769290574604  0.8849725117846177  0.3757175687534087
  0.9201551296189479  0.1798040426577998  0.3691086413368652
  0.9004343515105617  0.5336424864076861  0.3563106346140401
  0.9019408520746168  0.8615889981913014  0.3843317123972412
  0.0660368817162791  0.1463347793623271  0.6315423251116172
  0.0722254110658156  0.5035754647105009  0.6261389455831363
  0.1032533285254260  0.8300852782341437  0.6207579698821775
  0.4227862792147050  0.1638210027371088  0.6389309826043075
  0.3943909003142778  0.4745342970231121  0.6287422248405861
  0.4048661658233996  0.8151763861748336  0.6097681128560879
  0.7356522688539400  0.1588893125563331  0.6025888814072715
  0.7660630768855086  0.4950570680535193  0.6326416851887089
  0.2395334780603875  0.5396463577344761  0.3769460020442068
  0.2198019122369388  0.2236210009187616  0.3762285033705908
  0.7347137898724441  0.8190280846380347  0.6330510530504085
  0.9261659336370229  0.6870251438819466  0.8713595514077781
  0.9031064024564088  0.9876085590314787  0.8548055555159451
  0.0678547445948539  0.3739625565076778  0.1079679424308893
  0.0570121712882283  0.7090138983192062  0.1374865550869586
  0.3963572464083640  0.0600217830122034  0.1256194398551855
  0.3881952645555771  0.3809761446263877  0.1423134204411056
  0.7326545937632574  0.0463118769543129  0.1272024706240273
  0.7496587858620600  0.3469236655942112  0.1390367698914261
  0.4274154954508234  0.6869495534144860  0.1161161794871290
  0.2230010962841007  0.3115307084651846  0.8760345418088491
  0.2646720502020798  0.6562238186370877  0.8701900050710805
  0.2515106871157826  0.9977993116897608  0.8705008358598150
  0.5925407644591729  0.3406693195665866  0.8770778397639560
  0.5659661069667337  0.6470797554554153  0.8556263517626164
  0.5833542155555946  0.9837127012816964  0.8633102380003166
  0.9067377996356569  0.3226211740920064  0.8636388588653858
  0.7429913284847771  0.7058444618292441  0.1405392574449920
  0.8971899413705628  0.0122135067377158  0.6129053036971612
  0.2191953408156806  0.3347089324871817  0.6458032087762078
  0.2490720594405147  0.6826868908997596  0.6334950848577705
  0.5829743902675446  0.0204653945030984  0.6436541579282462
  0.5488598248924745  0.3370314611961689  0.6455221256340593
  0.5610226292578417  0.6686022537301142  0.6254309100293014
  0.9191174290399431  0.3638490607788825  0.6408941696239978
  0.7214225215557235  0.0275081119900449  0.3529683828191494
  0.0549124713819893  0.0168418633648457  0.3493857163991763
  0.0497800363722476  0.3384705100639351  0.3520407380899471
  0.0641996573487518  0.6864499427932174  0.3619528265886629
  0.3994425454746562  0.9917747795321432  0.3457651753900919
  0.3914061566996097  0.3485661410446568  0.3648217023927316
  0.3929243507169318  0.6929192729228362  0.3434710726548857
  0.2181555201611260  0.0015463412272609  0.6420904550773443
  0.8877879803654949  0.6735746238709694  0.6278234561798541
  0.8848424437508555  0.8573251163562006  0.1527028304725562
  0.2169904598394723  0.1813945869668458  0.1512769018167290
  0.8848407937650293  0.1860713681798885  0.1407704517107788
  0.7226484237076747  0.3654249370491627  0.3626730170144441
  0.0527643599096734  0.1713439736195923  0.8589461072316737
  0.0882798187417890  0.5295070030208606  0.8397518804676594
  0.0623614285180381  0.8464053151253452  0.8551011924932510
  0.3781541710500349  0.1677877167043604  0.8729101266803241
  0.3971422581348563  0.5038491666271767  0.8559376133195684
  0.4131459594326046  0.8564940491304895  0.8540978867746176
  0.7437194931228248  0.1932374307335394  0.8362855161984228
  0.7247843855115548  0.5048503481698958  0.8618908995400361
  0.7203509337727994  0.8379330168812160  0.8598206056331392
  0.2152956603021607  0.5158277231246160  0.1377438078476416
  0.2131513796113396  0.8468797107827939  0.1411052266067330
  0.5655224390774762  0.1753284685983445  0.1148586936709748
  0.5523920282889421  0.5241243889029619  0.1338294966629476
  0.5711010360073629  0.8389756317864965  0.1519556994202418
  0.8966233611635417  0.5049936190534723  0.1252675460361772
  0.7347453874281484  0.6708173655831970  0.3589236145764048
 
  0.00000000E+00  0.00000000E+00  0.00000000E+00
  0.00000000E+00  0.00000000E+00  0.00000000E+00
  0.00000000E+00  0.00000000E+00  0.00000000E+00
  0.00000000E+00  0.00000000E+00  0.00000000E+00
  0.00000000E+00  0.00000000E+00  0.00000000E+00
  0.00000000E+00  0.00000000E+00  0.00000000E+00
  0.00000000E+00  0.00000000E+00  0.00000000E+00
  0.00000000E+00  0.00000000E+00  0.00000000E+00
  0.00000000E+00  0.00000000E+00  0.00000000E+00
  0.00000000E+00  0.00000000E+00  0.00000000E+00
  0.00000000E+00  0.00000000E+00  0.00000000E+00
  0.00000000E+00  0.00000000E+00  0.00000000E+00
  0.00000000E+00  0.00000000E+00  0.00000000E+00
  0.00000000E+00  0.00000000E+00  0.00000000E+00
  0.00000000E+00  0.00000000E+00  0.00000000E+00
  0.00000000E+00  0.00000000E+00  0.00000000E+00
  0.00000000E+00  0.00000000E+00  0.00000000E+00
  0.00000000E+00  0.00000000E+00  0.00000000E+00
  0.00000000E+00  0.00000000E+00  0.00000000E+00
  0.00000000E+00  0.00000000E+00  0.00000000E+00
  0.00000000E+00  0.00000000E+00  0.00000000E+00
  0.00000000E+00  0.00000000E+00  0.00000000E+00
  0.00000000E+00  0.00000000E+00  0.00000000E+00
  0.00000000E+00  0.00000000E+00  0.00000000E+00
  0.00000000E+00  0.00000000E+00  0.00000000E+00
  0.00000000E+00  0.00000000E+00  0.00000000E+00
  0.00000000E+00  0.00000000E+00  0.00000000E+00
  0.00000000E+00  0.00000000E+00  0.00000000E+00
  0.00000000E+00  0.00000000E+00  0.00000000E+00
  0.00000000E+00  0.00000000E+00  0.00000000E+00
  0.00000000E+00  0.00000000E+00  0.00000000E+00
  0.00000000E+00  0.00000000E+00  0.00000000E+00
  0.00000000E+00  0.00000000E+00  0.00000000E+00
  0.00000000E+00  0.00000000E+00  0.00000000E+00
  0.00000000E+00  0.00000000E+00  0.00000000E+00
  0.00000000E+00  0.00000000E+00  0.00000000E+00
  0.00000000E+00  0.00000000E+00  0.00000000E+00
  0.00000000E+00  0.00000000E+00  0.00000000E+00
  0.00000000E+00  0.00000000E+00  0.00000000E+00
  0.00000000E+00  0.00000000E+00  0.00000000E+00
  0.00000000E+00  0.00000000E+00  0.00000000E+00
  0.00000000E+00  0.00000000E+00  0.00000000E+00
  0.00000000E+00  0.00000000E+00  0.00000000E+00
  0.00000000E+00  0.00000000E+00  0.00000000E+00
  0.00000000E+00  0.00000000E+00  0.00000000E+00
  0.00000000E+00  0.00000000E+00  0.00000000E+00
  0.00000000E+00  0.00000000E+00  0.00000000E+00
  0.00000000E+00  0.00000000E+00  0.00000000E+00
  0.00000000E+00  0.00000000E+00  0.00000000E+00
  0.00000000E+00  0.00000000E+00  0.00000000E+00
  0.00000000E+00  0.00000000E+00  0.00000000E+00
  0.00000000E+00  0.00000000E+00  0.00000000E+00
  0.00000000E+00  0.00000000E+00  0.00000000E+00
  0.00000000E+00  0.00000000E+00  0.00000000E+00
  0.00000000E+00  0.00000000E+00  0.00000000E+00
  0.00000000E+00  0.00000000E+00  0.00000000E+00
  0.00000000E+00  0.00000000E+00  0.00000000E+00
  0.00000000E+00  0.00000000E+00  0.00000000E+00
  0.00000000E+00  0.00000000E+00  0.00000000E+00
  0.00000000E+00  0.00000000E+00  0.00000000E+00
  0.00000000E+00  0.00000000E+00  0.00000000E+00
  0.00000000E+00  0.00000000E+00  0.00000000E+00
  0.00000000E+00  0.00000000E+00  0.00000000E+00
  0.00000000E+00  0.00000000E+00  0.00000000E+00
  0.00000000E+00  0.00000000E+00  0.00000000E+00
  0.00000000E+00  0.00000000E+00  0.00000000E+00
  0.00000000E+00  0.00000000E+00  0.00000000E+00
  0.00000000E+00  0.00000000E+00  0.00000000E+00
  0.00000000E+00  0.00000000E+00  0.00000000E+00
  0.00000000E+00  0.00000000E+00  0.00000000E+00
  0.00000000E+00  0.00000000E+00  0.00000000E+00
  0.00000000E+00  0.00000000E+00  0.00000000E+00
