 vasp.6.4.1 05Apr23 (build Jun 14 2024 13:38:54) complex                         
 executed on    LinuxNV_CrayMPICH date 2024.09.01  12:51:08
 running  256 mpi-ranks, with    1 threads/rank, on   14 nodes
 distrk:  each k-point on  128 cores,    2 groups
 distr:  one band on NCORE=   8 cores,   16 groups


--------------------------------------------------------------------------------------------------------


 INCAR:
   SIGMA = 0.010000
   EDIFF = 1.00e-06
   ALGO = N
   GGA = PE
   PREC = Accurate
   SYSTEM = 03_BS
   ICHARG = 11
   ISMEAR = 0
   ISPIN = 2
   ISTART = 1
   KPAR = 2
   LORBIT = 11
   NBANDS = 896
   NELMIN = 5
   NPAR = 16
   IVDW = 11
   LCHARG = .TRUE.
   LWAVE = .TRUE.
   LREAL = .FALSE.

 POTCAR:   PAW_PBE C 08Apr2002                    
 POTCAR:   PAW_PBE Se 06Sep2000                   
 -----------------------------------------------------------------------------
|                                                                             |
|           W    W    AA    RRRRR   N    N  II  N    N   GGGG   !!!           |
|           W    W   A  A   R    R  NN   N  II  NN   N  G    G  !!!           |
|           W    W  A    A  R    R  N N  N  II  N N  N  G       !!!           |
|           W WW W  AAAAAA  RRRRR   N  N N  II  N  N N  G  GGG   !            |
|           WW  WW  A    A  R   R   N   NN  II  N   NN  G    G                |
|           W    W  A    A  R    R  N    N  II  N    N   GGGG   !!!           |
|                                                                             |
|     You use a magnetic or noncollinear calculation, but did not specify     |
|     the initial magnetic moment with the MAGMOM tag. Note that a            |
|     default of 1 will be used for all atoms. This ferromagnetic setup       |
|     may break the symmetry of the crystal, in particular it may rule        |
|     out finding an antiferromagnetic solution. Thence, we recommend         |
|     setting the initial magnetic moment manually or verifying carefully     |
|     that this magnetic setup is desired.                                    |
|                                                                             |
 -----------------------------------------------------------------------------

 POTCAR:   PAW_PBE C 08Apr2002                    
   VRHFIN =C: s2p2                                                                                  
   LEXCH  = PE                                                                                      
   EATOM  =   147.1560 eV,   10.8157 Ry                                                             
                                                                                                    
   TITEL  = PAW_PBE C 08Apr2002                                                                     
   LULTRA =        F    use ultrasoft PP ?                                                          
   IUNSCR =        0    unscreen: 0-lin 1-nonlin 2-no                                               
   RPACOR =     .000    partial core radius                                                         
   POMASS =   12.011; ZVAL   =    4.000    mass and valenz                                          
   RCORE  =    1.500    outmost cutoff radius                                                       
   RWIGS  =    1.630; RWIGS  =     .863    wigner-seitz radius (au A)                               
   ENMAX  =  400.000; ENMIN  =  300.000 eV                                                          
   ICORE  =        2    local potential                                                             
   LCOR   =        T    correct aug charges                                                         
   LPAW   =        T    paw PP                                                                      
   EAUG   =  644.873                                                                                
   DEXC   =     .000                                                                                
   RMAX   =    2.266    core radius for proj-oper                                                   
   RAUG   =    1.300    factor for augmentation sphere                                              
   RDEP   =    1.501    radius for radial grids                                                     
   RDEPT  =    1.300    core radius for aug-charge                                                  
   QCUT   =   -5.516; QGAM   =   11.032    optimization parameters                                  
                                                                                                    
   Description                                                                                      
     l     E      TYP  RCUT    TYP  RCUT                                                            
     0   .000     23  1.200                                                                         
     0   .000     23  1.200                                                                         
     1   .000     23  1.500                                                                         
     1  2.500     23  1.500                                                                         
     2   .000      7  1.500                                                                         
  local pseudopotential read in
  atomic valenz-charges read in
  non local Contribution for L=            0  read in
    real space projection operators read in
  non local Contribution for L=            0  read in
    real space projection operators read in
  non local Contribution for L=            1  read in
    real space projection operators read in
  non local Contribution for L=            1  read in
    real space projection operators read in
    PAW grid and wavefunctions read in
 
   number of l-projection  operators is LMAX  =            4
   number of lm-projection operators is LMMAX =            8
 
 POTCAR:   PAW_PBE Se 06Sep2000                   
   VRHFIN =Se: s2p4                                                                                 
   LEXCH  = PE                                                                                      
   EATOM  =   256.9644 eV,   18.8864 Ry                                                             
                                                                                                    
   TITEL  = PAW_PBE Se 06Sep2000                                                                    
   LULTRA =        F    use ultrasoft PP ?                                                          
   IUNSCR =        1    unscreen: 0-lin 1-nonlin 2-no                                               
   RPACOR =    1.900    partial core radius                                                         
   POMASS =   78.960; ZVAL   =    6.000    mass and valenz                                          
   RCORE  =    2.100    outmost cutoff radius                                                       
   RWIGS  =    2.200; RWIGS  =    1.164    wigner-seitz radius (au A)                               
   ENMAX  =  211.534; ENMIN  =  158.651 eV                                                          
   ICORE  =        3    local potential                                                             
   LCOR   =        T    correct aug charges                                                         
   LPAW   =        T    paw PP                                                                      
   EAUG   =  446.842                                                                                
   DEXC   =    -.031                                                                                
   RMAX   =    3.170    core radius for proj-oper                                                   
   RAUG   =    1.300    factor for augmentation sphere                                              
   RDEP   =    2.177    radius for radial grids                                                     
   QCUT   =   -3.943; QGAM   =    7.886    optimization parameters                                  
                                                                                                    
   Description                                                                                      
     l     E      TYP  RCUT    TYP  RCUT                                                            
     0   .000     23  2.100                                                                         
     0   .000     23  2.100                                                                         
     1   .000     23  2.100                                                                         
     1   .000     23  2.100                                                                         
     2   .000     23  2.100                                                                         
     3  -.100      7  2.100                                                                         
  local pseudopotential read in
  partial core-charges read in
  atomic valenz-charges read in
  non local Contribution for L=            0  read in
    real space projection operators read in
  non local Contribution for L=            0  read in
    real space projection operators read in
  non local Contribution for L=            1  read in
    real space projection operators read in
  non local Contribution for L=            1  read in
    real space projection operators read in
  non local Contribution for L=            2  read in
    real space projection operators read in
    PAW grid and wavefunctions read in
 
   number of l-projection  operators is LMAX  =            5
   number of lm-projection operators is LMMAX =           13
 
 -----------------------------------------------------------------------------
|                                                                             |
|               ----> ADVICE to this user running VASP <----                  |
|                                                                             |
|     You have a (more or less) 'large supercell' and for larger cells it     |
|     might be more efficient to use real-space projection operators.         |
|     Therefore, try LREAL= Auto in the INCAR file.                           |
|     Mind: If you want to do very accurate calculations, keep the            |
|     reciprocal projection scheme (i.e. LREAL=.FALSE.).                      |
|                                                                             |
 -----------------------------------------------------------------------------

 PAW_PBE C 08Apr2002                    :
 energy of atom  1       EATOM= -147.1560
 kinetic energy error for atom=    0.0288 (will be added to EATOM!!)
 PAW_PBE Se 06Sep2000                   :
 energy of atom  2       EATOM= -256.9644
 kinetic energy error for atom=    0.0020 (will be added to EATOM!!)
 
 
 POSCAR:  C Se
  positions in cartesian coordinates
  No initial velocities read in
 exchange correlation table for  LEXCH =        8
   RHO(1)=    0.500       N(1)  =     2000
   RHO(2)=  100.500       N(2)  =     4000
 


--------------------------------------------------------------------------------------------------------


 ion  position               nearest neighbor table
   1  0.371  0.538  0.002-  85 1.42 363 1.42 288 1.43
   2  0.369  0.544  0.063- 108 1.42  85 1.42   3 1.43
   3  0.338  0.595  0.061-   4 1.42   8 1.42   2 1.43
   4  0.320  0.611  0.030-   3 1.42 288 1.42   5 1.43
   5  0.278  0.629  0.028- 310 1.42  10 1.42   4 1.43
   6  0.366  0.549  0.123- 131 1.42 108 1.42   7 1.43
   7  0.335  0.599  0.122-   8 1.42  16 1.42   6 1.43
   8  0.317  0.614  0.090-   7 1.42   3 1.42   9 1.43
   9  0.274  0.629  0.089-  10 1.42  18 1.42   8 1.43
  10  0.254  0.627  0.057-   9 1.42   5 1.42  11 1.43
  11  0.212  0.603  0.056-  12 1.42  20 1.42  10 1.43
  12  0.196  0.584  0.024-  11 1.42 311 1.42  13 1.43
  13  0.168  0.528  0.023- 329 1.42  22 1.42  12 1.43
  14  0.364  0.555  0.184- 154 1.42 131 1.42  15 1.43
  15  0.331  0.602  0.182-  16 1.42  28 1.42  14 1.43
  16  0.313  0.617  0.151-  15 1.42   7 1.42  17 1.43
  17  0.270  0.629  0.149-  18 1.42  30 1.42  16 1.43
  18  0.250  0.626  0.118-  17 1.42   9 1.42  19 1.43
  19  0.209  0.599  0.116-  20 1.42  32 1.42  18 1.43
  20  0.193  0.579  0.085-  19 1.42  11 1.42  21 1.43
  21  0.166  0.522  0.083-  22 1.42  34 1.42  20 1.43
  22  0.159  0.491  0.052-  21 1.42  13 1.42  23 1.43
  23  0.155  0.420  0.050-  24 1.42  36 1.42  22 1.43
  24  0.159  0.388  0.019-  23 1.42 330 1.42  25 1.43
  25  0.178  0.324  0.017- 344 1.42  38 1.42  24 1.43
  26  0.361  0.560  0.244- 177 1.42 154 1.42  27 1.43
  27  0.328  0.606  0.242-  28 1.42  45 1.42  26 1.43
  28  0.309  0.619  0.211-  27 1.42  15 1.42  29 1.43
  29  0.266  0.629  0.209-  30 1.42  47 1.42  28 1.43
  30  0.246  0.624  0.178-  29 1.42  17 1.42  31 1.43
  31  0.205  0.596  0.176-  32 1.42  49 1.42  30 1.43
  32  0.190  0.575  0.145-  31 1.42  19 1.42  33 1.43
  33  0.164  0.516  0.143-  34 1.42  51 1.42  32 1.43
  34  0.158  0.485  0.112-  33 1.42  21 1.42  35 1.43
  35  0.155  0.414  0.110-  36 1.42  53 1.42  34 1.43
  36  0.160  0.382  0.079-  35 1.42  23 1.42  37 1.43
  37  0.181  0.319  0.078-  38 1.42  55 1.42  36 1.43
  38  0.195  0.295  0.046-  37 1.42  25 1.42  39 1.43
  39  0.233  0.260  0.045-  40 1.42  57 1.42  38 1.43
  40  0.253  0.252  0.013-  39 1.42 345 1.42  41 1.43
  41  0.297  0.254  0.012- 355 1.42  59 1.42  40 1.43
  42  0.371  0.538  0.336-  43 1.42  64 1.42 199 1.43
  43  0.359  0.565  0.305-  42 1.42 177 1.42  44 1.43
  44  0.324  0.609  0.303-  45 1.42  66 1.42  43 1.43
  45  0.305  0.621  0.272-  44 1.42  27 1.42  46 1.43
  46  0.261  0.629  0.270-  47 1.42  68 1.42  45 1.43
  47  0.242  0.623  0.239-  46 1.42  29 1.42  48 1.43
  48  0.202  0.592  0.237-  49 1.42  70 1.42  47 1.43
  49  0.187  0.570  0.206-  48 1.42  31 1.42  50 1.43
  50  0.163  0.510  0.204-  51 1.42  72 1.42  49 1.43
  51  0.157  0.479  0.173-  50 1.42  33 1.42  52 1.43
  52  0.156  0.407  0.171-  53 1.42  74 1.42  51 1.43
  53  0.161  0.375  0.140-  52 1.42  35 1.42  54 1.43
  54  0.183  0.314  0.138-  55 1.42  76 1.42  53 1.43
  55  0.198  0.291  0.107-  54 1.42  37 1.42  56 1.43
  56  0.237  0.258  0.105-  57 1.42  78 1.42  55 1.43
  57  0.257  0.251  0.074-  56 1.42  39 1.42  58 1.43
  58  0.301  0.255  0.072-  59 1.42  80 1.42  57 1.43
  59  0.320  0.266  0.041-  58 1.42  41 1.42  60 1.43
  60  0.356  0.308  0.039-  61 1.42  82 1.42  59 1.43
  61  0.368  0.334  0.008-  60 1.42 356 1.42  62 1.43
  62  0.386  0.399  0.006- 362 1.42  84 1.42  61 1.43
  63  0.368  0.543  0.396-  87 1.42  64 1.42 221 1.42
  64  0.356  0.570  0.365-  42 1.42  63 1.42  65 1.43
  65  0.320  0.612  0.363-  66 1.42  89 1.42  64 1.43
  66  0.301  0.623  0.332-  65 1.42  44 1.42  67 1.43
  67  0.257  0.628  0.330-  68 1.42  91 1.42  66 1.43
  68  0.238  0.621  0.299-  67 1.42  46 1.42  69 1.43
  69  0.199  0.588  0.297-  70 1.42  93 1.42  68 1.43
  70  0.184  0.566  0.266-  69 1.42  48 1.42  71 1.43
  71  0.161  0.504  0.264-  72 1.42  95 1.42  70 1.43
  72  0.156  0.472  0.233-  71 1.42  50 1.42  73 1.43
  73  0.157  0.401  0.231-  74 1.42  97 1.42  72 1.43
  74  0.163  0.369  0.200-  73 1.42  52 1.42  75 1.43
  75  0.186  0.309  0.198-  76 1.42  99 1.42  74 1.43
  76  0.201  0.287  0.167-  75 1.42  54 1.42  77 1.43
  77  0.241  0.256  0.165-  78 1.42 101 1.42  76 1.43
  78  0.261  0.250  0.134-  77 1.42  56 1.42  79 1.43
  79  0.305  0.257  0.133-  80 1.42 103 1.42  78 1.43
  80  0.323  0.269  0.101-  79 1.42  58 1.42  81 1.43
  81  0.358  0.313  0.100-  82 1.42 105 1.42  80 1.43
  82  0.371  0.339  0.068-  81 1.42  60 1.42  83 1.43
  83  0.386  0.406  0.067-  84 1.42 107 1.42  82 1.43
  84  0.388  0.439  0.035-  83 1.42  62 1.42  85 1.43
  85  0.380  0.509  0.034-   1 1.42   2 1.42  84 1.43
  86  0.366  0.547  0.457- 243 1.42  87 1.42 110 1.43
  87  0.353  0.573  0.425-  63 1.42  86 1.42  88 1.43
  88  0.317  0.613  0.424- 112 1.42  89 1.42  87 1.43
  89  0.297  0.624  0.393-  88 1.42  65 1.42  90 1.43
  90  0.253  0.627  0.391-  91 1.42 114 1.42  89 1.43
  91  0.234  0.620  0.360-  90 1.42  67 1.42  92 1.43
  92  0.196  0.584  0.358-  93 1.42 116 1.42  91 1.43
  93  0.181  0.561  0.327-  92 1.42  69 1.42  94 1.43
  94  0.160  0.498  0.325-  95 1.42 118 1.42  93 1.43
  95  0.156  0.466  0.294-  94 1.42  71 1.42  96 1.43
  96  0.158  0.394  0.292-  97 1.42 120 1.42  95 1.43
  97  0.164  0.363  0.261-  96 1.42  73 1.42  98 1.43
  98  0.189  0.304  0.259-  99 1.42 122 1.42  97 1.43
  99  0.205  0.283  0.228-  98 1.42  75 1.42 100 1.43
 100  0.245  0.254  0.226- 101 1.42 124 1.42  99 1.43
 101  0.265  0.249  0.195- 100 1.42  77 1.42 102 1.43
 102  0.308  0.259  0.193- 103 1.42 126 1.42 101 1.43
 103  0.327  0.272  0.162- 102 1.42  79 1.42 104 1.43
 104  0.361  0.318  0.160- 105 1.42 128 1.42 103 1.43
 105  0.373  0.345  0.129- 104 1.42  81 1.42 106 1.43
 106  0.387  0.412  0.127- 107 1.42 130 1.42 105 1.43
 107  0.388  0.445  0.096- 106 1.42  83 1.42 108 1.43
 108  0.378  0.515  0.094-   2 1.42   6 1.42 107 1.43
 109  0.364  0.552  0.517- 265 1.41 110 1.43 133 1.43
 110  0.350  0.577  0.486- 111 1.42  86 1.43 109 1.43
 111  0.313  0.615  0.484- 110 1.42 112 1.42 135 1.42
 112  0.293  0.625  0.453-  88 1.42 111 1.42 113 1.42
 113  0.249  0.626  0.451- 114 1.42 137 1.42 112 1.42
 114  0.230  0.617  0.420- 113 1.42  90 1.42 115 1.43
 115  0.192  0.580  0.418- 116 1.42 139 1.42 114 1.43
 116  0.179  0.556  0.387- 115 1.42  92 1.42 117 1.43
 117  0.159  0.492  0.385- 118 1.42 141 1.42 116 1.43
 118  0.155  0.459  0.354- 117 1.42  94 1.42 119 1.43
 119  0.159  0.388  0.352- 120 1.42 143 1.42 118 1.43
 120  0.166  0.357  0.321- 119 1.42  96 1.42 121 1.43
 121  0.192  0.300  0.319- 122 1.42 145 1.42 120 1.43
 122  0.208  0.279  0.288- 121 1.42  98 1.42 123 1.43
 123  0.249  0.253  0.286- 124 1.42 147 1.42 122 1.43
 124  0.269  0.249  0.255- 123 1.42 100 1.42 125 1.43
 125  0.312  0.261  0.253- 149 1.42 126 1.42 124 1.43
 126  0.330  0.275  0.222- 125 1.42 102 1.42 127 1.43
 127  0.363  0.323  0.220- 128 1.42 151 1.42 126 1.43
 128  0.374  0.350  0.189- 127 1.42 104 1.42 129 1.43
 129  0.387  0.419  0.187- 130 1.42 153 1.42 128 1.43
 130  0.388  0.452  0.156- 129 1.42 106 1.42 131 1.43
 131  0.377  0.521  0.154-   6 1.42  14 1.42 130 1.43
 132  0.361  0.559  0.578- 133 1.42 156 1.42 287 1.42
 133  0.347  0.582  0.546- 132 1.42 134 1.42 109 1.43
 134  0.309  0.618  0.545- 135 1.42 158 1.42 133 1.42
 135  0.289  0.626  0.513- 134 1.42 136 1.42 111 1.42
 136  0.245  0.624  0.512- 137 1.42 160 1.42 135 1.42
 137  0.226  0.615  0.480- 136 1.42 113 1.42 138 1.42
 138  0.189  0.575  0.479- 139 1.42 162 1.42 137 1.42
 139  0.176  0.550  0.447- 138 1.42 115 1.42 140 1.43
 140  0.158  0.485  0.446- 141 1.42 164 1.42 139 1.43
 141  0.155  0.453  0.415- 140 1.42 117 1.42 142 1.43
 142  0.160  0.382  0.413- 143 1.42 166 1.42 141 1.43
 143  0.168  0.351  0.382- 142 1.42 119 1.42 144 1.43
 144  0.195  0.295  0.380- 145 1.42 168 1.42 143 1.43
 145  0.211  0.276  0.349- 144 1.42 121 1.42 146 1.43
 146  0.252  0.251  0.347- 147 1.42 170 1.42 145 1.43
 147  0.273  0.249  0.316- 146 1.42 123 1.42 148 1.43
 148  0.316  0.264  0.314- 172 1.42 149 1.42 147 1.43
 149  0.334  0.279  0.283- 125 1.42 148 1.42 150 1.43
 150  0.366  0.328  0.281- 151 1.42 174 1.42 149 1.43
 151  0.376  0.356  0.250- 150 1.42 127 1.42 152 1.43
 152  0.388  0.425  0.248- 153 1.42 176 1.42 151 1.43
 153  0.387  0.458  0.217- 152 1.42 129 1.42 154 1.43
 154  0.375  0.527  0.215-  14 1.42  26 1.42 153 1.43
 155  0.359  0.565  0.638- 156 1.42 179 1.42 309 1.43
 156  0.344  0.587  0.607- 155 1.42 132 1.42 157 1.43
 157  0.305  0.621  0.605- 158 1.42 181 1.42 156 1.43
 158  0.285  0.628  0.574- 157 1.42 134 1.42 159 1.43
 159  0.242  0.623  0.572- 160 1.42 183 1.42 158 1.43
 160  0.222  0.612  0.541- 159 1.42 136 1.42 161 1.43
 161  0.187  0.571  0.539- 162 1.42 185 1.42 160 1.43
 162  0.174  0.545  0.508- 161 1.42 138 1.42 163 1.42
 163  0.157  0.479  0.506- 187 1.42 164 1.42 162 1.42
 164  0.155  0.446  0.475- 140 1.42 163 1.42 165 1.42
 165  0.161  0.376  0.473- 166 1.42 189 1.42 164 1.42
 166  0.169  0.346  0.442- 165 1.42 142 1.42 167 1.43
 167  0.198  0.291  0.440- 168 1.42 191 1.42 166 1.43
 168  0.215  0.273  0.409- 167 1.42 144 1.42 169 1.43
 169  0.257  0.251  0.407- 170 1.42 193 1.42 168 1.43
 170  0.277  0.249  0.376- 169 1.42 146 1.42 171 1.43
 171  0.319  0.266  0.374- 172 1.42 195 1.42 170 1.43
 172  0.337  0.282  0.343- 171 1.42 148 1.42 173 1.43
 173  0.368  0.333  0.341- 197 1.42 174 1.42 172 1.43
 174  0.378  0.362  0.310- 173 1.42 150 1.42 175 1.43
 175  0.388  0.432  0.308- 176 1.42 199 1.42 174 1.43
 176  0.387  0.465  0.277- 175 1.42 152 1.42 177 1.43
 177  0.373  0.533  0.275-  26 1.42  43 1.42 176 1.43
 178  0.356  0.570  0.698- 201 1.42 179 1.42 328 1.43
 179  0.341  0.592  0.667- 155 1.42 178 1.42 180 1.43
 180  0.301  0.623  0.666- 181 1.42 203 1.42 179 1.43
 181  0.281  0.629  0.634- 180 1.42 157 1.42 182 1.43
 182  0.238  0.622  0.633- 183 1.42 205 1.42 181 1.43
 183  0.219  0.609  0.601- 182 1.42 159 1.42 184 1.43
 184  0.184  0.566  0.600- 185 1.42 207 1.42 183 1.43
 185  0.172  0.539  0.568- 184 1.42 161 1.42 186 1.43
 186  0.156  0.473  0.567- 187 1.42 209 1.42 185 1.43
 187  0.154  0.440  0.535- 186 1.42 163 1.42 188 1.43
 188  0.162  0.369  0.534- 189 1.42 211 1.42 187 1.43
 189  0.171  0.340  0.502- 188 1.42 165 1.42 190 1.42
 190  0.201  0.287  0.501- 191 1.42 213 1.42 189 1.42
 191  0.218  0.270  0.469- 190 1.42 167 1.42 192 1.42
 192  0.261  0.251  0.468- 193 1.42 191 1.42 215 1.42
 193  0.281  0.251  0.437- 192 1.42 169 1.42 194 1.42
 194  0.323  0.271  0.435- 195 1.42 193 1.42 217 1.43
 195  0.340  0.287  0.403- 194 1.42 171 1.42 196 1.42
 196  0.370  0.339  0.402- 219 1.42 197 1.42 195 1.42
 197  0.379  0.368  0.370- 173 1.42 196 1.42 198 1.42
 198  0.388  0.439  0.369- 199 1.42 221 1.42 197 1.42
 199  0.386  0.471  0.338- 198 1.42 175 1.42  42 1.43
 200  0.353  0.574  0.759- 201 1.42 223 1.42 343 1.43
 201  0.338  0.595  0.728- 178 1.42 200 1.42 202 1.43
 202  0.298  0.624  0.726- 203 1.42 225 1.42 201 1.43
 203  0.277  0.629  0.695- 202 1.42 180 1.42 204 1.43
 204  0.234  0.619  0.693- 205 1.42 227 1.42 203 1.43
 205  0.215  0.606  0.662- 204 1.42 182 1.42 206 1.43
 206  0.181  0.561  0.660- 207 1.42 229 1.42 205 1.43
 207  0.170  0.534  0.629- 206 1.42 184 1.42 208 1.43
 208  0.156  0.466  0.627- 209 1.42 231 1.42 207 1.43
 209  0.154  0.433  0.596- 208 1.42 186 1.42 210 1.43
 210  0.164  0.363  0.594- 211 1.42 233 1.42 209 1.43
 211  0.174  0.334  0.563- 210 1.42 188 1.42 212 1.43
 212  0.204  0.283  0.561- 213 1.42 235 1.42 211 1.43
 213  0.222  0.267  0.530- 212 1.42 190 1.42 214 1.42
 214  0.265  0.251  0.528- 237 1.42 215 1.42 213 1.42
 215  0.285  0.253  0.497- 216 1.42 214 1.42 192 1.42
 216  0.327  0.275  0.495- 215 1.42 239 1.43 217 1.43
 217  0.344  0.293  0.464- 218 1.41 216 1.43 194 1.43
 218  0.374  0.344  0.462- 219 1.41 217 1.41 241 1.46
 219  0.382  0.374  0.431- 218 1.41 196 1.42 220 1.44
 220  0.389  0.445  0.429- 243 1.41 221 1.42 219 1.44
 221  0.385  0.478  0.398- 220 1.42 198 1.42  63 1.42
 222  0.351  0.579  0.819- 223 1.42 245 1.42 354 1.43
 223  0.334  0.599  0.788- 222 1.42 200 1.42 224 1.43
 224  0.294  0.626  0.786- 225 1.42 247 1.42 223 1.43
 225  0.274  0.629  0.755- 224 1.42 202 1.42 226 1.43
 226  0.230  0.617  0.753- 227 1.42 249 1.42 225 1.43
 227  0.212  0.603  0.722- 226 1.42 204 1.42 228 1.43
 228  0.179  0.556  0.720- 229 1.42 251 1.42 227 1.43
 229  0.168  0.528  0.689- 228 1.42 206 1.42 230 1.43
 230  0.155  0.460  0.688- 231 1.42 253 1.42 229 1.43
 231  0.155  0.427  0.656- 230 1.42 208 1.42 232 1.43
 232  0.166  0.357  0.655- 233 1.42 255 1.42 231 1.43
 233  0.176  0.329  0.623- 232 1.42 210 1.42 234 1.43
 234  0.208  0.279  0.622- 235 1.42 257 1.42 233 1.43
 235  0.226  0.264  0.590- 234 1.42 212 1.42 236 1.43
 236  0.269  0.249  0.589- 237 1.42 259 1.42 235 1.43
 237  0.289  0.252  0.557- 214 1.42 236 1.42 238 1.42
 238  0.330  0.277  0.556- 261 1.42 239 1.42 237 1.42
 239  0.347  0.297  0.525- 240 1.42 238 1.42 216 1.43
 240  0.376  0.349  0.523- 263 1.41 239 1.42 241 1.46
 241  0.390  0.376  0.491- 240 1.46 218 1.46 242 1.56 365 2.06
 242  0.396  0.453  0.490- 243 1.46 265 1.46 241 1.56 365 2.06
 243  0.386  0.484  0.458- 220 1.41  86 1.42 242 1.46
 244  0.348  0.583  0.880- 245 1.42 267 1.42 361 1.43
 245  0.331  0.602  0.849- 244 1.42 222 1.42 246 1.43
 246  0.290  0.627  0.847- 247 1.42 269 1.42 245 1.43
 247  0.270  0.629  0.816- 246 1.42 224 1.42 248 1.43
 248  0.226  0.615  0.814- 249 1.42 271 1.42 247 1.43
 249  0.208  0.599  0.783- 248 1.42 226 1.42 250 1.43
 250  0.176  0.550  0.781- 251 1.42 273 1.42 249 1.43
 251  0.166  0.522  0.750- 250 1.42 228 1.42 252 1.43
 252  0.155  0.453  0.748- 253 1.42 275 1.42 251 1.43
 253  0.155  0.420  0.717- 252 1.42 230 1.42 254 1.43
 254  0.167  0.352  0.715- 255 1.42 277 1.42 253 1.43
 255  0.178  0.324  0.684- 254 1.42 232 1.42 256 1.43
 256  0.211  0.276  0.682- 257 1.42 279 1.42 255 1.43
 257  0.229  0.262  0.651- 256 1.42 234 1.42 258 1.43
 258  0.273  0.249  0.649- 259 1.42 281 1.42 257 1.43
 259  0.293  0.252  0.618- 258 1.42 236 1.42 260 1.43
 260  0.334  0.279  0.616- 283 1.42 261 1.42 259 1.43
 261  0.350  0.299  0.585- 238 1.42 260 1.42 262 1.42
 262  0.376  0.356  0.583- 263 1.42 285 1.42 261 1.42
 263  0.384  0.386  0.552- 240 1.41 262 1.42 264 1.44
 264  0.389  0.458  0.550- 265 1.41 287 1.42 263 1.44
 265  0.385  0.491  0.519- 264 1.41 109 1.41 242 1.46
 266  0.345  0.587  0.940- 267 1.42 289 1.42 364 1.43
 267  0.328  0.606  0.909- 266 1.42 244 1.42 268 1.43
 268  0.286  0.628  0.907- 269 1.42 291 1.42 267 1.43
 269  0.266  0.629  0.876- 268 1.42 246 1.42 270 1.43
 270  0.223  0.612  0.874- 271 1.42 293 1.42 269 1.43
 271  0.205  0.596  0.843- 270 1.42 248 1.42 272 1.43
 272  0.174  0.545  0.841- 273 1.42 295 1.42 271 1.43
 273  0.164  0.516  0.810- 272 1.42 250 1.42 274 1.43
 274  0.154  0.446  0.808- 275 1.42 297 1.42 273 1.43
 275  0.155  0.414  0.777- 274 1.42 252 1.42 276 1.43
 276  0.169  0.346  0.775- 277 1.42 299 1.42 275 1.43
 277  0.181  0.319  0.744- 276 1.42 254 1.42 278 1.43
 278  0.215  0.273  0.742- 279 1.42 301 1.42 277 1.43
 279  0.233  0.259  0.711- 278 1.42 256 1.42 280 1.43
 280  0.277  0.249  0.709- 281 1.42 303 1.42 279 1.43
 281  0.297  0.254  0.678- 280 1.42 258 1.42 282 1.43
 282  0.337  0.282  0.677- 283 1.42 305 1.42 281 1.43
 283  0.353  0.303  0.645- 282 1.42 260 1.42 284 1.43
 284  0.378  0.362  0.644- 285 1.42 307 1.42 283 1.43
 285  0.384  0.393  0.613- 284 1.42 262 1.42 286 1.42
 286  0.387  0.465  0.611- 309 1.42 287 1.42 285 1.42
 287  0.382  0.497  0.580- 264 1.42 286 1.42 132 1.42
 288  0.341  0.591  0.001- 289 1.42   4 1.42   1 1.43
 289  0.324  0.609  0.969- 288 1.42 266 1.42 290 1.43
 290  0.282  0.628  0.968- 291 1.42 310 1.42 289 1.43
 291  0.262  0.628  0.937- 290 1.42 268 1.42 292 1.43
 292  0.219  0.609  0.935- 293 1.42 312 1.42 291 1.43
 293  0.202  0.592  0.904- 292 1.42 270 1.42 294 1.43
 294  0.172  0.539  0.902- 295 1.42 314 1.42 293 1.43
 295  0.163  0.510  0.871- 294 1.42 272 1.42 296 1.43
 296  0.154  0.440  0.869- 297 1.42 316 1.42 295 1.43
 297  0.156  0.407  0.838- 296 1.42 274 1.42 298 1.43
 298  0.171  0.340  0.836- 299 1.42 318 1.42 297 1.43
 299  0.183  0.314  0.805- 298 1.42 276 1.42 300 1.43
 300  0.218  0.270  0.803- 301 1.42 320 1.42 299 1.43
 301  0.237  0.257  0.772- 300 1.42 278 1.42 302 1.43
 302  0.281  0.250  0.770- 303 1.42 322 1.42 301 1.43
 303  0.301  0.255  0.739- 302 1.42 280 1.42 304 1.43
 304  0.340  0.286  0.737- 305 1.42 324 1.42 303 1.43
 305  0.356  0.308  0.706- 304 1.42 282 1.42 306 1.43
 306  0.379  0.368  0.704- 307 1.42 326 1.42 305 1.43
 307  0.385  0.400  0.673- 306 1.42 284 1.42 308 1.43
 308  0.386  0.471  0.671- 309 1.42 328 1.42 307 1.43
 309  0.381  0.503  0.640- 286 1.42 308 1.42 155 1.43
 310  0.258  0.628  0.997-   5 1.42 290 1.42 311 1.43
 311  0.216  0.606  0.995- 312 1.42  12 1.42 310 1.43
 312  0.199  0.588  0.964- 311 1.42 292 1.42 313 1.43
 313  0.170  0.534  0.962- 314 1.42 329 1.42 312 1.43
 314  0.161  0.504  0.931- 313 1.42 294 1.42 315 1.43
 315  0.154  0.433  0.929- 316 1.42 331 1.42 314 1.43
 316  0.157  0.401  0.898- 315 1.42 296 1.42 317 1.43
 317  0.174  0.335  0.896- 318 1.42 333 1.42 316 1.43
 318  0.186  0.309  0.865- 317 1.42 298 1.42 319 1.43
 319  0.222  0.267  0.863- 320 1.42 335 1.42 318 1.43
 320  0.241  0.256  0.832- 319 1.42 300 1.42 321 1.43
 321  0.285  0.251  0.830- 322 1.42 337 1.42 320 1.43
 322  0.305  0.257  0.799- 321 1.42 302 1.42 323 1.43
 323  0.344  0.290  0.797- 324 1.42 339 1.42 322 1.43
 324  0.358  0.313  0.766- 323 1.42 304 1.42 325 1.43
 325  0.381  0.374  0.764- 326 1.42 341 1.42 324 1.43
 326  0.386  0.406  0.733- 325 1.42 306 1.42 327 1.43
 327  0.385  0.478  0.731- 328 1.42 343 1.42 326 1.43
 328  0.380  0.509  0.700- 327 1.42 308 1.42 178 1.43
 329  0.160  0.498  0.991-  13 1.42 313 1.42 330 1.43
 330  0.155  0.427  0.990- 331 1.42  24 1.42 329 1.43
 331  0.158  0.394  0.959- 330 1.42 315 1.42 332 1.43
 332  0.176  0.329  0.957- 333 1.42 344 1.42 331 1.43
 333  0.189  0.304  0.926- 332 1.42 317 1.42 334 1.43
 334  0.226  0.264  0.924- 335 1.42 346 1.42 333 1.43
 335  0.245  0.254  0.893- 334 1.42 319 1.42 336 1.43
 336  0.289  0.251  0.891- 337 1.42 348 1.42 335 1.43
 337  0.309  0.259  0.860- 336 1.42 321 1.42 338 1.43
 338  0.347  0.294  0.858- 339 1.42 350 1.42 337 1.43
 339  0.361  0.318  0.827- 338 1.42 323 1.42 340 1.43
 340  0.382  0.380  0.825- 341 1.42 352 1.42 339 1.43
 341  0.387  0.413  0.794- 340 1.42 325 1.42 342 1.43
 342  0.385  0.484  0.792- 343 1.42 354 1.42 341 1.43
 343  0.378  0.515  0.761- 342 1.42 327 1.42 200 1.43
 344  0.192  0.300  0.986-  25 1.42 332 1.42 345 1.43
 345  0.229  0.262  0.984- 346 1.42  40 1.42 344 1.43
 346  0.249  0.253  0.953- 345 1.42 334 1.42 347 1.43
 347  0.293  0.253  0.951- 348 1.42 355 1.42 346 1.43
 348  0.312  0.261  0.920- 347 1.42 336 1.42 349 1.43
 349  0.350  0.299  0.918- 350 1.42 357 1.42 348 1.43
 350  0.364  0.323  0.887- 349 1.42 338 1.42 351 1.43
 351  0.384  0.387  0.885- 352 1.42 359 1.42 350 1.43
 352  0.387  0.419  0.854- 351 1.42 340 1.42 353 1.43
 353  0.384  0.490  0.852- 354 1.42 361 1.42 352 1.43
 354  0.377  0.521  0.821- 353 1.42 342 1.42 222 1.43
 355  0.316  0.264  0.980-  41 1.42 347 1.42 356 1.43
 356  0.353  0.303  0.979- 357 1.42  61 1.42 355 1.43
 357  0.366  0.328  0.948- 356 1.42 349 1.42 358 1.43
 358  0.385  0.393  0.946- 359 1.42 362 1.42 357 1.43
 359  0.388  0.426  0.915- 358 1.42 351 1.42 360 1.43
 360  0.383  0.497  0.913- 361 1.42 364 1.42 359 1.43
 361  0.375  0.527  0.882- 360 1.42 353 1.42 244 1.43
 362  0.388  0.432  0.975-  62 1.42 358 1.42 363 1.43
 363  0.381  0.503  0.973- 364 1.42   1 1.42 362 1.43
 364  0.373  0.533  0.942- 363 1.42 360 1.42 266 1.43
 365  0.451  0.403  0.491- 241 2.06 242 2.06
 
  LATTYP: Found a simple orthorhombic cell.
 ALAT       =    19.9214134216
 B/A-ratio  =     1.6250001197
 C/A-ratio  =     2.0303804144
  
  Lattice vectors:
  
 A1 = (   0.0000000000, -19.9214134216,   0.0000000000)
 A2 = (  32.3722991943,   0.0000000000,   0.0000000000)
 A3 = (   0.0000000000,   0.0000000000,  40.4480476379)


Analysis of symmetry for initial positions (statically):
=====================================================================
 Subroutine PRICEL returns:
 Original cell was already a primitive cell.
 

 Routine SETGRP: Setting up the symmetry group for a 
 simple orthorhombic supercell.


 Subroutine GETGRP returns: Found  1 space group operations
 (whereof  1 operations were pure point group operations)
 out of a pool of  8 trial point group operations.


The static configuration has the point symmetry C_1 .


Analysis of symmetry for dynamics (positions and initial velocities):
=====================================================================
 Subroutine PRICEL returns:
 Original cell was already a primitive cell.
 

 Routine SETGRP: Setting up the symmetry group for a 
 simple orthorhombic supercell.


 Subroutine GETGRP returns: Found  1 space group operations
 (whereof  1 operations were pure point group operations)
 out of a pool of  8 trial point group operations.


The dynamic configuration has the point symmetry C_1 .


Analysis of structural, dynamic, and magnetic symmetry:
=====================================================================
 Subroutine PRICEL returns:
 Original cell was already a primitive cell.
 

 Routine SETGRP: Setting up the symmetry group for a 
 simple orthorhombic supercell.


 Subroutine GETGRP returns: Found  1 space group operations
 (whereof  1 operations were pure point group operations)
 out of a pool of  8 trial point group operations.


The overall configuration has the point symmetry C_1 .


 Subroutine INISYM returns: Found  1 space group operations
 (whereof  1 operations are pure point group operations),
 and found     1 'primitive' translations


----------------------------------------------------------------------------------------

                                     Primitive cell                                     

  volume of cell :   26085.0250

  direct lattice vectors                    reciprocal lattice vectors
    32.372299194  0.000000000  0.000000000     0.030890608  0.000000000  0.000000000
     0.000000000 19.921413422  0.000000000     0.000000000  0.050197241  0.000000000
     0.000000000  0.000000000 40.448047638     0.000000000  0.000000000  0.024723072

  length of vectors
    32.372299194 19.921413422 40.448047638     0.030890608  0.050197241  0.024723072

  position of ions in fractional coordinates (direct lattice)
     0.370967350  0.538340028  0.002455189
     0.368791633  0.543864598  0.062892144
     0.338051041  0.595027735  0.061082524
     0.320490138  0.611432620  0.029926838
     0.277808528  0.628794149  0.028109973
     0.366473632  0.549279049  0.123323928
     0.334663847  0.598681133  0.121510856
     0.316773522  0.614081485  0.090354864
     0.273746373  0.629027957  0.088530015
     0.253540846  0.626877274  0.057380786
     0.212089267  0.602903244  0.055570210
     0.195585229  0.583822429  0.024419121
     0.168033364  0.528074316  0.022610917
     0.364003582  0.554594674  0.183749037
     0.331173979  0.602196687  0.181933058
     0.312982349  0.616550099  0.150777241
     0.269663701  0.629070616  0.148949586
     0.249526994  0.625761588  0.117798035
     0.208612879  0.599477745  0.115991671
     0.192529787  0.579485256  0.084839843
     0.166178934  0.522229712  0.083028118
     0.158938029  0.491481348  0.051884198
     0.154992583  0.420269659  0.050072927
     0.158759242  0.387902927  0.018927754
     0.178398801  0.323920427  0.017125550
     0.361421199  0.559847622  0.244170411
     0.327612917  0.605624398  0.242357147
     0.309122581  0.618885399  0.211195483
     0.265569733  0.628952718  0.209370337
     0.245520436  0.624474216  0.178214815
     0.205192291  0.595897742  0.176415439
     0.189549598  0.574999273  0.145264651
     0.164431677  0.516296537  0.143451495
     0.157862627  0.485151074  0.112303408
     0.155433754  0.413763647  0.110496287
     0.159893568  0.381627045  0.079349056
     0.180877542  0.318780654  0.077544427
     0.195045863  0.295209935  0.046402747
     0.233201446  0.259600847  0.044588060
     0.252869851  0.251607769  0.013440662
     0.296849211  0.253841507  0.011638145
     0.370692384  0.538488450  0.335737313
     0.358735178  0.565000540  0.304589499
     0.324003904  0.608890269  0.302793806
     0.305234792  0.621111649  0.271618576
     0.261490961  0.628698023  0.269801094
     0.241543904  0.623035243  0.238644541
     0.201857177  0.592165234  0.236848102
     0.186674350  0.570361228  0.205696242
     0.162837582  0.510269947  0.203882769
     0.156921203  0.478775181  0.172731862
     0.156012876  0.407291044  0.170927982
     0.161146044  0.375425332  0.139778395
     0.183453441  0.313795543  0.137967065
     0.198123029  0.291036187  0.106824255
     0.237014352  0.257597206  0.105014397
     0.256847419  0.250705803  0.073869460
     0.300755552  0.255407494  0.072070885
     0.319852166  0.266446101  0.040921101
     0.355711504  0.307881690  0.039103318
     0.368403658  0.333552686  0.007947933
     0.385566527  0.399389982  0.006142748
     0.368336086  0.543450414  0.396146179
     0.355908121  0.569687709  0.365006333
     0.320315661  0.611651145  0.363245364
     0.301328237  0.623086763  0.332073568
     0.257436952  0.628234859  0.330261277
     0.237623453  0.621414386  0.299091029
     0.198650473  0.588245249  0.297288710
     0.183926363  0.565590136  0.266136228
     0.161406419  0.504164406  0.264323810
     0.156145510  0.472356564  0.233172434
     0.156756900  0.400863604  0.231368688
     0.162548398  0.369306348  0.200212663
     0.186137656  0.308958068  0.198392321
     0.201270042  0.287030709  0.167248913
     0.240845082  0.255774200  0.165443828
     0.260823586  0.250023662  0.134299616
     0.304602542  0.257179925  0.132500455
     0.323471320  0.269278361  0.101355502
     0.358436159  0.312689473  0.099543235
     0.370582881  0.339055628  0.068389514
     0.386343502  0.405815237  0.066588172
     0.388166057  0.438610499  0.035430156
     0.380007024  0.508870033  0.033609646
     0.366094550  0.547212203  0.456561175
     0.352803369  0.573030332  0.425483895
     0.316501472  0.613335519  0.423728281
     0.297360086  0.624320098  0.392558907
     0.253414648  0.627297562  0.390738168
     0.233740144  0.619559576  0.359546171
     0.195515520  0.584150913  0.357733709
     0.181319200  0.560637263  0.326581976
     0.160156103  0.497950010  0.324770417
     0.155562863  0.465873625  0.293612039
     0.157666542  0.394465647  0.291805764
     0.164088434  0.363246836  0.260648286
     0.188912096  0.304211364  0.258822646
     0.204502982  0.283162934  0.227676712
     0.244699306  0.254092027  0.225873874
     0.264793156  0.249496768  0.194726311
     0.308392878  0.259113594  0.192924991
     0.327000413  0.272300723  0.161789133
     0.361024630  0.317657282  0.159983632
     0.372624098  0.344687472  0.128831768
     0.386952059  0.412292771  0.127029599
     0.388096725  0.445166313  0.095872375
     0.378447877  0.514928222  0.094047162
     0.363621899  0.552188359  0.517269063
     0.349945436  0.576614257  0.485990680
     0.312866964  0.614539380  0.484172128
     0.293388969  0.624697360  0.453011132
     0.249446303  0.625811507  0.451197438
     0.229909901  0.617276412  0.420018481
     0.192427874  0.579822756  0.418193232
     0.178786048  0.555523211  0.387022085
     0.159002902  0.491683270  0.385211498
     0.155108649  0.459358975  0.354051782
     0.158680199  0.388096957  0.352242939
     0.165762018  0.357250106  0.321090375
     0.191767950  0.299575795  0.319266505
     0.207793374  0.279405934  0.288107600
     0.248564106  0.252552935  0.286305533
     0.268748541  0.249087938  0.255164887
     0.312126738  0.261194001  0.253356561
     0.330439124  0.275487437  0.222220971
     0.363447208  0.322775561  0.220416722
     0.374491491  0.350444566  0.189270425
     0.387367259  0.418824823  0.187464052
     0.387842470  0.451730167  0.156311296
     0.376712635  0.520912192  0.154484719
     0.361137742  0.559134170  0.577633667
     0.346832554  0.581631197  0.546462176
     0.308958398  0.617871138  0.544595797
     0.289390860  0.625731682  0.513455068
     0.245489752  0.624422530  0.511647457
     0.226117952  0.614590403  0.480473174
     0.189479435  0.575263289  0.478649305
     0.176311829  0.550269475  0.447466259
     0.157911554  0.485354808  0.445662053
     0.154733029  0.452829343  0.414503304
     0.159780236  0.381810747  0.412691040
     0.167520982  0.351340498  0.381530071
     0.194698319  0.295133310  0.379710957
     0.211137008  0.275813924  0.348558399
     0.252480888  0.251312121  0.346760380
     0.272716743  0.248938502  0.315619115
     0.315796673  0.263510435  0.313794699
     0.333785489  0.278826567  0.282644896
     0.365709774  0.328047789  0.280826854
     0.376165324  0.356328521  0.249700688
     0.387565114  0.425413026  0.247885757
     0.387378988  0.458308815  0.216736033
     0.374817006  0.526833180  0.214914172
     0.358751173  0.564900113  0.638053763
     0.344045535  0.587426629  0.606910938
     0.305241561  0.620999890  0.605062387
     0.285424496  0.627702733  0.573888121
     0.241517596  0.623323976  0.572094949
     0.222417336  0.612214541  0.540956171
     0.186618982  0.570650073  0.539133525
     0.174013088  0.544828723  0.507973204
     0.157021119  0.478974348  0.506160805
     0.154513371  0.446289549  0.474965692
     0.161030776  0.375669219  0.473144429
     0.169354656  0.345607202  0.441987245
     0.197776115  0.291033179  0.440174706
     0.214608320  0.272628247  0.409034110
     0.256503946  0.250842922  0.407240502
     0.276727834  0.249408903  0.376071102
     0.319415285  0.266477240  0.374217679
     0.337074375  0.282425585  0.343074173
     0.367919823  0.333497899  0.341223508
     0.377670622  0.362372281  0.310090276
     0.387589383  0.432012417  0.308263442
     0.386731582  0.464899415  0.277129527
     0.372800917  0.532724266  0.275327306
     0.356118274  0.569668798  0.698482483
     0.340987175  0.591707448  0.667335236
     0.301428322  0.623028828  0.665520764
     0.281455350  0.628822250  0.634375536
     0.237671922  0.621592486  0.632570793
     0.218816008  0.609443811  0.601418069
     0.183971244  0.565812422  0.599595102
     0.171863255  0.539374205  0.568429703
     0.156234218  0.472550360  0.566622615
     0.154402262  0.439756726  0.535465462
     0.162432635  0.369487743  0.533650578
     0.171427186  0.340005152  0.502469749
     0.201009065  0.287277244  0.500658775
     0.218294910  0.269998138  0.469483688
     0.260647621  0.251186779  0.467670557
     0.280800520  0.250989250  0.436531645
     0.322986282  0.271009239  0.434666705
     0.340256349  0.287099054  0.403494553
     0.370207404  0.339341846  0.401595332
     0.379264471  0.368476059  0.370389822
     0.387712151  0.438541905  0.368553657
     0.386034036  0.471423083  0.337503601
     0.353394820  0.574231252  0.758904957
     0.337791074  0.595394322  0.727771995
     0.297570983  0.624442758  0.725975661
     0.277474455  0.629154589  0.694835382
     0.233892870  0.619429338  0.693022078
     0.215304007  0.606290191  0.661862770
     0.181374402  0.560771771  0.660041979
     0.169847287  0.533707421  0.628882651
     0.155604893  0.466062502  0.627072021
     0.154498041  0.433179897  0.595913695
     0.164034097  0.363404824  0.594093857
     0.173593481  0.334411927  0.562922991
     0.204277189  0.283160840  0.561109935
     0.221927486  0.267092849  0.529932973
     0.264682451  0.250595565  0.528109725
     0.285100228  0.252657084  0.496950969
     0.326770383  0.274625905  0.495141413
     0.343711440  0.292849719  0.463859802
     0.374163341  0.343593297  0.461681318
     0.382019408  0.373898494  0.430778371
     0.388990634  0.445173438  0.428932002
     0.385346651  0.477609423  0.397865186
     0.350554357  0.578690081  0.819335196
     0.334498526  0.598896143  0.788200174
     0.293689819  0.625626139  0.786408287
     0.273505309  0.629193255  0.755266375
     0.230143367  0.617083539  0.753452805
     0.211842990  0.602920160  0.722307192
     0.178852516  0.555609985  0.720489323
     0.167897962  0.527928648  0.689326266
     0.155055348  0.459554829  0.687510250
     0.154659921  0.426632403  0.656351878
     0.165719585  0.357428814  0.654534373
     0.175937315  0.328982463  0.623380926
     0.207640787  0.279403791  0.621575824
     0.225541813  0.264047626  0.590388519
     0.268584961  0.249352373  0.588557852
     0.288803454  0.252362336  0.557390873
     0.330082851  0.276945850  0.555646912
     0.346872561  0.296681315  0.524569885
     0.376125234  0.349400251  0.523194474
     0.389992152  0.375738973  0.491484812
     0.395952054  0.453363639  0.489644322
     0.386484156  0.484432224  0.457932429
     0.347600358  0.583035088  0.879771477
     0.331137258  0.602299763  0.848624869
     0.289782185  0.626716011  0.846831496
     0.269538470  0.629108222  0.815693386
     0.226450437  0.614603822  0.813878774
     0.208450966  0.599399652  0.782738721
     0.176455316  0.550327263  0.780927981
     0.166061576  0.522067435  0.749768336
     0.154647724  0.453016628  0.747950565
     0.154939612  0.420097676  0.716796337
     0.167498287  0.351574138  0.714983153
     0.178350656  0.323746862  0.683826526
     0.211112272  0.276029640  0.682024850
     0.229289730  0.261511374  0.650859705
     0.272608537  0.248935259  0.649041216
     0.292751150  0.252434924  0.617871664
     0.333595046  0.278903082  0.616123436
     0.349611162  0.299395359  0.584986680
     0.376043331  0.356444578  0.583259226
     0.384485553  0.386446435  0.552196272
     0.388507341  0.458325077  0.550358116
     0.385477431  0.490845832  0.519451856
     0.344525428  0.587212655  0.940208317
     0.327677972  0.605548831  0.909056745
     0.285829115  0.627642791  0.907257329
     0.265557759  0.628876817  0.876116284
     0.222807813  0.611965888  0.874301603
     0.205142955  0.595755531  0.843159949
     0.174192209  0.544934585  0.841356795
     0.164377494  0.516107111  0.810209444
     0.154427301  0.446459902  0.808389360
     0.155395831  0.413575793  0.777235531
     0.169418820  0.345810218  0.775427045
     0.180851515  0.318634617  0.744269084
     0.214647822  0.272851418  0.742466164
     0.233136527  0.259403212  0.711313717
     0.276683360  0.249254391  0.709496022
     0.296735730  0.253614705  0.678322363
     0.337034932  0.282303035  0.676536870
     0.352638957  0.303240306  0.645393679
     0.377636573  0.362143278  0.643619001
     0.384228843  0.393366784  0.612572141
     0.386633267  0.464658997  0.610747551
     0.382270109  0.496532899  0.579541422
     0.341340837  0.591206650  0.000646951
     0.324130006  0.608599809  0.969492673
     0.281839354  0.628342394  0.967684298
     0.261564729  0.628449652  0.936538674
     0.219198124  0.609151583  0.934724038
     0.201898237  0.591957158  0.903581121
     0.172047600  0.539424737  0.901780610
     0.162856781  0.510059766  0.870638136
     0.154387406  0.439904170  0.868817518
     0.156033873  0.407086624  0.837668181
     0.171491684  0.340148635  0.835862842
     0.183491259  0.313643099  0.804707979
     0.218265710  0.269840766  0.802897897
     0.237028199  0.257499700  0.771743427
     0.280769373  0.249846667  0.769923396
     0.300708707  0.255319909  0.738761039
     0.340396362  0.286211411  0.736951810
     0.355537327  0.307975726  0.705801180
     0.379297089  0.368164452  0.703991913
     0.385103794  0.399714212  0.672860275
     0.386024688  0.471182225  0.671046386
     0.380929571  0.503079497  0.639915480
     0.257560196  0.627780157  0.996960941
     0.215627142  0.606123391  0.995147433
     0.198715078  0.587976409  0.964000720
     0.169997936  0.533803426  0.962197618
     0.161447212  0.503938109  0.931056217
     0.154475623  0.433345587  0.929237569
     0.156830140  0.400642688  0.898092927
     0.173699446  0.334610636  0.896289823
     0.186258643  0.308800661  0.865137085
     0.221944384  0.266982988  0.863318825
     0.240966041  0.255738729  0.832165714
     0.284848966  0.250562726  0.830347407
     0.304662407  0.257212636  0.799188928
     0.343682755  0.290248291  0.797371046
     0.358368068  0.312853581  0.766210660
     0.380905647  0.374265644  0.764386584
     0.386070633  0.406090750  0.733238838
     0.385483003  0.477612029  0.731434491
     0.379623755  0.509215354  0.700311914
     0.160141037  0.497741626  0.991469508
     0.154675998  0.426795228  0.989653847
     0.157740348  0.394238669  0.958510498
     0.176002681  0.329191671  0.956708957
     0.189111101  0.304094047  0.925560257
     0.225665422  0.264294879  0.923738973
     0.244924910  0.254136226  0.892588045
     0.288892792  0.251433003  0.890774724
     0.308562778  0.259216002  0.859615801
     0.346867469  0.294401987  0.857795057
     0.361089949  0.317817814  0.826637504
     0.382339126  0.380439202  0.824813702
     0.386866832  0.412532179  0.793660683
     0.384753577  0.483961290  0.791858837
     0.378239497  0.515212512  0.760718761
     0.192045734  0.299567421  0.985982384
     0.229421447  0.261835081  0.984163038
     0.248893261  0.252748482  0.953013362
     0.292894441  0.252514333  0.951206807
     0.312395391  0.261406415  0.920049691
     0.349926268  0.298730137  0.918228066
     0.363658989  0.322925315  0.887072348
     0.383564009  0.386693119  0.885254945
     0.387440008  0.419016224  0.854095797
     0.383803158  0.490276878  0.852292349
     0.376662945  0.521122657  0.821144796
     0.316166922  0.263800223  0.980486099
     0.352882442  0.303213680  0.978665174
     0.366094367  0.328171448  0.947509175
     0.384640174  0.393009452  0.945698603
     0.387836045  0.425529232  0.914538914
     0.382692615  0.496545150  0.912730270
     0.374911421  0.526969219  0.881580661
     0.388078796  0.432063121  0.974984223
     0.381423803  0.502743536  0.973169573
     0.373010791  0.532711257  0.942017341
     0.451341270  0.402701379  0.490556407

  ion indices of the primitive-cell ions
   primitive index   ion index
                 1           1
                 2           2
                 3           3
                 4           4
                 5           5
                 6           6
                 7           7
                 8           8
                 9           9
                10          10
                11          11
                12          12
                13          13
                14          14
                15          15
                16          16
                17          17
                18          18
                19          19
                20          20
                21          21
                22          22
                23          23
                24          24
                25          25
                26          26
                27          27
                28          28
                29          29
                30          30
                31          31
                32          32
                33          33
                34          34
                35          35
                36          36
                37          37
                38          38
                39          39
                40          40
                41          41
                42          42
                43          43
                44          44
                45          45
                46          46
                47          47
                48          48
                49          49
                50          50
                51          51
                52          52
                53          53
                54          54
                55          55
                56          56
                57          57
                58          58
                59          59
                60          60
                61          61
                62          62
                63          63
                64          64
                65          65
                66          66
                67          67
                68          68
                69          69
                70          70
                71          71
                72          72
                73          73
                74          74
                75          75
                76          76
                77          77
                78          78
                79          79
                80          80
                81          81
                82          82
                83          83
                84          84
                85          85
                86          86
                87          87
                88          88
                89          89
                90          90
                91          91
                92          92
                93          93
                94          94
                95          95
                96          96
                97          97
                98          98
                99          99
               100         100
               101         101
               102         102
               103         103
               104         104
               105         105
               106         106
               107         107
               108         108
               109         109
               110         110
               111         111
               112         112
               113         113
               114         114
               115         115
               116         116
               117         117
               118         118
               119         119
               120         120
               121         121
               122         122
               123         123
               124         124
               125         125
               126         126
               127         127
               128         128
               129         129
               130         130
               131         131
               132         132
               133         133
               134         134
               135         135
               136         136
               137         137
               138         138
               139         139
               140         140
               141         141
               142         142
               143         143
               144         144
               145         145
               146         146
               147         147
               148         148
               149         149
               150         150
               151         151
               152         152
               153         153
               154         154
               155         155
               156         156
               157         157
               158         158
               159         159
               160         160
               161         161
               162         162
               163         163
               164         164
               165         165
               166         166
               167         167
               168         168
               169         169
               170         170
               171         171
               172         172
               173         173
               174         174
               175         175
               176         176
               177         177
               178         178
               179         179
               180         180
               181         181
               182         182
               183         183
               184         184
               185         185
               186         186
               187         187
               188         188
               189         189
               190         190
               191         191
               192         192
               193         193
               194         194
               195         195
               196         196
               197         197
               198         198
               199         199
               200         200
               201         201
               202         202
               203         203
               204         204
               205         205
               206         206
               207         207
               208         208
               209         209
               210         210
               211         211
               212         212
               213         213
               214         214
               215         215
               216         216
               217         217
               218         218
               219         219
               220         220
               221         221
               222         222
               223         223
               224         224
               225         225
               226         226
               227         227
               228         228
               229         229
               230         230
               231         231
               232         232
               233         233
               234         234
               235         235
               236         236
               237         237
               238         238
               239         239
               240         240
               241         241
               242         242
               243         243
               244         244
               245         245
               246         246
               247         247
               248         248
               249         249
               250         250
               251         251
               252         252
               253         253
               254         254
               255         255
               256         256
               257         257
               258         258
               259         259
               260         260
               261         261
               262         262
               263         263
               264         264
               265         265
               266         266
               267         267
               268         268
               269         269
               270         270
               271         271
               272         272
               273         273
               274         274
               275         275
               276         276
               277         277
               278         278
               279         279
               280         280
               281         281
               282         282
               283         283
               284         284
               285         285
               286         286
               287         287
               288         288
               289         289
               290         290
               291         291
               292         292
               293         293
               294         294
               295         295
               296         296
               297         297
               298         298
               299         299
               300         300
               301         301
               302         302
               303         303
               304         304
               305         305
               306         306
               307         307
               308         308
               309         309
               310         310
               311         311
               312         312
               313         313
               314         314
               315         315
               316         316
               317         317
               318         318
               319         319
               320         320
               321         321
               322         322
               323         323
               324         324
               325         325
               326         326
               327         327
               328         328
               329         329
               330         330
               331         331
               332         332
               333         333
               334         334
               335         335
               336         336
               337         337
               338         338
               339         339
               340         340
               341         341
               342         342
               343         343
               344         344
               345         345
               346         346
               347         347
               348         348
               349         349
               350         350
               351         351
               352         352
               353         353
               354         354
               355         355
               356         356
               357         357
               358         358
               359         359
               360         360
               361         361
               362         362
               363         363
               364         364
               365         365

----------------------------------------------------------------------------------------

 
 
 KPOINTS: KPOINTS created by Atomic Simulation Env

Read explicit list of k-points.

 Found     10 k-points:

 Following reciprocal coordinates:
            Coordinates               Weight
  0.000000  0.000000  0.000000      0.100000
  0.000000  0.000000 -0.055556      0.100000
  0.000000  0.000000 -0.111111      0.100000
  0.000000  0.000000 -0.166667      0.100000
  0.000000  0.000000 -0.222222      0.100000
  0.000000  0.000000 -0.277778      0.100000
  0.000000  0.000000 -0.333333      0.100000
  0.000000  0.000000 -0.388889      0.100000
  0.000000  0.000000 -0.444444      0.100000
  0.000000  0.000000 -0.500000      0.100000

 Following cartesian coordinates:
            Coordinates               Weight
  0.000000  0.000000  0.000000      0.100000
  0.000000  0.000000 -0.001374      0.100000
  0.000000  0.000000 -0.002747      0.100000
  0.000000  0.000000 -0.004121      0.100000
  0.000000  0.000000 -0.005494      0.100000
  0.000000  0.000000 -0.006868      0.100000
  0.000000  0.000000 -0.008241      0.100000
  0.000000  0.000000 -0.009615      0.100000
  0.000000  0.000000 -0.010988      0.100000
  0.000000  0.000000 -0.012362      0.100000
 


--------------------------------------------------------------------------------------------------------




 Dimension of arrays:
   k-points           NKPTS =     10   k-points in BZ     NKDIM =     10   number of bands    NBANDS=    896
   number of dos      NEDOS =    301   number of ions     NIONS =    365
   non local maximal  LDIM  =      5   non local SUM 2l+1 LMDIM =     13
   total plane-waves  NPLWV = ******
   max r-space proj   IRMAX =      1   max aug-charges    IRDMAX=  13848
   dimension x,y,z NGX =   216 NGY =  140 NGZ =  270
   dimension x,y,z NGXF=   432 NGYF=  280 NGZF=  540
   support grid    NGXF=   432 NGYF=  280 NGZF=  540
   ions per type =             364   1
   NGX,Y,Z   is equivalent  to a cutoff of  11.09, 11.68, 11.10 a.u.
   NGXF,Y,Z  is equivalent  to a cutoff of  22.19, 23.37, 22.19 a.u.

 SYSTEM =  03_BS                                   
 POSCAR =   C Se                                   

 Startparameter for this run:
   NWRITE =      2    write-flag & timer
   PREC   = accura    normal or accurate (medium, high low for compatibility)
   ISTART =      1    job   : 0-new  1-cont  2-samecut
   ICHARG =     11    charge: 1-file 2-atom 10-const
   ISPIN  =      2    spin polarized calculation?
   LNONCOLLINEAR =      F non collinear calculations
   LSORBIT =      F    spin-orbit coupling
   INIWAV =      1    electr: 0-lowe 1-rand  2-diag
   LASPH  =      F    aspherical Exc in radial PAW
 Electronic Relaxation 1
   ENCUT  =  400.0 eV  29.40 Ry    5.42 a.u.  52.79 32.49 65.96*2*pi/ulx,y,z
   ENINI  =  400.0     initial cutoff
   ENAUG  =  644.9 eV  augmentation charge cutoff
   NELM   =     60;   NELMIN=  5; NELMDL=  0     # of ELM steps 
   EDIFF  = 0.1E-05   stopping-criterion for ELM
   LREAL  =      F    real-space projection
   NLSPLINE    = F    spline interpolate recip. space projectors
   LCOMPAT=      F    compatible to vasp.4.4
   GGA_COMPAT  = T    GGA compatible to vasp.4.4-vasp.4.6
   LMAXPAW     = -100 max onsite density
   LMAXMIX     =    2 max onsite mixed and CHGCAR
   VOSKOWN=      0    Vosko Wilk Nusair interpolation
   ROPT   =    0.00000   0.00000
 Ionic relaxation
   EDIFFG = 0.1E-04   stopping-criterion for IOM
   NSW    =      0    number of steps for IOM
   NBLOCK =      1;   KBLOCK =      1    inner block; outer block 
   IBRION =     -1    ionic relax: 0-MD 1-quasi-New 2-CG
   NFREE  =      0    steps in history (QN), initial steepest desc. (CG)
   ISIF   =      2    stress and relaxation
   IWAVPR =     10    prediction:  0-non 1-charg 2-wave 3-comb
   ISYM   =      2    0-nonsym 1-usesym 2-fastsym
   LCORR  =      T    Harris-Foulkes like correction to forces

   POTIM  = 0.5000    time-step for ionic-motion
   TEIN   =    0.0    initial temperature
   TEBEG  =    0.0;   TEEND  =   0.0 temperature during run
   SMASS  =  -3.00    Nose mass-parameter (am)
   estimated Nose-frequenzy (Omega)   =  0.10E-29 period in steps = 0.13E+47 mass=  -0.239E-25a.u.
   SCALEE = 1.0000    scale energy and forces
   NPACO  =    256;   APACO  = 10.0  distance and # of slots for P.C.
   PSTRESS=    0.0 pullay stress

  Mass of Ions in am
   POMASS =  12.01 78.96
  Ionic Valenz
   ZVAL   =   4.00  6.00
  Atomic Wigner-Seitz radii
   RWIGS  =  -1.00 -1.00
  virtual crystal weights 
   VCA    =   1.00  1.00
   NELECT =    1462.0000    total number of electrons
   NUPDOWN=      -1.0000    fix difference up-down

 DOS related values:
   EMIN   =  10.00;   EMAX   =-10.00  energy-range for DOS
   EFERMI =   0.00;   METHOD = LEGACY      
   ISMEAR =     0;   SIGMA  =   0.01  broadening in eV -4-tet -1-fermi 0-gaus

 Electronic relaxation 2 (details)
   IALGO  =     38    algorithm
   LDIAG  =      T    sub-space diagonalisation (order eigenvalues)
   LSUBROT=      F    optimize rotation matrix (better conditioning)
   TURBO    =      0    0=normal 1=particle mesh
   IRESTART =      0    0=no restart 2=restart with 2 vectors
   NREBOOT  =      0    no. of reboots
   NMIN     =      0    reboot dimension
   EREF     =   0.00    reference energy to select bands
   IMIX   =      4    mixing-type and parameters
     AMIX     =   0.40;   BMIX     =  1.00
     AMIX_MAG =   1.60;   BMIX_MAG =  1.00
     AMIN     =   0.10
     WC   =   100.;   INIMIX=   1;  MIXPRE=   1;  MAXMIX= -45

 Intra band minimization:
   WEIMIN = 0.0000     energy-eigenvalue tresh-hold
   EBREAK =  0.28E-09  absolut break condition
   DEPER  =   0.30     relativ break condition  

   TIME   =   0.40     timestep for ELM

  volume/ion in A,a.u.               =      71.47       482.28
  Fermi-wavevector in a.u.,A,eV,Ry     =   0.626508  1.183929  5.340460  0.392513
  Thomas-Fermi vector in A             =   1.687786
 
 Write flags
   LWAVE        =      T    write WAVECAR
   LDOWNSAMPLE  =      F    k-point downsampling of WAVECAR
   LCHARG       =      T    write CHGCAR
   LVTOT        =      F    write LOCPOT, total local potential
   LVHAR        =      F    write LOCPOT, Hartree potential only
   LELF         =      F    write electronic localiz. function (ELF)
   LORBIT       =     11    0 simple, 1 ext, 2 COOP (PROOUT), +10 PAW based schemes


 Dipole corrections
   LMONO  =      F    monopole corrections only (constant potential shift)
   LDIPOL =      F    correct potential (dipole corrections)
   IDIPOL =      0    1-x, 2-y, 3-z, 4-all directions 
   EPSILON=  1.0000000 bulk dielectric constant

 Exchange correlation treatment:
   GGA     =    PE    GGA type
   LEXCH   =     8    internal setting for exchange type
   LIBXC   =     F    Libxc                    
   VOSKOWN =     0    Vosko Wilk Nusair interpolation
   LHFCALC =     F    Hartree Fock is set to
   LHFONE  =     F    Hartree Fock one center treatment
   AEXX    =    0.0000 exact exchange contribution

 Linear response parameters
   LEPSILON=     F    determine dielectric tensor
   LRPA    =     F    only Hartree local field effects (RPA)
   LNABLA  =     F    use nabla operator in PAW spheres
   LVEL    =     F    velocity operator in full k-point grid
   CSHIFT  =0.1000    complex shift for real part using Kramers Kronig
   OMEGAMAX=  -1.0    maximum frequency
   DEG_THRESHOLD= 0.2000000E-02 threshold for treating states as degnerate
   RTIME   =   -0.100 relaxation time in fs
  (WPLASMAI=    0.000 imaginary part of plasma frequency in eV, 0.658/RTIME)
   DFIELD  = 0.0000000 0.0000000 0.0000000 field for delta impulse in time
 
  Optional k-point grid parameters
   LKPOINTS_OPT  =     F    use optional k-point grid
   KPOINTS_OPT_MODE=     1    mode for optional k-point grid
 
 Orbital magnetization related:
   ORBITALMAG=     F  switch on orbital magnetization
   LCHIMAG   =     F  perturbation theory with respect to B field
   DQ        =  0.001000  dq finite difference perturbation B field
   LLRAUG    =     F  two centre corrections for induced B field
   LBONE     =     F  B-component reconstruction in AE one-centre
   LVGVCALC  =     T  calculate vGv susceptibility
   LVGVAPPL  =     F  apply vGv susceptibility instead of pGv for G=0

 Random number generation:
   RANDOM_GENERATOR = DEFAULT
   PCG_SEED         = not used


--------------------------------------------------------------------------------------------------------


 Static calculation
 charge density and potential remain constant during run
 spin polarized calculation
 Variant of blocked Davidson
 Davidson routine will perform the subspace rotation
 perform sub-space diagonalisation
    after iterative eigenvector-optimisation
 no mixing
 using additional bands           165
 reciprocal scheme for non local part
 use partial core corrections
 calculate Harris-corrections to forces 
   (improved forces if not selfconsistent)
 use gradient corrections 
 WARNING: stress and forces are not correct
  (second derivative of E(xc) not defined)
 use of overlap-Matrix (Vanderbilt PP)
 Gauss-broadening in eV      SIGMA  =   0.01


--------------------------------------------------------------------------------------------------------


  energy-cutoff  :      400.00
  volume of cell :    26085.03
      direct lattice vectors                 reciprocal lattice vectors
    32.372299194  0.000000000  0.000000000     0.030890608  0.000000000  0.000000000
     0.000000000 19.921413422  0.000000000     0.000000000  0.050197241  0.000000000
     0.000000000  0.000000000 40.448047638     0.000000000  0.000000000  0.024723072

  length of vectors
    32.372299194 19.921413422 40.448047638     0.030890608  0.050197241  0.024723072


 
 old parameters found on file WAVECAR:
  energy-cutoff  :      400.00
  volume of cell :    26085.03
      direct lattice vectors                 reciprocal lattice vectors
    32.372299194  0.000000000  0.000000000     0.030890608  0.000000000  0.000000000
     0.000000000 19.921413422  0.000000000     0.000000000  0.050197241  0.000000000
     0.000000000  0.000000000 40.448047638     0.000000000  0.000000000  0.024723072

  length of vectors

 
 k-points in units of 2pi/SCALE and weight: KPOINTS created by Atomic Simulation Env
   0.00000000  0.00000000  0.00000000       0.100
   0.00000000  0.00000000 -0.00137351       0.100
   0.00000000  0.00000000 -0.00274701       0.100
   0.00000000  0.00000000 -0.00412052       0.100
   0.00000000  0.00000000 -0.00549401       0.100
   0.00000000  0.00000000 -0.00686753       0.100
   0.00000000  0.00000000 -0.00824102       0.100
   0.00000000  0.00000000 -0.00961453       0.100
   0.00000000  0.00000000 -0.01098802       0.100
   0.00000000  0.00000000 -0.01236154       0.100
 
 k-points in reciprocal lattice and weights: KPOINTS created by Atomic Simulation Env
   0.00000000  0.00000000  0.00000000       0.100
   0.00000000  0.00000000 -0.05555600       0.100
   0.00000000  0.00000000 -0.11111100       0.100
   0.00000000  0.00000000 -0.16666700       0.100
   0.00000000  0.00000000 -0.22222200       0.100
   0.00000000  0.00000000 -0.27777800       0.100
   0.00000000  0.00000000 -0.33333300       0.100
   0.00000000  0.00000000 -0.38888900       0.100
   0.00000000  0.00000000 -0.44444400       0.100
   0.00000000  0.00000000 -0.50000000       0.100
 
 position of ions in fractional coordinates (direct lattice) 
   0.37096735  0.53834003  0.00245519
   0.36879163  0.54386460  0.06289214
   0.33805104  0.59502774  0.06108252
   0.32049014  0.61143262  0.02992684
   0.27780853  0.62879415  0.02810997
   0.36647363  0.54927905  0.12332393
   0.33466385  0.59868113  0.12151086
   0.31677352  0.61408149  0.09035486
   0.27374637  0.62902796  0.08853001
   0.25354085  0.62687727  0.05738079
   0.21208927  0.60290324  0.05557021
   0.19558523  0.58382243  0.02441912
   0.16803336  0.52807432  0.02261092
   0.36400358  0.55459467  0.18374904
   0.33117398  0.60219669  0.18193306
   0.31298235  0.61655010  0.15077724
   0.26966370  0.62907062  0.14894959
   0.24952699  0.62576159  0.11779804
   0.20861288  0.59947774  0.11599167
   0.19252979  0.57948526  0.08483984
   0.16617893  0.52222971  0.08302812
   0.15893803  0.49148135  0.05188420
   0.15499258  0.42026966  0.05007293
   0.15875924  0.38790293  0.01892775
   0.17839880  0.32392043  0.01712555
   0.36142120  0.55984762  0.24417041
   0.32761292  0.60562440  0.24235715
   0.30912258  0.61888540  0.21119548
   0.26556973  0.62895272  0.20937034
   0.24552044  0.62447422  0.17821482
   0.20519229  0.59589774  0.17641544
   0.18954960  0.57499927  0.14526465
   0.16443168  0.51629654  0.14345149
   0.15786263  0.48515107  0.11230341
   0.15543375  0.41376365  0.11049629
   0.15989357  0.38162705  0.07934906
   0.18087754  0.31878065  0.07754443
   0.19504586  0.29520994  0.04640275
   0.23320145  0.25960085  0.04458806
   0.25286985  0.25160777  0.01344066
   0.29684921  0.25384151  0.01163815
   0.37069238  0.53848845  0.33573731
   0.35873518  0.56500054  0.30458950
   0.32400390  0.60889027  0.30279381
   0.30523479  0.62111165  0.27161858
   0.26149096  0.62869802  0.26980109
   0.24154390  0.62303524  0.23864454
   0.20185718  0.59216523  0.23684810
   0.18667435  0.57036123  0.20569624
   0.16283758  0.51026995  0.20388277
   0.15692120  0.47877518  0.17273186
   0.15601288  0.40729104  0.17092798
   0.16114604  0.37542533  0.13977840
   0.18345344  0.31379554  0.13796707
   0.19812303  0.29103619  0.10682425
   0.23701435  0.25759721  0.10501440
   0.25684742  0.25070580  0.07386946
   0.30075555  0.25540749  0.07207088
   0.31985217  0.26644610  0.04092110
   0.35571150  0.30788169  0.03910332
   0.36840366  0.33355269  0.00794793
   0.38556653  0.39938998  0.00614275
   0.36833609  0.54345041  0.39614618
   0.35590812  0.56968771  0.36500633
   0.32031566  0.61165115  0.36324536
   0.30132824  0.62308676  0.33207357
   0.25743695  0.62823486  0.33026128
   0.23762345  0.62141439  0.29909103
   0.19865047  0.58824525  0.29728871
   0.18392636  0.56559014  0.26613623
   0.16140642  0.50416441  0.26432381
   0.15614551  0.47235656  0.23317243
   0.15675690  0.40086360  0.23136869
   0.16254840  0.36930635  0.20021266
   0.18613766  0.30895807  0.19839232
   0.20127004  0.28703071  0.16724891
   0.24084508  0.25577420  0.16544383
   0.26082359  0.25002366  0.13429962
   0.30460254  0.25717993  0.13250046
   0.32347132  0.26927836  0.10135550
   0.35843616  0.31268947  0.09954323
   0.37058288  0.33905563  0.06838951
   0.38634350  0.40581524  0.06658817
   0.38816606  0.43861050  0.03543016
   0.38000702  0.50887003  0.03360965
   0.36609455  0.54721220  0.45656118
   0.35280337  0.57303033  0.42548390
   0.31650147  0.61333552  0.42372828
   0.29736009  0.62432010  0.39255891
   0.25341465  0.62729756  0.39073817
   0.23374014  0.61955958  0.35954617
   0.19551552  0.58415091  0.35773371
   0.18131920  0.56063726  0.32658198
   0.16015610  0.49795001  0.32477042
   0.15556286  0.46587363  0.29361204
   0.15766654  0.39446565  0.29180576
   0.16408843  0.36324684  0.26064829
   0.18891210  0.30421136  0.25882265
   0.20450298  0.28316293  0.22767671
   0.24469931  0.25409203  0.22587387
   0.26479316  0.24949677  0.19472631
   0.30839288  0.25911359  0.19292499
   0.32700041  0.27230072  0.16178913
   0.36102463  0.31765728  0.15998363
   0.37262410  0.34468747  0.12883177
   0.38695206  0.41229277  0.12702960
   0.38809672  0.44516631  0.09587238
   0.37844788  0.51492822  0.09404716
   0.36362190  0.55218836  0.51726906
   0.34994544  0.57661426  0.48599068
   0.31286696  0.61453938  0.48417213
   0.29338897  0.62469736  0.45301113
   0.24944630  0.62581151  0.45119744
   0.22990990  0.61727641  0.42001848
   0.19242787  0.57982276  0.41819323
   0.17878605  0.55552321  0.38702208
   0.15900290  0.49168327  0.38521150
   0.15510865  0.45935898  0.35405178
   0.15868020  0.38809696  0.35224294
   0.16576202  0.35725011  0.32109038
   0.19176795  0.29957579  0.31926650
   0.20779337  0.27940593  0.28810760
   0.24856411  0.25255294  0.28630553
   0.26874854  0.24908794  0.25516489
   0.31212674  0.26119400  0.25335656
   0.33043912  0.27548744  0.22222097
   0.36344721  0.32277556  0.22041672
   0.37449149  0.35044457  0.18927042
   0.38736726  0.41882482  0.18746405
   0.38784247  0.45173017  0.15631130
   0.37671263  0.52091219  0.15448472
   0.36113774  0.55913417  0.57763367
   0.34683255  0.58163120  0.54646218
   0.30895840  0.61787114  0.54459580
   0.28939086  0.62573168  0.51345507
   0.24548975  0.62442253  0.51164746
   0.22611795  0.61459040  0.48047317
   0.18947944  0.57526329  0.47864930
   0.17631183  0.55026948  0.44746626
   0.15791155  0.48535481  0.44566205
   0.15473303  0.45282934  0.41450330
   0.15978024  0.38181075  0.41269104
   0.16752098  0.35134050  0.38153007
   0.19469832  0.29513331  0.37971096
   0.21113701  0.27581392  0.34855840
   0.25248089  0.25131212  0.34676038
   0.27271674  0.24893850  0.31561912
   0.31579667  0.26351044  0.31379470
   0.33378549  0.27882657  0.28264490
   0.36570977  0.32804779  0.28082685
   0.37616532  0.35632852  0.24970069
   0.38756511  0.42541303  0.24788576
   0.38737899  0.45830882  0.21673603
   0.37481701  0.52683318  0.21491417
   0.35875117  0.56490011  0.63805376
   0.34404554  0.58742663  0.60691094
   0.30524156  0.62099989  0.60506239
   0.28542450  0.62770273  0.57388812
   0.24151760  0.62332398  0.57209495
   0.22241734  0.61221454  0.54095617
   0.18661898  0.57065007  0.53913352
   0.17401309  0.54482872  0.50797320
   0.15702112  0.47897435  0.50616081
   0.15451337  0.44628955  0.47496569
   0.16103078  0.37566922  0.47314443
   0.16935466  0.34560720  0.44198724
   0.19777612  0.29103318  0.44017471
   0.21460832  0.27262825  0.40903411
   0.25650395  0.25084292  0.40724050
   0.27672783  0.24940890  0.37607110
   0.31941528  0.26647724  0.37421768
   0.33707438  0.28242559  0.34307417
   0.36791982  0.33349790  0.34122351
   0.37767062  0.36237228  0.31009028
   0.38758938  0.43201242  0.30826344
   0.38673158  0.46489941  0.27712953
   0.37280092  0.53272427  0.27532731
   0.35611827  0.56966880  0.69848248
   0.34098717  0.59170745  0.66733524
   0.30142832  0.62302883  0.66552076
   0.28145535  0.62882225  0.63437554
   0.23767192  0.62159249  0.63257079
   0.21881601  0.60944381  0.60141807
   0.18397124  0.56581242  0.59959510
   0.17186326  0.53937421  0.56842970
   0.15623422  0.47255036  0.56662261
   0.15440226  0.43975673  0.53546546
   0.16243263  0.36948774  0.53365058
   0.17142719  0.34000515  0.50246975
   0.20100907  0.28727724  0.50065877
   0.21829491  0.26999814  0.46948369
   0.26064762  0.25118678  0.46767056
   0.28080052  0.25098925  0.43653164
   0.32298628  0.27100924  0.43466671
   0.34025635  0.28709905  0.40349455
   0.37020740  0.33934185  0.40159533
   0.37926447  0.36847606  0.37038982
   0.38771215  0.43854191  0.36855366
   0.38603404  0.47142308  0.33750360
   0.35339482  0.57423125  0.75890496
   0.33779107  0.59539432  0.72777200
   0.29757098  0.62444276  0.72597566
   0.27747445  0.62915459  0.69483538
   0.23389287  0.61942934  0.69302208
   0.21530401  0.60629019  0.66186277
   0.18137440  0.56077177  0.66004198
   0.16984729  0.53370742  0.62888265
   0.15560489  0.46606250  0.62707202
   0.15449804  0.43317990  0.59591369
   0.16403410  0.36340482  0.59409386
   0.17359348  0.33441193  0.56292299
   0.20427719  0.28316084  0.56110994
   0.22192749  0.26709285  0.52993297
   0.26468245  0.25059557  0.52810973
   0.28510023  0.25265708  0.49695097
   0.32677038  0.27462590  0.49514141
   0.34371144  0.29284972  0.46385980
   0.37416334  0.34359330  0.46168132
   0.38201941  0.37389849  0.43077837
   0.38899063  0.44517344  0.42893200
   0.38534665  0.47760942  0.39786519
   0.35055436  0.57869008  0.81933520
   0.33449853  0.59889614  0.78820017
   0.29368982  0.62562614  0.78640829
   0.27350531  0.62919326  0.75526637
   0.23014337  0.61708354  0.75345280
   0.21184299  0.60292016  0.72230719
   0.17885252  0.55560998  0.72048932
   0.16789796  0.52792865  0.68932627
   0.15505535  0.45955483  0.68751025
   0.15465992  0.42663240  0.65635188
   0.16571958  0.35742881  0.65453437
   0.17593732  0.32898246  0.62338093
   0.20764079  0.27940379  0.62157582
   0.22554181  0.26404763  0.59038852
   0.26858496  0.24935237  0.58855785
   0.28880345  0.25236234  0.55739087
   0.33008285  0.27694585  0.55564691
   0.34687256  0.29668132  0.52456988
   0.37612523  0.34940025  0.52319447
   0.38999215  0.37573897  0.49148481
   0.39595205  0.45336364  0.48964432
   0.38648416  0.48443222  0.45793243
   0.34760036  0.58303509  0.87977148
   0.33113726  0.60229976  0.84862487
   0.28978218  0.62671601  0.84683150
   0.26953847  0.62910822  0.81569339
   0.22645044  0.61460382  0.81387877
   0.20845097  0.59939965  0.78273872
   0.17645532  0.55032726  0.78092798
   0.16606158  0.52206743  0.74976834
   0.15464772  0.45301663  0.74795056
   0.15493961  0.42009768  0.71679634
   0.16749829  0.35157414  0.71498315
   0.17835066  0.32374686  0.68382653
   0.21111227  0.27602964  0.68202485
   0.22928973  0.26151137  0.65085971
   0.27260854  0.24893526  0.64904122
   0.29275115  0.25243492  0.61787166
   0.33359505  0.27890308  0.61612344
   0.34961116  0.29939536  0.58498668
   0.37604333  0.35644458  0.58325923
   0.38448555  0.38644643  0.55219627
   0.38850734  0.45832508  0.55035812
   0.38547743  0.49084583  0.51945186
   0.34452543  0.58721266  0.94020832
   0.32767797  0.60554883  0.90905674
   0.28582911  0.62764279  0.90725733
   0.26555776  0.62887682  0.87611628
   0.22280781  0.61196589  0.87430160
   0.20514295  0.59575553  0.84315995
   0.17419221  0.54493458  0.84135680
   0.16437749  0.51610711  0.81020944
   0.15442730  0.44645990  0.80838936
   0.15539583  0.41357579  0.77723553
   0.16941882  0.34581022  0.77542704
   0.18085151  0.31863462  0.74426908
   0.21464782  0.27285142  0.74246616
   0.23313653  0.25940321  0.71131372
   0.27668336  0.24925439  0.70949602
   0.29673573  0.25361470  0.67832236
   0.33703493  0.28230304  0.67653687
   0.35263896  0.30324031  0.64539368
   0.37763657  0.36214328  0.64361900
   0.38422884  0.39336678  0.61257214
   0.38663327  0.46465900  0.61074755
   0.38227011  0.49653290  0.57954142
   0.34134084  0.59120665  0.00064695
   0.32413001  0.60859981  0.96949267
   0.28183935  0.62834239  0.96768430
   0.26156473  0.62844965  0.93653867
   0.21919812  0.60915158  0.93472404
   0.20189824  0.59195716  0.90358112
   0.17204760  0.53942474  0.90178061
   0.16285678  0.51005977  0.87063814
   0.15438741  0.43990417  0.86881752
   0.15603387  0.40708662  0.83766818
   0.17149168  0.34014863  0.83586284
   0.18349126  0.31364310  0.80470798
   0.21826571  0.26984077  0.80289790
   0.23702820  0.25749970  0.77174343
   0.28076937  0.24984667  0.76992340
   0.30070871  0.25531991  0.73876104
   0.34039636  0.28621141  0.73695181
   0.35553733  0.30797573  0.70580118
   0.37929709  0.36816445  0.70399191
   0.38510379  0.39971421  0.67286028
   0.38602469  0.47118223  0.67104639
   0.38092957  0.50307950  0.63991548
   0.25756020  0.62778016  0.99696094
   0.21562714  0.60612339  0.99514743
   0.19871508  0.58797641  0.96400072
   0.16999794  0.53380343  0.96219762
   0.16144721  0.50393811  0.93105622
   0.15447562  0.43334559  0.92923757
   0.15683014  0.40064269  0.89809293
   0.17369945  0.33461064  0.89628982
   0.18625864  0.30880066  0.86513708
   0.22194438  0.26698299  0.86331882
   0.24096604  0.25573873  0.83216571
   0.28484897  0.25056273  0.83034741
   0.30466241  0.25721264  0.79918893
   0.34368275  0.29024829  0.79737105
   0.35836807  0.31285358  0.76621066
   0.38090565  0.37426564  0.76438658
   0.38607063  0.40609075  0.73323884
   0.38548300  0.47761203  0.73143449
   0.37962376  0.50921535  0.70031191
   0.16014104  0.49774163  0.99146951
   0.15467600  0.42679523  0.98965385
   0.15774035  0.39423867  0.95851050
   0.17600268  0.32919167  0.95670896
   0.18911110  0.30409405  0.92556026
   0.22566542  0.26429488  0.92373897
   0.24492491  0.25413623  0.89258805
   0.28889279  0.25143300  0.89077472
   0.30856278  0.25921600  0.85961580
   0.34686747  0.29440199  0.85779506
   0.36108995  0.31781781  0.82663750
   0.38233913  0.38043920  0.82481370
   0.38686683  0.41253218  0.79366068
   0.38475358  0.48396129  0.79185884
   0.37823950  0.51521251  0.76071876
   0.19204573  0.29956742  0.98598238
   0.22942145  0.26183508  0.98416304
   0.24889326  0.25274848  0.95301336
   0.29289444  0.25251433  0.95120681
   0.31239539  0.26140641  0.92004969
   0.34992627  0.29873014  0.91822807
   0.36365899  0.32292531  0.88707235
   0.38356401  0.38669312  0.88525495
   0.38744001  0.41901622  0.85409580
   0.38380316  0.49027688  0.85229235
   0.37666295  0.52112266  0.82114480
   0.31616692  0.26380022  0.98048610
   0.35288244  0.30321368  0.97866517
   0.36609437  0.32817145  0.94750918
   0.38464017  0.39300945  0.94569860
   0.38783604  0.42552923  0.91453891
   0.38269261  0.49654515  0.91273027
   0.37491142  0.52696922  0.88158066
   0.38807880  0.43206312  0.97498422
   0.38142380  0.50274354  0.97316957
   0.37301079  0.53271126  0.94201734
   0.45134127  0.40270138  0.49055641
 
 position of ions in cartesian coordinates  (Angst):
  12.00906606 10.72449426  0.09930760
  11.93863308 10.83455151  2.54386443
  10.94348944 11.85379351  2.47066883
  10.37500262 12.18060201  1.21048216
   8.99330079 12.52646820  1.13699352
  11.86359405 10.94241502  4.98821212
  10.83383818 11.92657436  4.91487688
  10.25468722 12.23337114  3.65467783
   8.86179949 12.53112598  3.58086626
   8.20770012 12.48828134  2.32094075
   6.86581721 12.01068477  2.24770649
   6.33154354 11.63056797  0.98770576
   5.43962635 10.51998677  0.91456745
  11.78363288 11.04830977  7.43228981
  10.72086312 11.99660916  7.35883698
  10.13195824 12.28254941  6.09864505
   8.72963399 12.53197581  6.02471994
   8.07776251 12.46605530  4.76470053
   6.75327852 11.94244399  4.69163662
   6.23263186 11.54416536  3.43160600
   5.37959416 10.40355399  3.35832526
   5.14518942  9.79100311  2.09861450
   5.01746627  8.37236562  2.02535215
   5.13940167  7.72757457  0.76559071
   5.77517938  6.45295274  0.69269507
  11.70003520 11.15295592  9.87621643
  10.60558338 12.06489402  9.80287343
  10.00700869 12.32907190  8.54244497
   8.59710286 12.52962713  8.46862135
   7.94806102 12.44040902  7.20844133
   6.64254622 11.87112527  7.13566008
   6.13615628 11.45479823  5.87567154
   5.32303144 10.28535676  5.80233290
   5.11037620  9.66489512  4.54245358
   5.03174799  8.24275668  4.46935910
   5.17612244  7.60255014  3.20951439
   5.85542192  6.35056121  3.13652066
   6.31408303  5.88099917  1.87690053
   7.54926697  5.17161579  1.80349997
   8.18597846  5.01238240  0.54364856
   9.60969146  5.05688161  0.47074025
  12.00016476 10.72745104 13.57991885
  11.61308250 11.25560935 12.32005058
  10.48875133 12.12995479 12.24741830
   9.88115201 12.37342194 10.98644110
   8.46506363 12.52455323 10.91292750
   7.81933154 12.41174265  9.65270575
   6.53458092 11.79676845  9.58004331
   6.04307792 11.36240182  8.32001139
   5.27142693 10.16529857  8.24665993
   5.07990012  9.53787831  6.98666658
   5.05049549  8.11381326  6.91370318
   5.21666794  7.47900324  5.65376319
   5.93880968  6.25125073  5.58049843
   6.41369796  5.79785219  4.32083255
   7.67269951  5.13170044  4.24762734
   8.31474148  4.99441395  2.98787545
   9.73614872  5.08807827  2.91512657
  10.35435003  5.30798293  1.65517866
  11.51519923  6.13343843  1.58165286
  11.92607343  6.64484096  0.32147839
  12.48167497  7.95641295  0.24846217
  11.92388600 10.82630037 16.02333952
  11.52156418 11.34898438 14.76379355
  10.36935442 12.18495534 14.69256578
   9.75468784 12.41276901 13.43172748
   8.33382604 12.51532635 13.35842388
   7.69241753 12.37945288 12.09764817
   6.43077254 11.71867679 12.02474789
   5.95411926 11.26735492 10.76469082
   5.22509689 10.04366756 10.69138207
   5.05478917  9.41001039  9.43136972
   5.07458128  7.98576958  9.35841173
   5.26206538  7.35710444  8.09821131
   6.02570389  6.15488141  8.02458207
   6.51557401  5.71805742  6.76489201
   7.79670906  5.09538358  6.69187985
   8.44345917  4.98082473  5.43215727
   9.86068464  5.12338762  5.35938473
  10.47151035  5.36440556  4.09963218
  11.60340258  6.22921626  4.02632949
  11.99661990  6.75446733  2.76622231
  12.50682743  8.08441312  2.69336154
  12.56582772  8.73774109  1.43308066
  12.30170106 10.13741030  1.35944455
  11.85132229 10.90124053 18.46700817
  11.42105623 11.41557415 17.20999287
  10.24588036 12.21851043 17.13898169
   9.62622966 12.43733879 15.87824139
   8.20361480 12.49665407 15.80459603
   7.56670587 12.34250246 14.54294066
   6.32928691 11.63711184 14.46963009
   5.86971939 11.16868670 13.20960331
   5.18462127  9.91986801 13.13632931
   5.03592754  9.28086110 11.87603372
   5.10402846  7.85831323 11.80297344
   5.31191988  7.23639039 10.54271427
   6.11551889  6.06032034 10.46887073
   6.62023172  5.64100587  9.20907849
   7.92147914  5.06187231  9.13615723
   8.57196326  4.97032826  7.87629909
   9.98338652  5.16190903  7.80343924
  10.58575522  5.42461527  6.54405455
  11.68719733  6.32818205  6.47102558
  12.06269878  6.86666162  5.21099348
  12.52652784  8.21345474  5.13809927
  12.56358329  8.86834217  3.87785040
  12.25122790 10.25809799  3.80402410
  11.77127689 11.00037258 20.92252372
  11.32853835 11.48697101 19.65737416
  10.12822298 12.24249305 19.58381730
   9.49767548 12.44485437 18.32341585
   8.07515036 12.46704975 18.25005545
   7.44271209 12.29701860 16.98892753
   6.22933271 11.55088884 16.91509976
   5.78771543 11.06680755 15.65428773
   5.14728953  9.79502569 15.58105303
   5.02122360  9.15108005 14.32070335
   5.13684289  7.73143992 14.24753917
   5.36609764  7.11692705 12.98747879
   6.20796946  5.96797326 12.91370679
   6.72674927  5.56616112 11.65338993
   8.04659161  5.03121143 11.58049983
   8.70000818  4.96218380 10.32092150
  10.10426015  5.20335369 10.24777823
  10.69707417  5.48809913  8.98840444
  11.76562177  6.43014540  8.91542607
  12.12315059  6.98135107  7.65561916
  12.53996880  8.34358245  7.58255489
  12.55535246  8.99910342  6.32248677
  12.19505413 10.37730713  6.24860528
  11.69085902 11.13874296 23.36415407
  11.22776722 11.58691554 22.10332812
  10.00169369 12.30886638 22.02783672
   9.36824751 12.46545953 20.76825507
   7.94706772 12.43937937 20.69514072
   7.31995799 12.24350950 19.43420184
   6.13388497 11.46005781 19.36042988
   5.70761927 10.96214571 18.09913657
   5.11196007  9.66895378 18.02615995
   5.00906390  9.02100055 16.76584938
   5.17245359  7.60620974 16.69254687
   5.42303934  6.99919931 15.43214648
   6.30283223  5.87947269 15.35856687
   6.83499040  5.49460321 14.09850671
   8.17338685  5.00649265 14.02578037
   8.82846799  4.95920681 12.76617701
  10.22306438  5.24950032 12.69238293
  10.80540373  5.55461932 11.43243421
  11.83886623  6.53517563 11.35889795
  12.17733640  7.09856778 10.09990533
  12.54637381  8.47482877 10.02649491
  12.54034849  9.13015938  8.76654940
  12.13368825 10.49526157  8.69285869
  11.61360030 11.25360869 25.80802902
  11.13754500 11.70236873 24.54836254
   9.88137114 12.37119555 24.47359224
   9.23984717 12.50472565 23.21265404
   7.81847989 12.41749462 23.14012374
   7.20016054 12.19617897 21.88062096
   6.04128553 11.36815603 21.80689850
   5.63320376 10.85375824 20.54652435
   5.08313463  9.54184600 20.47321636
   5.00195308  8.89071860 19.21143495
   5.21293647  7.48386182 19.13776842
   5.48239959  6.88498396 17.87752113
   6.40246758  5.79779228 17.80420749
   6.94736476  5.43114001 16.54463116
   8.30362247  4.99714555 16.47208324
   8.95831624  4.96857787 15.21134184
  10.34020717  5.30860327 15.13637452
  10.91187253  5.62631685 13.87668049
  11.91041059  6.64374953 13.80182470
  12.22606638  7.21896803 12.54254625
  12.54715947  8.60629796 12.46865438
  12.51939046  9.26145344 11.20934832
  12.06842284 10.61262035 11.13645200
  11.52836730 11.34860764 28.25225277
  11.03853884 11.78764869 26.99240742
   9.75792782 12.41161486 26.91901555
   9.11135680 12.52702801 25.65925189
   7.69398657 12.38300088 25.58625356
   7.08357728 12.14098212 24.32618672
   5.95557216 11.27178317 24.25245123
   5.56360872 10.74509653 22.99187172
   5.05766084  9.41387109 22.91877851
   4.99835622  8.76057555 21.65853251
   5.25831784  7.36071808 21.58512398
   5.54949215  6.77338319 20.32392034
   6.50712561  5.72296874 20.25066997
   7.06670813  5.37874453 18.98969859
   8.43776276  5.00399568 18.91636098
   9.09015846  5.00006062 17.65685277
  10.45580856  5.39888710 17.58141960
  11.01488032  5.71941895 16.32056689
  11.98446484  6.76016920 16.24374714
  12.27766292  7.34056390 14.98154515
  12.55113376  8.73637460 14.90727590
  12.49680931  9.39141413 13.65136172
  11.44020285 11.43949818 30.69622387
  10.93507373 11.86109643 29.43695633
   9.63305689 12.43978235 29.36429814
   8.98248607 12.53364867 28.10473464
   7.57164996 12.33990792 28.03139004
   6.96988573 12.07815755 26.77105685
   5.87150640 11.17136629 26.69740943
   5.49834719 10.63220618 25.43707543
   5.03728815  9.28462378 25.36383899
   5.00145682  8.62955581 24.10354552
   5.31016086  7.23953773 24.02993662
   5.61962010  6.66195824 22.76913595
   6.61292227  5.64096415 22.69580139
   7.18430296  5.32086707 21.43475413
   8.56837950  4.99221785 21.36100732
   9.22934989  5.03328622 20.10069646
  10.57830861  5.47093619 20.02750346
  11.12672958  5.83398032 18.76222339
  12.11252762  6.84486413 18.67410796
  12.36684656  7.44858647 17.42414408
  12.59252120  8.86848411 17.34946207
  12.47455707  9.51465477 16.09287000
  11.34825053 11.52832435 33.14050905
  10.82848637 11.93085766 31.88115818
   9.50741470 12.46335697 31.80867987
   8.85399571 12.53441896 30.54905031
   7.45026993 12.29317630 30.47569494
   6.85784467 12.01102178 29.21591569
   5.78986716 11.06853620 29.14238644
   5.43524307 10.51708485 27.88190164
   5.01949810  9.15498173 27.80844733
   5.00669723  8.49912048 26.54815204
   5.36472397  7.12048718 26.47463748
   5.69549540  6.55379565 25.21454140
   6.72180967  5.56611844 25.14152852
   7.30130705  5.26020193 23.88006295
   8.69471273  4.96745172 23.80601603
   9.34923181  5.02741443 22.54537260
  10.68554082  5.51715277 22.47483276
  11.22906232  5.91031114 21.21782769
  12.17603859  6.96054685 21.16219501
  12.62494264  7.48525142 19.87960110
  12.81787835  9.03164448 19.80515687
  12.51138074  9.65057461 18.52247269
  11.25262279 11.61488302 35.58503861
  10.71967440 11.99866259 34.32521912
   9.38091558 12.48506875 34.25268070
   8.72557999 12.53272498 32.99320492
   7.33072129 12.24377684 32.91980741
   6.74803704 11.94088828 31.66025306
   5.71226428 10.96329693 31.58701220
   5.37579501 10.40032120 30.32666536
   5.00630239  9.02473153 30.25314008
   5.01575146  8.36893948 28.99301239
   5.42230466  7.00385375 28.91967262
   5.77362081  6.44949509 27.65944789
   6.83418963  5.49890058 27.58657364
   7.42263574  5.20967619 26.32600437
   8.82496511  4.95914222 26.25245001
   9.47702783  5.02886048 24.99170250
  10.79923863  5.55614359 24.92099009
  11.31771714  5.96437872 23.66156912
  12.17338723  7.10087980 23.59169695
  12.44668136  7.69855919 22.33526113
  12.57687589  9.13048333 22.26091130
  12.47879074  9.77834274 21.01081341
  11.15308024 11.69810608 38.02959080
  10.60768934 12.06338862 36.76957053
   9.25294562 12.50353151 36.69678766
   8.59671522 12.52811506 35.43719318
   7.21280119 12.19122545 35.36379288
   6.64094911 11.86829222 34.10417380
   5.63900231 10.85586715 34.03123974
   5.32127740 10.28158313 32.77139020
   4.99916680  8.89411228 32.69777134
   5.03052033  8.23901435 31.43765978
   5.48447674  6.88902831 31.36451005
   5.85457935  6.34765194 30.10423137
   6.94864350  5.43558590 30.03130678
   7.54716542  5.16767863 28.77125110
   8.95687652  4.96549978 28.69772890
   9.60601784  5.05236339 27.43681525
  10.91059566  5.62387548 27.36459554
  11.41573383  6.04097550 26.10491428
  12.22496412  7.21440596 26.03313201
  12.43837108  7.83642233 24.77734715
  12.51620779  9.25666398 24.70354603
  12.37496233  9.89163715 23.44131906
  11.04998770 11.77767210  0.02616791
  10.49283354 12.12416840 39.21408583
   9.12378788 12.51746860 39.14094059
   8.46745165 12.51960533 37.88116090
   7.09594724 12.13516053 37.80776243
   6.53591015 11.79262327 36.54809221
   5.56957638 10.74610319 36.47526508
   5.27204844 10.16111146 35.21561278
   4.99787528  8.76351283 35.14197237
   5.05117523  8.10974094 33.88204248
   5.55158010  6.77624157 33.80902004
   5.94003393  6.24821384 32.54886665
   7.06576286  5.37560947 32.47565240
   7.67314779  5.12975798 31.21551489
   9.08915013  4.97729875 31.14189820
   9.73463225  5.08633347 29.88144168
  11.01941287  5.70173585 29.80826190
  11.50956071  6.13531176 28.54827977
  12.27871883  7.33435626 28.47509845
  12.46669526  7.96287207 27.21588447
  12.49650671  9.38661591 27.14251617
  12.33156605 10.02205464 25.88333181
   8.33781573 12.50626805 40.32512363
   6.98034636 12.07483467 40.25177079
   6.43286396 11.71332113 38.99194705
   5.50322405 10.63411874 38.91901510
   5.22641745 10.03915941 37.65940620
   5.00073109  8.63285660 37.58584545
   5.07695223  7.98136862 36.32610549
   5.62305044  6.66591681 36.25317347
   6.02962051  6.15174564 34.99310602
   7.18484999  5.31867848 34.91956094
   7.80062478  5.09467694 33.65947846
   9.22121594  4.99156366 33.58593147
   9.86262261  5.12403926 32.32563182
  11.12580097  5.78215620 32.25210204
  11.60119831  6.23248553 30.99172527
  12.33079157  7.45590061 30.91794496
  12.49799405  8.08990172 29.65807947
  12.47897111  9.51470669 29.58509714
  12.28929379 10.14428959 28.32624964
   5.18413357  9.91571670 40.10300588
   5.00721767  8.50236419 40.02956595
   5.10641774  7.85379152 38.76987828
   5.69761145  6.55796338 38.69700945
   6.12196115  6.05798322 37.43710535
   7.30530856  5.26512755 37.36343798
   7.92878248  5.06275283 36.10344377
   9.35212390  5.00890079 36.03009848
   9.98888658  5.16394914 34.76978086
  11.22889748  5.86490369 34.69613534
  11.68931187  6.33138006 33.43587315
  12.37719657  7.57888662 33.36210392
  12.52376883  8.21822409 32.10202511
  12.45535790  9.64119294 32.02914398
  12.24448216 10.26376145 30.76958869
   6.21696194  5.96780644 39.88106246
   7.42689971  5.21612490 39.80747343
   8.05724712  5.03510701 38.54752987
   9.48166649  5.03044241 38.47445826
  10.11295705  5.20758526 37.21421371
  11.32791786  5.95112656 37.14053257
  11.77247761  6.43312870 35.88034459
  12.41684885  7.70347349 35.80683420
  12.54232387  8.34739543 34.54650748
  12.42459065  9.76700838 34.47356153
  12.19344555 10.38149989 33.21370383
  10.23505020  5.25527330 39.65874842
  11.42361598  6.04044506 39.58509556
  11.85131639  6.53763909 38.32489625
  12.45168680  7.82930377 38.25166215
  12.55514448  8.47714375 36.99131357
  12.38863983  9.89188121 36.91815745
  12.13674470 10.49797167 35.65821659
  12.56300290  8.60730807 39.43620831
  12.34756547 10.01536182 39.36280924
  12.07521693 10.61236118 38.10276228
  14.61095463  8.02238066 19.84204891
 


--------------------------------------------------------------------------------------------------------


 k-point   1 :   0.0000 0.0000 0.0000  plane waves:  473959
 k-point   2 :   0.0000 0.0000-0.0556  plane waves:  473982
 k-point   3 :   0.0000 0.0000-0.1111  plane waves:  473946
 k-point   4 :   0.0000 0.0000-0.1667  plane waves:  473914
 k-point   5 :   0.0000 0.0000-0.2222  plane waves:  473924
 k-point   6 :   0.0000 0.0000-0.2778  plane waves:  473870
 k-point   7 :   0.0000 0.0000-0.3333  plane waves:  473794
 k-point   8 :   0.0000 0.0000-0.3889  plane waves:  473802
 k-point   9 :   0.0000 0.0000-0.4444  plane waves:  473706
 k-point  10 :   0.0000 0.0000-0.5000  plane waves:  473680

 maximum and minimum number of plane-waves per node :     59270    59180

 maximum number of plane-waves:    473982
 maximum index in each direction: 
   IXMAX=   52   IYMAX=   32   IZMAX=   66
   IXMIN=  -52   IYMIN=  -32   IZMIN=  -65


 parallel 3D FFT for wavefunctions:
    minimum data exchange during FFTs selected (reduces bandwidth)
 parallel 3D FFT for charge:
    minimum data exchange during FFTs selected (reduces bandwidth)


 total amount of memory used by VASP MPI-rank0  1794888. kBytes
=======================================================================

   base      :      30000. kBytes
   nonl-proj :     469497. kBytes
   fftplans  :      73058. kBytes
   grid      :     152409. kBytes
   one-center:        746. kBytes
   wavefun   :    1069178. kBytes
 
     INWAV:  cpu time    224.5880: real time    224.7289
 initial charge density was supplied:
 number of electron    1462.0000008 magnetization       0.0000025
 keeping initial charge density in first step


--------------------------------------------------------------------------------------------------------


 Maximum index for augmentation-charges           290 (set IRDMAX)


--------------------------------------------------------------------------------------------------------


 First call to EWALD:  gamma=   0.060
 Maximum number of real-space cells 3x 4x 2
 Maximum number of reciprocal cells 3x 2x 4

    FEWALD:  cpu time      0.9756: real time      0.9757


--------------------------------------- Ionic step        1  -------------------------------------------




--------------------------------------- Iteration      1(   1)  ---------------------------------------


    POTLOK:  cpu time      1.4727: real time      1.4727
    SETDIJ:  cpu time      0.0321: real time      0.0321
     EDDAV:  cpu time    487.4723: real time    487.5376
       DOS:  cpu time      0.0187: real time      0.0187
    --------------------------------------------
      LOOP:  cpu time    488.9958: real time    489.0612

 eigenvalue-minimisations  : 38112
 total energy-change (2. order) :-0.3308076E+04  (-0.6079083E+02)
 number of electron    1462.0000008 magnetization       0.0000025
 augmentation part     1462.0000008 magnetization       0.0000025

 Free energy of the ion-electron system (eV)
  ---------------------------------------------------
  alpha Z        PSCENC =       418.83067969
  Ewald energy   TEWEN  =    465470.44636425
  -Hartree energ DENC   =   -509661.14996377
  -exchange      EXHF   =         0.00000000
  -V(xc)+E(xc)   XCENC  =      5237.51366360
  PAW double counting   =     25518.44154483   -25972.81425326
  entropy T*S    EENTRO =        -0.00000000
  eigenvalues    EBANDS =    -18130.61638808
  atomic energy  EATOM  =     53811.27190059
  Solvation  Ediel_sol  =         0.00000000
  ---------------------------------------------------
  free energy    TOTEN  =     -3308.07645216 eV

  energy without entropy =    -3308.07645216  energy(sigma->0) =    -3308.07645216


--------------------------------------------------------------------------------------------------------




--------------------------------------- Iteration      1(   2)  ---------------------------------------


     EDDAV:  cpu time    507.0476: real time    507.0878
       DOS:  cpu time      0.0120: real time      0.0120
    --------------------------------------------
      LOOP:  cpu time    507.0595: real time    507.0998

 eigenvalue-minimisations  : 40880
 total energy-change (2. order) :-0.2046541E+01  (-0.2046237E+01)
 number of electron    1462.0000008 magnetization       0.0000025
 augmentation part     1462.0000008 magnetization       0.0000025

 Free energy of the ion-electron system (eV)
  ---------------------------------------------------
  alpha Z        PSCENC =       418.83067969
  Ewald energy   TEWEN  =    465470.44636425
  -Hartree energ DENC   =   -509661.14996377
  -exchange      EXHF   =         0.00000000
  -V(xc)+E(xc)   XCENC  =      5237.51366360
  PAW double counting   =     25518.44154483   -25972.81425326
  entropy T*S    EENTRO =        -0.00000000
  eigenvalues    EBANDS =    -18132.66292888
  atomic energy  EATOM  =     53811.27190059
  Solvation  Ediel_sol  =         0.00000000
  ---------------------------------------------------
  free energy    TOTEN  =     -3310.12299296 eV

  energy without entropy =    -3310.12299296  energy(sigma->0) =    -3310.12299296


--------------------------------------------------------------------------------------------------------




--------------------------------------- Iteration      1(   3)  ---------------------------------------


     EDDAV:  cpu time    604.2732: real time    604.3209
       DOS:  cpu time      0.0155: real time      0.0155
    --------------------------------------------
      LOOP:  cpu time    604.2887: real time    604.3364

 eigenvalue-minimisations  : 48880
 total energy-change (2. order) :-0.5858721E-01  (-0.5858450E-01)
 number of electron    1462.0000008 magnetization       0.0000025
 augmentation part     1462.0000008 magnetization       0.0000025

 Free energy of the ion-electron system (eV)
  ---------------------------------------------------
  alpha Z        PSCENC =       418.83067969
  Ewald energy   TEWEN  =    465470.44636425
  -Hartree energ DENC   =   -509661.14996377
  -exchange      EXHF   =         0.00000000
  -V(xc)+E(xc)   XCENC  =      5237.51366360
  PAW double counting   =     25518.44154483   -25972.81425326
  entropy T*S    EENTRO =        -0.00000000
  eigenvalues    EBANDS =    -18132.72151609
  atomic energy  EATOM  =     53811.27190059
  Solvation  Ediel_sol  =         0.00000000
  ---------------------------------------------------
  free energy    TOTEN  =     -3310.18158016 eV

  energy without entropy =    -3310.18158016  energy(sigma->0) =    -3310.18158016


--------------------------------------------------------------------------------------------------------




--------------------------------------- Iteration      1(   4)  ---------------------------------------


     EDDAV:  cpu time    528.4935: real time    528.5340
       DOS:  cpu time      0.0134: real time      0.0134
    --------------------------------------------
      LOOP:  cpu time    528.5069: real time    528.5474

 eigenvalue-minimisations  : 41232
 total energy-change (2. order) :-0.5828916E-03  (-0.5827379E-03)
 number of electron    1462.0000008 magnetization       0.0000025
 augmentation part     1462.0000008 magnetization       0.0000025

 Free energy of the ion-electron system (eV)
  ---------------------------------------------------
  alpha Z        PSCENC =       418.83067969
  Ewald energy   TEWEN  =    465470.44636425
  -Hartree energ DENC   =   -509661.14996377
  -exchange      EXHF   =         0.00000000
  -V(xc)+E(xc)   XCENC  =      5237.51366360
  PAW double counting   =     25518.44154483   -25972.81425326
  entropy T*S    EENTRO =        -0.00000000
  eigenvalues    EBANDS =    -18132.72209898
  atomic energy  EATOM  =     53811.27190059
  Solvation  Ediel_sol  =         0.00000000
  ---------------------------------------------------
  free energy    TOTEN  =     -3310.18216306 eV

  energy without entropy =    -3310.18216306  energy(sigma->0) =    -3310.18216306


--------------------------------------------------------------------------------------------------------




--------------------------------------- Iteration      1(   5)  ---------------------------------------


     EDDAV:  cpu time    615.0127: real time    615.0593
       DOS:  cpu time      0.0149: real time      0.0149
    --------------------------------------------
      LOOP:  cpu time    615.0276: real time    615.0742

 eigenvalue-minimisations  : 50064
 total energy-change (2. order) :-0.2720335E-04  (-0.2718821E-04)
 number of electron    1462.0000008 magnetization       0.0000025
 augmentation part     1462.0000008 magnetization       0.0000025

 Free energy of the ion-electron system (eV)
  ---------------------------------------------------
  alpha Z        PSCENC =       418.83067969
  Ewald energy   TEWEN  =    465470.44636425
  -Hartree energ DENC   =   -509661.14996377
  -exchange      EXHF   =         0.00000000
  -V(xc)+E(xc)   XCENC  =      5237.51366360
  PAW double counting   =     25518.44154483   -25972.81425326
  entropy T*S    EENTRO =        -0.00000000
  eigenvalues    EBANDS =    -18132.72212618
  atomic energy  EATOM  =     53811.27190059
  Solvation  Ediel_sol  =         0.00000000
  ---------------------------------------------------
  free energy    TOTEN  =     -3310.18219026 eV

  energy without entropy =    -3310.18219026  energy(sigma->0) =    -3310.18219026


--------------------------------------------------------------------------------------------------------




--------------------------------------- Iteration      1(   6)  ---------------------------------------


     EDDAV:  cpu time    457.3682: real time    457.4052
       DOS:  cpu time      0.0124: real time      0.0124
    --------------------------------------------
      LOOP:  cpu time    457.3806: real time    457.4176

 eigenvalue-minimisations  : 34576
 total energy-change (2. order) :-0.6216578E-06  (-0.6103130E-06)
 number of electron    1462.0000008 magnetization       0.0000025
 augmentation part     1462.0000008 magnetization       0.0000025

 Free energy of the ion-electron system (eV)
  ---------------------------------------------------
  alpha Z        PSCENC =       418.83067969
  Ewald energy   TEWEN  =    465470.44636425
  -Hartree energ DENC   =   -509661.14996377
  -exchange      EXHF   =         0.00000000
  -V(xc)+E(xc)   XCENC  =      5237.51366360
  PAW double counting   =     25518.44154483   -25972.81425326
  entropy T*S    EENTRO =        -0.00000000
  eigenvalues    EBANDS =    -18132.72212681
  atomic energy  EATOM  =     53811.27190059
  Solvation  Ediel_sol  =         0.00000000
  ---------------------------------------------------
  free energy    TOTEN  =     -3310.18219088 eV

  energy without entropy =    -3310.18219088  energy(sigma->0) =    -3310.18219088


--------------------------------------------------------------------------------------------------------




 average (electrostatic) potential at core
  the test charge radii are     0.6991  1.0808
  (the norm of the test charge is              1.0000)
       1 -58.7493       2 -58.7497       3 -58.7493       4 -58.7490       5 -58.7482
       6 -58.7491       7 -58.7488       8 -58.7488       9 -58.7478      10 -58.7478
      11 -58.7479      12 -58.7484      13 -58.7495      14 -58.7488      15 -58.7480
      16 -58.7486      17 -58.7483      18 -58.7480      19 -58.7490      20 -58.7485
      21 -58.7492      22 -58.7495      23 -58.7497      24 -58.7483      25 -58.7483
      26 -58.7475      27 -58.7482      28 -58.7484      29 -58.7489      30 -58.7489
      31 -58.7505      32 -58.7500      33 -58.7492      34 -58.7492      35 -58.7496
      36 -58.7496      37 -58.7500      38 -58.7504      39 -58.7502      40 -58.7492
      41 -58.7493      42 -58.7416      43 -58.7468      44 -58.7526      45 -58.7501
      46 -58.7519      47 -58.7496      48 -58.7510      49 -58.7506      50 -58.7518
      51 -58.7493      52 -58.7493      53 -58.7495      54 -58.7487      55 -58.7486
      56 -58.7483      57 -58.7489      58 -58.7488      59 -58.7486      60 -58.7490
      61 -58.7498      62 -58.7502      63 -58.7390      64 -58.7467      65 -58.7545
      66 -58.7553      67 -58.7569      68 -58.7532      69 -58.7538      70 -58.7519
      71 -58.7528      72 -58.7518      73 -58.7514      74 -58.7501      75 -58.7495
      76 -58.7488      77 -58.7490      78 -58.7477      79 -58.7497      80 -58.7499
      81 -58.7498      82 -58.7498      83 -58.7507      84 -58.7504      85 -58.7496
      86 -58.7840      87 -58.7450      88 -58.7509      89 -58.7570      90 -58.7601
      91 -58.7580      92 -58.7562      93 -58.7534      94 -58.7536      95 -58.7531
      96 -58.7528      97 -58.7517      98 -58.7513      99 -58.7500     100 -58.7489
     101 -58.7482     102 -58.7488     103 -58.7491     104 -58.7504     105 -58.7497
     106 -58.7500     107 -58.7499     108 -58.7497     109 -58.7867     110 -58.7804
     111 -58.7558     112 -58.7535     113 -58.7561     114 -58.7574     115 -58.7593
     116 -58.7555     117 -58.7561     118 -58.7538     119 -58.7539     120 -58.7538
     121 -58.7552     122 -58.7537     123 -58.7529     124 -58.7499     125 -58.7502
     126 -58.7480     127 -58.7477     128 -58.7491     129 -58.7489     130 -58.7502
     131 -58.7499     132 -58.7454     133 -58.7474     134 -58.7488     135 -58.7545
     136 -58.7569     137 -58.7561     138 -58.7605     139 -58.7564     140 -58.7571
     141 -58.7554     142 -58.7563     143 -58.7568     144 -58.7585     145 -58.7574
     146 -58.7574     147 -58.7558     148 -58.7514     149 -58.7470     150 -58.7454
     151 -58.7467     152 -58.7460     153 -58.7473     154 -58.7480     155 -58.7453
     156 -58.7502     157 -58.7553     158 -58.7581     159 -58.7586     160 -58.7575
     161 -58.7586     162 -58.7581     163 -58.7600     164 -58.7594     165 -58.7581
     166 -58.7593     167 -58.7584     168 -58.7586     169 -58.7572     170 -58.7562
     171 -58.7511     172 -58.7459     173 -58.7407     174 -58.7393     175 -58.7375
     176 -58.7432     177 -58.7434     178 -58.7456     179 -58.7500     180 -58.7550
     181 -58.7567     182 -58.7565     183 -58.7575     184 -58.7564     185 -58.7564
     186 -58.7553     187 -58.7575     188 -58.7564     189 -58.7602     190 -58.7572
     191 -58.7577     192 -58.7555     193 -58.7502     194 -58.7495     195 -58.7461
     196 -58.7337     197 -58.7257     198 -58.7227     199 -58.7359     200 -58.7484
     201 -58.7490     202 -58.7499     203 -58.7533     204 -58.7544     205 -58.7547
     206 -58.7545     207 -58.7548     208 -58.7540     209 -58.7562     210 -58.7553
     211 -58.7591     212 -58.7565     213 -58.7567     214 -58.7533     215 -58.7566
     216 -58.7813     217 -58.7872     218 -58.8280     219 -58.7630     220 -58.7645
     221 -58.7295     222 -58.7488     223 -58.7490     224 -58.7477     225 -58.7497
     226 -58.7505     227 -58.7520     228 -58.7523     229 -58.7537     230 -58.7526
     231 -58.7534     232 -58.7532     233 -58.7560     234 -58.7570     235 -58.7590
     236 -58.7567     237 -58.7502     238 -58.7454     239 -58.7844     240 -58.8494
     241 -59.6593     242 -59.6591     243 -58.8494     244 -58.7491     245 -58.7492
     246 -58.7486     247 -58.7486     248 -58.7494     249 -58.7499     250 -58.7505
     251 -58.7515     252 -58.7510     253 -58.7514     254 -58.7521     255 -58.7538
     256 -58.7532     257 -58.7564     258 -58.7557     259 -58.7548     260 -58.7471
     261 -58.7399     262 -58.7284     263 -58.7638     264 -58.7628     265 -58.8283
     266 -58.7490     267 -58.7494     268 -58.7485     269 -58.7488     270 -58.7486
     271 -58.7487     272 -58.7488     273 -58.7504     274 -58.7508     275 -58.7515
     276 -58.7505     277 -58.7515     278 -58.7514     279 -58.7532     280 -58.7511
     281 -58.7528     282 -58.7475     283 -58.7416     284 -58.7363     285 -58.7216
     286 -58.7247     287 -58.7326     288 -58.7492     289 -58.7491     290 -58.7489
     291 -58.7487     292 -58.7482     293 -58.7489     294 -58.7485     295 -58.7486
     296 -58.7485     297 -58.7491     298 -58.7493     299 -58.7499     300 -58.7485
     301 -58.7502     302 -58.7487     303 -58.7492     304 -58.7468     305 -58.7434
     306 -58.7419     307 -58.7370     308 -58.7383     309 -58.7408     310 -58.7480
     311 -58.7486     312 -58.7487     313 -58.7479     314 -58.7485     315 -58.7490
     316 -58.7489     317 -58.7489     318 -58.7492     319 -58.7487     320 -58.7481
     321 -58.7480     322 -58.7473     323 -58.7477     324 -58.7466     325 -58.7468
     326 -58.7451     327 -58.7454     328 -58.7440     329 -58.7488     330 -58.7478
     331 -58.7484     332 -58.7482     333 -58.7490     334 -58.7492     335 -58.7484
     336 -58.7492     337 -58.7488     338 -58.7500     339 -58.7495     340 -58.7499
     341 -58.7489     342 -58.7484     343 -58.7475     344 -58.7484     345 -58.7490
     346 -58.7493     347 -58.7499     348 -58.7498     349 -58.7493     350 -58.7496
     351 -58.7499     352 -58.7501     353 -58.7493     354 -58.7497     355 -58.7497
     356 -58.7496     357 -58.7496     358 -58.7495     359 -58.7496     360 -58.7495
     361 -58.7494     362 -58.7496     363 -58.7491     364 -58.7485     365 -61.7531
 
 
 
 E-fermi :  -3.5417     XC(G=0):  -1.6376     alpha+bet : -1.4091

 Fermi energy:        -3.5416586282

 spin component 1

 k-point     1 :       0.0000    0.0000    0.0000
  band No.  band energies     occupation 
      1     -22.9836      1.00000
      2     -22.9210      1.00000
      3     -22.9106      1.00000
      4     -22.7778      1.00000
      5     -22.7653      1.00000
      6     -22.7257      1.00000
      7     -22.7137      1.00000
      8     -22.7061      1.00000
      9     -22.7002      1.00000
     10     -22.6978      1.00000
     11     -22.6972      1.00000
     12     -22.5156      1.00000
     13     -22.5013      1.00000
     14     -22.5011      1.00000
     15     -22.5010      1.00000
     16     -22.3895      1.00000
     17     -22.3843      1.00000
     18     -22.1942      1.00000
     19     -22.1730      1.00000
     20     -22.1729      1.00000
     21     -22.1714      1.00000
     22     -22.1425      1.00000
     23     -22.1356      1.00000
     24     -22.0842      1.00000
     25     -22.0715      1.00000
     26     -22.0685      1.00000
     27     -22.0684      1.00000
     28     -21.9317      1.00000
     29     -21.9246      1.00000
     30     -21.8876      1.00000
     31     -21.8742      1.00000
     32     -21.8741      1.00000
     33     -21.8731      1.00000
     34     -21.7272      1.00000
     35     -21.7148      1.00000
     36     -21.7147      1.00000
     37     -21.7126      1.00000
     38     -21.5645      1.00000
     39     -21.5496      1.00000
     40     -21.5483      1.00000
     41     -21.5466      1.00000
     42     -21.3442      1.00000
     43     -21.3374      1.00000
     44     -21.1719      1.00000
     45     -21.1297      1.00000
     46     -21.1296      1.00000
     47     -21.1271      1.00000
     48     -21.1196      1.00000
     49     -21.1184      1.00000
     50     -21.1024      1.00000
     51     -21.0964      1.00000
     52     -21.0946      1.00000
     53     -21.0922      1.00000
     54     -21.0615      1.00000
     55     -21.0577      1.00000
     56     -21.0512      1.00000
     57     -21.0511      1.00000
     58     -20.8770      1.00000
     59     -20.8632      1.00000
     60     -20.8609      1.00000
     61     -20.8588      1.00000
     62     -20.6370      1.00000
     63     -20.6255      1.00000
     64     -20.5691      1.00000
     65     -20.5442      1.00000
     66     -20.5416      1.00000
     67     -20.5379      1.00000
     68     -20.5221      1.00000
     69     -20.5167      1.00000
     70     -20.5162      1.00000
     71     -20.5129      1.00000
     72     -20.4309      1.00000
     73     -20.4206      1.00000
     74     -20.4201      1.00000
     75     -20.4190      1.00000
     76     -20.1194      1.00000
     77     -20.1001      1.00000
     78     -20.0956      1.00000
     79     -20.0922      1.00000
     80     -19.8627      1.00000
     81     -19.8172      1.00000
     82     -19.8168      1.00000
     83     -19.8139      1.00000
     84     -19.8010      1.00000
     85     -19.7955      1.00000
     86     -19.7621      1.00000
     87     -19.7604      1.00000
     88     -19.7111      1.00000
     89     -19.7011      1.00000
     90     -19.6915      1.00000
     91     -19.6907      1.00000
     92     -19.6142      1.00000
     93     -19.5951      1.00000
     94     -19.5947      1.00000
     95     -19.5935      1.00000
     96     -19.5485      1.00000
     97     -19.5351      1.00000
     98     -19.5293      1.00000
     99     -19.5254      1.00000
    100     -19.5122      1.00000
    101     -19.5112      1.00000
    102     -19.5062      1.00000
    103     -19.5043      1.00000
    104     -19.2216      1.00000
    105     -19.2021      1.00000
    106     -19.1994      1.00000
    107     -19.1945      1.00000
    108     -19.0332      1.00000
    109     -19.0071      1.00000
    110     -19.0062      1.00000
    111     -19.0031      1.00000
    112     -18.8945      1.00000
    113     -18.8584      1.00000
    114     -18.8559      1.00000
    115     -18.8538      1.00000
    116     -18.8494      1.00000
    117     -18.8456      1.00000
    118     -18.7843      1.00000
    119     -18.7719      1.00000
    120     -18.7713      1.00000
    121     -18.7650      1.00000
    122     -18.6820      1.00000
    123     -18.6666      1.00000
    124     -18.6653      1.00000
    125     -18.6628      1.00000
    126     -18.2971      1.00000
    127     -18.2334      1.00000
    128     -18.2310      1.00000
    129     -18.2242      1.00000
    130     -18.1829      1.00000
    131     -18.1700      1.00000
    132     -18.1465      1.00000
    133     -18.1208      1.00000
    134     -18.1184      1.00000
    135     -18.1172      1.00000
    136     -18.1089      1.00000
    137     -18.1065      1.00000
    138     -18.0996      1.00000
    139     -18.0988      1.00000
    140     -18.0920      1.00000
    141     -18.0904      1.00000
    142     -18.0847      1.00000
    143     -18.0831      1.00000
    144     -17.9488      1.00000
    145     -17.9464      1.00000
    146     -17.9237      1.00000
    147     -17.9190      1.00000
    148     -17.8474      1.00000
    149     -17.8333      1.00000
    150     -17.7281      1.00000
    151     -17.6784      1.00000
    152     -17.6704      1.00000
    153     -17.6631      1.00000
    154     -17.6559      1.00000
    155     -17.6551      1.00000
    156     -17.6351      1.00000
    157     -17.6238      1.00000
    158     -17.6146      1.00000
    159     -17.6088      1.00000
    160     -17.6044      1.00000
    161     -17.5945      1.00000
    162     -17.5445      1.00000
    163     -17.5150      1.00000
    164     -17.5035      1.00000
    165     -17.3594      1.00000
    166     -17.3327      1.00000
    167     -17.2709      1.00000
    168     -17.2679      1.00000
    169     -17.2270      1.00000
    170     -17.2184      1.00000
    171     -17.0924      1.00000
    172     -17.0644      1.00000
    173     -16.8486      1.00000
    174     -16.7784      1.00000
    175     -16.7718      1.00000
    176     -16.7701      1.00000
    177     -16.7600      1.00000
    178     -16.7447      1.00000
    179     -16.7233      1.00000
    180     -16.7136      1.00000
    181     -16.5288      1.00000
    182     -16.4936      1.00000
    183     -16.4912      1.00000
    184     -16.3460      1.00000
    185     -16.2997      1.00000
    186     -16.2961      1.00000
    187     -16.2473      1.00000
    188     -16.1770      1.00000
    189     -16.0642      1.00000
    190     -16.0586      1.00000
    191     -15.8922      1.00000
    192     -15.8872      1.00000
    193     -15.8785      1.00000
    194     -15.8745      1.00000
    195     -15.8557      1.00000
    196     -15.8329      1.00000
    197     -15.8059      1.00000
    198     -15.7951      1.00000
    199     -15.7947      1.00000
    200     -15.7406      1.00000
    201     -15.7379      1.00000
    202     -15.7327      1.00000
    203     -15.7016      1.00000
    204     -15.6994      1.00000
    205     -15.6963      1.00000
    206     -15.6912      1.00000
    207     -15.6848      1.00000
    208     -15.6805      1.00000
    209     -15.6580      1.00000
    210     -15.6535      1.00000
    211     -15.6478      1.00000
    212     -15.6412      1.00000
    213     -15.6405      1.00000
    214     -15.6106      1.00000
    215     -15.6080      1.00000
    216     -15.5110      1.00000
    217     -15.4241      1.00000
    218     -15.4065      1.00000
    219     -15.3937      1.00000
    220     -15.3503      1.00000
    221     -15.3488      1.00000
    222     -15.3367      1.00000
    223     -15.3211      1.00000
    224     -15.3014      1.00000
    225     -15.2716      1.00000
    226     -15.1923      1.00000
    227     -15.1541      1.00000
    228     -15.1376      1.00000
    229     -15.1254      1.00000
    230     -15.1176      1.00000
    231     -15.0839      1.00000
    232     -15.0014      1.00000
    233     -14.8835      1.00000
    234     -14.8510      1.00000
    235     -14.8221      1.00000
    236     -14.8191      1.00000
    237     -14.8162      1.00000
    238     -14.7854      1.00000
    239     -14.7484      1.00000
    240     -14.7349      1.00000
    241     -14.6927      1.00000
    242     -14.6736      1.00000
    243     -14.6168      1.00000
    244     -14.6029      1.00000
    245     -14.5602      1.00000
    246     -14.5558      1.00000
    247     -14.5410      1.00000
    248     -14.5303      1.00000
    249     -14.2823      1.00000
    250     -14.2752      1.00000
    251     -14.1473      1.00000
    252     -14.1350      1.00000
    253     -13.8374      1.00000
    254     -13.7972      1.00000
    255     -13.7912      1.00000
    256     -13.7770      1.00000
    257     -13.7537      1.00000
    258     -13.7343      1.00000
    259     -13.7169      1.00000
    260     -13.7032      1.00000
    261     -13.6908      1.00000
    262     -13.6833      1.00000
    263     -13.6777      1.00000
    264     -13.6749      1.00000
    265     -13.6731      1.00000
    266     -13.6690      1.00000
    267     -13.6646      1.00000
    268     -13.6581      1.00000
    269     -13.6520      1.00000
    270     -13.6476      1.00000
    271     -13.6353      1.00000
    272     -13.6332      1.00000
    273     -13.6244      1.00000
    274     -13.6163      1.00000
    275     -13.6113      1.00000
    276     -13.6093      1.00000
    277     -13.6059      1.00000
    278     -13.5789      1.00000
    279     -13.4179      1.00000
    280     -13.4039      1.00000
    281     -13.3452      1.00000
    282     -13.3421      1.00000
    283     -13.3410      1.00000
    284     -13.3373      1.00000
    285     -13.3204      1.00000
    286     -13.3201      1.00000
    287     -13.3186      1.00000
    288     -13.3085      1.00000
    289     -13.2852      1.00000
    290     -13.2776      1.00000
    291     -13.2705      1.00000
    292     -13.2516      1.00000
    293     -13.1324      1.00000
    294     -13.1290      1.00000
    295     -12.8365      1.00000
    296     -12.8293      1.00000
    297     -12.6556      1.00000
    298     -12.6552      1.00000
    299     -12.6304      1.00000
    300     -12.6208      1.00000
    301     -12.5254      1.00000
    302     -12.5215      1.00000
    303     -12.5183      1.00000
    304     -12.5151      1.00000
    305     -12.4611      1.00000
    306     -12.4569      1.00000
    307     -12.4111      1.00000
    308     -12.4090      1.00000
    309     -12.4049      1.00000
    310     -12.4002      1.00000
    311     -12.3247      1.00000
    312     -12.3238      1.00000
    313     -12.2936      1.00000
    314     -12.2876      1.00000
    315     -12.2685      1.00000
    316     -12.2670      1.00000
    317     -12.2365      1.00000
    318     -12.2354      1.00000
    319     -12.1638      1.00000
    320     -12.1625      1.00000
    321     -12.1445      1.00000
    322     -12.1394      1.00000
    323     -11.9564      1.00000
    324     -11.9544      1.00000
    325     -11.9089      1.00000
    326     -11.9074      1.00000
    327     -11.8478      1.00000
    328     -11.8412      1.00000
    329     -11.8134      1.00000
    330     -11.8098      1.00000
    331     -11.7788      1.00000
    332     -11.7620      1.00000
    333     -11.7310      1.00000
    334     -11.7294      1.00000
    335     -11.6775      1.00000
    336     -11.6531      1.00000
    337     -11.6345      1.00000
    338     -11.6320      1.00000
    339     -11.6177      1.00000
    340     -11.6127      1.00000
    341     -11.5821      1.00000
    342     -11.5815      1.00000
    343     -11.5577      1.00000
    344     -11.5487      1.00000
    345     -11.4750      1.00000
    346     -11.4745      1.00000
    347     -11.4637      1.00000
    348     -11.4539      1.00000
    349     -11.3918      1.00000
    350     -11.3866      1.00000
    351     -11.3650      1.00000
    352     -11.3629      1.00000
    353     -11.3173      1.00000
    354     -11.3153      1.00000
    355     -11.2958      1.00000
    356     -11.2941      1.00000
    357     -11.2791      1.00000
    358     -11.2754      1.00000
    359     -11.2695      1.00000
    360     -11.2684      1.00000
    361     -11.2116      1.00000
    362     -11.2087      1.00000
    363     -11.1928      1.00000
    364     -11.1921      1.00000
    365     -11.1518      1.00000
    366     -11.1516      1.00000
    367     -11.0910      1.00000
    368     -11.0603      1.00000
    369     -11.0584      1.00000
    370     -11.0177      1.00000
    371     -11.0104      1.00000
    372     -10.9916      1.00000
    373     -10.9889      1.00000
    374     -10.8932      1.00000
    375     -10.8917      1.00000
    376     -10.8556      1.00000
    377     -10.8462      1.00000
    378     -10.7906      1.00000
    379     -10.7867      1.00000
    380     -10.7841      1.00000
    381     -10.7785      1.00000
    382     -10.7763      1.00000
    383     -10.7618      1.00000
    384     -10.7556      1.00000
    385     -10.7543      1.00000
    386     -10.7277      1.00000
    387     -10.7233      1.00000
    388     -10.6849      1.00000
    389     -10.6830      1.00000
    390     -10.6689      1.00000
    391     -10.6666      1.00000
    392     -10.5709      1.00000
    393     -10.5606      1.00000
    394     -10.5584      1.00000
    395     -10.5546      1.00000
    396     -10.5522      1.00000
    397     -10.5515      1.00000
    398     -10.5483      1.00000
    399     -10.5377      1.00000
    400     -10.5090      1.00000
    401     -10.5058      1.00000
    402     -10.4616      1.00000
    403     -10.4564      1.00000
    404     -10.4190      1.00000
    405     -10.4071      1.00000
    406     -10.3620      1.00000
    407     -10.3400      1.00000
    408     -10.3307      1.00000
    409     -10.3241      1.00000
    410     -10.3230      1.00000
    411     -10.3161      1.00000
    412     -10.3068      1.00000
    413     -10.3041      1.00000
    414     -10.2960      1.00000
    415     -10.2928      1.00000
    416     -10.2928      1.00000
    417     -10.2857      1.00000
    418     -10.2534      1.00000
    419     -10.2477      1.00000
    420     -10.2467      1.00000
    421     -10.2416      1.00000
    422     -10.2272      1.00000
    423     -10.2256      1.00000
    424     -10.2252      1.00000
    425     -10.2200      1.00000
    426     -10.2164      1.00000
    427     -10.2152      1.00000
    428     -10.2108      1.00000
    429     -10.2034      1.00000
    430     -10.2019      1.00000
    431     -10.1979      1.00000
    432     -10.1886      1.00000
    433     -10.1717      1.00000
    434     -10.1344      1.00000
    435     -10.1285      1.00000
    436     -10.1265      1.00000
    437     -10.1256      1.00000
    438     -10.1220      1.00000
    439     -10.1213      1.00000
    440     -10.1116      1.00000
    441     -10.1112      1.00000
    442     -10.1009      1.00000
    443     -10.0913      1.00000
    444     -10.0754      1.00000
    445     -10.0567      1.00000
    446     -10.0504      1.00000
    447     -10.0462      1.00000
    448     -10.0363      1.00000
    449     -10.0338      1.00000
    450      -9.9431      1.00000
    451      -9.9369      1.00000
    452      -9.9284      1.00000
    453      -9.9191      1.00000
    454      -9.9127      1.00000
    455      -9.9120      1.00000
    456      -9.8269      1.00000
    457      -9.8128      1.00000
    458      -9.8085      1.00000
    459      -9.7842      1.00000
    460      -9.7672      1.00000
    461      -9.7655      1.00000
    462      -9.7570      1.00000
    463      -9.7526      1.00000
    464      -9.7351      1.00000
    465      -9.6524      1.00000
    466      -9.6449      1.00000
    467      -9.6299      1.00000
    468      -9.6252      1.00000
    469      -9.6239      1.00000
    470      -9.6110      1.00000
    471      -9.6077      1.00000
    472      -9.6005      1.00000
    473      -9.5891      1.00000
    474      -9.5887      1.00000
    475      -9.5836      1.00000
    476      -9.5806      1.00000
    477      -9.5125      1.00000
    478      -9.5064      1.00000
    479      -9.4962      1.00000
    480      -9.4866      1.00000
    481      -9.4691      1.00000
    482      -9.4460      1.00000
    483      -9.4404      1.00000
    484      -9.4388      1.00000
    485      -9.4332      1.00000
    486      -9.4282      1.00000
    487      -9.3940      1.00000
    488      -9.3784      1.00000
    489      -9.3669      1.00000
    490      -9.3618      1.00000
    491      -9.3500      1.00000
    492      -9.3487      1.00000
    493      -9.2916      1.00000
    494      -9.2905      1.00000
    495      -9.2761      1.00000
    496      -9.2743      1.00000
    497      -9.2736      1.00000
    498      -9.2714      1.00000
    499      -9.2613      1.00000
    500      -9.2543      1.00000
    501      -9.2516      1.00000
    502      -9.2497      1.00000
    503      -9.2386      1.00000
    504      -9.2364      1.00000
    505      -9.1858      1.00000
    506      -9.1798      1.00000
    507      -9.1776      1.00000
    508      -9.1752      1.00000
    509      -9.1521      1.00000
    510      -9.1517      1.00000
    511      -9.0687      1.00000
    512      -9.0368      1.00000
    513      -8.9702      1.00000
    514      -8.9327      1.00000
    515      -8.8891      1.00000
    516      -8.8438      1.00000
    517      -8.8409      1.00000
    518      -8.8374      1.00000
    519      -8.8330      1.00000
    520      -8.8329      1.00000
    521      -8.8072      1.00000
    522      -8.7918      1.00000
    523      -8.7876      1.00000
    524      -8.7820      1.00000
    525      -8.7762      1.00000
    526      -8.7760      1.00000
    527      -8.7541      1.00000
    528      -8.7412      1.00000
    529      -8.6183      1.00000
    530      -8.6167      1.00000
    531      -8.6042      1.00000
    532      -8.6037      1.00000
    533      -8.5784      1.00000
    534      -8.5617      1.00000
    535      -8.5309      1.00000
    536      -8.5168      1.00000
    537      -8.4942      1.00000
    538      -8.4933      1.00000
    539      -8.4882      1.00000
    540      -8.4813      1.00000
    541      -8.4492      1.00000
    542      -8.4275      1.00000
    543      -8.4158      1.00000
    544      -8.4149      1.00000
    545      -8.4107      1.00000
    546      -8.4064      1.00000
    547      -8.3616      1.00000
    548      -8.3456      1.00000
    549      -8.3213      1.00000
    550      -8.3178      1.00000
    551      -8.3010      1.00000
    552      -8.2975      1.00000
    553      -8.2860      1.00000
    554      -8.2808      1.00000
    555      -8.2518      1.00000
    556      -8.2488      1.00000
    557      -8.2438      1.00000
    558      -8.2325      1.00000
    559      -8.2163      1.00000
    560      -8.2115      1.00000
    561      -8.1956      1.00000
    562      -8.1776      1.00000
    563      -8.1619      1.00000
    564      -8.1586      1.00000
    565      -8.1147      1.00000
    566      -8.0873      1.00000
    567      -8.0791      1.00000
    568      -8.0717      1.00000
    569      -8.0163      1.00000
    570      -7.9985      1.00000
    571      -7.9875      1.00000
    572      -7.9861      1.00000
    573      -7.9777      1.00000
    574      -7.9710      1.00000
    575      -7.9602      1.00000
    576      -7.9581      1.00000
    577      -7.9562      1.00000
    578      -7.9544      1.00000
    579      -7.9418      1.00000
    580      -7.9385      1.00000
    581      -7.8762      1.00000
    582      -7.8694      1.00000
    583      -7.8446      1.00000
    584      -7.8337      1.00000
    585      -7.7659      1.00000
    586      -7.7607      1.00000
    587      -7.6743      1.00000
    588      -7.6675      1.00000
    589      -7.6555      1.00000
    590      -7.6295      1.00000
    591      -7.5948      1.00000
    592      -7.5734      1.00000
    593      -7.5365      1.00000
    594      -7.5271      1.00000
    595      -7.4965      1.00000
    596      -7.4962      1.00000
    597      -7.4842      1.00000
    598      -7.4694      1.00000
    599      -7.4687      1.00000
    600      -7.4641      1.00000
    601      -7.3852      1.00000
    602      -7.3581      1.00000
    603      -7.3528      1.00000
    604      -7.3392      1.00000
    605      -7.3109      1.00000
    606      -7.3090      1.00000
    607      -7.2993      1.00000
    608      -7.2972      1.00000
    609      -7.2910      1.00000
    610      -7.2906      1.00000
    611      -7.2343      1.00000
    612      -7.2281      1.00000
    613      -7.2150      1.00000
    614      -7.1947      1.00000
    615      -7.1703      1.00000
    616      -7.1668      1.00000
    617      -7.1621      1.00000
    618      -7.1620      1.00000
    619      -7.1529      1.00000
    620      -7.1470      1.00000
    621      -7.1410      1.00000
    622      -7.1324      1.00000
    623      -7.1298      1.00000
    624      -7.1148      1.00000
    625      -7.0850      1.00000
    626      -7.0538      1.00000
    627      -7.0414      1.00000
    628      -7.0401      1.00000
    629      -6.9524      1.00000
    630      -6.9474      1.00000
    631      -6.9221      1.00000
    632      -6.9208      1.00000
    633      -6.9104      1.00000
    634      -6.8973      1.00000
    635      -6.8760      1.00000
    636      -6.8442      1.00000
    637      -6.8330      1.00000
    638      -6.8317      1.00000
    639      -6.7966      1.00000
    640      -6.7883      1.00000
    641      -6.7822      1.00000
    642      -6.7759      1.00000
    643      -6.6060      1.00000
    644      -6.6028      1.00000
    645      -6.5813      1.00000
    646      -6.5689      1.00000
    647      -6.5373      1.00000
    648      -6.5369      1.00000
    649      -6.5318      1.00000
    650      -6.5270      1.00000
    651      -6.5268      1.00000
    652      -6.5003      1.00000
    653      -6.4930      1.00000
    654      -6.4889      1.00000
    655      -6.4444      1.00000
    656      -6.4383      1.00000
    657      -6.4233      1.00000
    658      -6.3663      1.00000
    659      -6.3577      1.00000
    660      -6.3338      1.00000
    661      -6.3228      1.00000
    662      -6.2898      1.00000
    663      -6.2767      1.00000
    664      -6.2232      1.00000
    665      -6.2185      1.00000
    666      -6.1941      1.00000
    667      -6.1777      1.00000
    668      -6.1690      1.00000
    669      -6.1679      1.00000
    670      -6.0644      1.00000
    671      -6.0464      1.00000
    672      -6.0349      1.00000
    673      -5.9318      1.00000
    674      -5.8557      1.00000
    675      -5.8219      1.00000
    676      -5.7862      1.00000
    677      -5.7603      1.00000
    678      -5.7556      1.00000
    679      -5.7480      1.00000
    680      -5.6993      1.00000
    681      -5.6805      1.00000
    682      -5.6030      1.00000
    683      -5.5856      1.00000
    684      -5.5842      1.00000
    685      -5.5648      1.00000
    686      -5.5574      1.00000
    687      -5.5269      1.00000
    688      -5.5209      1.00000
    689      -5.4979      1.00000
    690      -5.4946      1.00000
    691      -5.4930      1.00000
    692      -5.4616      1.00000
    693      -5.4552      1.00000
    694      -5.4160      1.00000
    695      -5.3746      1.00000
    696      -5.3582      1.00000
    697      -5.3469      1.00000
    698      -5.3171      1.00000
    699      -5.3102      1.00000
    700      -5.2984      1.00000
    701      -5.2588      1.00000
    702      -5.2379      1.00000
    703      -5.2185      1.00000
    704      -5.2020      1.00000
    705      -5.1962      1.00000
    706      -5.1911      1.00000
    707      -5.1889      1.00000
    708      -5.1234      1.00000
    709      -5.0386      1.00000
    710      -5.0002      1.00000
    711      -4.9971      1.00000
    712      -4.9372      1.00000
    713      -4.8852      1.00000
    714      -4.8517      1.00000
    715      -4.8388      1.00000
    716      -4.7114      1.00000
    717      -4.5726      1.00000
    718      -4.5134      1.00000
    719      -4.4496      1.00000
    720      -4.3862      1.00000
    721      -4.3711      1.00000
    722      -4.3275      1.00000
    723      -4.3109      1.00000
    724      -4.2883      1.00000
    725      -4.2771      1.00000
    726      -4.1105      1.00000
    727      -4.0633      1.00000
    728      -4.0045      1.00000
    729      -3.8903      1.00000
    730      -3.6502      1.00000
    731      -3.6012      1.00000
    732      -2.7472      0.00000
    733      -2.6889      0.00000
    734      -2.5103      0.00000
    735      -2.3044      0.00000
    736      -2.2583      0.00000
    737      -2.2271      0.00000
    738      -2.1331      0.00000
    739      -2.1227      0.00000
    740      -2.1164      0.00000
    741      -2.0782      0.00000
    742      -2.0720      0.00000
    743      -1.9656      0.00000
    744      -1.9578      0.00000
    745      -1.9448      0.00000
    746      -1.9386      0.00000
    747      -1.8454      0.00000
    748      -1.8399      0.00000
    749      -1.8220      0.00000
    750      -1.7861      0.00000
    751      -1.7410      0.00000
    752      -1.7339      0.00000
    753      -1.7311      0.00000
    754      -1.6425      0.00000
    755      -1.6380      0.00000
    756      -1.6112      0.00000
    757      -1.6061      0.00000
    758      -1.5847      0.00000
    759      -1.5820      0.00000
    760      -1.5678      0.00000
    761      -1.5620      0.00000
    762      -1.5588      0.00000
    763      -1.5582      0.00000
    764      -1.5288      0.00000
    765      -1.5112      0.00000
    766      -1.4819      0.00000
    767      -1.4646      0.00000
    768      -1.4549      0.00000
    769      -1.4453      0.00000
    770      -1.3892      0.00000
    771      -1.3727      0.00000
    772      -1.3704      0.00000
    773      -1.3653      0.00000
    774      -1.3231      0.00000
    775      -1.3110      0.00000
    776      -1.3029      0.00000
    777      -1.3014      0.00000
    778      -1.2905      0.00000
    779      -1.2847      0.00000
    780      -1.2774      0.00000
    781      -1.2593      0.00000
    782      -1.2495      0.00000
    783      -1.1977      0.00000
    784      -1.1902      0.00000
    785      -0.9793      0.00000
    786      -0.9563      0.00000
    787      -0.9445      0.00000
    788      -0.9423      0.00000
    789      -0.8660      0.00000
    790      -0.8590      0.00000
    791      -0.7917      0.00000
    792      -0.7744      0.00000
    793      -0.7291      0.00000
    794      -0.7222      0.00000
    795      -0.6980      0.00000
    796      -0.6903      0.00000
    797      -0.5422      0.00000
    798      -0.5301      0.00000
    799      -0.4825      0.00000
    800      -0.4551      0.00000
    801      -0.4351      0.00000
    802      -0.3322      0.00000
    803      -0.2888      0.00000
    804      -0.2750      0.00000
    805      -0.1805      0.00000
    806      -0.1764      0.00000
    807      -0.1553      0.00000
    808      -0.1364      0.00000
    809      -0.0511      0.00000
    810      -0.0480      0.00000
    811       0.0234      0.00000
    812       0.0836      0.00000
    813       0.0994      0.00000
    814       0.1357      0.00000
    815       0.1368      0.00000
    816       0.1688      0.00000
    817       0.2111      0.00000
    818       0.2150      0.00000
    819       0.2153      0.00000
    820       0.2368      0.00000
    821       0.2397      0.00000
    822       0.2432      0.00000
    823       0.2491      0.00000
    824       0.2844      0.00000
    825       0.3312      0.00000
    826       0.3626      0.00000
    827       0.3694      0.00000
    828       0.3946      0.00000
    829       0.4552      0.00000
    830       0.4966      0.00000
    831       0.5026      0.00000
    832       0.5243      0.00000
    833       0.5389      0.00000
    834       0.5414      0.00000
    835       0.5588      0.00000
    836       0.5645      0.00000
    837       0.5700      0.00000
    838       0.5815      0.00000
    839       0.5905      0.00000
    840       0.6118      0.00000
    841       0.6198      0.00000
    842       0.6550      0.00000
    843       0.6573      0.00000
    844       0.6580      0.00000
    845       0.6604      0.00000
    846       0.8076      0.00000
    847       0.8358      0.00000
    848       0.8450      0.00000
    849       0.8846      0.00000
    850       0.8875      0.00000
    851       0.9037      0.00000
    852       0.9245      0.00000
    853       0.9264      0.00000
    854       0.9278      0.00000
    855       0.9329      0.00000
    856       0.9383      0.00000
    857       0.9441      0.00000
    858       0.9728      0.00000
    859       1.0081      0.00000
    860       1.0098      0.00000
    861       1.0278      0.00000
    862       1.0318      0.00000
    863       1.0324      0.00000
    864       1.0492      0.00000
    865       1.0597      0.00000
    866       1.0943      0.00000
    867       1.1130      0.00000
    868       1.1283      0.00000
    869       1.1611      0.00000
    870       1.2039      0.00000
    871       1.2056      0.00000
    872       1.2170      0.00000
    873       1.2247      0.00000
    874       1.2454      0.00000
    875       1.2632      0.00000
    876       1.2731      0.00000
    877       1.2744      0.00000
    878       1.2778      0.00000
    879       1.2876      0.00000
    880       1.3016      0.00000
    881       1.3071      0.00000
    882       1.3072      0.00000
    883       1.3102      0.00000
    884       1.3346      0.00000
    885       1.3349      0.00000
    886       1.3526      0.00000
    887       1.3653      0.00000
    888       1.3725      0.00000
    889       1.3728      0.00000
    890       1.3761      0.00000
    891       1.4041      0.00000
    892       1.4353      0.00000
    893       1.4646      0.00000
    894       1.4928      0.00000
    895       1.4933      0.00000
    896       1.4962      0.00000

 k-point     2 :       0.0000    0.0000   -0.0556
  band No.  band energies     occupation 
      1     -22.9835      1.00000
      2     -22.9245      1.00000
      3     -22.9067      1.00000
      4     -22.7777      1.00000
      5     -22.7651      1.00000
      6     -22.7333      1.00000
      7     -22.7149      1.00000
      8     -22.7062      1.00000
      9     -22.7008      1.00000
     10     -22.6927      1.00000
     11     -22.6914      1.00000
     12     -22.5244      1.00000
     13     -22.5155      1.00000
     14     -22.4921      1.00000
     15     -22.4863      1.00000
     16     -22.4086      1.00000
     17     -22.3647      1.00000
     18     -22.2064      1.00000
     19     -22.1939      1.00000
     20     -22.1626      1.00000
     21     -22.1501      1.00000
     22     -22.1401      1.00000
     23     -22.1354      1.00000
     24     -22.0866      1.00000
     25     -22.0772      1.00000
     26     -22.0656      1.00000
     27     -22.0623      1.00000
     28     -21.9565      1.00000
     29     -21.9040      1.00000
     30     -21.8917      1.00000
     31     -21.8882      1.00000
     32     -21.8645      1.00000
     33     -21.8592      1.00000
     34     -21.7500      1.00000
     35     -21.7425      1.00000
     36     -21.6915      1.00000
     37     -21.6845      1.00000
     38     -21.5790      1.00000
     39     -21.5697      1.00000
     40     -21.5332      1.00000
     41     -21.5263      1.00000
     42     -21.3765      1.00000
     43     -21.3049      1.00000
     44     -21.1861      1.00000
     45     -21.1641      1.00000
     46     -21.1417      1.00000
     47     -21.1234      1.00000
     48     -21.1195      1.00000
     49     -21.1191      1.00000
     50     -21.0990      1.00000
     51     -21.0920      1.00000
     52     -21.0735      1.00000
     53     -21.0657      1.00000
     54     -21.0621      1.00000
     55     -21.0609      1.00000
     56     -21.0473      1.00000
     57     -21.0464      1.00000
     58     -20.8843      1.00000
     59     -20.8761      1.00000
     60     -20.8512      1.00000
     61     -20.8475      1.00000
     62     -20.6729      1.00000
     63     -20.5965      1.00000
     64     -20.5735      1.00000
     65     -20.5639      1.00000
     66     -20.5543      1.00000
     67     -20.5503      1.00000
     68     -20.5246      1.00000
     69     -20.5207      1.00000
     70     -20.4866      1.00000
     71     -20.4793      1.00000
     72     -20.4663      1.00000
     73     -20.4621      1.00000
     74     -20.3833      1.00000
     75     -20.3768      1.00000
     76     -20.1366      1.00000
     77     -20.1254      1.00000
     78     -20.0759      1.00000
     79     -20.0688      1.00000
     80     -19.8834      1.00000
     81     -19.8577      1.00000
     82     -19.8476      1.00000
     83     -19.7995      1.00000
     84     -19.7738      1.00000
     85     -19.7614      1.00000
     86     -19.7601      1.00000
     87     -19.7470      1.00000
     88     -19.7116      1.00000
     89     -19.7044      1.00000
     90     -19.6890      1.00000
     91     -19.6877      1.00000
     92     -19.6489      1.00000
     93     -19.6432      1.00000
     94     -19.5791      1.00000
     95     -19.5659      1.00000
     96     -19.5521      1.00000
     97     -19.5455      1.00000
     98     -19.5247      1.00000
     99     -19.5234      1.00000
    100     -19.5017      1.00000
    101     -19.4989      1.00000
    102     -19.4926      1.00000
    103     -19.4903      1.00000
    104     -19.2321      1.00000
    105     -19.2210      1.00000
    106     -19.1845      1.00000
    107     -19.1797      1.00000
    108     -19.0664      1.00000
    109     -19.0529      1.00000
    110     -18.9751      1.00000
    111     -18.9576      1.00000
    112     -18.9223      1.00000
    113     -18.8987      1.00000
    114     -18.8920      1.00000
    115     -18.8325      1.00000
    116     -18.8115      1.00000
    117     -18.8035      1.00000
    118     -18.7988      1.00000
    119     -18.7954      1.00000
    120     -18.7499      1.00000
    121     -18.7437      1.00000
    122     -18.7235      1.00000
    123     -18.7188      1.00000
    124     -18.6205      1.00000
    125     -18.6108      1.00000
    126     -18.3062      1.00000
    127     -18.2644      1.00000
    128     -18.2284      1.00000
    129     -18.2000      1.00000
    130     -18.1798      1.00000
    131     -18.1695      1.00000
    132     -18.1670      1.00000
    133     -18.1581      1.00000
    134     -18.1403      1.00000
    135     -18.1318      1.00000
    136     -18.1192      1.00000
    137     -18.1125      1.00000
    138     -18.1015      1.00000
    139     -18.0944      1.00000
    140     -18.0761      1.00000
    141     -18.0628      1.00000
    142     -18.0485      1.00000
    143     -18.0452      1.00000
    144     -17.9585      1.00000
    145     -17.9424      1.00000
    146     -17.9271      1.00000
    147     -17.9104      1.00000
    148     -17.8947      1.00000
    149     -17.7884      1.00000
    150     -17.7479      1.00000
    151     -17.7213      1.00000
    152     -17.6856      1.00000
    153     -17.6717      1.00000
    154     -17.6436      1.00000
    155     -17.6397      1.00000
    156     -17.6374      1.00000
    157     -17.6253      1.00000
    158     -17.6112      1.00000
    159     -17.5995      1.00000
    160     -17.5820      1.00000
    161     -17.5657      1.00000
    162     -17.5452      1.00000
    163     -17.5172      1.00000
    164     -17.5062      1.00000
    165     -17.3724      1.00000
    166     -17.3248      1.00000
    167     -17.2933      1.00000
    168     -17.2510      1.00000
    169     -17.2408      1.00000
    170     -17.1983      1.00000
    171     -17.0963      1.00000
    172     -17.0657      1.00000
    173     -16.8683      1.00000
    174     -16.8104      1.00000
    175     -16.7930      1.00000
    176     -16.7627      1.00000
    177     -16.7441      1.00000
    178     -16.7314      1.00000
    179     -16.7200      1.00000
    180     -16.6861      1.00000
    181     -16.5258      1.00000
    182     -16.4975      1.00000
    183     -16.4806      1.00000
    184     -16.3474      1.00000
    185     -16.3043      1.00000
    186     -16.2863      1.00000
    187     -16.2518      1.00000
    188     -16.1738      1.00000
    189     -16.0836      1.00000
    190     -16.0334      1.00000
    191     -15.9427      1.00000
    192     -15.9284      1.00000
    193     -15.8564      1.00000
    194     -15.8379      1.00000
    195     -15.8330      1.00000
    196     -15.8215      1.00000
    197     -15.8081      1.00000
    198     -15.7949      1.00000
    199     -15.7923      1.00000
    200     -15.7606      1.00000
    201     -15.7573      1.00000
    202     -15.7496      1.00000
    203     -15.7356      1.00000
    204     -15.7222      1.00000
    205     -15.7172      1.00000
    206     -15.6989      1.00000
    207     -15.6573      1.00000
    208     -15.6442      1.00000
    209     -15.6438      1.00000
    210     -15.6391      1.00000
    211     -15.6357      1.00000
    212     -15.6327      1.00000
    213     -15.6309      1.00000
    214     -15.6073      1.00000
    215     -15.5839      1.00000
    216     -15.5092      1.00000
    217     -15.4294      1.00000
    218     -15.4075      1.00000
    219     -15.3899      1.00000
    220     -15.3871      1.00000
    221     -15.3633      1.00000
    222     -15.3185      1.00000
    223     -15.3092      1.00000
    224     -15.2788      1.00000
    225     -15.2721      1.00000
    226     -15.2191      1.00000
    227     -15.1797      1.00000
    228     -15.1554      1.00000
    229     -15.0960      1.00000
    230     -15.0848      1.00000
    231     -15.0774      1.00000
    232     -14.9997      1.00000
    233     -14.8872      1.00000
    234     -14.8808      1.00000
    235     -14.8794      1.00000
    236     -14.8315      1.00000
    237     -14.7977      1.00000
    238     -14.7575      1.00000
    239     -14.7512      1.00000
    240     -14.7293      1.00000
    241     -14.6866      1.00000
    242     -14.6702      1.00000
    243     -14.6271      1.00000
    244     -14.6041      1.00000
    245     -14.6012      1.00000
    246     -14.5491      1.00000
    247     -14.5091      1.00000
    248     -14.4711      1.00000
    249     -14.3288      1.00000
    250     -14.2283      1.00000
    251     -14.1882      1.00000
    252     -14.0959      1.00000
    253     -13.8377      1.00000
    254     -13.7971      1.00000
    255     -13.7916      1.00000
    256     -13.7767      1.00000
    257     -13.7553      1.00000
    258     -13.7398      1.00000
    259     -13.7330      1.00000
    260     -13.7282      1.00000
    261     -13.7180      1.00000
    262     -13.7062      1.00000
    263     -13.7008      1.00000
    264     -13.6996      1.00000
    265     -13.6930      1.00000
    266     -13.6791      1.00000
    267     -13.6761      1.00000
    268     -13.6701      1.00000
    269     -13.6668      1.00000
    270     -13.6512      1.00000
    271     -13.6181      1.00000
    272     -13.6103      1.00000
    273     -13.6018      1.00000
    274     -13.5952      1.00000
    275     -13.5888      1.00000
    276     -13.5755      1.00000
    277     -13.5632      1.00000
    278     -13.5432      1.00000
    279     -13.4240      1.00000
    280     -13.4101      1.00000
    281     -13.3963      1.00000
    282     -13.3815      1.00000
    283     -13.3735      1.00000
    284     -13.3301      1.00000
    285     -13.3132      1.00000
    286     -13.2987      1.00000
    287     -13.2931      1.00000
    288     -13.2804      1.00000
    289     -13.2705      1.00000
    290     -13.2665      1.00000
    291     -13.2573      1.00000
    292     -13.2412      1.00000
    293     -13.1679      1.00000
    294     -13.0907      1.00000
    295     -12.8672      1.00000
    296     -12.7981      1.00000
    297     -12.7128      1.00000
    298     -12.6661      1.00000
    299     -12.5982      1.00000
    300     -12.5869      1.00000
    301     -12.5860      1.00000
    302     -12.5777      1.00000
    303     -12.5240      1.00000
    304     -12.4722      1.00000
    305     -12.4621      1.00000
    306     -12.4519      1.00000
    307     -12.4132      1.00000
    308     -12.4041      1.00000
    309     -12.3935      1.00000
    310     -12.3870      1.00000
    311     -12.3396      1.00000
    312     -12.3342      1.00000
    313     -12.3274      1.00000
    314     -12.2614      1.00000
    315     -12.2556      1.00000
    316     -12.2431      1.00000
    317     -12.2245      1.00000
    318     -12.2181      1.00000
    319     -12.2061      1.00000
    320     -12.1828      1.00000
    321     -12.1018      1.00000
    322     -12.1002      1.00000
    323     -11.9577      1.00000
    324     -11.9555      1.00000
    325     -11.9515      1.00000
    326     -11.8901      1.00000
    327     -11.8586      1.00000
    328     -11.8380      1.00000
    329     -11.7995      1.00000
    330     -11.7918      1.00000
    331     -11.7774      1.00000
    332     -11.7600      1.00000
    333     -11.7474      1.00000
    334     -11.7101      1.00000
    335     -11.6808      1.00000
    336     -11.6601      1.00000
    337     -11.6525      1.00000
    338     -11.6424      1.00000
    339     -11.6245      1.00000
    340     -11.6122      1.00000
    341     -11.5992      1.00000
    342     -11.5596      1.00000
    343     -11.5470      1.00000
    344     -11.5226      1.00000
    345     -11.5194      1.00000
    346     -11.4663      1.00000
    347     -11.4516      1.00000
    348     -11.4265      1.00000
    349     -11.4094      1.00000
    350     -11.3922      1.00000
    351     -11.3866      1.00000
    352     -11.3820      1.00000
    353     -11.3576      1.00000
    354     -11.3197      1.00000
    355     -11.3064      1.00000
    356     -11.2996      1.00000
    357     -11.2727      1.00000
    358     -11.2535      1.00000
    359     -11.2516      1.00000
    360     -11.2462      1.00000
    361     -11.2392      1.00000
    362     -11.2302      1.00000
    363     -11.2144      1.00000
    364     -11.1490      1.00000
    365     -11.1324      1.00000
    366     -11.1183      1.00000
    367     -11.0909      1.00000
    368     -11.0883      1.00000
    369     -11.0390      1.00000
    370     -11.0230      1.00000
    371     -11.0070      1.00000
    372     -10.9985      1.00000
    373     -10.9507      1.00000
    374     -10.9417      1.00000
    375     -10.8554      1.00000
    376     -10.8474      1.00000
    377     -10.8332      1.00000
    378     -10.8039      1.00000
    379     -10.7912      1.00000
    380     -10.7856      1.00000
    381     -10.7818      1.00000
    382     -10.7731      1.00000
    383     -10.7695      1.00000
    384     -10.7528      1.00000
    385     -10.7333      1.00000
    386     -10.7286      1.00000
    387     -10.7180      1.00000
    388     -10.7032      1.00000
    389     -10.6947      1.00000
    390     -10.6673      1.00000
    391     -10.6350      1.00000
    392     -10.5976      1.00000
    393     -10.5795      1.00000
    394     -10.5705      1.00000
    395     -10.5675      1.00000
    396     -10.5562      1.00000
    397     -10.5466      1.00000
    398     -10.5429      1.00000
    399     -10.5279      1.00000
    400     -10.5206      1.00000
    401     -10.5055      1.00000
    402     -10.4550      1.00000
    403     -10.4376      1.00000
    404     -10.4003      1.00000
    405     -10.3876      1.00000
    406     -10.3746      1.00000
    407     -10.3486      1.00000
    408     -10.3335      1.00000
    409     -10.3268      1.00000
    410     -10.3229      1.00000
    411     -10.3158      1.00000
    412     -10.3105      1.00000
    413     -10.3076      1.00000
    414     -10.2998      1.00000
    415     -10.2938      1.00000
    416     -10.2898      1.00000
    417     -10.2719      1.00000
    418     -10.2654      1.00000
    419     -10.2578      1.00000
    420     -10.2543      1.00000
    421     -10.2505      1.00000
    422     -10.2469      1.00000
    423     -10.2421      1.00000
    424     -10.2361      1.00000
    425     -10.2163      1.00000
    426     -10.2092      1.00000
    427     -10.2085      1.00000
    428     -10.2040      1.00000
    429     -10.2021      1.00000
    430     -10.1945      1.00000
    431     -10.1762      1.00000
    432     -10.1691      1.00000
    433     -10.1669      1.00000
    434     -10.1622      1.00000
    435     -10.1577      1.00000
    436     -10.1526      1.00000
    437     -10.1410      1.00000
    438     -10.1177      1.00000
    439     -10.1112      1.00000
    440     -10.0992      1.00000
    441     -10.0904      1.00000
    442     -10.0862      1.00000
    443     -10.0808      1.00000
    444     -10.0729      1.00000
    445     -10.0684      1.00000
    446     -10.0650      1.00000
    447     -10.0471      1.00000
    448     -10.0079      1.00000
    449      -9.9960      1.00000
    450      -9.9672      1.00000
    451      -9.9502      1.00000
    452      -9.9467      1.00000
    453      -9.9237      1.00000
    454      -9.8976      1.00000
    455      -9.8685      1.00000
    456      -9.8343      1.00000
    457      -9.8180      1.00000
    458      -9.8053      1.00000
    459      -9.7969      1.00000
    460      -9.7834      1.00000
    461      -9.7781      1.00000
    462      -9.7402      1.00000
    463      -9.7311      1.00000
    464      -9.7238      1.00000
    465      -9.6855      1.00000
    466      -9.6484      1.00000
    467      -9.6374      1.00000
    468      -9.6248      1.00000
    469      -9.6196      1.00000
    470      -9.6142      1.00000
    471      -9.6053      1.00000
    472      -9.6011      1.00000
    473      -9.5972      1.00000
    474      -9.5903      1.00000
    475      -9.5752      1.00000
    476      -9.5396      1.00000
    477      -9.5175      1.00000
    478      -9.5056      1.00000
    479      -9.4973      1.00000
    480      -9.4809      1.00000
    481      -9.4782      1.00000
    482      -9.4586      1.00000
    483      -9.4440      1.00000
    484      -9.4357      1.00000
    485      -9.4284      1.00000
    486      -9.4091      1.00000
    487      -9.4047      1.00000
    488      -9.3691      1.00000
    489      -9.3675      1.00000
    490      -9.3611      1.00000
    491      -9.3503      1.00000
    492      -9.3486      1.00000
    493      -9.3331      1.00000
    494      -9.3042      1.00000
    495      -9.2902      1.00000
    496      -9.2862      1.00000
    497      -9.2805      1.00000
    498      -9.2742      1.00000
    499      -9.2643      1.00000
    500      -9.2545      1.00000
    501      -9.2417      1.00000
    502      -9.2402      1.00000
    503      -9.2107      1.00000
    504      -9.1956      1.00000
    505      -9.1883      1.00000
    506      -9.1869      1.00000
    507      -9.1769      1.00000
    508      -9.1690      1.00000
    509      -9.1602      1.00000
    510      -9.1448      1.00000
    511      -9.0823      1.00000
    512      -9.0266      1.00000
    513      -8.9705      1.00000
    514      -8.9335      1.00000
    515      -8.9055      1.00000
    516      -8.8768      1.00000
    517      -8.8727      1.00000
    518      -8.8399      1.00000
    519      -8.8337      1.00000
    520      -8.8110      1.00000
    521      -8.8045      1.00000
    522      -8.7907      1.00000
    523      -8.7791      1.00000
    524      -8.7770      1.00000
    525      -8.7758      1.00000
    526      -8.7552      1.00000
    527      -8.7383      1.00000
    528      -8.7287      1.00000
    529      -8.6297      1.00000
    530      -8.6165      1.00000
    531      -8.6085      1.00000
    532      -8.5922      1.00000
    533      -8.5775      1.00000
    534      -8.5608      1.00000
    535      -8.5298      1.00000
    536      -8.5163      1.00000
    537      -8.4952      1.00000
    538      -8.4917      1.00000
    539      -8.4851      1.00000
    540      -8.4793      1.00000
    541      -8.4495      1.00000
    542      -8.4294      1.00000
    543      -8.4219      1.00000
    544      -8.4181      1.00000
    545      -8.4067      1.00000
    546      -8.3967      1.00000
    547      -8.3615      1.00000
    548      -8.3453      1.00000
    549      -8.3304      1.00000
    550      -8.3204      1.00000
    551      -8.3016      1.00000
    552      -8.2943      1.00000
    553      -8.2868      1.00000
    554      -8.2842      1.00000
    555      -8.2745      1.00000
    556      -8.2702      1.00000
    557      -8.2366      1.00000
    558      -8.2262      1.00000
    559      -8.2203      1.00000
    560      -8.2093      1.00000
    561      -8.1977      1.00000
    562      -8.1963      1.00000
    563      -8.1526      1.00000
    564      -8.1241      1.00000
    565      -8.1063      1.00000
    566      -8.1017      1.00000
    567      -8.0671      1.00000
    568      -8.0535      1.00000
    569      -8.0357      1.00000
    570      -8.0303      1.00000
    571      -8.0029      1.00000
    572      -7.9955      1.00000
    573      -7.9848      1.00000
    574      -7.9693      1.00000
    575      -7.9531      1.00000
    576      -7.9522      1.00000
    577      -7.9407      1.00000
    578      -7.9357      1.00000
    579      -7.9268      1.00000
    580      -7.9180      1.00000
    581      -7.9114      1.00000
    582      -7.8833      1.00000
    583      -7.8279      1.00000
    584      -7.7988      1.00000
    585      -7.7884      1.00000
    586      -7.7380      1.00000
    587      -7.6953      1.00000
    588      -7.6678      1.00000
    589      -7.6468      1.00000
    590      -7.6266      1.00000
    591      -7.6008      1.00000
    592      -7.5652      1.00000
    593      -7.5489      1.00000
    594      -7.5370      1.00000
    595      -7.5101      1.00000
    596      -7.4864      1.00000
    597      -7.4829      1.00000
    598      -7.4706      1.00000
    599      -7.4659      1.00000
    600      -7.4406      1.00000
    601      -7.4120      1.00000
    602      -7.3713      1.00000
    603      -7.3657      1.00000
    604      -7.3319      1.00000
    605      -7.3267      1.00000
    606      -7.3070      1.00000
    607      -7.3017      1.00000
    608      -7.2915      1.00000
    609      -7.2675      1.00000
    610      -7.2635      1.00000
    611      -7.2430      1.00000
    612      -7.2354      1.00000
    613      -7.2123      1.00000
    614      -7.2056      1.00000
    615      -7.1935      1.00000
    616      -7.1849      1.00000
    617      -7.1835      1.00000
    618      -7.1700      1.00000
    619      -7.1593      1.00000
    620      -7.1461      1.00000
    621      -7.1212      1.00000
    622      -7.1147      1.00000
    623      -7.0955      1.00000
    624      -7.0864      1.00000
    625      -7.0801      1.00000
    626      -7.0556      1.00000
    627      -7.0405      1.00000
    628      -7.0365      1.00000
    629      -6.9731      1.00000
    630      -6.9604      1.00000
    631      -6.9340      1.00000
    632      -6.9134      1.00000
    633      -6.9022      1.00000
    634      -6.8779      1.00000
    635      -6.8705      1.00000
    636      -6.8518      1.00000
    637      -6.8321      1.00000
    638      -6.8205      1.00000
    639      -6.8107      1.00000
    640      -6.8012      1.00000
    641      -6.7724      1.00000
    642      -6.7579      1.00000
    643      -6.6165      1.00000
    644      -6.6110      1.00000
    645      -6.5818      1.00000
    646      -6.5704      1.00000
    647      -6.5632      1.00000
    648      -6.5585      1.00000
    649      -6.5346      1.00000
    650      -6.5227      1.00000
    651      -6.4996      1.00000
    652      -6.4947      1.00000
    653      -6.4811      1.00000
    654      -6.4721      1.00000
    655      -6.4682      1.00000
    656      -6.4273      1.00000
    657      -6.4143      1.00000
    658      -6.4120      1.00000
    659      -6.3560      1.00000
    660      -6.3319      1.00000
    661      -6.3047      1.00000
    662      -6.2829      1.00000
    663      -6.2700      1.00000
    664      -6.2605      1.00000
    665      -6.2249      1.00000
    666      -6.1925      1.00000
    667      -6.1750      1.00000
    668      -6.1666      1.00000
    669      -6.1182      1.00000
    670      -6.0818      1.00000
    671      -6.0396      1.00000
    672      -6.0255      1.00000
    673      -5.9282      1.00000
    674      -5.8730      1.00000
    675      -5.8211      1.00000
    676      -5.7942      1.00000
    677      -5.7814      1.00000
    678      -5.7404      1.00000
    679      -5.7229      1.00000
    680      -5.7136      1.00000
    681      -5.6645      1.00000
    682      -5.6062      1.00000
    683      -5.5964      1.00000
    684      -5.5843      1.00000
    685      -5.5591      1.00000
    686      -5.5520      1.00000
    687      -5.5336      1.00000
    688      -5.5247      1.00000
    689      -5.5067      1.00000
    690      -5.4918      1.00000
    691      -5.4790      1.00000
    692      -5.4601      1.00000
    693      -5.4547      1.00000
    694      -5.4169      1.00000
    695      -5.3974      1.00000
    696      -5.3720      1.00000
    697      -5.3656      1.00000
    698      -5.3143      1.00000
    699      -5.3011      1.00000
    700      -5.2715      1.00000
    701      -5.2495      1.00000
    702      -5.2441      1.00000
    703      -5.2397      1.00000
    704      -5.2152      1.00000
    705      -5.2020      1.00000
    706      -5.1850      1.00000
    707      -5.1431      1.00000
    708      -5.1251      1.00000
    709      -5.0384      1.00000
    710      -5.0192      1.00000
    711      -4.9782      1.00000
    712      -4.9405      1.00000
    713      -4.8809      1.00000
    714      -4.8580      1.00000
    715      -4.8342      1.00000
    716      -4.7128      1.00000
    717      -4.5766      1.00000
    718      -4.5111      1.00000
    719      -4.4508      1.00000
    720      -4.4090      1.00000
    721      -4.3641      1.00000
    722      -4.3454      1.00000
    723      -4.3087      1.00000
    724      -4.2842      1.00000
    725      -4.2479      1.00000
    726      -4.1118      1.00000
    727      -4.0661      1.00000
    728      -4.0070      1.00000
    729      -3.8849      1.00000
    730      -3.6546      1.00000
    731      -3.6015      1.00000
    732      -2.7461      0.00000
    733      -2.6858      0.00000
    734      -2.5115      0.00000
    735      -2.3104      0.00000
    736      -2.2555      0.00000
    737      -2.2236      0.00000
    738      -2.1659      0.00000
    739      -2.1310      0.00000
    740      -2.1005      0.00000
    741      -2.0725      0.00000
    742      -2.0476      0.00000
    743      -1.9648      0.00000
    744      -1.9562      0.00000
    745      -1.9436      0.00000
    746      -1.9375      0.00000
    747      -1.8629      0.00000
    748      -1.8360      0.00000
    749      -1.8119      0.00000
    750      -1.7853      0.00000
    751      -1.7420      0.00000
    752      -1.7359      0.00000
    753      -1.7236      0.00000
    754      -1.6732      0.00000
    755      -1.6395      0.00000
    756      -1.6191      0.00000
    757      -1.6053      0.00000
    758      -1.5963      0.00000
    759      -1.5897      0.00000
    760      -1.5748      0.00000
    761      -1.5471      0.00000
    762      -1.5422      0.00000
    763      -1.5303      0.00000
    764      -1.5205      0.00000
    765      -1.5118      0.00000
    766      -1.4924      0.00000
    767      -1.4797      0.00000
    768      -1.4426      0.00000
    769      -1.4268      0.00000
    770      -1.4191      0.00000
    771      -1.3882      0.00000
    772      -1.3649      0.00000
    773      -1.3376      0.00000
    774      -1.3251      0.00000
    775      -1.3218      0.00000
    776      -1.3107      0.00000
    777      -1.2949      0.00000
    778      -1.2839      0.00000
    779      -1.2770      0.00000
    780      -1.2650      0.00000
    781      -1.2593      0.00000
    782      -1.2507      0.00000
    783      -1.2462      0.00000
    784      -1.1392      0.00000
    785      -1.0027      0.00000
    786      -0.9863      0.00000
    787      -0.9260      0.00000
    788      -0.9135      0.00000
    789      -0.9050      0.00000
    790      -0.8338      0.00000
    791      -0.8133      0.00000
    792      -0.7737      0.00000
    793      -0.7507      0.00000
    794      -0.7276      0.00000
    795      -0.6712      0.00000
    796      -0.6507      0.00000
    797      -0.5752      0.00000
    798      -0.5136      0.00000
    799      -0.5034      0.00000
    800      -0.4598      0.00000
    801      -0.3929      0.00000
    802      -0.3423      0.00000
    803      -0.2985      0.00000
    804      -0.2616      0.00000
    805      -0.2236      0.00000
    806      -0.1704      0.00000
    807      -0.1361      0.00000
    808      -0.1122      0.00000
    809      -0.0592      0.00000
    810      -0.0395      0.00000
    811       0.0043      0.00000
    812       0.0639      0.00000
    813       0.1061      0.00000
    814       0.1307      0.00000
    815       0.1403      0.00000
    816       0.1676      0.00000
    817       0.1946      0.00000
    818       0.1973      0.00000
    819       0.2066      0.00000
    820       0.2315      0.00000
    821       0.2357      0.00000
    822       0.2732      0.00000
    823       0.2858      0.00000
    824       0.3003      0.00000
    825       0.3181      0.00000
    826       0.3390      0.00000
    827       0.3855      0.00000
    828       0.4154      0.00000
    829       0.4556      0.00000
    830       0.4919      0.00000
    831       0.4980      0.00000
    832       0.5187      0.00000
    833       0.5246      0.00000
    834       0.5403      0.00000
    835       0.5475      0.00000
    836       0.5697      0.00000
    837       0.5810      0.00000
    838       0.5858      0.00000
    839       0.6051      0.00000
    840       0.6142      0.00000
    841       0.6258      0.00000
    842       0.6288      0.00000
    843       0.6494      0.00000
    844       0.6692      0.00000
    845       0.6858      0.00000
    846       0.8048      0.00000
    847       0.8152      0.00000
    848       0.8443      0.00000
    849       0.8666      0.00000
    850       0.9023      0.00000
    851       0.9059      0.00000
    852       0.9121      0.00000
    853       0.9231      0.00000
    854       0.9272      0.00000
    855       0.9450      0.00000
    856       0.9465      0.00000
    857       0.9519      0.00000
    858       0.9697      0.00000
    859       0.9999      0.00000
    860       1.0031      0.00000
    861       1.0223      0.00000
    862       1.0276      0.00000
    863       1.0494      0.00000
    864       1.0649      0.00000
    865       1.0925      0.00000
    866       1.1087      0.00000
    867       1.1458      0.00000
    868       1.1850      0.00000
    869       1.1915      0.00000
    870       1.2169      0.00000
    871       1.2253      0.00000
    872       1.2360      0.00000
    873       1.2586      0.00000
    874       1.2644      0.00000
    875       1.2755      0.00000
    876       1.2868      0.00000
    877       1.2975      0.00000
    878       1.3004      0.00000
    879       1.3085      0.00000
    880       1.3144      0.00000
    881       1.3196      0.00000
    882       1.3245      0.00000
    883       1.3444      0.00000
    884       1.3466      0.00000
    885       1.3604      0.00000
    886       1.3698      0.00000
    887       1.3788      0.00000
    888       1.4031      0.00000
    889       1.4046      0.00000
    890       1.4369      0.00000
    891       1.4673      0.00000
    892       1.4846      0.00000
    893       1.4961      0.00000
    894       1.5042      0.00000
    895       1.5276      0.00000
    896       1.5950      0.00000

 k-point     3 :       0.0000    0.0000   -0.1111
  band No.  band energies     occupation 
      1     -22.9829      1.00000
      2     -22.9303      1.00000
      3     -22.8996      1.00000
      4     -22.7777      1.00000
      5     -22.7644      1.00000
      6     -22.7454      1.00000
      7     -22.7199      1.00000
      8     -22.7129      1.00000
      9     -22.6913      1.00000
     10     -22.6835      1.00000
     11     -22.6821      1.00000
     12     -22.5375      1.00000
     13     -22.5296      1.00000
     14     -22.4779      1.00000
     15     -22.4710      1.00000
     16     -22.4296      1.00000
     17     -22.3424      1.00000
     18     -22.2256      1.00000
     19     -22.2152      1.00000
     20     -22.1530      1.00000
     21     -22.1348      1.00000
     22     -22.1295      1.00000
     23     -22.1275      1.00000
     24     -22.0910      1.00000
     25     -22.0837      1.00000
     26     -22.0595      1.00000
     27     -22.0545      1.00000
     28     -21.9844      1.00000
     29     -21.9114      1.00000
     30     -21.9021      1.00000
     31     -21.8688      1.00000
     32     -21.8499      1.00000
     33     -21.8441      1.00000
     34     -21.7775      1.00000
     35     -21.7710      1.00000
     36     -21.6630      1.00000
     37     -21.6549      1.00000
     38     -21.5987      1.00000
     39     -21.5908      1.00000
     40     -21.5120      1.00000
     41     -21.5040      1.00000
     42     -21.4115      1.00000
     43     -21.2695      1.00000
     44     -21.2142      1.00000
     45     -21.1995      1.00000
     46     -21.1631      1.00000
     47     -21.1512      1.00000
     48     -21.1266      1.00000
     49     -21.1189      1.00000
     50     -21.0816      1.00000
     51     -21.0683      1.00000
     52     -21.0588      1.00000
     53     -21.0555      1.00000
     54     -21.0432      1.00000
     55     -21.0397      1.00000
     56     -21.0364      1.00000
     57     -21.0351      1.00000
     58     -20.8963      1.00000
     59     -20.8897      1.00000
     60     -20.8380      1.00000
     61     -20.8327      1.00000
     62     -20.7142      1.00000
     63     -20.6089      1.00000
     64     -20.5873      1.00000
     65     -20.5834      1.00000
     66     -20.5820      1.00000
     67     -20.5427      1.00000
     68     -20.5150      1.00000
     69     -20.5045      1.00000
     70     -20.4992      1.00000
     71     -20.4982      1.00000
     72     -20.4501      1.00000
     73     -20.4431      1.00000
     74     -20.3411      1.00000
     75     -20.3336      1.00000
     76     -20.1621      1.00000
     77     -20.1529      1.00000
     78     -20.0497      1.00000
     79     -20.0402      1.00000
     80     -19.9194      1.00000
     81     -19.8993      1.00000
     82     -19.8944      1.00000
     83     -19.7897      1.00000
     84     -19.7597      1.00000
     85     -19.7401      1.00000
     86     -19.7310      1.00000
     87     -19.7164      1.00000
     88     -19.7099      1.00000
     89     -19.6978      1.00000
     90     -19.6941      1.00000
     91     -19.6916      1.00000
     92     -19.6809      1.00000
     93     -19.6789      1.00000
     94     -19.6063      1.00000
     95     -19.5995      1.00000
     96     -19.5444      1.00000
     97     -19.5365      1.00000
     98     -19.5048      1.00000
     99     -19.4962      1.00000
    100     -19.4820      1.00000
    101     -19.4815      1.00000
    102     -19.4627      1.00000
    103     -19.4590      1.00000
    104     -19.2495      1.00000
    105     -19.2409      1.00000
    106     -19.1676      1.00000
    107     -19.1587      1.00000
    108     -19.1094      1.00000
    109     -19.1000      1.00000
    110     -18.9796      1.00000
    111     -18.9462      1.00000
    112     -18.9323      1.00000
    113     -18.9159      1.00000
    114     -18.9092      1.00000
    115     -18.8366      1.00000
    116     -18.8248      1.00000
    117     -18.7895      1.00000
    118     -18.7732      1.00000
    119     -18.7710      1.00000
    120     -18.7681      1.00000
    121     -18.7502      1.00000
    122     -18.7188      1.00000
    123     -18.7155      1.00000
    124     -18.5684      1.00000
    125     -18.5564      1.00000
    126     -18.3272      1.00000
    127     -18.2967      1.00000
    128     -18.2493      1.00000
    129     -18.2164      1.00000
    130     -18.1949      1.00000
    131     -18.1757      1.00000
    132     -18.1742      1.00000
    133     -18.1636      1.00000
    134     -18.1605      1.00000
    135     -18.1579      1.00000
    136     -18.1251      1.00000
    137     -18.1179      1.00000
    138     -18.0983      1.00000
    139     -18.0883      1.00000
    140     -18.0374      1.00000
    141     -18.0170      1.00000
    142     -18.0046      1.00000
    143     -18.0027      1.00000
    144     -17.9694      1.00000
    145     -17.9571      1.00000
    146     -17.9450      1.00000
    147     -17.9173      1.00000
    148     -17.8952      1.00000
    149     -17.8017      1.00000
    150     -17.7764      1.00000
    151     -17.7293      1.00000
    152     -17.7009      1.00000
    153     -17.6928      1.00000
    154     -17.6730      1.00000
    155     -17.6624      1.00000
    156     -17.6251      1.00000
    157     -17.6011      1.00000
    158     -17.5773      1.00000
    159     -17.5628      1.00000
    160     -17.5455      1.00000
    161     -17.5430      1.00000
    162     -17.5345      1.00000
    163     -17.5183      1.00000
    164     -17.5131      1.00000
    165     -17.3970      1.00000
    166     -17.3199      1.00000
    167     -17.3124      1.00000
    168     -17.2707      1.00000
    169     -17.2191      1.00000
    170     -17.1744      1.00000
    171     -17.1066      1.00000
    172     -17.0703      1.00000
    173     -16.9121      1.00000
    174     -16.8419      1.00000
    175     -16.8215      1.00000
    176     -16.7962      1.00000
    177     -16.7224      1.00000
    178     -16.7069      1.00000
    179     -16.6775      1.00000
    180     -16.6536      1.00000
    181     -16.5167      1.00000
    182     -16.4957      1.00000
    183     -16.4626      1.00000
    184     -16.3521      1.00000
    185     -16.3042      1.00000
    186     -16.2725      1.00000
    187     -16.2604      1.00000
    188     -16.1671      1.00000
    189     -16.0992      1.00000
    190     -16.0017      1.00000
    191     -15.9937      1.00000
    192     -15.9793      1.00000
    193     -15.8559      1.00000
    194     -15.8351      1.00000
    195     -15.8179      1.00000
    196     -15.8124      1.00000
    197     -15.8081      1.00000
    198     -15.7947      1.00000
    199     -15.7874      1.00000
    200     -15.7804      1.00000
    201     -15.7755      1.00000
    202     -15.7692      1.00000
    203     -15.7601      1.00000
    204     -15.7535      1.00000
    205     -15.7194      1.00000
    206     -15.6956      1.00000
    207     -15.6675      1.00000
    208     -15.6581      1.00000
    209     -15.6393      1.00000
    210     -15.6219      1.00000
    211     -15.5939      1.00000
    212     -15.5873      1.00000
    213     -15.5779      1.00000
    214     -15.5633      1.00000
    215     -15.5544      1.00000
    216     -15.5029      1.00000
    217     -15.4412      1.00000
    218     -15.4247      1.00000
    219     -15.4115      1.00000
    220     -15.4038      1.00000
    221     -15.3733      1.00000
    222     -15.3171      1.00000
    223     -15.2760      1.00000
    224     -15.2728      1.00000
    225     -15.2684      1.00000
    226     -15.2447      1.00000
    227     -15.2119      1.00000
    228     -15.1674      1.00000
    229     -15.0907      1.00000
    230     -15.0408      1.00000
    231     -15.0353      1.00000
    232     -14.9944      1.00000
    233     -14.9456      1.00000
    234     -14.9307      1.00000
    235     -14.8883      1.00000
    236     -14.8616      1.00000
    237     -14.8327      1.00000
    238     -14.7909      1.00000
    239     -14.7316      1.00000
    240     -14.6943      1.00000
    241     -14.6829      1.00000
    242     -14.6648      1.00000
    243     -14.6514      1.00000
    244     -14.6271      1.00000
    245     -14.5691      1.00000
    246     -14.4901      1.00000
    247     -14.4612      1.00000
    248     -14.4055      1.00000
    249     -14.3781      1.00000
    250     -14.2364      1.00000
    251     -14.1776      1.00000
    252     -14.0534      1.00000
    253     -13.8397      1.00000
    254     -13.8011      1.00000
    255     -13.7970      1.00000
    256     -13.7928      1.00000
    257     -13.7917      1.00000
    258     -13.7748      1.00000
    259     -13.7699      1.00000
    260     -13.7586      1.00000
    261     -13.7545      1.00000
    262     -13.7333      1.00000
    263     -13.7292      1.00000
    264     -13.7197      1.00000
    265     -13.7147      1.00000
    266     -13.6983      1.00000
    267     -13.6939      1.00000
    268     -13.6789      1.00000
    269     -13.6718      1.00000
    270     -13.6476      1.00000
    271     -13.6200      1.00000
    272     -13.5809      1.00000
    273     -13.5543      1.00000
    274     -13.5439      1.00000
    275     -13.5388      1.00000
    276     -13.5304      1.00000
    277     -13.4988      1.00000
    278     -13.4826      1.00000
    279     -13.4732      1.00000
    280     -13.4364      1.00000
    281     -13.4276      1.00000
    282     -13.4211      1.00000
    283     -13.3869      1.00000
    284     -13.3439      1.00000
    285     -13.3381      1.00000
    286     -13.2823      1.00000
    287     -13.2735      1.00000
    288     -13.2637      1.00000
    289     -13.2465      1.00000
    290     -13.2177      1.00000
    291     -13.2106      1.00000
    292     -13.2051      1.00000
    293     -13.2002      1.00000
    294     -13.0482      1.00000
    295     -12.9006      1.00000
    296     -12.7701      1.00000
    297     -12.7631      1.00000
    298     -12.7056      1.00000
    299     -12.6517      1.00000
    300     -12.6416      1.00000
    301     -12.5890      1.00000
    302     -12.5442      1.00000
    303     -12.5420      1.00000
    304     -12.5372      1.00000
    305     -12.4498      1.00000
    306     -12.4148      1.00000
    307     -12.4049      1.00000
    308     -12.3954      1.00000
    309     -12.3904      1.00000
    310     -12.3874      1.00000
    311     -12.3830      1.00000
    312     -12.3289      1.00000
    313     -12.2858      1.00000
    314     -12.2729      1.00000
    315     -12.2666      1.00000
    316     -12.2248      1.00000
    317     -12.2007      1.00000
    318     -12.1977      1.00000
    319     -12.1949      1.00000
    320     -12.1461      1.00000
    321     -12.0591      1.00000
    322     -12.0396      1.00000
    323     -12.0028      1.00000
    324     -11.9548      1.00000
    325     -11.9463      1.00000
    326     -11.9352      1.00000
    327     -11.8648      1.00000
    328     -11.8075      1.00000
    329     -11.8013      1.00000
    330     -11.7741      1.00000
    331     -11.7576      1.00000
    332     -11.7495      1.00000
    333     -11.7454      1.00000
    334     -11.7094      1.00000
    335     -11.7007      1.00000
    336     -11.6866      1.00000
    337     -11.6695      1.00000
    338     -11.6522      1.00000
    339     -11.6254      1.00000
    340     -11.6107      1.00000
    341     -11.5748      1.00000
    342     -11.5670      1.00000
    343     -11.5603      1.00000
    344     -11.5431      1.00000
    345     -11.4721      1.00000
    346     -11.4591      1.00000
    347     -11.4565      1.00000
    348     -11.4479      1.00000
    349     -11.4450      1.00000
    350     -11.4215      1.00000
    351     -11.3925      1.00000
    352     -11.3878      1.00000
    353     -11.3764      1.00000
    354     -11.3372      1.00000
    355     -11.3353      1.00000
    356     -11.3281      1.00000
    357     -11.3144      1.00000
    358     -11.2776      1.00000
    359     -11.2740      1.00000
    360     -11.2202      1.00000
    361     -11.2067      1.00000
    362     -11.1831      1.00000
    363     -11.1774      1.00000
    364     -11.1689      1.00000
    365     -11.0923      1.00000
    366     -11.0874      1.00000
    367     -11.0863      1.00000
    368     -11.0725      1.00000
    369     -11.0311      1.00000
    370     -11.0261      1.00000
    371     -11.0089      1.00000
    372     -10.9956      1.00000
    373     -10.9428      1.00000
    374     -10.8933      1.00000
    375     -10.8548      1.00000
    376     -10.8462      1.00000
    377     -10.8194      1.00000
    378     -10.8164      1.00000
    379     -10.7966      1.00000
    380     -10.7873      1.00000
    381     -10.7775      1.00000
    382     -10.7637      1.00000
    383     -10.7560      1.00000
    384     -10.7467      1.00000
    385     -10.7408      1.00000
    386     -10.7288      1.00000
    387     -10.7174      1.00000
    388     -10.7031      1.00000
    389     -10.6968      1.00000
    390     -10.6514      1.00000
    391     -10.6418      1.00000
    392     -10.6192      1.00000
    393     -10.6014      1.00000
    394     -10.5945      1.00000
    395     -10.5835      1.00000
    396     -10.5774      1.00000
    397     -10.5771      1.00000
    398     -10.5329      1.00000
    399     -10.5285      1.00000
    400     -10.5118      1.00000
    401     -10.4619      1.00000
    402     -10.4606      1.00000
    403     -10.4080      1.00000
    404     -10.4004      1.00000
    405     -10.3807      1.00000
    406     -10.3639      1.00000
    407     -10.3516      1.00000
    408     -10.3456      1.00000
    409     -10.3271      1.00000
    410     -10.3228      1.00000
    411     -10.3185      1.00000
    412     -10.3128      1.00000
    413     -10.3068      1.00000
    414     -10.3009      1.00000
    415     -10.2959      1.00000
    416     -10.2935      1.00000
    417     -10.2886      1.00000
    418     -10.2843      1.00000
    419     -10.2829      1.00000
    420     -10.2652      1.00000
    421     -10.2647      1.00000
    422     -10.2594      1.00000
    423     -10.2405      1.00000
    424     -10.2303      1.00000
    425     -10.2174      1.00000
    426     -10.2162      1.00000
    427     -10.2141      1.00000
    428     -10.2089      1.00000
    429     -10.2024      1.00000
    430     -10.1969      1.00000
    431     -10.1864      1.00000
    432     -10.1825      1.00000
    433     -10.1742      1.00000
    434     -10.1583      1.00000
    435     -10.1508      1.00000
    436     -10.1408      1.00000
    437     -10.1259      1.00000
    438     -10.1241      1.00000
    439     -10.1128      1.00000
    440     -10.1106      1.00000
    441     -10.1064      1.00000
    442     -10.0901      1.00000
    443     -10.0828      1.00000
    444     -10.0423      1.00000
    445     -10.0390      1.00000
    446     -10.0254      1.00000
    447     -10.0183      1.00000
    448     -10.0135      1.00000
    449      -9.9787      1.00000
    450      -9.9723      1.00000
    451      -9.9583      1.00000
    452      -9.9558      1.00000
    453      -9.9155      1.00000
    454      -9.8718      1.00000
    455      -9.8511      1.00000
    456      -9.8463      1.00000
    457      -9.8240      1.00000
    458      -9.8135      1.00000
    459      -9.7976      1.00000
    460      -9.7936      1.00000
    461      -9.7788      1.00000
    462      -9.7380      1.00000
    463      -9.7253      1.00000
    464      -9.7100      1.00000
    465      -9.6865      1.00000
    466      -9.6755      1.00000
    467      -9.6662      1.00000
    468      -9.6373      1.00000
    469      -9.6292      1.00000
    470      -9.6215      1.00000
    471      -9.5929      1.00000
    472      -9.5893      1.00000
    473      -9.5784      1.00000
    474      -9.5650      1.00000
    475      -9.5617      1.00000
    476      -9.5304      1.00000
    477      -9.5080      1.00000
    478      -9.5041      1.00000
    479      -9.4994      1.00000
    480      -9.4902      1.00000
    481      -9.4690      1.00000
    482      -9.4675      1.00000
    483      -9.4400      1.00000
    484      -9.4315      1.00000
    485      -9.4247      1.00000
    486      -9.4213      1.00000
    487      -9.3942      1.00000
    488      -9.3830      1.00000
    489      -9.3689      1.00000
    490      -9.3587      1.00000
    491      -9.3531      1.00000
    492      -9.3492      1.00000
    493      -9.3483      1.00000
    494      -9.3335      1.00000
    495      -9.3249      1.00000
    496      -9.2941      1.00000
    497      -9.2917      1.00000
    498      -9.2836      1.00000
    499      -9.2756      1.00000
    500      -9.2373      1.00000
    501      -9.2315      1.00000
    502      -9.2245      1.00000
    503      -9.2016      1.00000
    504      -9.1938      1.00000
    505      -9.1777      1.00000
    506      -9.1752      1.00000
    507      -9.1574      1.00000
    508      -9.1534      1.00000
    509      -9.1461      1.00000
    510      -9.1397      1.00000
    511      -9.1063      1.00000
    512      -9.0153      1.00000
    513      -8.9698      1.00000
    514      -8.9588      1.00000
    515      -8.9322      1.00000
    516      -8.9092      1.00000
    517      -8.9027      1.00000
    518      -8.8662      1.00000
    519      -8.8344      1.00000
    520      -8.8069      1.00000
    521      -8.7929      1.00000
    522      -8.7784      1.00000
    523      -8.7767      1.00000
    524      -8.7749      1.00000
    525      -8.7504      1.00000
    526      -8.7287      1.00000
    527      -8.7232      1.00000
    528      -8.6756      1.00000
    529      -8.6511      1.00000
    530      -8.6152      1.00000
    531      -8.6077      1.00000
    532      -8.5843      1.00000
    533      -8.5744      1.00000
    534      -8.5580      1.00000
    535      -8.5272      1.00000
    536      -8.5148      1.00000
    537      -8.4945      1.00000
    538      -8.4873      1.00000
    539      -8.4786      1.00000
    540      -8.4734      1.00000
    541      -8.4526      1.00000
    542      -8.4349      1.00000
    543      -8.4263      1.00000
    544      -8.4163      1.00000
    545      -8.4031      1.00000
    546      -8.3837      1.00000
    547      -8.3606      1.00000
    548      -8.3445      1.00000
    549      -8.3428      1.00000
    550      -8.3310      1.00000
    551      -8.3259      1.00000
    552      -8.3096      1.00000
    553      -8.3017      1.00000
    554      -8.2829      1.00000
    555      -8.2791      1.00000
    556      -8.2724      1.00000
    557      -8.2666      1.00000
    558      -8.2601      1.00000
    559      -8.2427      1.00000
    560      -8.1824      1.00000
    561      -8.1773      1.00000
    562      -8.1678      1.00000
    563      -8.1479      1.00000
    564      -8.1316      1.00000
    565      -8.1030      1.00000
    566      -8.0789      1.00000
    567      -8.0700      1.00000
    568      -8.0439      1.00000
    569      -8.0392      1.00000
    570      -8.0284      1.00000
    571      -8.0246      1.00000
    572      -8.0149      1.00000
    573      -8.0091      1.00000
    574      -7.9939      1.00000
    575      -7.9636      1.00000
    576      -7.9301      1.00000
    577      -7.9277      1.00000
    578      -7.9236      1.00000
    579      -7.9050      1.00000
    580      -7.9010      1.00000
    581      -7.8928      1.00000
    582      -7.8827      1.00000
    583      -7.8166      1.00000
    584      -7.7847      1.00000
    585      -7.7587      1.00000
    586      -7.7230      1.00000
    587      -7.7110      1.00000
    588      -7.6870      1.00000
    589      -7.6414      1.00000
    590      -7.6258      1.00000
    591      -7.5947      1.00000
    592      -7.5752      1.00000
    593      -7.5680      1.00000
    594      -7.5441      1.00000
    595      -7.5286      1.00000
    596      -7.4838      1.00000
    597      -7.4738      1.00000
    598      -7.4697      1.00000
    599      -7.4566      1.00000
    600      -7.4458      1.00000
    601      -7.4112      1.00000
    602      -7.3908      1.00000
    603      -7.3889      1.00000
    604      -7.3552      1.00000
    605      -7.3442      1.00000
    606      -7.3009      1.00000
    607      -7.2961      1.00000
    608      -7.2717      1.00000
    609      -7.2598      1.00000
    610      -7.2532      1.00000
    611      -7.2479      1.00000
    612      -7.2425      1.00000
    613      -7.2312      1.00000
    614      -7.2242      1.00000
    615      -7.2067      1.00000
    616      -7.2035      1.00000
    617      -7.1785      1.00000
    618      -7.1694      1.00000
    619      -7.1592      1.00000
    620      -7.1279      1.00000
    621      -7.1186      1.00000
    622      -7.0874      1.00000
    623      -7.0692      1.00000
    624      -7.0684      1.00000
    625      -7.0454      1.00000
    626      -7.0384      1.00000
    627      -7.0330      1.00000
    628      -7.0242      1.00000
    629      -7.0009      1.00000
    630      -6.9866      1.00000
    631      -6.9606      1.00000
    632      -6.9106      1.00000
    633      -6.8810      1.00000
    634      -6.8654      1.00000
    635      -6.8591      1.00000
    636      -6.8472      1.00000
    637      -6.8299      1.00000
    638      -6.8245      1.00000
    639      -6.8156      1.00000
    640      -6.8038      1.00000
    641      -6.7540      1.00000
    642      -6.7378      1.00000
    643      -6.6450      1.00000
    644      -6.6335      1.00000
    645      -6.5945      1.00000
    646      -6.5820      1.00000
    647      -6.5791      1.00000
    648      -6.5686      1.00000
    649      -6.5459      1.00000
    650      -6.5229      1.00000
    651      -6.5066      1.00000
    652      -6.4804      1.00000
    653      -6.4790      1.00000
    654      -6.4648      1.00000
    655      -6.4462      1.00000
    656      -6.4395      1.00000
    657      -6.4209      1.00000
    658      -6.3933      1.00000
    659      -6.3812      1.00000
    660      -6.3553      1.00000
    661      -6.3213      1.00000
    662      -6.2821      1.00000
    663      -6.2647      1.00000
    664      -6.2526      1.00000
    665      -6.2304      1.00000
    666      -6.1861      1.00000
    667      -6.1690      1.00000
    668      -6.1233      1.00000
    669      -6.1049      1.00000
    670      -6.0630      1.00000
    671      -6.0443      1.00000
    672      -6.0001      1.00000
    673      -5.9202      1.00000
    674      -5.9004      1.00000
    675      -5.8498      1.00000
    676      -5.8142      1.00000
    677      -5.7710      1.00000
    678      -5.7416      1.00000
    679      -5.7134      1.00000
    680      -5.6878      1.00000
    681      -5.6431      1.00000
    682      -5.6234      1.00000
    683      -5.5997      1.00000
    684      -5.5849      1.00000
    685      -5.5611      1.00000
    686      -5.5581      1.00000
    687      -5.5323      1.00000
    688      -5.5273      1.00000
    689      -5.5063      1.00000
    690      -5.4872      1.00000
    691      -5.4772      1.00000
    692      -5.4578      1.00000
    693      -5.4455      1.00000
    694      -5.4372      1.00000
    695      -5.4261      1.00000
    696      -5.4166      1.00000
    697      -5.3633      1.00000
    698      -5.3096      1.00000
    699      -5.3047      1.00000
    700      -5.2786      1.00000
    701      -5.2615      1.00000
    702      -5.2410      1.00000
    703      -5.2257      1.00000
    704      -5.2003      1.00000
    705      -5.1900      1.00000
    706      -5.1736      1.00000
    707      -5.1317      1.00000
    708      -5.0924      1.00000
    709      -5.0481      1.00000
    710      -5.0288      1.00000
    711      -4.9615      1.00000
    712      -4.9446      1.00000
    713      -4.8721      1.00000
    714      -4.8689      1.00000
    715      -4.8273      1.00000
    716      -4.7169      1.00000
    717      -4.5865      1.00000
    718      -4.5069      1.00000
    719      -4.4640      1.00000
    720      -4.4255      1.00000
    721      -4.4111      1.00000
    722      -4.3236      1.00000
    723      -4.3066      1.00000
    724      -4.2748      1.00000
    725      -4.2021      1.00000
    726      -4.1156      1.00000
    727      -4.0739      1.00000
    728      -4.0128      1.00000
    729      -3.8706      1.00000
    730      -3.6669      1.00000
    731      -3.6030      1.00000
    732      -2.7427      0.00000
    733      -2.6768      0.00000
    734      -2.5150      0.00000
    735      -2.3230      0.00000
    736      -2.2527      0.00000
    737      -2.2192      0.00000
    738      -2.2023      0.00000
    739      -2.1394      0.00000
    740      -2.1101      0.00000
    741      -2.0286      0.00000
    742      -2.0161      0.00000
    743      -1.9622      0.00000
    744      -1.9517      0.00000
    745      -1.9401      0.00000
    746      -1.9344      0.00000
    747      -1.8846      0.00000
    748      -1.8434      0.00000
    749      -1.7918      0.00000
    750      -1.7824      0.00000
    751      -1.7463      0.00000
    752      -1.7308      0.00000
    753      -1.7136      0.00000
    754      -1.7033      0.00000
    755      -1.6687      0.00000
    756      -1.6524      0.00000
    757      -1.6312      0.00000
    758      -1.6119      0.00000
    759      -1.5698      0.00000
    760      -1.5480      0.00000
    761      -1.5402      0.00000
    762      -1.5273      0.00000
    763      -1.5141      0.00000
    764      -1.5108      0.00000
    765      -1.5034      0.00000
    766      -1.4863      0.00000
    767      -1.4729      0.00000
    768      -1.4649      0.00000
    769      -1.4355      0.00000
    770      -1.3960      0.00000
    771      -1.3869      0.00000
    772      -1.3717      0.00000
    773      -1.3620      0.00000
    774      -1.3246      0.00000
    775      -1.3117      0.00000
    776      -1.3038      0.00000
    777      -1.2966      0.00000
    778      -1.2825      0.00000
    779      -1.2759      0.00000
    780      -1.2755      0.00000
    781      -1.2594      0.00000
    782      -1.2503      0.00000
    783      -1.2255      0.00000
    784      -1.0846      0.00000
    785      -1.0374      0.00000
    786      -1.0235      0.00000
    787      -0.9596      0.00000
    788      -0.8925      0.00000
    789      -0.8830      0.00000
    790      -0.8687      0.00000
    791      -0.8232      0.00000
    792      -0.7973      0.00000
    793      -0.7612      0.00000
    794      -0.6840      0.00000
    795      -0.6308      0.00000
    796      -0.6102      0.00000
    797      -0.6052      0.00000
    798      -0.5544      0.00000
    799      -0.5075      0.00000
    800      -0.4231      0.00000
    801      -0.3691      0.00000
    802      -0.3395      0.00000
    803      -0.3096      0.00000
    804      -0.2833      0.00000
    805      -0.2329      0.00000
    806      -0.1560      0.00000
    807      -0.1347      0.00000
    808      -0.0690      0.00000
    809      -0.0670      0.00000
    810      -0.0304      0.00000
    811      -0.0267      0.00000
    812       0.0352      0.00000
    813       0.0767      0.00000
    814       0.1165      0.00000
    815       0.1338      0.00000
    816       0.1636      0.00000
    817       0.1755      0.00000
    818       0.1786      0.00000
    819       0.2092      0.00000
    820       0.2460      0.00000
    821       0.2555      0.00000
    822       0.2768      0.00000
    823       0.3026      0.00000
    824       0.3212      0.00000
    825       0.3363      0.00000
    826       0.3496      0.00000
    827       0.3915      0.00000
    828       0.4272      0.00000
    829       0.4633      0.00000
    830       0.4702      0.00000
    831       0.4970      0.00000
    832       0.5115      0.00000
    833       0.5254      0.00000
    834       0.5434      0.00000
    835       0.5470      0.00000
    836       0.5706      0.00000
    837       0.5812      0.00000
    838       0.5864      0.00000
    839       0.5945      0.00000
    840       0.6011      0.00000
    841       0.6374      0.00000
    842       0.6399      0.00000
    843       0.6637      0.00000
    844       0.6804      0.00000
    845       0.7155      0.00000
    846       0.7664      0.00000
    847       0.8066      0.00000
    848       0.8432      0.00000
    849       0.8493      0.00000
    850       0.8829      0.00000
    851       0.8935      0.00000
    852       0.9156      0.00000
    853       0.9243      0.00000
    854       0.9285      0.00000
    855       0.9425      0.00000
    856       0.9523      0.00000
    857       0.9574      0.00000
    858       0.9690      0.00000
    859       0.9920      0.00000
    860       1.0081      0.00000
    861       1.0197      0.00000
    862       1.0309      0.00000
    863       1.0571      0.00000
    864       1.0711      0.00000
    865       1.1038      0.00000
    866       1.1344      0.00000
    867       1.1660      0.00000
    868       1.1861      0.00000
    869       1.1978      0.00000
    870       1.2178      0.00000
    871       1.2282      0.00000
    872       1.2444      0.00000
    873       1.2461      0.00000
    874       1.2644      0.00000
    875       1.2649      0.00000
    876       1.2780      0.00000
    877       1.2910      0.00000
    878       1.3139      0.00000
    879       1.3162      0.00000
    880       1.3228      0.00000
    881       1.3294      0.00000
    882       1.3406      0.00000
    883       1.3464      0.00000
    884       1.3540      0.00000
    885       1.3730      0.00000
    886       1.3772      0.00000
    887       1.3996      0.00000
    888       1.4063      0.00000
    889       1.4309      0.00000
    890       1.4337      0.00000
    891       1.4746      0.00000
    892       1.4752      0.00000
    893       1.4970      0.00000
    894       1.5144      0.00000
    895       1.5485      0.00000
    896       1.5639      0.00000

 k-point     4 :       0.0000    0.0000   -0.1667
  band No.  band energies     occupation 
      1     -22.9820      1.00000
      2     -22.9362      1.00000
      3     -22.8916      1.00000
      4     -22.7781      1.00000
      5     -22.7634      1.00000
      6     -22.7571      1.00000
      7     -22.7255      1.00000
      8     -22.7192      1.00000
      9     -22.6825      1.00000
     10     -22.6752      1.00000
     11     -22.6682      1.00000
     12     -22.5506      1.00000
     13     -22.5432      1.00000
     14     -22.4636      1.00000
     15     -22.4553      1.00000
     16     -22.4496      1.00000
     17     -22.3197      1.00000
     18     -22.2453      1.00000
     19     -22.2360      1.00000
     20     -22.1495      1.00000
     21     -22.1338      1.00000
     22     -22.1125      1.00000
     23     -22.1047      1.00000
     24     -22.0944      1.00000
     25     -22.0899      1.00000
     26     -22.0520      1.00000
     27     -22.0463      1.00000
     28     -22.0119      1.00000
     29     -21.9240      1.00000
     30     -21.9156      1.00000
     31     -21.8437      1.00000
     32     -21.8315      1.00000
     33     -21.8287      1.00000
     34     -21.8041      1.00000
     35     -21.7990      1.00000
     36     -21.6364      1.00000
     37     -21.6250      1.00000
     38     -21.6160      1.00000
     39     -21.6113      1.00000
     40     -21.4903      1.00000
     41     -21.4814      1.00000
     42     -21.4460      1.00000
     43     -21.2509      1.00000
     44     -21.2345      1.00000
     45     -21.2290      1.00000
     46     -21.1882      1.00000
     47     -21.1789      1.00000
     48     -21.1277      1.00000
     49     -21.1179      1.00000
     50     -21.0820      1.00000
     51     -21.0743      1.00000
     52     -21.0415      1.00000
     53     -21.0312      1.00000
     54     -21.0217      1.00000
     55     -21.0185      1.00000
     56     -21.0090      1.00000
     57     -21.0062      1.00000
     58     -20.9085      1.00000
     59     -20.9030      1.00000
     60     -20.8238      1.00000
     61     -20.8175      1.00000
     62     -20.7553      1.00000
     63     -20.6364      1.00000
     64     -20.6207      1.00000
     65     -20.6076      1.00000
     66     -20.6041      1.00000
     67     -20.5529      1.00000
     68     -20.5461      1.00000
     69     -20.5007      1.00000
     70     -20.4801      1.00000
     71     -20.4768      1.00000
     72     -20.4148      1.00000
     73     -20.4067      1.00000
     74     -20.2985      1.00000
     75     -20.2900      1.00000
     76     -20.1879      1.00000
     77     -20.1800      1.00000
     78     -20.0238      1.00000
     79     -20.0113      1.00000
     80     -19.9572      1.00000
     81     -19.9413      1.00000
     82     -19.9398      1.00000
     83     -19.7921      1.00000
     84     -19.7589      1.00000
     85     -19.7432      1.00000
     86     -19.7397      1.00000
     87     -19.7209      1.00000
     88     -19.7156      1.00000
     89     -19.6950      1.00000
     90     -19.6880      1.00000
     91     -19.6740      1.00000
     92     -19.6733      1.00000
     93     -19.6491      1.00000
     94     -19.6363      1.00000
     95     -19.6328      1.00000
     96     -19.5544      1.00000
     97     -19.5493      1.00000
     98     -19.4775      1.00000
     99     -19.4670      1.00000
    100     -19.4501      1.00000
    101     -19.4463      1.00000
    102     -19.4278      1.00000
    103     -19.4239      1.00000
    104     -19.2678      1.00000
    105     -19.2605      1.00000
    106     -19.1661      1.00000
    107     -19.1480      1.00000
    108     -19.1375      1.00000
    109     -19.1350      1.00000
    110     -19.0287      1.00000
    111     -18.9821      1.00000
    112     -18.9718      1.00000
    113     -18.8864      1.00000
    114     -18.8620      1.00000
    115     -18.8521      1.00000
    116     -18.8491      1.00000
    117     -18.8312      1.00000
    118     -18.8260      1.00000
    119     -18.7408      1.00000
    120     -18.7288      1.00000
    121     -18.6996      1.00000
    122     -18.6891      1.00000
    123     -18.6867      1.00000
    124     -18.5164      1.00000
    125     -18.5017      1.00000
    126     -18.3527      1.00000
    127     -18.3287      1.00000
    128     -18.2862      1.00000
    129     -18.2655      1.00000
    130     -18.2325      1.00000
    131     -18.2181      1.00000
    132     -18.1730      1.00000
    133     -18.1700      1.00000
    134     -18.1410      1.00000
    135     -18.1330      1.00000
    136     -18.1262      1.00000
    137     -18.1189      1.00000
    138     -18.0923      1.00000
    139     -18.0810      1.00000
    140     -18.0222      1.00000
    141     -17.9938      1.00000
    142     -17.9769      1.00000
    143     -17.9714      1.00000
    144     -17.9605      1.00000
    145     -17.9581      1.00000
    146     -17.9544      1.00000
    147     -17.9046      1.00000
    148     -17.8823      1.00000
    149     -17.8491      1.00000
    150     -17.8308      1.00000
    151     -17.7361      1.00000
    152     -17.7193      1.00000
    153     -17.7058      1.00000
    154     -17.6841      1.00000
    155     -17.6622      1.00000
    156     -17.6089      1.00000
    157     -17.5889      1.00000
    158     -17.5600      1.00000
    159     -17.5499      1.00000
    160     -17.5309      1.00000
    161     -17.5218      1.00000
    162     -17.5172      1.00000
    163     -17.4911      1.00000
    164     -17.4859      1.00000
    165     -17.4259      1.00000
    166     -17.3417      1.00000
    167     -17.3121      1.00000
    168     -17.2892      1.00000
    169     -17.1946      1.00000
    170     -17.1516      1.00000
    171     -17.1205      1.00000
    172     -17.0794      1.00000
    173     -16.9637      1.00000
    174     -16.8737      1.00000
    175     -16.8549      1.00000
    176     -16.8281      1.00000
    177     -16.7018      1.00000
    178     -16.6805      1.00000
    179     -16.6406      1.00000
    180     -16.6158      1.00000
    181     -16.5019      1.00000
    182     -16.4873      1.00000
    183     -16.4389      1.00000
    184     -16.3610      1.00000
    185     -16.2978      1.00000
    186     -16.2772      1.00000
    187     -16.2477      1.00000
    188     -16.1618      1.00000
    189     -16.1082      1.00000
    190     -16.0459      1.00000
    191     -16.0291      1.00000
    192     -15.9629      1.00000
    193     -15.8751      1.00000
    194     -15.8619      1.00000
    195     -15.8545      1.00000
    196     -15.8341      1.00000
    197     -15.8193      1.00000
    198     -15.8150      1.00000
    199     -15.8008      1.00000
    200     -15.7919      1.00000
    201     -15.7808      1.00000
    202     -15.7640      1.00000
    203     -15.7351      1.00000
    204     -15.7223      1.00000
    205     -15.7062      1.00000
    206     -15.6800      1.00000
    207     -15.6755      1.00000
    208     -15.6696      1.00000
    209     -15.6381      1.00000
    210     -15.6101      1.00000
    211     -15.5589      1.00000
    212     -15.5399      1.00000
    213     -15.5267      1.00000
    214     -15.5152      1.00000
    215     -15.5100      1.00000
    216     -15.4888      1.00000
    217     -15.4643      1.00000
    218     -15.4521      1.00000
    219     -15.4459      1.00000
    220     -15.4069      1.00000
    221     -15.3632      1.00000
    222     -15.3335      1.00000
    223     -15.3089      1.00000
    224     -15.2800      1.00000
    225     -15.2509      1.00000
    226     -15.2290      1.00000
    227     -15.2172      1.00000
    228     -15.1669      1.00000
    229     -15.0945      1.00000
    230     -15.0179      1.00000
    231     -15.0068      1.00000
    232     -14.9972      1.00000
    233     -14.9827      1.00000
    234     -14.9563      1.00000
    235     -14.9133      1.00000
    236     -14.8924      1.00000
    237     -14.8670      1.00000
    238     -14.8264      1.00000
    239     -14.7845      1.00000
    240     -14.7310      1.00000
    241     -14.6980      1.00000
    242     -14.6308      1.00000
    243     -14.6165      1.00000
    244     -14.5721      1.00000
    245     -14.5125      1.00000
    246     -14.4352      1.00000
    247     -14.4230      1.00000
    248     -14.4126      1.00000
    249     -14.3395      1.00000
    250     -14.2858      1.00000
    251     -14.1265      1.00000
    252     -14.0129      1.00000
    253     -13.8677      1.00000
    254     -13.8562      1.00000
    255     -13.8415      1.00000
    256     -13.8308      1.00000
    257     -13.8085      1.00000
    258     -13.7967      1.00000
    259     -13.7944      1.00000
    260     -13.7923      1.00000
    261     -13.7731      1.00000
    262     -13.7632      1.00000
    263     -13.7551      1.00000
    264     -13.7272      1.00000
    265     -13.7230      1.00000
    266     -13.7055      1.00000
    267     -13.6932      1.00000
    268     -13.6790      1.00000
    269     -13.6704      1.00000
    270     -13.6389      1.00000
    271     -13.6247      1.00000
    272     -13.5723      1.00000
    273     -13.5393      1.00000
    274     -13.5056      1.00000
    275     -13.4928      1.00000
    276     -13.4864      1.00000
    277     -13.4844      1.00000
    278     -13.4671      1.00000
    279     -13.4599      1.00000
    280     -13.4444      1.00000
    281     -13.4300      1.00000
    282     -13.4196      1.00000
    283     -13.3793      1.00000
    284     -13.3676      1.00000
    285     -13.3492      1.00000
    286     -13.2787      1.00000
    287     -13.2682      1.00000
    288     -13.2593      1.00000
    289     -13.2336      1.00000
    290     -13.1980      1.00000
    291     -13.1821      1.00000
    292     -13.1522      1.00000
    293     -13.1451      1.00000
    294     -13.0034      1.00000
    295     -12.9334      1.00000
    296     -12.8270      1.00000
    297     -12.7463      1.00000
    298     -12.7268      1.00000
    299     -12.7163      1.00000
    300     -12.7034      1.00000
    301     -12.6536      1.00000
    302     -12.6089      1.00000
    303     -12.5119      1.00000
    304     -12.5024      1.00000
    305     -12.4818      1.00000
    306     -12.4496      1.00000
    307     -12.4386      1.00000
    308     -12.4132      1.00000
    309     -12.3859      1.00000
    310     -12.3463      1.00000
    311     -12.3437      1.00000
    312     -12.3203      1.00000
    313     -12.2903      1.00000
    314     -12.2659      1.00000
    315     -12.2628      1.00000
    316     -12.1985      1.00000
    317     -12.1768      1.00000
    318     -12.1561      1.00000
    319     -12.1342      1.00000
    320     -12.0854      1.00000
    321     -12.0472      1.00000
    322     -12.0174      1.00000
    323     -11.9804      1.00000
    324     -11.9775      1.00000
    325     -11.9509      1.00000
    326     -11.9380      1.00000
    327     -11.8909      1.00000
    328     -11.8167      1.00000
    329     -11.7933      1.00000
    330     -11.7660      1.00000
    331     -11.7546      1.00000
    332     -11.7479      1.00000
    333     -11.7315      1.00000
    334     -11.7259      1.00000
    335     -11.7048      1.00000
    336     -11.6779      1.00000
    337     -11.6603      1.00000
    338     -11.6514      1.00000
    339     -11.6268      1.00000
    340     -11.6105      1.00000
    341     -11.6086      1.00000
    342     -11.5694      1.00000
    343     -11.5455      1.00000
    344     -11.5378      1.00000
    345     -11.5188      1.00000
    346     -11.4956      1.00000
    347     -11.4860      1.00000
    348     -11.4751      1.00000
    349     -11.4421      1.00000
    350     -11.4016      1.00000
    351     -11.3969      1.00000
    352     -11.3929      1.00000
    353     -11.3899      1.00000
    354     -11.3761      1.00000
    355     -11.3680      1.00000
    356     -11.3560      1.00000
    357     -11.3392      1.00000
    358     -11.3253      1.00000
    359     -11.2376      1.00000
    360     -11.2298      1.00000
    361     -11.1913      1.00000
    362     -11.1743      1.00000
    363     -11.1355      1.00000
    364     -11.1170      1.00000
    365     -11.1073      1.00000
    366     -11.0888      1.00000
    367     -11.0687      1.00000
    368     -11.0373      1.00000
    369     -11.0290      1.00000
    370     -11.0137      1.00000
    371     -10.9859      1.00000
    372     -10.9628      1.00000
    373     -10.8861      1.00000
    374     -10.8540      1.00000
    375     -10.8473      1.00000
    376     -10.8456      1.00000
    377     -10.8431      1.00000
    378     -10.8333      1.00000
    379     -10.8038      1.00000
    380     -10.7937      1.00000
    381     -10.7755      1.00000
    382     -10.7545      1.00000
    383     -10.7449      1.00000
    384     -10.7397      1.00000
    385     -10.7319      1.00000
    386     -10.7201      1.00000
    387     -10.7120      1.00000
    388     -10.7024      1.00000
    389     -10.6871      1.00000
    390     -10.6733      1.00000
    391     -10.6677      1.00000
    392     -10.6474      1.00000
    393     -10.6322      1.00000
    394     -10.6073      1.00000
    395     -10.5927      1.00000
    396     -10.5908      1.00000
    397     -10.5665      1.00000
    398     -10.5200      1.00000
    399     -10.5128      1.00000
    400     -10.4975      1.00000
    401     -10.4812      1.00000
    402     -10.4394      1.00000
    403     -10.4254      1.00000
    404     -10.4165      1.00000
    405     -10.3713      1.00000
    406     -10.3638      1.00000
    407     -10.3590      1.00000
    408     -10.3498      1.00000
    409     -10.3366      1.00000
    410     -10.3359      1.00000
    411     -10.3253      1.00000
    412     -10.3197      1.00000
    413     -10.3114      1.00000
    414     -10.3095      1.00000
    415     -10.2951      1.00000
    416     -10.2835      1.00000
    417     -10.2817      1.00000
    418     -10.2787      1.00000
    419     -10.2746      1.00000
    420     -10.2729      1.00000
    421     -10.2689      1.00000
    422     -10.2639      1.00000
    423     -10.2631      1.00000
    424     -10.2590      1.00000
    425     -10.2498      1.00000
    426     -10.2421      1.00000
    427     -10.2272      1.00000
    428     -10.2195      1.00000
    429     -10.2136      1.00000
    430     -10.1957      1.00000
    431     -10.1854      1.00000
    432     -10.1676      1.00000
    433     -10.1626      1.00000
    434     -10.1551      1.00000
    435     -10.1481      1.00000
    436     -10.1456      1.00000
    437     -10.1247      1.00000
    438     -10.1127      1.00000
    439     -10.1057      1.00000
    440     -10.0964      1.00000
    441     -10.0930      1.00000
    442     -10.0865      1.00000
    443     -10.0758      1.00000
    444     -10.0621      1.00000
    445     -10.0230      1.00000
    446     -10.0084      1.00000
    447     -10.0005      1.00000
    448      -9.9837      1.00000
    449      -9.9715      1.00000
    450      -9.9657      1.00000
    451      -9.9394      1.00000
    452      -9.9281      1.00000
    453      -9.9080      1.00000
    454      -9.8896      1.00000
    455      -9.8587      1.00000
    456      -9.8481      1.00000
    457      -9.8338      1.00000
    458      -9.8080      1.00000
    459      -9.7832      1.00000
    460      -9.7796      1.00000
    461      -9.7747      1.00000
    462      -9.7660      1.00000
    463      -9.7384      1.00000
    464      -9.7181      1.00000
    465      -9.6889      1.00000
    466      -9.6871      1.00000
    467      -9.6486      1.00000
    468      -9.6465      1.00000
    469      -9.6431      1.00000
    470      -9.6216      1.00000
    471      -9.5811      1.00000
    472      -9.5786      1.00000
    473      -9.5608      1.00000
    474      -9.5497      1.00000
    475      -9.5465      1.00000
    476      -9.5329      1.00000
    477      -9.5296      1.00000
    478      -9.5130      1.00000
    479      -9.4900      1.00000
    480      -9.4759      1.00000
    481      -9.4549      1.00000
    482      -9.4539      1.00000
    483      -9.4477      1.00000
    484      -9.4376      1.00000
    485      -9.4325      1.00000
    486      -9.4247      1.00000
    487      -9.4176      1.00000
    488      -9.3820      1.00000
    489      -9.3732      1.00000
    490      -9.3614      1.00000
    491      -9.3528      1.00000
    492      -9.3484      1.00000
    493      -9.3480      1.00000
    494      -9.3469      1.00000
    495      -9.3376      1.00000
    496      -9.3046      1.00000
    497      -9.3023      1.00000
    498      -9.2939      1.00000
    499      -9.2877      1.00000
    500      -9.2249      1.00000
    501      -9.2222      1.00000
    502      -9.2134      1.00000
    503      -9.2079      1.00000
    504      -9.1984      1.00000
    505      -9.1924      1.00000
    506      -9.1726      1.00000
    507      -9.1516      1.00000
    508      -9.1448      1.00000
    509      -9.1311      1.00000
    510      -9.1063      1.00000
    511      -9.0861      1.00000
    512      -9.0295      1.00000
    513      -8.9981      1.00000
    514      -8.9655      1.00000
    515      -8.9622      1.00000
    516      -8.9443      1.00000
    517      -8.9193      1.00000
    518      -8.8679      1.00000
    519      -8.8354      1.00000
    520      -8.8063      1.00000
    521      -8.7958      1.00000
    522      -8.7770      1.00000
    523      -8.7738      1.00000
    524      -8.7523      1.00000
    525      -8.7395      1.00000
    526      -8.7143      1.00000
    527      -8.6765      1.00000
    528      -8.6680      1.00000
    529      -8.6279      1.00000
    530      -8.6126      1.00000
    531      -8.6015      1.00000
    532      -8.5805      1.00000
    533      -8.5694      1.00000
    534      -8.5536      1.00000
    535      -8.5244      1.00000
    536      -8.5117      1.00000
    537      -8.4903      1.00000
    538      -8.4808      1.00000
    539      -8.4704      1.00000
    540      -8.4650      1.00000
    541      -8.4595      1.00000
    542      -8.4387      1.00000
    543      -8.4282      1.00000
    544      -8.4100      1.00000
    545      -8.3998      1.00000
    546      -8.3805      1.00000
    547      -8.3632      1.00000
    548      -8.3602      1.00000
    549      -8.3492      1.00000
    550      -8.3435      1.00000
    551      -8.3399      1.00000
    552      -8.3361      1.00000
    553      -8.3331      1.00000
    554      -8.3138      1.00000
    555      -8.3013      1.00000
    556      -8.2693      1.00000
    557      -8.2628      1.00000
    558      -8.2520      1.00000
    559      -8.2458      1.00000
    560      -8.1912      1.00000
    561      -8.1638      1.00000
    562      -8.1542      1.00000
    563      -8.1439      1.00000
    564      -8.1204      1.00000
    565      -8.1105      1.00000
    566      -8.1016      1.00000
    567      -8.0673      1.00000
    568      -8.0565      1.00000
    569      -8.0430      1.00000
    570      -8.0352      1.00000
    571      -8.0183      1.00000
    572      -8.0099      1.00000
    573      -8.0049      1.00000
    574      -7.9981      1.00000
    575      -7.9851      1.00000
    576      -7.9716      1.00000
    577      -7.9062      1.00000
    578      -7.8990      1.00000
    579      -7.8730      1.00000
    580      -7.8597      1.00000
    581      -7.8559      1.00000
    582      -7.8511      1.00000
    583      -7.8409      1.00000
    584      -7.7508      1.00000
    585      -7.7440      1.00000
    586      -7.7227      1.00000
    587      -7.7048      1.00000
    588      -7.6887      1.00000
    589      -7.6630      1.00000
    590      -7.6155      1.00000
    591      -7.6035      1.00000
    592      -7.5949      1.00000
    593      -7.5753      1.00000
    594      -7.5628      1.00000
    595      -7.5214      1.00000
    596      -7.5049      1.00000
    597      -7.4887      1.00000
    598      -7.4692      1.00000
    599      -7.4493      1.00000
    600      -7.4466      1.00000
    601      -7.4129      1.00000
    602      -7.4073      1.00000
    603      -7.3821      1.00000
    604      -7.3706      1.00000
    605      -7.3558      1.00000
    606      -7.3205      1.00000
    607      -7.3053      1.00000
    608      -7.2955      1.00000
    609      -7.2923      1.00000
    610      -7.2802      1.00000
    611      -7.2634      1.00000
    612      -7.2365      1.00000
    613      -7.2258      1.00000
    614      -7.2014      1.00000
    615      -7.1876      1.00000
    616      -7.1782      1.00000
    617      -7.1713      1.00000
    618      -7.1572      1.00000
    619      -7.1487      1.00000
    620      -7.1182      1.00000
    621      -7.1069      1.00000
    622      -7.0885      1.00000
    623      -7.0722      1.00000
    624      -7.0399      1.00000
    625      -7.0361      1.00000
    626      -7.0297      1.00000
    627      -7.0182      1.00000
    628      -7.0069      1.00000
    629      -6.9966      1.00000
    630      -6.9868      1.00000
    631      -6.9760      1.00000
    632      -6.9162      1.00000
    633      -6.8842      1.00000
    634      -6.8641      1.00000
    635      -6.8543      1.00000
    636      -6.8405      1.00000
    637      -6.8271      1.00000
    638      -6.8183      1.00000
    639      -6.7975      1.00000
    640      -6.7874      1.00000
    641      -6.7366      1.00000
    642      -6.7195      1.00000
    643      -6.6800      1.00000
    644      -6.6678      1.00000
    645      -6.6121      1.00000
    646      -6.5989      1.00000
    647      -6.5826      1.00000
    648      -6.5730      1.00000
    649      -6.5658      1.00000
    650      -6.5364      1.00000
    651      -6.5321      1.00000
    652      -6.5100      1.00000
    653      -6.4752      1.00000
    654      -6.4520      1.00000
    655      -6.4237      1.00000
    656      -6.4140      1.00000
    657      -6.4079      1.00000
    658      -6.3983      1.00000
    659      -6.3878      1.00000
    660      -6.3702      1.00000
    661      -6.3579      1.00000
    662      -6.3339      1.00000
    663      -6.2556      1.00000
    664      -6.2186      1.00000
    665      -6.1892      1.00000
    666      -6.1803      1.00000
    667      -6.1538      1.00000
    668      -6.1346      1.00000
    669      -6.0685      1.00000
    670      -6.0506      1.00000
    671      -6.0114      1.00000
    672      -5.9735      1.00000
    673      -5.9370      1.00000
    674      -5.9008      1.00000
    675      -5.8854      1.00000
    676      -5.8400      1.00000
    677      -5.7769      1.00000
    678      -5.7359      1.00000
    679      -5.6945      1.00000
    680      -5.6587      1.00000
    681      -5.6422      1.00000
    682      -5.6200      1.00000
    683      -5.5999      1.00000
    684      -5.5888      1.00000
    685      -5.5809      1.00000
    686      -5.5580      1.00000
    687      -5.5301      1.00000
    688      -5.5286      1.00000
    689      -5.5005      1.00000
    690      -5.4902      1.00000
    691      -5.4802      1.00000
    692      -5.4775      1.00000
    693      -5.4763      1.00000
    694      -5.4559      1.00000
    695      -5.4364      1.00000
    696      -5.4074      1.00000
    697      -5.3595      1.00000
    698      -5.3538      1.00000
    699      -5.3108      1.00000
    700      -5.2916      1.00000
    701      -5.2456      1.00000
    702      -5.2393      1.00000
    703      -5.2212      1.00000
    704      -5.1843      1.00000
    705      -5.1649      1.00000
    706      -5.1397      1.00000
    707      -5.1373      1.00000
    708      -5.0701      1.00000
    709      -5.0459      1.00000
    710      -5.0251      1.00000
    711      -4.9593      1.00000
    712      -4.9340      1.00000
    713      -4.8842      1.00000
    714      -4.8603      1.00000
    715      -4.8204      1.00000
    716      -4.7231      1.00000
    717      -4.5993      1.00000
    718      -4.5081      1.00000
    719      -4.4920      1.00000
    720      -4.4619      1.00000
    721      -4.4210      1.00000
    722      -4.3115      1.00000
    723      -4.2990      1.00000
    724      -4.2587      1.00000
    725      -4.1589      1.00000
    726      -4.1193      1.00000
    727      -4.0853      1.00000
    728      -4.0193      1.00000
    729      -3.8510      1.00000
    730      -3.6853      1.00000
    731      -3.6069      1.00000
    732      -2.7369      0.00000
    733      -2.6624      0.00000
    734      -2.5209      0.00000
    735      -2.3367      0.00000
    736      -2.2603      0.00000
    737      -2.2480      0.00000
    738      -2.1913      0.00000
    739      -2.1570      0.00000
    740      -2.1062      0.00000
    741      -1.9905      0.00000
    742      -1.9760      0.00000
    743      -1.9574      0.00000
    744      -1.9445      0.00000
    745      -1.9345      0.00000
    746      -1.9303      0.00000
    747      -1.9049      0.00000
    748      -1.8549      0.00000
    749      -1.7777      0.00000
    750      -1.7709      0.00000
    751      -1.7491      0.00000
    752      -1.7379      0.00000
    753      -1.7233      0.00000
    754      -1.6993      0.00000
    755      -1.6935      0.00000
    756      -1.6845      0.00000
    757      -1.6633      0.00000
    758      -1.6328      0.00000
    759      -1.5573      0.00000
    760      -1.5545      0.00000
    761      -1.5345      0.00000
    762      -1.5212      0.00000
    763      -1.5110      0.00000
    764      -1.5061      0.00000
    765      -1.4821      0.00000
    766      -1.4761      0.00000
    767      -1.4671      0.00000
    768      -1.4377      0.00000
    769      -1.4273      0.00000
    770      -1.4050      0.00000
    771      -1.3930      0.00000
    772      -1.3609      0.00000
    773      -1.3582      0.00000
    774      -1.3537      0.00000
    775      -1.3262      0.00000
    776      -1.3133      0.00000
    777      -1.2982      0.00000
    778      -1.2815      0.00000
    779      -1.2734      0.00000
    780      -1.2594      0.00000
    781      -1.2507      0.00000
    782      -1.2276      0.00000
    783      -1.1875      0.00000
    784      -1.0735      0.00000
    785      -1.0623      0.00000
    786      -1.0293      0.00000
    787      -1.0059      0.00000
    788      -0.9302      0.00000
    789      -0.8777      0.00000
    790      -0.8599      0.00000
    791      -0.8385      0.00000
    792      -0.8297      0.00000
    793      -0.7174      0.00000
    794      -0.6692      0.00000
    795      -0.6308      0.00000
    796      -0.6048      0.00000
    797      -0.5818      0.00000
    798      -0.5576      0.00000
    799      -0.5002      0.00000
    800      -0.3977      0.00000
    801      -0.3833      0.00000
    802      -0.3402      0.00000
    803      -0.3207      0.00000
    804      -0.2824      0.00000
    805      -0.2102      0.00000
    806      -0.1400      0.00000
    807      -0.1295      0.00000
    808      -0.0902      0.00000
    809      -0.0757      0.00000
    810      -0.0244      0.00000
    811      -0.0178      0.00000
    812       0.0180      0.00000
    813       0.0539      0.00000
    814       0.0709      0.00000
    815       0.0921      0.00000
    816       0.1577      0.00000
    817       0.1662      0.00000
    818       0.1873      0.00000
    819       0.2128      0.00000
    820       0.2347      0.00000
    821       0.2764      0.00000
    822       0.2928      0.00000
    823       0.3151      0.00000
    824       0.3365      0.00000
    825       0.3728      0.00000
    826       0.3855      0.00000
    827       0.3932      0.00000
    828       0.4070      0.00000
    829       0.4561      0.00000
    830       0.4919      0.00000
    831       0.4942      0.00000
    832       0.5262      0.00000
    833       0.5273      0.00000
    834       0.5469      0.00000
    835       0.5492      0.00000
    836       0.5699      0.00000
    837       0.5720      0.00000
    838       0.5818      0.00000
    839       0.5862      0.00000
    840       0.5892      0.00000
    841       0.6315      0.00000
    842       0.6488      0.00000
    843       0.6886      0.00000
    844       0.7017      0.00000
    845       0.7305      0.00000
    846       0.7455      0.00000
    847       0.8017      0.00000
    848       0.8282      0.00000
    849       0.8467      0.00000
    850       0.8547      0.00000
    851       0.8710      0.00000
    852       0.9027      0.00000
    853       0.9076      0.00000
    854       0.9262      0.00000
    855       0.9477      0.00000
    856       0.9494      0.00000
    857       0.9686      0.00000
    858       0.9817      0.00000
    859       0.9892      0.00000
    860       1.0071      0.00000
    861       1.0202      0.00000
    862       1.0454      0.00000
    863       1.0567      0.00000
    864       1.0728      0.00000
    865       1.1408      0.00000
    866       1.1477      0.00000
    867       1.1603      0.00000
    868       1.1787      0.00000
    869       1.2180      0.00000
    870       1.2201      0.00000
    871       1.2283      0.00000
    872       1.2459      0.00000
    873       1.2489      0.00000
    874       1.2640      0.00000
    875       1.2681      0.00000
    876       1.2767      0.00000
    877       1.2826      0.00000
    878       1.2866      0.00000
    879       1.3252      0.00000
    880       1.3399      0.00000
    881       1.3440      0.00000
    882       1.3513      0.00000
    883       1.3677      0.00000
    884       1.3808      0.00000
    885       1.3892      0.00000
    886       1.3951      0.00000
    887       1.4051      0.00000
    888       1.4198      0.00000
    889       1.4310      0.00000
    890       1.4636      0.00000
    891       1.4668      0.00000
    892       1.4802      0.00000
    893       1.4983      0.00000
    894       1.5247      0.00000
    895       1.5513      0.00000
    896       1.5648      0.00000

 k-point     5 :       0.0000    0.0000   -0.2222
  band No.  band energies     occupation 
      1     -22.9807      1.00000
      2     -22.9418      1.00000
      3     -22.8831      1.00000
      4     -22.7811      1.00000
      5     -22.7659      1.00000
      6     -22.7620      1.00000
      7     -22.7307      1.00000
      8     -22.7251      1.00000
      9     -22.6738      1.00000
     10     -22.6664      1.00000
     11     -22.6529      1.00000
     12     -22.5635      1.00000
     13     -22.5564      1.00000
     14     -22.4718      1.00000
     15     -22.4460      1.00000
     16     -22.4393      1.00000
     17     -22.2970      1.00000
     18     -22.2647      1.00000
     19     -22.2565      1.00000
     20     -22.1477      1.00000
     21     -22.1324      1.00000
     22     -22.1053      1.00000
     23     -22.0958      1.00000
     24     -22.0855      1.00000
     25     -22.0813      1.00000
     26     -22.0457      1.00000
     27     -22.0377      1.00000
     28     -22.0370      1.00000
     29     -21.9366      1.00000
     30     -21.9287      1.00000
     31     -21.8376      1.00000
     32     -21.8268      1.00000
     33     -21.8182      1.00000
     34     -21.8126      1.00000
     35     -21.8051      1.00000
     36     -21.6415      1.00000
     37     -21.6318      1.00000
     38     -21.6008      1.00000
     39     -21.5944      1.00000
     40     -21.4832      1.00000
     41     -21.4649      1.00000
     42     -21.4583      1.00000
     43     -21.2812      1.00000
     44     -21.2692      1.00000
     45     -21.2178      1.00000
     46     -21.2062      1.00000
     47     -21.1920      1.00000
     48     -21.1269      1.00000
     49     -21.1166      1.00000
     50     -21.0857      1.00000
     51     -21.0799      1.00000
     52     -21.0310      1.00000
     53     -21.0228      1.00000
     54     -20.9926      1.00000
     55     -20.9813      1.00000
     56     -20.9772      1.00000
     57     -20.9761      1.00000
     58     -20.9201      1.00000
     59     -20.9158      1.00000
     60     -20.8112      1.00000
     61     -20.8019      1.00000
     62     -20.7939      1.00000
     63     -20.6673      1.00000
     64     -20.6547      1.00000
     65     -20.6298      1.00000
     66     -20.6242      1.00000
     67     -20.5925      1.00000
     68     -20.5874      1.00000
     69     -20.4667      1.00000
     70     -20.4542      1.00000
     71     -20.4494      1.00000
     72     -20.3788      1.00000
     73     -20.3699      1.00000
     74     -20.2567      1.00000
     75     -20.2461      1.00000
     76     -20.2123      1.00000
     77     -20.2068      1.00000
     78     -20.0136      1.00000
     79     -19.9874      1.00000
     80     -19.9839      1.00000
     81     -19.9800      1.00000
     82     -19.9781      1.00000
     83     -19.8123      1.00000
     84     -19.7875      1.00000
     85     -19.7633      1.00000
     86     -19.7577      1.00000
     87     -19.7270      1.00000
     88     -19.7209      1.00000
     89     -19.6836      1.00000
     90     -19.6676      1.00000
     91     -19.6654      1.00000
     92     -19.6609      1.00000
     93     -19.6480      1.00000
     94     -19.6439      1.00000
     95     -19.5999      1.00000
     96     -19.5646      1.00000
     97     -19.5617      1.00000
     98     -19.4602      1.00000
     99     -19.4518      1.00000
    100     -19.4086      1.00000
    101     -19.3966      1.00000
    102     -19.3902      1.00000
    103     -19.3875      1.00000
    104     -19.2856      1.00000
    105     -19.2797      1.00000
    106     -19.2051      1.00000
    107     -19.1940      1.00000
    108     -19.1228      1.00000
    109     -19.1152      1.00000
    110     -19.0794      1.00000
    111     -19.0200      1.00000
    112     -19.0112      1.00000
    113     -18.9031      1.00000
    114     -18.8804      1.00000
    115     -18.8768      1.00000
    116     -18.8735      1.00000
    117     -18.8218      1.00000
    118     -18.8121      1.00000
    119     -18.7035      1.00000
    120     -18.6878      1.00000
    121     -18.6642      1.00000
    122     -18.6593      1.00000
    123     -18.6395      1.00000
    124     -18.4667      1.00000
    125     -18.4470      1.00000
    126     -18.3783      1.00000
    127     -18.3605      1.00000
    128     -18.3290      1.00000
    129     -18.3151      1.00000
    130     -18.2728      1.00000
    131     -18.2612      1.00000
    132     -18.1763      1.00000
    133     -18.1689      1.00000
    134     -18.1379      1.00000
    135     -18.1312      1.00000
    136     -18.1060      1.00000
    137     -18.0977      1.00000
    138     -18.0836      1.00000
    139     -18.0743      1.00000
    140     -18.0663      1.00000
    141     -17.9964      1.00000
    142     -17.9794      1.00000
    143     -17.9474      1.00000
    144     -17.9252      1.00000
    145     -17.9186      1.00000
    146     -17.9105      1.00000
    147     -17.9005      1.00000
    148     -17.8888      1.00000
    149     -17.8863      1.00000
    150     -17.8638      1.00000
    151     -17.7626      1.00000
    152     -17.7492      1.00000
    153     -17.7310      1.00000
    154     -17.7024      1.00000
    155     -17.6232      1.00000
    156     -17.5908      1.00000
    157     -17.5825      1.00000
    158     -17.5671      1.00000
    159     -17.5497      1.00000
    160     -17.5430      1.00000
    161     -17.4957      1.00000
    162     -17.4755      1.00000
    163     -17.4592      1.00000
    164     -17.4518      1.00000
    165     -17.4319      1.00000
    166     -17.3647      1.00000
    167     -17.3254      1.00000
    168     -17.2968      1.00000
    169     -17.1716      1.00000
    170     -17.1461      1.00000
    171     -17.1202      1.00000
    172     -17.0930      1.00000
    173     -17.0179      1.00000
    174     -16.9108      1.00000
    175     -16.8890      1.00000
    176     -16.8567      1.00000
    177     -16.6834      1.00000
    178     -16.6529      1.00000
    179     -16.6156      1.00000
    180     -16.5713      1.00000
    181     -16.4818      1.00000
    182     -16.4727      1.00000
    183     -16.4106      1.00000
    184     -16.3740      1.00000
    185     -16.2894      1.00000
    186     -16.2832      1.00000
    187     -16.2247      1.00000
    188     -16.1615      1.00000
    189     -16.1104      1.00000
    190     -16.0954      1.00000
    191     -16.0760      1.00000
    192     -15.9318      1.00000
    193     -15.9213      1.00000
    194     -15.9124      1.00000
    195     -15.8601      1.00000
    196     -15.8527      1.00000
    197     -15.8450      1.00000
    198     -15.8327      1.00000
    199     -15.8209      1.00000
    200     -15.7929      1.00000
    201     -15.7743      1.00000
    202     -15.7633      1.00000
    203     -15.7292      1.00000
    204     -15.6914      1.00000
    205     -15.6864      1.00000
    206     -15.6689      1.00000
    207     -15.6598      1.00000
    208     -15.6444      1.00000
    209     -15.6321      1.00000
    210     -15.5981      1.00000
    211     -15.5452      1.00000
    212     -15.5005      1.00000
    213     -15.4943      1.00000
    214     -15.4886      1.00000
    215     -15.4822      1.00000
    216     -15.4704      1.00000
    217     -15.4629      1.00000
    218     -15.4555      1.00000
    219     -15.4520      1.00000
    220     -15.4068      1.00000
    221     -15.3860      1.00000
    222     -15.3499      1.00000
    223     -15.3082      1.00000
    224     -15.2926      1.00000
    225     -15.2822      1.00000
    226     -15.2097      1.00000
    227     -15.1862      1.00000
    228     -15.1540      1.00000
    229     -15.1029      1.00000
    230     -15.0698      1.00000
    231     -15.0512      1.00000
    232     -14.9910      1.00000
    233     -14.9642      1.00000
    234     -14.9470      1.00000
    235     -14.9149      1.00000
    236     -14.9115      1.00000
    237     -14.9014      1.00000
    238     -14.8668      1.00000
    239     -14.8263      1.00000
    240     -14.7805      1.00000
    241     -14.7437      1.00000
    242     -14.5673      1.00000
    243     -14.5549      1.00000
    244     -14.5152      1.00000
    245     -14.4779      1.00000
    246     -14.4536      1.00000
    247     -14.3715      1.00000
    248     -14.3646      1.00000
    249     -14.3365      1.00000
    250     -14.2723      1.00000
    251     -14.0752      1.00000
    252     -13.9753      1.00000
    253     -13.9282      1.00000
    254     -13.9182      1.00000
    255     -13.9039      1.00000
    256     -13.8653      1.00000
    257     -13.8541      1.00000
    258     -13.8348      1.00000
    259     -13.8088      1.00000
    260     -13.7951      1.00000
    261     -13.7942      1.00000
    262     -13.7684      1.00000
    263     -13.7624      1.00000
    264     -13.7316      1.00000
    265     -13.7232      1.00000
    266     -13.7117      1.00000
    267     -13.6899      1.00000
    268     -13.6774      1.00000
    269     -13.6697      1.00000
    270     -13.6379      1.00000
    271     -13.6198      1.00000
    272     -13.6055      1.00000
    273     -13.5613      1.00000
    274     -13.5406      1.00000
    275     -13.4951      1.00000
    276     -13.4691      1.00000
    277     -13.4558      1.00000
    278     -13.4380      1.00000
    279     -13.4232      1.00000
    280     -13.4060      1.00000
    281     -13.3967      1.00000
    282     -13.3678      1.00000
    283     -13.3642      1.00000
    284     -13.3606      1.00000
    285     -13.3491      1.00000
    286     -13.2833      1.00000
    287     -13.2726      1.00000
    288     -13.2609      1.00000
    289     -13.2396      1.00000
    290     -13.1507      1.00000
    291     -13.1457      1.00000
    292     -13.0935      1.00000
    293     -13.0840      1.00000
    294     -12.9656      1.00000
    295     -12.9563      1.00000
    296     -12.8837      1.00000
    297     -12.7848      1.00000
    298     -12.7818      1.00000
    299     -12.7656      1.00000
    300     -12.7183      1.00000
    301     -12.6913      1.00000
    302     -12.6768      1.00000
    303     -12.5736      1.00000
    304     -12.5090      1.00000
    305     -12.4925      1.00000
    306     -12.4605      1.00000
    307     -12.4237      1.00000
    308     -12.4098      1.00000
    309     -12.4064      1.00000
    310     -12.3728      1.00000
    311     -12.3097      1.00000
    312     -12.3030      1.00000
    313     -12.2856      1.00000
    314     -12.2540      1.00000
    315     -12.1989      1.00000
    316     -12.1560      1.00000
    317     -12.1305      1.00000
    318     -12.1157      1.00000
    319     -12.0896      1.00000
    320     -12.0706      1.00000
    321     -12.0266      1.00000
    322     -12.0235      1.00000
    323     -11.9752      1.00000
    324     -11.9452      1.00000
    325     -11.9282      1.00000
    326     -11.9165      1.00000
    327     -11.9143      1.00000
    328     -11.8368      1.00000
    329     -11.8240      1.00000
    330     -11.8102      1.00000
    331     -11.7832      1.00000
    332     -11.7286      1.00000
    333     -11.7010      1.00000
    334     -11.6997      1.00000
    335     -11.6774      1.00000
    336     -11.6587      1.00000
    337     -11.6527      1.00000
    338     -11.6508      1.00000
    339     -11.6384      1.00000
    340     -11.6278      1.00000
    341     -11.6064      1.00000
    342     -11.5855      1.00000
    343     -11.5717      1.00000
    344     -11.5500      1.00000
    345     -11.5409      1.00000
    346     -11.5347      1.00000
    347     -11.5204      1.00000
    348     -11.4808      1.00000
    349     -11.4630      1.00000
    350     -11.4383      1.00000
    351     -11.4370      1.00000
    352     -11.4081      1.00000
    353     -11.3964      1.00000
    354     -11.3958      1.00000
    355     -11.3917      1.00000
    356     -11.3822      1.00000
    357     -11.3354      1.00000
    358     -11.2978      1.00000
    359     -11.2736      1.00000
    360     -11.1869      1.00000
    361     -11.1824      1.00000
    362     -11.1622      1.00000
    363     -11.1419      1.00000
    364     -11.1276      1.00000
    365     -11.0875      1.00000
    366     -11.0512      1.00000
    367     -11.0469      1.00000
    368     -11.0423      1.00000
    369     -10.9791      1.00000
    370     -10.9686      1.00000
    371     -10.9543      1.00000
    372     -10.9003      1.00000
    373     -10.8752      1.00000
    374     -10.8532      1.00000
    375     -10.8515      1.00000
    376     -10.8408      1.00000
    377     -10.8288      1.00000
    378     -10.8113      1.00000
    379     -10.8079      1.00000
    380     -10.7998      1.00000
    381     -10.7962      1.00000
    382     -10.7450      1.00000
    383     -10.7438      1.00000
    384     -10.7338      1.00000
    385     -10.7318      1.00000
    386     -10.7293      1.00000
    387     -10.7253      1.00000
    388     -10.7121      1.00000
    389     -10.7085      1.00000
    390     -10.6960      1.00000
    391     -10.6582      1.00000
    392     -10.6391      1.00000
    393     -10.6227      1.00000
    394     -10.6134      1.00000
    395     -10.6073      1.00000
    396     -10.5999      1.00000
    397     -10.5337      1.00000
    398     -10.5130      1.00000
    399     -10.5063      1.00000
    400     -10.4940      1.00000
    401     -10.4761      1.00000
    402     -10.4743      1.00000
    403     -10.4715      1.00000
    404     -10.4194      1.00000
    405     -10.4098      1.00000
    406     -10.3785      1.00000
    407     -10.3733      1.00000
    408     -10.3509      1.00000
    409     -10.3372      1.00000
    410     -10.3249      1.00000
    411     -10.3207      1.00000
    412     -10.3190      1.00000
    413     -10.3119      1.00000
    414     -10.3105      1.00000
    415     -10.3060      1.00000
    416     -10.3011      1.00000
    417     -10.2953      1.00000
    418     -10.2930      1.00000
    419     -10.2874      1.00000
    420     -10.2817      1.00000
    421     -10.2769      1.00000
    422     -10.2747      1.00000
    423     -10.2704      1.00000
    424     -10.2641      1.00000
    425     -10.2619      1.00000
    426     -10.2519      1.00000
    427     -10.2252      1.00000
    428     -10.2197      1.00000
    429     -10.2050      1.00000
    430     -10.1940      1.00000
    431     -10.1808      1.00000
    432     -10.1752      1.00000
    433     -10.1579      1.00000
    434     -10.1434      1.00000
    435     -10.1325      1.00000
    436     -10.1303      1.00000
    437     -10.1220      1.00000
    438     -10.1197      1.00000
    439     -10.1125      1.00000
    440     -10.0900      1.00000
    441     -10.0845      1.00000
    442     -10.0744      1.00000
    443     -10.0701      1.00000
    444     -10.0446      1.00000
    445     -10.0336      1.00000
    446     -10.0088      1.00000
    447      -9.9777      1.00000
    448      -9.9642      1.00000
    449      -9.9402      1.00000
    450      -9.9334      1.00000
    451      -9.9227      1.00000
    452      -9.9170      1.00000
    453      -9.9010      1.00000
    454      -9.8969      1.00000
    455      -9.8707      1.00000
    456      -9.8572      1.00000
    457      -9.8276      1.00000
    458      -9.8155      1.00000
    459      -9.8095      1.00000
    460      -9.7721      1.00000
    461      -9.7692      1.00000
    462      -9.7606      1.00000
    463      -9.7392      1.00000
    464      -9.7367      1.00000
    465      -9.7129      1.00000
    466      -9.6652      1.00000
    467      -9.6643      1.00000
    468      -9.6547      1.00000
    469      -9.6118      1.00000
    470      -9.6049      1.00000
    471      -9.5770      1.00000
    472      -9.5705      1.00000
    473      -9.5643      1.00000
    474      -9.5599      1.00000
    475      -9.5486      1.00000
    476      -9.5304      1.00000
    477      -9.5207      1.00000
    478      -9.5086      1.00000
    479      -9.4968      1.00000
    480      -9.4821      1.00000
    481      -9.4742      1.00000
    482      -9.4549      1.00000
    483      -9.4348      1.00000
    484      -9.4316      1.00000
    485      -9.4269      1.00000
    486      -9.4181      1.00000
    487      -9.4083      1.00000
    488      -9.4019      1.00000
    489      -9.3790      1.00000
    490      -9.3763      1.00000
    491      -9.3574      1.00000
    492      -9.3485      1.00000
    493      -9.3478      1.00000
    494      -9.3264      1.00000
    495      -9.3232      1.00000
    496      -9.3174      1.00000
    497      -9.3121      1.00000
    498      -9.3062      1.00000
    499      -9.3001      1.00000
    500      -9.2356      1.00000
    501      -9.2199      1.00000
    502      -9.2102      1.00000
    503      -9.2050      1.00000
    504      -9.2021      1.00000
    505      -9.1863      1.00000
    506      -9.1708      1.00000
    507      -9.1651      1.00000
    508      -9.1473      1.00000
    509      -9.1420      1.00000
    510      -9.0806      1.00000
    511      -9.0648      1.00000
    512      -9.0302      1.00000
    513      -9.0225      1.00000
    514      -8.9970      1.00000
    515      -8.9829      1.00000
    516      -8.9524      1.00000
    517      -8.9158      1.00000
    518      -8.8663      1.00000
    519      -8.8367      1.00000
    520      -8.8064      1.00000
    521      -8.7989      1.00000
    522      -8.7768      1.00000
    523      -8.7728      1.00000
    524      -8.7348      1.00000
    525      -8.7195      1.00000
    526      -8.7041      1.00000
    527      -8.6937      1.00000
    528      -8.6260      1.00000
    529      -8.6104      1.00000
    530      -8.6011      1.00000
    531      -8.5802      1.00000
    532      -8.5746      1.00000
    533      -8.5542      1.00000
    534      -8.5465      1.00000
    535      -8.5222      1.00000
    536      -8.5067      1.00000
    537      -8.4836      1.00000
    538      -8.4756      1.00000
    539      -8.4667      1.00000
    540      -8.4608      1.00000
    541      -8.4522      1.00000
    542      -8.4447      1.00000
    543      -8.4256      1.00000
    544      -8.4126      1.00000
    545      -8.4020      1.00000
    546      -8.3969      1.00000
    547      -8.3927      1.00000
    548      -8.3733      1.00000
    549      -8.3681      1.00000
    550      -8.3593      1.00000
    551      -8.3474      1.00000
    552      -8.3453      1.00000
    553      -8.3397      1.00000
    554      -8.3309      1.00000
    555      -8.3135      1.00000
    556      -8.2737      1.00000
    557      -8.2488      1.00000
    558      -8.2467      1.00000
    559      -8.2311      1.00000
    560      -8.2145      1.00000
    561      -8.1849      1.00000
    562      -8.1570      1.00000
    563      -8.1483      1.00000
    564      -8.1325      1.00000
    565      -8.1077      1.00000
    566      -8.0902      1.00000
    567      -8.0781      1.00000
    568      -8.0637      1.00000
    569      -8.0560      1.00000
    570      -8.0456      1.00000
    571      -8.0414      1.00000
    572      -8.0272      1.00000
    573      -8.0164      1.00000
    574      -7.9794      1.00000
    575      -7.9701      1.00000
    576      -7.9294      1.00000
    577      -7.8854      1.00000
    578      -7.8753      1.00000
    579      -7.8681      1.00000
    580      -7.8369      1.00000
    581      -7.8236      1.00000
    582      -7.8140      1.00000
    583      -7.8129      1.00000
    584      -7.7765      1.00000
    585      -7.7356      1.00000
    586      -7.7013      1.00000
    587      -7.6968      1.00000
    588      -7.6735      1.00000
    589      -7.6660      1.00000
    590      -7.6394      1.00000
    591      -7.6249      1.00000
    592      -7.6074      1.00000
    593      -7.5835      1.00000
    594      -7.5667      1.00000
    595      -7.5428      1.00000
    596      -7.4989      1.00000
    597      -7.4952      1.00000
    598      -7.4725      1.00000
    599      -7.4698      1.00000
    600      -7.4630      1.00000
    601      -7.4111      1.00000
    602      -7.4051      1.00000
    603      -7.3853      1.00000
    604      -7.3760      1.00000
    605      -7.3694      1.00000
    606      -7.3438      1.00000
    607      -7.3375      1.00000
    608      -7.3316      1.00000
    609      -7.3134      1.00000
    610      -7.2850      1.00000
    611      -7.2619      1.00000
    612      -7.2467      1.00000
    613      -7.2229      1.00000
    614      -7.1895      1.00000
    615      -7.1670      1.00000
    616      -7.1514      1.00000
    617      -7.1392      1.00000
    618      -7.1332      1.00000
    619      -7.1246      1.00000
    620      -7.1126      1.00000
    621      -7.0925      1.00000
    622      -7.0860      1.00000
    623      -7.0782      1.00000
    624      -7.0619      1.00000
    625      -7.0524      1.00000
    626      -7.0273      1.00000
    627      -7.0174      1.00000
    628      -7.0113      1.00000
    629      -6.9739      1.00000
    630      -6.9473      1.00000
    631      -6.9290      1.00000
    632      -6.9221      1.00000
    633      -6.8954      1.00000
    634      -6.8816      1.00000
    635      -6.8721      1.00000
    636      -6.8211      1.00000
    637      -6.8126      1.00000
    638      -6.7930      1.00000
    639      -6.7721      1.00000
    640      -6.7679      1.00000
    641      -6.7272      1.00000
    642      -6.7201      1.00000
    643      -6.7040      1.00000
    644      -6.6940      1.00000
    645      -6.6269      1.00000
    646      -6.6181      1.00000
    647      -6.5909      1.00000
    648      -6.5874      1.00000
    649      -6.5817      1.00000
    650      -6.5741      1.00000
    651      -6.5679      1.00000
    652      -6.5049      1.00000
    653      -6.4756      1.00000
    654      -6.4588      1.00000
    655      -6.4300      1.00000
    656      -6.4203      1.00000
    657      -6.4134      1.00000
    658      -6.4056      1.00000
    659      -6.3869      1.00000
    660      -6.3698      1.00000
    661      -6.3562      1.00000
    662      -6.3351      1.00000
    663      -6.2548      1.00000
    664      -6.1941      1.00000
    665      -6.1864      1.00000
    666      -6.1574      1.00000
    667      -6.1363      1.00000
    668      -6.1239      1.00000
    669      -6.0554      1.00000
    670      -6.0209      1.00000
    671      -5.9797      1.00000
    672      -5.9559      1.00000
    673      -5.9401      1.00000
    674      -5.9234      1.00000
    675      -5.8833      1.00000
    676      -5.8650      1.00000
    677      -5.8010      1.00000
    678      -5.7173      1.00000
    679      -5.6829      1.00000
    680      -5.6599      1.00000
    681      -5.6283      1.00000
    682      -5.6113      1.00000
    683      -5.5966      1.00000
    684      -5.5942      1.00000
    685      -5.5841      1.00000
    686      -5.5604      1.00000
    687      -5.5489      1.00000
    688      -5.5299      1.00000
    689      -5.5295      1.00000
    690      -5.5182      1.00000
    691      -5.4947      1.00000
    692      -5.4861      1.00000
    693      -5.4627      1.00000
    694      -5.4594      1.00000
    695      -5.4372      1.00000
    696      -5.4090      1.00000
    697      -5.3891      1.00000
    698      -5.3511      1.00000
    699      -5.3137      1.00000
    700      -5.3105      1.00000
    701      -5.2598      1.00000
    702      -5.2276      1.00000
    703      -5.1935      1.00000
    704      -5.1723      1.00000
    705      -5.1559      1.00000
    706      -5.1450      1.00000
    707      -5.0945      1.00000
    708      -5.0824      1.00000
    709      -5.0348      1.00000
    710      -4.9896      1.00000
    711      -4.9599      1.00000
    712      -4.9187      1.00000
    713      -4.8983      1.00000
    714      -4.8516      1.00000
    715      -4.8133      1.00000
    716      -4.7304      1.00000
    717      -4.6134      1.00000
    718      -4.5400      1.00000
    719      -4.5128      1.00000
    720      -4.4984      1.00000
    721      -4.4087      1.00000
    722      -4.3086      1.00000
    723      -4.2864      1.00000
    724      -4.2384      1.00000
    725      -4.1456      1.00000
    726      -4.1019      1.00000
    727      -4.0932      1.00000
    728      -4.0257      1.00000
    729      -3.8288      1.00000
    730      -3.7088      1.00000
    731      -3.6139      1.00000
    732      -2.7288      0.00000
    733      -2.6434      0.00000
    734      -2.5291      0.00000
    735      -2.3490      0.00000
    736      -2.3001      0.00000
    737      -2.2511      0.00000
    738      -2.1794      0.00000
    739      -2.1674      0.00000
    740      -2.0970      0.00000
    741      -1.9568      0.00000
    742      -1.9515      0.00000
    743      -1.9393      0.00000
    744      -1.9359      0.00000
    745      -1.9301      0.00000
    746      -1.9242      0.00000
    747      -1.9104      0.00000
    748      -1.8675      0.00000
    749      -1.7713      0.00000
    750      -1.7662      0.00000
    751      -1.7526      0.00000
    752      -1.7480      0.00000
    753      -1.7345      0.00000
    754      -1.7158      0.00000
    755      -1.7083      0.00000
    756      -1.6865      0.00000
    757      -1.6833      0.00000
    758      -1.6515      0.00000
    759      -1.5829      0.00000
    760      -1.5685      0.00000
    761      -1.5556      0.00000
    762      -1.5334      0.00000
    763      -1.4927      0.00000
    764      -1.4791      0.00000
    765      -1.4634      0.00000
    766      -1.4522      0.00000
    767      -1.4397      0.00000
    768      -1.4273      0.00000
    769      -1.4180      0.00000
    770      -1.4109      0.00000
    771      -1.3968      0.00000
    772      -1.3926      0.00000
    773      -1.3587      0.00000
    774      -1.3295      0.00000
    775      -1.3206      0.00000
    776      -1.3128      0.00000
    777      -1.2987      0.00000
    778      -1.2810      0.00000
    779      -1.2707      0.00000
    780      -1.2594      0.00000
    781      -1.2513      0.00000
    782      -1.1788      0.00000
    783      -1.1487      0.00000
    784      -1.1098      0.00000
    785      -1.0993      0.00000
    786      -1.0540      0.00000
    787      -0.9830      0.00000
    788      -0.9680      0.00000
    789      -0.9255      0.00000
    790      -0.8903      0.00000
    791      -0.8218      0.00000
    792      -0.7943      0.00000
    793      -0.7175      0.00000
    794      -0.6704      0.00000
    795      -0.6536      0.00000
    796      -0.5811      0.00000
    797      -0.5617      0.00000
    798      -0.5095      0.00000
    799      -0.4797      0.00000
    800      -0.4286      0.00000
    801      -0.3993      0.00000
    802      -0.3504      0.00000
    803      -0.3126      0.00000
    804      -0.2341      0.00000
    805      -0.1871      0.00000
    806      -0.1373      0.00000
    807      -0.1333      0.00000
    808      -0.1075      0.00000
    809      -0.0836      0.00000
    810      -0.0620      0.00000
    811      -0.0063      0.00000
    812       0.0095      0.00000
    813       0.0299      0.00000
    814       0.0490      0.00000
    815       0.0731      0.00000
    816       0.1406      0.00000
    817       0.1558      0.00000
    818       0.1724      0.00000
    819       0.1904      0.00000
    820       0.2637      0.00000
    821       0.2977      0.00000
    822       0.3130      0.00000
    823       0.3185      0.00000
    824       0.3454      0.00000
    825       0.3681      0.00000
    826       0.3958      0.00000
    827       0.4255      0.00000
    828       0.4462      0.00000
    829       0.4582      0.00000
    830       0.4891      0.00000
    831       0.4999      0.00000
    832       0.5285      0.00000
    833       0.5421      0.00000
    834       0.5456      0.00000
    835       0.5474      0.00000
    836       0.5708      0.00000
    837       0.5745      0.00000
    838       0.5808      0.00000
    839       0.5827      0.00000
    840       0.5880      0.00000
    841       0.6236      0.00000
    842       0.6566      0.00000
    843       0.6607      0.00000
    844       0.7033      0.00000
    845       0.7610      0.00000
    846       0.7748      0.00000
    847       0.7946      0.00000
    848       0.8105      0.00000
    849       0.8260      0.00000
    850       0.8489      0.00000
    851       0.8516      0.00000
    852       0.8618      0.00000
    853       0.8993      0.00000
    854       0.9250      0.00000
    855       0.9495      0.00000
    856       0.9632      0.00000
    857       0.9689      0.00000
    858       0.9813      0.00000
    859       0.9958      0.00000
    860       1.0014      0.00000
    861       1.0109      0.00000
    862       1.0602      0.00000
    863       1.0714      0.00000
    864       1.0991      0.00000
    865       1.1224      0.00000
    866       1.1300      0.00000
    867       1.1776      0.00000
    868       1.2033      0.00000
    869       1.2186      0.00000
    870       1.2223      0.00000
    871       1.2241      0.00000
    872       1.2322      0.00000
    873       1.2588      0.00000
    874       1.2651      0.00000
    875       1.2689      0.00000
    876       1.2748      0.00000
    877       1.2898      0.00000
    878       1.3027      0.00000
    879       1.3213      0.00000
    880       1.3499      0.00000
    881       1.3577      0.00000
    882       1.3646      0.00000
    883       1.3827      0.00000
    884       1.3908      0.00000
    885       1.3986      0.00000
    886       1.4078      0.00000
    887       1.4210      0.00000
    888       1.4352      0.00000
    889       1.4550      0.00000
    890       1.4616      0.00000
    891       1.4734      0.00000
    892       1.4963      0.00000
    893       1.4998      0.00000
    894       1.5086      0.00000
    895       1.5354      0.00000
    896       1.5487      0.00000

 k-point     6 :       0.0000    0.0000   -0.2778
  band No.  band energies     occupation 
      1     -22.9791      1.00000
      2     -22.9469      1.00000
      3     -22.8741      1.00000
      4     -22.7892      1.00000
      5     -22.7689      1.00000
      6     -22.7602      1.00000
      7     -22.7355      1.00000
      8     -22.7306      1.00000
      9     -22.6648      1.00000
     10     -22.6572      1.00000
     11     -22.6369      1.00000
     12     -22.5760      1.00000
     13     -22.5693      1.00000
     14     -22.4915      1.00000
     15     -22.4302      1.00000
     16     -22.4228      1.00000
     17     -22.2868      1.00000
     18     -22.2766      1.00000
     19     -22.2709      1.00000
     20     -22.1463      1.00000
     21     -22.1307      1.00000
     22     -22.1083      1.00000
     23     -22.1012      1.00000
     24     -22.0698      1.00000
     25     -22.0622      1.00000
     26     -22.0577      1.00000
     27     -22.0334      1.00000
     28     -22.0286      1.00000
     29     -21.9489      1.00000
     30     -21.9414      1.00000
     31     -21.8612      1.00000
     32     -21.8539      1.00000
     33     -21.8045      1.00000
     34     -21.7964      1.00000
     35     -21.7753      1.00000
     36     -21.6602      1.00000
     37     -21.6516      1.00000
     38     -21.5716      1.00000
     39     -21.5637      1.00000
     40     -21.5157      1.00000
     41     -21.4435      1.00000
     42     -21.4349      1.00000
     43     -21.3138      1.00000
     44     -21.3034      1.00000
     45     -21.2427      1.00000
     46     -21.2332      1.00000
     47     -21.1584      1.00000
     48     -21.1242      1.00000
     49     -21.1149      1.00000
     50     -21.0896      1.00000
     51     -21.0851      1.00000
     52     -21.0220      1.00000
     53     -21.0139      1.00000
     54     -20.9642      1.00000
     55     -20.9461      1.00000
     56     -20.9438      1.00000
     57     -20.9427      1.00000
     58     -20.9292      1.00000
     59     -20.9281      1.00000
     60     -20.8386      1.00000
     61     -20.7920      1.00000
     62     -20.7859      1.00000
     63     -20.6991      1.00000
     64     -20.6885      1.00000
     65     -20.6516      1.00000
     66     -20.6438      1.00000
     67     -20.6310      1.00000
     68     -20.6284      1.00000
     69     -20.4416      1.00000
     70     -20.4312      1.00000
     71     -20.4085      1.00000
     72     -20.3425      1.00000
     73     -20.3327      1.00000
     74     -20.2431      1.00000
     75     -20.2333      1.00000
     76     -20.2077      1.00000
     77     -20.2017      1.00000
     78     -20.0487      1.00000
     79     -20.0293      1.00000
     80     -20.0217      1.00000
     81     -19.9600      1.00000
     82     -19.9519      1.00000
     83     -19.8500      1.00000
     84     -19.8349      1.00000
     85     -19.7704      1.00000
     86     -19.7562      1.00000
     87     -19.7313      1.00000
     88     -19.7259      1.00000
     89     -19.7044      1.00000
     90     -19.6995      1.00000
     91     -19.6613      1.00000
     92     -19.6568      1.00000
     93     -19.6112      1.00000
     94     -19.6011      1.00000
     95     -19.5761      1.00000
     96     -19.5737      1.00000
     97     -19.5477      1.00000
     98     -19.4444      1.00000
     99     -19.4363      1.00000
    100     -19.3705      1.00000
    101     -19.3531      1.00000
    102     -19.3468      1.00000
    103     -19.3450      1.00000
    104     -19.3018      1.00000
    105     -19.2985      1.00000
    106     -19.2486      1.00000
    107     -19.2403      1.00000
    108     -19.1361      1.00000
    109     -19.1001      1.00000
    110     -19.0932      1.00000
    111     -19.0564      1.00000
    112     -19.0500      1.00000
    113     -18.9458      1.00000
    114     -18.9326      1.00000
    115     -18.9058      1.00000
    116     -18.9020      1.00000
    117     -18.7775      1.00000
    118     -18.7635      1.00000
    119     -18.6667      1.00000
    120     -18.6468      1.00000
    121     -18.6329      1.00000
    122     -18.6295      1.00000
    123     -18.5854      1.00000
    124     -18.4354      1.00000
    125     -18.3940      1.00000
    126     -18.3913      1.00000
    127     -18.3870      1.00000
    128     -18.3728      1.00000
    129     -18.3642      1.00000
    130     -18.3134      1.00000
    131     -18.3042      1.00000
    132     -18.1798      1.00000
    133     -18.1677      1.00000
    134     -18.1418      1.00000
    135     -18.1359      1.00000
    136     -18.1245      1.00000
    137     -18.0852      1.00000
    138     -18.0741      1.00000
    139     -18.0622      1.00000
    140     -18.0572      1.00000
    141     -18.0053      1.00000
    142     -17.9888      1.00000
    143     -17.9607      1.00000
    144     -17.9449      1.00000
    145     -17.9050      1.00000
    146     -17.8818      1.00000
    147     -17.8773      1.00000
    148     -17.8723      1.00000
    149     -17.8625      1.00000
    150     -17.8484      1.00000
    151     -17.7913      1.00000
    152     -17.7830      1.00000
    153     -17.7502      1.00000
    154     -17.7203      1.00000
    155     -17.6275      1.00000
    156     -17.5953      1.00000
    157     -17.5755      1.00000
    158     -17.5606      1.00000
    159     -17.5452      1.00000
    160     -17.5261      1.00000
    161     -17.4999      1.00000
    162     -17.4593      1.00000
    163     -17.4324      1.00000
    164     -17.4147      1.00000
    165     -17.3876      1.00000
    166     -17.3786      1.00000
    167     -17.3447      1.00000
    168     -17.3012      1.00000
    169     -17.1729      1.00000
    170     -17.1421      1.00000
    171     -17.1152      1.00000
    172     -17.0951      1.00000
    173     -17.0718      1.00000
    174     -16.9545      1.00000
    175     -16.9199      1.00000
    176     -16.8840      1.00000
    177     -16.6676      1.00000
    178     -16.6252      1.00000
    179     -16.5967      1.00000
    180     -16.5277      1.00000
    181     -16.4569      1.00000
    182     -16.4522      1.00000
    183     -16.3951      1.00000
    184     -16.3741      1.00000
    185     -16.2959      1.00000
    186     -16.2665      1.00000
    187     -16.2001      1.00000
    188     -16.1697      1.00000
    189     -16.1436      1.00000
    190     -16.1163      1.00000
    191     -16.1053      1.00000
    192     -15.9863      1.00000
    193     -15.9621      1.00000
    194     -15.8992      1.00000
    195     -15.8877      1.00000
    196     -15.8768      1.00000
    197     -15.8522      1.00000
    198     -15.8338      1.00000
    199     -15.8249      1.00000
    200     -15.7923      1.00000
    201     -15.7674      1.00000
    202     -15.7567      1.00000
    203     -15.7285      1.00000
    204     -15.6988      1.00000
    205     -15.6943      1.00000
    206     -15.6457      1.00000
    207     -15.6175      1.00000
    208     -15.6060      1.00000
    209     -15.5969      1.00000
    210     -15.5857      1.00000
    211     -15.5428      1.00000
    212     -15.5336      1.00000
    213     -15.5231      1.00000
    214     -15.4803      1.00000
    215     -15.4626      1.00000
    216     -15.4509      1.00000
    217     -15.4463      1.00000
    218     -15.4217      1.00000
    219     -15.4049      1.00000
    220     -15.3964      1.00000
    221     -15.3806      1.00000
    222     -15.3420      1.00000
    223     -15.3278      1.00000
    224     -15.3035      1.00000
    225     -15.2905      1.00000
    226     -15.2136      1.00000
    227     -15.1481      1.00000
    228     -15.1428      1.00000
    229     -15.1302      1.00000
    230     -15.1240      1.00000
    231     -15.0736      1.00000
    232     -15.0235      1.00000
    233     -14.9823      1.00000
    234     -14.9602      1.00000
    235     -14.9220      1.00000
    236     -14.9143      1.00000
    237     -14.9036      1.00000
    238     -14.8788      1.00000
    239     -14.8609      1.00000
    240     -14.8003      1.00000
    241     -14.7851      1.00000
    242     -14.5269      1.00000
    243     -14.5032      1.00000
    244     -14.4911      1.00000
    245     -14.4575      1.00000
    246     -14.3976      1.00000
    247     -14.3895      1.00000
    248     -14.3173      1.00000
    249     -14.3086      1.00000
    250     -14.2061      1.00000
    251     -14.0240      1.00000
    252     -13.9914      1.00000
    253     -13.9804      1.00000
    254     -13.9708      1.00000
    255     -13.9387      1.00000
    256     -13.9202      1.00000
    257     -13.9095      1.00000
    258     -13.8649      1.00000
    259     -13.8305      1.00000
    260     -13.7955      1.00000
    261     -13.7942      1.00000
    262     -13.7667      1.00000
    263     -13.7650      1.00000
    264     -13.7408      1.00000
    265     -13.7274      1.00000
    266     -13.7109      1.00000
    267     -13.6863      1.00000
    268     -13.6750      1.00000
    269     -13.6738      1.00000
    270     -13.6665      1.00000
    271     -13.6427      1.00000
    272     -13.6059      1.00000
    273     -13.5939      1.00000
    274     -13.5522      1.00000
    275     -13.5266      1.00000
    276     -13.4664      1.00000
    277     -13.4387      1.00000
    278     -13.4247      1.00000
    279     -13.3844      1.00000
    280     -13.3658      1.00000
    281     -13.3597      1.00000
    282     -13.3542      1.00000
    283     -13.3375      1.00000
    284     -13.2987      1.00000
    285     -13.2924      1.00000
    286     -13.2891      1.00000
    287     -13.2866      1.00000
    288     -13.2754      1.00000
    289     -13.2173      1.00000
    290     -13.1157      1.00000
    291     -13.0947      1.00000
    292     -13.0358      1.00000
    293     -13.0227      1.00000
    294     -12.9962      1.00000
    295     -12.9400      1.00000
    296     -12.9075      1.00000
    297     -12.8470      1.00000
    298     -12.8283      1.00000
    299     -12.8229      1.00000
    300     -12.7828      1.00000
    301     -12.7462      1.00000
    302     -12.6541      1.00000
    303     -12.6348      1.00000
    304     -12.5682      1.00000
    305     -12.5469      1.00000
    306     -12.4658      1.00000
    307     -12.4190      1.00000
    308     -12.4064      1.00000
    309     -12.3641      1.00000
    310     -12.3575      1.00000
    311     -12.3456      1.00000
    312     -12.3213      1.00000
    313     -12.2297      1.00000
    314     -12.1878      1.00000
    315     -12.1373      1.00000
    316     -12.1321      1.00000
    317     -12.1285      1.00000
    318     -12.0784      1.00000
    319     -12.0704      1.00000
    320     -12.0618      1.00000
    321     -12.0070      1.00000
    322     -11.9635      1.00000
    323     -11.9445      1.00000
    324     -11.9400      1.00000
    325     -11.9299      1.00000
    326     -11.9122      1.00000
    327     -11.8876      1.00000
    328     -11.8530      1.00000
    329     -11.8511      1.00000
    330     -11.8295      1.00000
    331     -11.8241      1.00000
    332     -11.7229      1.00000
    333     -11.6935      1.00000
    334     -11.6823      1.00000
    335     -11.6669      1.00000
    336     -11.6533      1.00000
    337     -11.6485      1.00000
    338     -11.6462      1.00000
    339     -11.6301      1.00000
    340     -11.6156      1.00000
    341     -11.6144      1.00000
    342     -11.6113      1.00000
    343     -11.6027      1.00000
    344     -11.5848      1.00000
    345     -11.5751      1.00000
    346     -11.5324      1.00000
    347     -11.5261      1.00000
    348     -11.5017      1.00000
    349     -11.5003      1.00000
    350     -11.4840      1.00000
    351     -11.4671      1.00000
    352     -11.4321      1.00000
    353     -11.4283      1.00000
    354     -11.4116      1.00000
    355     -11.4006      1.00000
    356     -11.3941      1.00000
    357     -11.3584      1.00000
    358     -11.2737      1.00000
    359     -11.2319      1.00000
    360     -11.2210      1.00000
    361     -11.1864      1.00000
    362     -11.1431      1.00000
    363     -11.1309      1.00000
    364     -11.1091      1.00000
    365     -11.0852      1.00000
    366     -11.0507      1.00000
    367     -10.9865      1.00000
    368     -10.9842      1.00000
    369     -10.9653      1.00000
    370     -10.9141      1.00000
    371     -10.9039      1.00000
    372     -10.8970      1.00000
    373     -10.8662      1.00000
    374     -10.8510      1.00000
    375     -10.8424      1.00000
    376     -10.8408      1.00000
    377     -10.8359      1.00000
    378     -10.8161      1.00000
    379     -10.8068      1.00000
    380     -10.7827      1.00000
    381     -10.7794      1.00000
    382     -10.7732      1.00000
    383     -10.7697      1.00000
    384     -10.7485      1.00000
    385     -10.7446      1.00000
    386     -10.7364      1.00000
    387     -10.7316      1.00000
    388     -10.7207      1.00000
    389     -10.6952      1.00000
    390     -10.6880      1.00000
    391     -10.6366      1.00000
    392     -10.6220      1.00000
    393     -10.6152      1.00000
    394     -10.6098      1.00000
    395     -10.6013      1.00000
    396     -10.5871      1.00000
    397     -10.5369      1.00000
    398     -10.5244      1.00000
    399     -10.5144      1.00000
    400     -10.5017      1.00000
    401     -10.4877      1.00000
    402     -10.4783      1.00000
    403     -10.4744      1.00000
    404     -10.4614      1.00000
    405     -10.4554      1.00000
    406     -10.3930      1.00000
    407     -10.3785      1.00000
    408     -10.3616      1.00000
    409     -10.3558      1.00000
    410     -10.3452      1.00000
    411     -10.3337      1.00000
    412     -10.3320      1.00000
    413     -10.3265      1.00000
    414     -10.3231      1.00000
    415     -10.3207      1.00000
    416     -10.3171      1.00000
    417     -10.3129      1.00000
    418     -10.3007      1.00000
    419     -10.2957      1.00000
    420     -10.2867      1.00000
    421     -10.2769      1.00000
    422     -10.2734      1.00000
    423     -10.2630      1.00000
    424     -10.2507      1.00000
    425     -10.2417      1.00000
    426     -10.2398      1.00000
    427     -10.2281      1.00000
    428     -10.2153      1.00000
    429     -10.2112      1.00000
    430     -10.1939      1.00000
    431     -10.1856      1.00000
    432     -10.1657      1.00000
    433     -10.1477      1.00000
    434     -10.1408      1.00000
    435     -10.1338      1.00000
    436     -10.1309      1.00000
    437     -10.1230      1.00000
    438     -10.1028      1.00000
    439     -10.0957      1.00000
    440     -10.0764      1.00000
    441     -10.0707      1.00000
    442     -10.0670      1.00000
    443     -10.0629      1.00000
    444     -10.0504      1.00000
    445     -10.0050      1.00000
    446      -9.9951      1.00000
    447      -9.9898      1.00000
    448      -9.9721      1.00000
    449      -9.9290      1.00000
    450      -9.9143      1.00000
    451      -9.8979      1.00000
    452      -9.8940      1.00000
    453      -9.8848      1.00000
    454      -9.8775      1.00000
    455      -9.8732      1.00000
    456      -9.8644      1.00000
    457      -9.8535      1.00000
    458      -9.8226      1.00000
    459      -9.8128      1.00000
    460      -9.8034      1.00000
    461      -9.7672      1.00000
    462      -9.7575      1.00000
    463      -9.7404      1.00000
    464      -9.7390      1.00000
    465      -9.6963      1.00000
    466      -9.6861      1.00000
    467      -9.6653      1.00000
    468      -9.6423      1.00000
    469      -9.6053      1.00000
    470      -9.5920      1.00000
    471      -9.5770      1.00000
    472      -9.5708      1.00000
    473      -9.5597      1.00000
    474      -9.5584      1.00000
    475      -9.5537      1.00000
    476      -9.5444      1.00000
    477      -9.5342      1.00000
    478      -9.5026      1.00000
    479      -9.4903      1.00000
    480      -9.4802      1.00000
    481      -9.4740      1.00000
    482      -9.4638      1.00000
    483      -9.4472      1.00000
    484      -9.4232      1.00000
    485      -9.4154      1.00000
    486      -9.4110      1.00000
    487      -9.4047      1.00000
    488      -9.3957      1.00000
    489      -9.3799      1.00000
    490      -9.3631      1.00000
    491      -9.3526      1.00000
    492      -9.3477      1.00000
    493      -9.3475      1.00000
    494      -9.3367      1.00000
    495      -9.3251      1.00000
    496      -9.3197      1.00000
    497      -9.3143      1.00000
    498      -9.3063      1.00000
    499      -9.2977      1.00000
    500      -9.2539      1.00000
    501      -9.2339      1.00000
    502      -9.2192      1.00000
    503      -9.2014      1.00000
    504      -9.1936      1.00000
    505      -9.1899      1.00000
    506      -9.1736      1.00000
    507      -9.1633      1.00000
    508      -9.1521      1.00000
    509      -9.1445      1.00000
    510      -9.1349      1.00000
    511      -9.0790      1.00000
    512      -9.0257      1.00000
    513      -9.0199      1.00000
    514      -9.0111      1.00000
    515      -8.9613      1.00000
    516      -8.9436      1.00000
    517      -8.9078      1.00000
    518      -8.8645      1.00000
    519      -8.8385      1.00000
    520      -8.8079      1.00000
    521      -8.8011      1.00000
    522      -8.7766      1.00000
    523      -8.7718      1.00000
    524      -8.7360      1.00000
    525      -8.7155      1.00000
    526      -8.6947      1.00000
    527      -8.6740      1.00000
    528      -8.6178      1.00000
    529      -8.6058      1.00000
    530      -8.5832      1.00000
    531      -8.5688      1.00000
    532      -8.5500      1.00000
    533      -8.5431      1.00000
    534      -8.5249      1.00000
    535      -8.5123      1.00000
    536      -8.4945      1.00000
    537      -8.4812      1.00000
    538      -8.4758      1.00000
    539      -8.4634      1.00000
    540      -8.4577      1.00000
    541      -8.4554      1.00000
    542      -8.4518      1.00000
    543      -8.4431      1.00000
    544      -8.4317      1.00000
    545      -8.4094      1.00000
    546      -8.4015      1.00000
    547      -8.3904      1.00000
    548      -8.3897      1.00000
    549      -8.3806      1.00000
    550      -8.3726      1.00000
    551      -8.3668      1.00000
    552      -8.3486      1.00000
    553      -8.3393      1.00000
    554      -8.3212      1.00000
    555      -8.3106      1.00000
    556      -8.2829      1.00000
    557      -8.2498      1.00000
    558      -8.2330      1.00000
    559      -8.2277      1.00000
    560      -8.2152      1.00000
    561      -8.2076      1.00000
    562      -8.1908      1.00000
    563      -8.1802      1.00000
    564      -8.1231      1.00000
    565      -8.1221      1.00000
    566      -8.1070      1.00000
    567      -8.0831      1.00000
    568      -8.0791      1.00000
    569      -8.0709      1.00000
    570      -8.0633      1.00000
    571      -8.0618      1.00000
    572      -8.0205      1.00000
    573      -7.9849      1.00000
    574      -7.9533      1.00000
    575      -7.9417      1.00000
    576      -7.9040      1.00000
    577      -7.8751      1.00000
    578      -7.8535      1.00000
    579      -7.8476      1.00000
    580      -7.8136      1.00000
    581      -7.8014      1.00000
    582      -7.7888      1.00000
    583      -7.7742      1.00000
    584      -7.7681      1.00000
    585      -7.7519      1.00000
    586      -7.7175      1.00000
    587      -7.6786      1.00000
    588      -7.6596      1.00000
    589      -7.6550      1.00000
    590      -7.6444      1.00000
    591      -7.6397      1.00000
    592      -7.6331      1.00000
    593      -7.6162      1.00000
    594      -7.5654      1.00000
    595      -7.5312      1.00000
    596      -7.5112      1.00000
    597      -7.5080      1.00000
    598      -7.5008      1.00000
    599      -7.4734      1.00000
    600      -7.4610      1.00000
    601      -7.4256      1.00000
    602      -7.4223      1.00000
    603      -7.4147      1.00000
    604      -7.3911      1.00000
    605      -7.3825      1.00000
    606      -7.3733      1.00000
    607      -7.3558      1.00000
    608      -7.3351      1.00000
    609      -7.3045      1.00000
    610      -7.2803      1.00000
    611      -7.2678      1.00000
    612      -7.2467      1.00000
    613      -7.2161      1.00000
    614      -7.1900      1.00000
    615      -7.1683      1.00000
    616      -7.1347      1.00000
    617      -7.1071      1.00000
    618      -7.1010      1.00000
    619      -7.0971      1.00000
    620      -7.0915      1.00000
    621      -7.0884      1.00000
    622      -7.0860      1.00000
    623      -7.0783      1.00000
    624      -7.0759      1.00000
    625      -7.0643      1.00000
    626      -7.0445      1.00000
    627      -7.0227      1.00000
    628      -7.0023      1.00000
    629      -6.9335      1.00000
    630      -6.9317      1.00000
    631      -6.9173      1.00000
    632      -6.9030      1.00000
    633      -6.8995      1.00000
    634      -6.8865      1.00000
    635      -6.8719      1.00000
    636      -6.8028      1.00000
    637      -6.7997      1.00000
    638      -6.7694      1.00000
    639      -6.7565      1.00000
    640      -6.7522      1.00000
    641      -6.7472      1.00000
    642      -6.7376      1.00000
    643      -6.6987      1.00000
    644      -6.6815      1.00000
    645      -6.6513      1.00000
    646      -6.6394      1.00000
    647      -6.6241      1.00000
    648      -6.6057      1.00000
    649      -6.6017      1.00000
    650      -6.5924      1.00000
    651      -6.5824      1.00000
    652      -6.5094      1.00000
    653      -6.4919      1.00000
    654      -6.4777      1.00000
    655      -6.4637      1.00000
    656      -6.4441      1.00000
    657      -6.4269      1.00000
    658      -6.4224      1.00000
    659      -6.3875      1.00000
    660      -6.3317      1.00000
    661      -6.3192      1.00000
    662      -6.3088      1.00000
    663      -6.2572      1.00000
    664      -6.1960      1.00000
    665      -6.1925      1.00000
    666      -6.1492      1.00000
    667      -6.1154      1.00000
    668      -6.0719      1.00000
    669      -6.0534      1.00000
    670      -6.0122      1.00000
    671      -5.9756      1.00000
    672      -5.9612      1.00000
    673      -5.9233      1.00000
    674      -5.8947      1.00000
    675      -5.8921      1.00000
    676      -5.8634      1.00000
    677      -5.8246      1.00000
    678      -5.7175      1.00000
    679      -5.6792      1.00000
    680      -5.6496      1.00000
    681      -5.6419      1.00000
    682      -5.6112      1.00000
    683      -5.5966      1.00000
    684      -5.5874      1.00000
    685      -5.5844      1.00000
    686      -5.5710      1.00000
    687      -5.5696      1.00000
    688      -5.5564      1.00000
    689      -5.5299      1.00000
    690      -5.5286      1.00000
    691      -5.5050      1.00000
    692      -5.4849      1.00000
    693      -5.4661      1.00000
    694      -5.4577      1.00000
    695      -5.4427      1.00000
    696      -5.4383      1.00000
    697      -5.3814      1.00000
    698      -5.3406      1.00000
    699      -5.3344      1.00000
    700      -5.3072      1.00000
    701      -5.2757      1.00000
    702      -5.2222      1.00000
    703      -5.1731      1.00000
    704      -5.1534      1.00000
    705      -5.1494      1.00000
    706      -5.1449      1.00000
    707      -5.1182      1.00000
    708      -5.0448      1.00000
    709      -5.0240      1.00000
    710      -4.9586      1.00000
    711      -4.9414      1.00000
    712      -4.9215      1.00000
    713      -4.8945      1.00000
    714      -4.8461      1.00000
    715      -4.8066      1.00000
    716      -4.7372      1.00000
    717      -4.6286      1.00000
    718      -4.5833      1.00000
    719      -4.5617      1.00000
    720      -4.4994      1.00000
    721      -4.3933      1.00000
    722      -4.3070      1.00000
    723      -4.2745      1.00000
    724      -4.2179      1.00000
    725      -4.1574      1.00000
    726      -4.1104      1.00000
    727      -4.0535      1.00000
    728      -4.0316      1.00000
    729      -3.8056      1.00000
    730      -3.7363      1.00000
    731      -3.6238      1.00000
    732      -2.7189      0.00000
    733      -2.6205      0.00000
    734      -2.5393      0.00000
    735      -2.3599      0.00000
    736      -2.3407      0.00000
    737      -2.2517      0.00000
    738      -2.1945      0.00000
    739      -2.1475      0.00000
    740      -2.0859      0.00000
    741      -1.9598      0.00000
    742      -1.9421      0.00000
    743      -1.9254      0.00000
    744      -1.9202      0.00000
    745      -1.9173      0.00000
    746      -1.9098      0.00000
    747      -1.8787      0.00000
    748      -1.8747      0.00000
    749      -1.7928      0.00000
    750      -1.7631      0.00000
    751      -1.7617      0.00000
    752      -1.7486      0.00000
    753      -1.7456      0.00000
    754      -1.7343      0.00000
    755      -1.7234      0.00000
    756      -1.6862      0.00000
    757      -1.6720      0.00000
    758      -1.6623      0.00000
    759      -1.6082      0.00000
    760      -1.6005      0.00000
    761      -1.5812      0.00000
    762      -1.5438      0.00000
    763      -1.4738      0.00000
    764      -1.4648      0.00000
    765      -1.4636      0.00000
    766      -1.4523      0.00000
    767      -1.4339      0.00000
    768      -1.4230      0.00000
    769      -1.4130      0.00000
    770      -1.3921      0.00000
    771      -1.3862      0.00000
    772      -1.3567      0.00000
    773      -1.3527      0.00000
    774      -1.3335      0.00000
    775      -1.3184      0.00000
    776      -1.2999      0.00000
    777      -1.2827      0.00000
    778      -1.2771      0.00000
    779      -1.2672      0.00000
    780      -1.2594      0.00000
    781      -1.2519      0.00000
    782      -1.1463      0.00000
    783      -1.1399      0.00000
    784      -1.1282      0.00000
    785      -1.1110      0.00000
    786      -1.0964      0.00000
    787      -1.0259      0.00000
    788      -0.9751      0.00000
    789      -0.9364      0.00000
    790      -0.9154      0.00000
    791      -0.7940      0.00000
    792      -0.7619      0.00000
    793      -0.7527      0.00000
    794      -0.7153      0.00000
    795      -0.6154      0.00000
    796      -0.5654      0.00000
    797      -0.5301      0.00000
    798      -0.4744      0.00000
    799      -0.4543      0.00000
    800      -0.4489      0.00000
    801      -0.4425      0.00000
    802      -0.3468      0.00000
    803      -0.2759      0.00000
    804      -0.2070      0.00000
    805      -0.1716      0.00000
    806      -0.1528      0.00000
    807      -0.1309      0.00000
    808      -0.1071      0.00000
    809      -0.0929      0.00000
    810      -0.0838      0.00000
    811      -0.0370      0.00000
    812      -0.0134      0.00000
    813       0.0054      0.00000
    814       0.0254      0.00000
    815       0.1094      0.00000
    816       0.1242      0.00000
    817       0.1328      0.00000
    818       0.1440      0.00000
    819       0.1983      0.00000
    820       0.2616      0.00000
    821       0.3037      0.00000
    822       0.3201      0.00000
    823       0.3245      0.00000
    824       0.3585      0.00000
    825       0.3950      0.00000
    826       0.4127      0.00000
    827       0.4458      0.00000
    828       0.4745      0.00000
    829       0.4826      0.00000
    830       0.4964      0.00000
    831       0.5108      0.00000
    832       0.5159      0.00000
    833       0.5310      0.00000
    834       0.5469      0.00000
    835       0.5510      0.00000
    836       0.5732      0.00000
    837       0.5760      0.00000
    838       0.5806      0.00000
    839       0.5836      0.00000
    840       0.6032      0.00000
    841       0.6168      0.00000
    842       0.6218      0.00000
    843       0.6732      0.00000
    844       0.7151      0.00000
    845       0.7405      0.00000
    846       0.7930      0.00000
    847       0.7962      0.00000
    848       0.8016      0.00000
    849       0.8189      0.00000
    850       0.8352      0.00000
    851       0.8381      0.00000
    852       0.8515      0.00000
    853       0.8918      0.00000
    854       0.9095      0.00000
    855       0.9224      0.00000
    856       0.9439      0.00000
    857       0.9528      0.00000
    858       0.9847      0.00000
    859       0.9880      0.00000
    860       0.9940      0.00000
    861       0.9981      0.00000
    862       1.0330      0.00000
    863       1.0724      0.00000
    864       1.0858      0.00000
    865       1.0890      0.00000
    866       1.1120      0.00000
    867       1.1387      0.00000
    868       1.1841      0.00000
    869       1.1971      0.00000
    870       1.2122      0.00000
    871       1.2240      0.00000
    872       1.2310      0.00000
    873       1.2377      0.00000
    874       1.2641      0.00000
    875       1.2715      0.00000
    876       1.2732      0.00000
    877       1.3087      0.00000
    878       1.3112      0.00000
    879       1.3159      0.00000
    880       1.3652      0.00000
    881       1.3718      0.00000
    882       1.3811      0.00000
    883       1.3877      0.00000
    884       1.4031      0.00000
    885       1.4094      0.00000
    886       1.4143      0.00000
    887       1.4200      0.00000
    888       1.4491      0.00000
    889       1.4628      0.00000
    890       1.4759      0.00000
    891       1.4908      0.00000
    892       1.4963      0.00000
    893       1.5025      0.00000
    894       1.5084      0.00000
    895       1.5268      0.00000
    896       1.5408      0.00000

 k-point     7 :       0.0000    0.0000   -0.3333
  band No.  band energies     occupation 
      1     -22.9773      1.00000
      2     -22.9515      1.00000
      3     -22.8648      1.00000
      4     -22.7999      1.00000
      5     -22.7689      1.00000
      6     -22.7580      1.00000
      7     -22.7397      1.00000
      8     -22.7356      1.00000
      9     -22.6555      1.00000
     10     -22.6477      1.00000
     11     -22.6205      1.00000
     12     -22.5879      1.00000
     13     -22.5817      1.00000
     14     -22.5110      1.00000
     15     -22.4137      1.00000
     16     -22.4060      1.00000
     17     -22.3047      1.00000
     18     -22.2963      1.00000
     19     -22.2483      1.00000
     20     -22.1453      1.00000
     21     -22.1285      1.00000
     22     -22.1120      1.00000
     23     -22.1062      1.00000
     24     -22.0932      1.00000
     25     -22.0436      1.00000
     26     -22.0337      1.00000
     27     -22.0227      1.00000
     28     -22.0191      1.00000
     29     -21.9607      1.00000
     30     -21.9537      1.00000
     31     -21.8872      1.00000
     32     -21.8808      1.00000
     33     -21.7884      1.00000
     34     -21.7797      1.00000
     35     -21.7447      1.00000
     36     -21.6789      1.00000
     37     -21.6711      1.00000
     38     -21.5517      1.00000
     39     -21.5387      1.00000
     40     -21.5325      1.00000
     41     -21.4206      1.00000
     42     -21.4111      1.00000
     43     -21.3462      1.00000
     44     -21.3373      1.00000
     45     -21.2686      1.00000
     46     -21.2598      1.00000
     47     -21.1344      1.00000
     48     -21.1129      1.00000
     49     -21.1103      1.00000
     50     -21.0927      1.00000
     51     -21.0898      1.00000
     52     -21.0130      1.00000
     53     -21.0046      1.00000
     54     -20.9521      1.00000
     55     -20.9404      1.00000
     56     -20.9223      1.00000
     57     -20.9150      1.00000
     58     -20.9071      1.00000
     59     -20.9054      1.00000
     60     -20.8780      1.00000
     61     -20.7778      1.00000
     62     -20.7696      1.00000
     63     -20.7301      1.00000
     64     -20.7219      1.00000
     65     -20.6792      1.00000
     66     -20.6694      1.00000
     67     -20.6629      1.00000
     68     -20.6622      1.00000
     69     -20.4182      1.00000
     70     -20.4078      1.00000
     71     -20.3652      1.00000
     72     -20.3072      1.00000
     73     -20.2952      1.00000
     74     -20.2645      1.00000
     75     -20.2592      1.00000
     76     -20.1666      1.00000
     77     -20.1571      1.00000
     78     -20.0918      1.00000
     79     -20.0700      1.00000
     80     -20.0618      1.00000
     81     -19.9347      1.00000
     82     -19.9218      1.00000
     83     -19.8909      1.00000
     84     -19.8819      1.00000
     85     -19.7752      1.00000
     86     -19.7547      1.00000
     87     -19.7380      1.00000
     88     -19.7339      1.00000
     89     -19.7289      1.00000
     90     -19.7268      1.00000
     91     -19.6542      1.00000
     92     -19.6479      1.00000
     93     -19.5943      1.00000
     94     -19.5855      1.00000
     95     -19.5620      1.00000
     96     -19.5567      1.00000
     97     -19.4988      1.00000
     98     -19.4287      1.00000
     99     -19.4204      1.00000
    100     -19.3449      1.00000
    101     -19.3186      1.00000
    102     -19.3160      1.00000
    103     -19.3106      1.00000
    104     -19.2979      1.00000
    105     -19.2952      1.00000
    106     -19.2901      1.00000
    107     -19.2859      1.00000
    108     -19.1866      1.00000
    109     -19.1034      1.00000
    110     -19.0897      1.00000
    111     -19.0720      1.00000
    112     -19.0694      1.00000
    113     -18.9944      1.00000
    114     -18.9852      1.00000
    115     -18.9319      1.00000
    116     -18.9272      1.00000
    117     -18.7322      1.00000
    118     -18.7145      1.00000
    119     -18.6320      1.00000
    120     -18.6079      1.00000
    121     -18.6001      1.00000
    122     -18.5965      1.00000
    123     -18.5313      1.00000
    124     -18.4525      1.00000
    125     -18.4248      1.00000
    126     -18.4176      1.00000
    127     -18.4119      1.00000
    128     -18.3632      1.00000
    129     -18.3473      1.00000
    130     -18.3408      1.00000
    131     -18.3354      1.00000
    132     -18.1992      1.00000
    133     -18.1667      1.00000
    134     -18.1641      1.00000
    135     -18.1421      1.00000
    136     -18.1371      1.00000
    137     -18.0782      1.00000
    138     -18.0636      1.00000
    139     -18.0388      1.00000
    140     -18.0280      1.00000
    141     -18.0142      1.00000
    142     -18.0086      1.00000
    143     -18.0007      1.00000
    144     -17.9918      1.00000
    145     -17.8864      1.00000
    146     -17.8577      1.00000
    147     -17.8402      1.00000
    148     -17.8332      1.00000
    149     -17.8317      1.00000
    150     -17.8223      1.00000
    151     -17.8151      1.00000
    152     -17.8093      1.00000
    153     -17.7672      1.00000
    154     -17.7372      1.00000
    155     -17.6475      1.00000
    156     -17.6216      1.00000
    157     -17.6028      1.00000
    158     -17.5490      1.00000
    159     -17.5398      1.00000
    160     -17.5042      1.00000
    161     -17.4848      1.00000
    162     -17.4353      1.00000
    163     -17.4122      1.00000
    164     -17.3931      1.00000
    165     -17.3725      1.00000
    166     -17.3667      1.00000
    167     -17.3236      1.00000
    168     -17.3064      1.00000
    169     -17.1966      1.00000
    170     -17.1478      1.00000
    171     -17.1279      1.00000
    172     -17.1111      1.00000
    173     -17.0701      1.00000
    174     -17.0013      1.00000
    175     -16.9490      1.00000
    176     -16.9107      1.00000
    177     -16.6547      1.00000
    178     -16.5997      1.00000
    179     -16.5803      1.00000
    180     -16.4899      1.00000
    181     -16.4280      1.00000
    182     -16.4266      1.00000
    183     -16.4118      1.00000
    184     -16.3410      1.00000
    185     -16.2998      1.00000
    186     -16.2438      1.00000
    187     -16.2017      1.00000
    188     -16.1893      1.00000
    189     -16.1710      1.00000
    190     -16.1382      1.00000
    191     -16.0943      1.00000
    192     -16.0397      1.00000
    193     -16.0096      1.00000
    194     -15.9375      1.00000
    195     -15.9288      1.00000
    196     -15.8515      1.00000
    197     -15.8347      1.00000
    198     -15.8305      1.00000
    199     -15.8276      1.00000
    200     -15.7913      1.00000
    201     -15.7600      1.00000
    202     -15.7447      1.00000
    203     -15.7284      1.00000
    204     -15.7073      1.00000
    205     -15.6937      1.00000
    206     -15.6435      1.00000
    207     -15.5868      1.00000
    208     -15.5741      1.00000
    209     -15.5681      1.00000
    210     -15.5658      1.00000
    211     -15.5530      1.00000
    212     -15.5453      1.00000
    213     -15.5275      1.00000
    214     -15.5059      1.00000
    215     -15.4920      1.00000
    216     -15.4494      1.00000
    217     -15.4098      1.00000
    218     -15.3899      1.00000
    219     -15.3702      1.00000
    220     -15.3498      1.00000
    221     -15.3483      1.00000
    222     -15.3344      1.00000
    223     -15.3213      1.00000
    224     -15.3055      1.00000
    225     -15.2908      1.00000
    226     -15.2247      1.00000
    227     -15.1919      1.00000
    228     -15.1866      1.00000
    229     -15.1263      1.00000
    230     -15.1020      1.00000
    231     -15.0786      1.00000
    232     -15.0616      1.00000
    233     -15.0211      1.00000
    234     -14.9835      1.00000
    235     -14.9621      1.00000
    236     -14.9388      1.00000
    237     -14.9224      1.00000
    238     -14.8682      1.00000
    239     -14.8373      1.00000
    240     -14.8320      1.00000
    241     -14.7706      1.00000
    242     -14.5740      1.00000
    243     -14.4471      1.00000
    244     -14.4396      1.00000
    245     -14.4262      1.00000
    246     -14.3983      1.00000
    247     -14.3376      1.00000
    248     -14.2671      1.00000
    249     -14.2513      1.00000
    250     -14.1397      1.00000
    251     -14.0554      1.00000
    252     -14.0413      1.00000
    253     -14.0364      1.00000
    254     -13.9808      1.00000
    255     -13.9703      1.00000
    256     -13.9639      1.00000
    257     -13.9153      1.00000
    258     -13.9045      1.00000
    259     -13.8321      1.00000
    260     -13.7964      1.00000
    261     -13.7933      1.00000
    262     -13.7691      1.00000
    263     -13.7629      1.00000
    264     -13.7542      1.00000
    265     -13.7409      1.00000
    266     -13.7306      1.00000
    267     -13.7053      1.00000
    268     -13.6829      1.00000
    269     -13.6716      1.00000
    270     -13.6673      1.00000
    271     -13.6526      1.00000
    272     -13.6436      1.00000
    273     -13.5876      1.00000
    274     -13.5573      1.00000
    275     -13.5408      1.00000
    276     -13.4776      1.00000
    277     -13.4519      1.00000
    278     -13.4079      1.00000
    279     -13.3662      1.00000
    280     -13.3451      1.00000
    281     -13.3294      1.00000
    282     -13.3087      1.00000
    283     -13.2999      1.00000
    284     -13.2952      1.00000
    285     -13.2865      1.00000
    286     -13.2732      1.00000
    287     -13.2322      1.00000
    288     -13.2239      1.00000
    289     -13.1935      1.00000
    290     -13.0813      1.00000
    291     -13.0412      1.00000
    292     -13.0283      1.00000
    293     -12.9966      1.00000
    294     -12.9781      1.00000
    295     -12.9590      1.00000
    296     -12.9116      1.00000
    297     -12.8910      1.00000
    298     -12.8612      1.00000
    299     -12.8569      1.00000
    300     -12.8469      1.00000
    301     -12.8146      1.00000
    302     -12.6954      1.00000
    303     -12.6275      1.00000
    304     -12.6179      1.00000
    305     -12.6016      1.00000
    306     -12.5246      1.00000
    307     -12.4013      1.00000
    308     -12.3864      1.00000
    309     -12.3750      1.00000
    310     -12.3408      1.00000
    311     -12.3336      1.00000
    312     -12.3053      1.00000
    313     -12.1747      1.00000
    314     -12.1678      1.00000
    315     -12.1220      1.00000
    316     -12.1158      1.00000
    317     -12.1101      1.00000
    318     -12.0688      1.00000
    319     -12.0423      1.00000
    320     -11.9949      1.00000
    321     -11.9692      1.00000
    322     -11.9471      1.00000
    323     -11.9433      1.00000
    324     -11.9305      1.00000
    325     -11.9019      1.00000
    326     -11.8953      1.00000
    327     -11.8896      1.00000
    328     -11.8742      1.00000
    329     -11.8653      1.00000
    330     -11.8465      1.00000
    331     -11.7906      1.00000
    332     -11.7306      1.00000
    333     -11.7236      1.00000
    334     -11.7126      1.00000
    335     -11.6845      1.00000
    336     -11.6763      1.00000
    337     -11.6494      1.00000
    338     -11.6402      1.00000
    339     -11.6312      1.00000
    340     -11.6278      1.00000
    341     -11.6028      1.00000
    342     -11.5930      1.00000
    343     -11.5921      1.00000
    344     -11.5887      1.00000
    345     -11.5781      1.00000
    346     -11.5648      1.00000
    347     -11.5629      1.00000
    348     -11.5310      1.00000
    349     -11.5234      1.00000
    350     -11.4948      1.00000
    351     -11.4780      1.00000
    352     -11.4592      1.00000
    353     -11.4374      1.00000
    354     -11.4279      1.00000
    355     -11.4194      1.00000
    356     -11.4057      1.00000
    357     -11.3979      1.00000
    358     -11.2799      1.00000
    359     -11.2451      1.00000
    360     -11.2118      1.00000
    361     -11.1678      1.00000
    362     -11.1087      1.00000
    363     -11.0916      1.00000
    364     -11.0826      1.00000
    365     -11.0762      1.00000
    366     -11.0565      1.00000
    367     -10.9562      1.00000
    368     -10.9345      1.00000
    369     -10.9240      1.00000
    370     -10.9186      1.00000
    371     -10.8805      1.00000
    372     -10.8770      1.00000
    373     -10.8585      1.00000
    374     -10.8475      1.00000
    375     -10.8421      1.00000
    376     -10.8404      1.00000
    377     -10.8370      1.00000
    378     -10.8343      1.00000
    379     -10.8216      1.00000
    380     -10.8204      1.00000
    381     -10.8082      1.00000
    382     -10.7745      1.00000
    383     -10.7474      1.00000
    384     -10.7394      1.00000
    385     -10.7246      1.00000
    386     -10.7202      1.00000
    387     -10.7088      1.00000
    388     -10.6983      1.00000
    389     -10.6816      1.00000
    390     -10.6745      1.00000
    391     -10.6499      1.00000
    392     -10.6355      1.00000
    393     -10.6246      1.00000
    394     -10.5830      1.00000
    395     -10.5788      1.00000
    396     -10.5641      1.00000
    397     -10.5620      1.00000
    398     -10.5480      1.00000
    399     -10.5443      1.00000
    400     -10.5341      1.00000
    401     -10.5116      1.00000
    402     -10.4853      1.00000
    403     -10.4600      1.00000
    404     -10.4583      1.00000
    405     -10.4379      1.00000
    406     -10.4154      1.00000
    407     -10.4093      1.00000
    408     -10.4039      1.00000
    409     -10.3975      1.00000
    410     -10.3952      1.00000
    411     -10.3698      1.00000
    412     -10.3457      1.00000
    413     -10.3359      1.00000
    414     -10.3247      1.00000
    415     -10.3209      1.00000
    416     -10.3162      1.00000
    417     -10.3128      1.00000
    418     -10.3052      1.00000
    419     -10.2878      1.00000
    420     -10.2836      1.00000
    421     -10.2686      1.00000
    422     -10.2599      1.00000
    423     -10.2540      1.00000
    424     -10.2516      1.00000
    425     -10.2359      1.00000
    426     -10.2338      1.00000
    427     -10.2252      1.00000
    428     -10.2160      1.00000
    429     -10.2049      1.00000
    430     -10.1985      1.00000
    431     -10.1932      1.00000
    432     -10.1879      1.00000
    433     -10.1512      1.00000
    434     -10.1480      1.00000
    435     -10.1156      1.00000
    436     -10.1091      1.00000
    437     -10.0927      1.00000
    438     -10.0859      1.00000
    439     -10.0734      1.00000
    440     -10.0689      1.00000
    441     -10.0657      1.00000
    442     -10.0562      1.00000
    443     -10.0536      1.00000
    444     -10.0367      1.00000
    445     -10.0191      1.00000
    446      -9.9946      1.00000
    447      -9.9811      1.00000
    448      -9.9672      1.00000
    449      -9.9238      1.00000
    450      -9.9106      1.00000
    451      -9.8999      1.00000
    452      -9.8977      1.00000
    453      -9.8910      1.00000
    454      -9.8776      1.00000
    455      -9.8538      1.00000
    456      -9.8454      1.00000
    457      -9.8317      1.00000
    458      -9.8293      1.00000
    459      -9.8244      1.00000
    460      -9.8094      1.00000
    461      -9.7667      1.00000
    462      -9.7638      1.00000
    463      -9.7458      1.00000
    464      -9.7415      1.00000
    465      -9.7117      1.00000
    466      -9.6764      1.00000
    467      -9.6551      1.00000
    468      -9.6341      1.00000
    469      -9.6222      1.00000
    470      -9.6203      1.00000
    471      -9.5941      1.00000
    472      -9.5632      1.00000
    473      -9.5515      1.00000
    474      -9.5446      1.00000
    475      -9.5394      1.00000
    476      -9.5345      1.00000
    477      -9.5283      1.00000
    478      -9.5250      1.00000
    479      -9.4971      1.00000
    480      -9.4946      1.00000
    481      -9.4776      1.00000
    482      -9.4424      1.00000
    483      -9.4304      1.00000
    484      -9.4191      1.00000
    485      -9.4164      1.00000
    486      -9.3998      1.00000
    487      -9.3911      1.00000
    488      -9.3859      1.00000
    489      -9.3780      1.00000
    490      -9.3609      1.00000
    491      -9.3548      1.00000
    492      -9.3476      1.00000
    493      -9.3465      1.00000
    494      -9.3395      1.00000
    495      -9.3286      1.00000
    496      -9.3264      1.00000
    497      -9.3137      1.00000
    498      -9.2943      1.00000
    499      -9.2746      1.00000
    500      -9.2729      1.00000
    501      -9.2542      1.00000
    502      -9.2303      1.00000
    503      -9.2196      1.00000
    504      -9.1973      1.00000
    505      -9.1947      1.00000
    506      -9.1792      1.00000
    507      -9.1716      1.00000
    508      -9.1599      1.00000
    509      -9.1490      1.00000
    510      -9.1423      1.00000
    511      -9.1268      1.00000
    512      -9.0607      1.00000
    513      -9.0279      1.00000
    514      -8.9813      1.00000
    515      -8.9372      1.00000
    516      -8.9006      1.00000
    517      -8.8967      1.00000
    518      -8.8629      1.00000
    519      -8.8411      1.00000
    520      -8.8104      1.00000
    521      -8.8023      1.00000
    522      -8.7764      1.00000
    523      -8.7711      1.00000
    524      -8.7655      1.00000
    525      -8.6985      1.00000
    526      -8.6732      1.00000
    527      -8.6523      1.00000
    528      -8.6158      1.00000
    529      -8.6012      1.00000
    530      -8.5832      1.00000
    531      -8.5646      1.00000
    532      -8.5380      1.00000
    533      -8.5316      1.00000
    534      -8.5199      1.00000
    535      -8.5084      1.00000
    536      -8.4964      1.00000
    537      -8.4906      1.00000
    538      -8.4803      1.00000
    539      -8.4681      1.00000
    540      -8.4548      1.00000
    541      -8.4473      1.00000
    542      -8.4455      1.00000
    543      -8.4362      1.00000
    544      -8.4195      1.00000
    545      -8.4181      1.00000
    546      -8.4114      1.00000
    547      -8.4020      1.00000
    548      -8.3945      1.00000
    549      -8.3874      1.00000
    550      -8.3745      1.00000
    551      -8.3613      1.00000
    552      -8.3453      1.00000
    553      -8.3375      1.00000
    554      -8.3223      1.00000
    555      -8.2956      1.00000
    556      -8.2882      1.00000
    557      -8.2716      1.00000
    558      -8.2413      1.00000
    559      -8.2243      1.00000
    560      -8.2195      1.00000
    561      -8.2133      1.00000
    562      -8.2068      1.00000
    563      -8.1975      1.00000
    564      -8.1699      1.00000
    565      -8.1471      1.00000
    566      -8.1205      1.00000
    567      -8.1003      1.00000
    568      -8.0971      1.00000
    569      -8.0858      1.00000
    570      -8.0839      1.00000
    571      -8.0366      1.00000
    572      -7.9827      1.00000
    573      -7.9456      1.00000
    574      -7.9290      1.00000
    575      -7.9253      1.00000
    576      -7.9124      1.00000
    577      -7.8465      1.00000
    578      -7.8364      1.00000
    579      -7.8240      1.00000
    580      -7.8048      1.00000
    581      -7.7915      1.00000
    582      -7.7644      1.00000
    583      -7.7556      1.00000
    584      -7.7426      1.00000
    585      -7.7254      1.00000
    586      -7.7226      1.00000
    587      -7.7074      1.00000
    588      -7.6782      1.00000
    589      -7.6703      1.00000
    590      -7.6613      1.00000
    591      -7.6241      1.00000
    592      -7.6216      1.00000
    593      -7.6083      1.00000
    594      -7.5605      1.00000
    595      -7.5458      1.00000
    596      -7.5388      1.00000
    597      -7.5178      1.00000
    598      -7.4986      1.00000
    599      -7.4824      1.00000
    600      -7.4727      1.00000
    601      -7.4640      1.00000
    602      -7.4421      1.00000
    603      -7.4335      1.00000
    604      -7.4259      1.00000
    605      -7.4198      1.00000
    606      -7.3674      1.00000
    607      -7.3529      1.00000
    608      -7.3288      1.00000
    609      -7.2978      1.00000
    610      -7.2695      1.00000
    611      -7.2634      1.00000
    612      -7.2378      1.00000
    613      -7.2097      1.00000
    614      -7.1921      1.00000
    615      -7.1716      1.00000
    616      -7.1412      1.00000
    617      -7.1156      1.00000
    618      -7.1080      1.00000
    619      -7.0914      1.00000
    620      -7.0885      1.00000
    621      -7.0788      1.00000
    622      -7.0743      1.00000
    623      -7.0582      1.00000
    624      -7.0549      1.00000
    625      -7.0417      1.00000
    626      -7.0329      1.00000
    627      -7.0160      1.00000
    628      -6.9918      1.00000
    629      -6.9421      1.00000
    630      -6.9284      1.00000
    631      -6.9246      1.00000
    632      -6.9177      1.00000
    633      -6.8849      1.00000
    634      -6.8482      1.00000
    635      -6.8256      1.00000
    636      -6.8072      1.00000
    637      -6.8036      1.00000
    638      -6.7774      1.00000
    639      -6.7647      1.00000
    640      -6.7415      1.00000
    641      -6.7237      1.00000
    642      -6.7086      1.00000
    643      -6.7021      1.00000
    644      -6.6863      1.00000
    645      -6.6668      1.00000
    646      -6.6498      1.00000
    647      -6.6443      1.00000
    648      -6.6344      1.00000
    649      -6.6234      1.00000
    650      -6.6011      1.00000
    651      -6.5902      1.00000
    652      -6.5401      1.00000
    653      -6.5247      1.00000
    654      -6.5030      1.00000
    655      -6.4927      1.00000
    656      -6.4758      1.00000
    657      -6.4327      1.00000
    658      -6.4196      1.00000
    659      -6.3652      1.00000
    660      -6.2991      1.00000
    661      -6.2915      1.00000
    662      -6.2749      1.00000
    663      -6.2559      1.00000
    664      -6.2143      1.00000
    665      -6.2030      1.00000
    666      -6.1261      1.00000
    667      -6.1021      1.00000
    668      -6.0574      1.00000
    669      -6.0293      1.00000
    670      -6.0161      1.00000
    671      -6.0064      1.00000
    672      -5.9365      1.00000
    673      -5.9129      1.00000
    674      -5.8865      1.00000
    675      -5.8684      1.00000
    676      -5.8408      1.00000
    677      -5.8281      1.00000
    678      -5.7375      1.00000
    679      -5.6836      1.00000
    680      -5.6628      1.00000
    681      -5.6503      1.00000
    682      -5.6291      1.00000
    683      -5.6168      1.00000
    684      -5.5969      1.00000
    685      -5.5841      1.00000
    686      -5.5730      1.00000
    687      -5.5546      1.00000
    688      -5.5426      1.00000
    689      -5.5355      1.00000
    690      -5.5268      1.00000
    691      -5.5195      1.00000
    692      -5.5110      1.00000
    693      -5.4832      1.00000
    694      -5.4693      1.00000
    695      -5.4386      1.00000
    696      -5.4211      1.00000
    697      -5.3831      1.00000
    698      -5.3589      1.00000
    699      -5.3256      1.00000
    700      -5.2992      1.00000
    701      -5.2881      1.00000
    702      -5.2211      1.00000
    703      -5.1666      1.00000
    704      -5.1518      1.00000
    705      -5.1423      1.00000
    706      -5.1382      1.00000
    707      -5.1179      1.00000
    708      -5.0540      1.00000
    709      -4.9734      1.00000
    710      -4.9542      1.00000
    711      -4.9381      1.00000
    712      -4.8931      1.00000
    713      -4.8775      1.00000
    714      -4.8430      1.00000
    715      -4.8030      1.00000
    716      -4.7406      1.00000
    717      -4.6484      1.00000
    718      -4.6266      1.00000
    719      -4.6085      1.00000
    720      -4.5004      1.00000
    721      -4.3775      1.00000
    722      -4.3050      1.00000
    723      -4.2637      1.00000
    724      -4.2021      1.00000
    725      -4.1708      1.00000
    726      -4.1210      1.00000
    727      -4.0387      1.00000
    728      -4.0079      1.00000
    729      -3.7829      1.00000
    730      -3.7669      1.00000
    731      -3.6362      1.00000
    732      -2.7080      0.00000
    733      -2.5942      0.00000
    734      -2.5506      0.00000
    735      -2.3844      0.00000
    736      -2.3640      0.00000
    737      -2.2513      0.00000
    738      -2.2093      0.00000
    739      -2.1251      0.00000
    740      -2.0744      0.00000
    741      -1.9821      0.00000
    742      -1.9314      0.00000
    743      -1.9171      0.00000
    744      -1.9075      0.00000
    745      -1.8993      0.00000
    746      -1.8861      0.00000
    747      -1.8784      0.00000
    748      -1.8273      0.00000
    749      -1.8178      0.00000
    750      -1.7861      0.00000
    751      -1.7732      0.00000
    752      -1.7602      0.00000
    753      -1.7541      0.00000
    754      -1.7425      0.00000
    755      -1.7055      0.00000
    756      -1.6926      0.00000
    757      -1.6692      0.00000
    758      -1.6499      0.00000
    759      -1.6432      0.00000
    760      -1.6294      0.00000
    761      -1.5962      0.00000
    762      -1.5543      0.00000
    763      -1.5176      0.00000
    764      -1.5000      0.00000
    765      -1.4578      0.00000
    766      -1.4194      0.00000
    767      -1.4116      0.00000
    768      -1.3977      0.00000
    769      -1.3898      0.00000
    770      -1.3847      0.00000
    771      -1.3548      0.00000
    772      -1.3450      0.00000
    773      -1.3385      0.00000
    774      -1.3209      0.00000
    775      -1.3084      0.00000
    776      -1.2991      0.00000
    777      -1.2810      0.00000
    778      -1.2657      0.00000
    779      -1.2594      0.00000
    780      -1.2542      0.00000
    781      -1.2373      0.00000
    782      -1.1824      0.00000
    783      -1.1755      0.00000
    784      -1.1479      0.00000
    785      -1.0844      0.00000
    786      -1.0728      0.00000
    787      -1.0607      0.00000
    788      -1.0239      0.00000
    789      -0.9806      0.00000
    790      -0.8618      0.00000
    791      -0.8071      0.00000
    792      -0.7698      0.00000
    793      -0.7581      0.00000
    794      -0.7174      0.00000
    795      -0.5866      0.00000
    796      -0.5589      0.00000
    797      -0.5215      0.00000
    798      -0.4934      0.00000
    799      -0.4709      0.00000
    800      -0.4215      0.00000
    801      -0.4029      0.00000
    802      -0.3365      0.00000
    803      -0.2486      0.00000
    804      -0.2262      0.00000
    805      -0.1701      0.00000
    806      -0.1368      0.00000
    807      -0.1275      0.00000
    808      -0.1142      0.00000
    809      -0.0987      0.00000
    810      -0.0866      0.00000
    811      -0.0721      0.00000
    812      -0.0471      0.00000
    813       0.0035      0.00000
    814       0.0195      0.00000
    815       0.0747      0.00000
    816       0.1070      0.00000
    817       0.1207      0.00000
    818       0.1693      0.00000
    819       0.2130      0.00000
    820       0.2224      0.00000
    821       0.2954      0.00000
    822       0.3414      0.00000
    823       0.3432      0.00000
    824       0.3916      0.00000
    825       0.4071      0.00000
    826       0.4309      0.00000
    827       0.4626      0.00000
    828       0.4739      0.00000
    829       0.4897      0.00000
    830       0.5005      0.00000
    831       0.5282      0.00000
    832       0.5337      0.00000
    833       0.5407      0.00000
    834       0.5469      0.00000
    835       0.5543      0.00000
    836       0.5644      0.00000
    837       0.5668      0.00000
    838       0.5796      0.00000
    839       0.5824      0.00000
    840       0.5849      0.00000
    841       0.6096      0.00000
    842       0.6625      0.00000
    843       0.6862      0.00000
    844       0.6999      0.00000
    845       0.7286      0.00000
    846       0.7595      0.00000
    847       0.7762      0.00000
    848       0.7887      0.00000
    849       0.8180      0.00000
    850       0.8430      0.00000
    851       0.8524      0.00000
    852       0.8550      0.00000
    853       0.8819      0.00000
    854       0.8854      0.00000
    855       0.8987      0.00000
    856       0.9378      0.00000
    857       0.9546      0.00000
    858       0.9775      0.00000
    859       0.9874      0.00000
    860       1.0035      0.00000
    861       1.0178      0.00000
    862       1.0500      0.00000
    863       1.0557      0.00000
    864       1.0847      0.00000
    865       1.0955      0.00000
    866       1.1011      0.00000
    867       1.1569      0.00000
    868       1.1630      0.00000
    869       1.1767      0.00000
    870       1.1992      0.00000
    871       1.2107      0.00000
    872       1.2268      0.00000
    873       1.2579      0.00000
    874       1.2728      0.00000
    875       1.2795      0.00000
    876       1.3073      0.00000
    877       1.3182      0.00000
    878       1.3352      0.00000
    879       1.3492      0.00000
    880       1.3796      0.00000
    881       1.3944      0.00000
    882       1.4089      0.00000
    883       1.4145      0.00000
    884       1.4179      0.00000
    885       1.4274      0.00000
    886       1.4323      0.00000
    887       1.4458      0.00000
    888       1.4765      0.00000
    889       1.4899      0.00000
    890       1.5061      0.00000
    891       1.5157      0.00000
    892       1.5239      0.00000
    893       1.5291      0.00000
    894       1.5372      0.00000
    895       1.5585      0.00000
    896       1.5629      0.00000

 k-point     8 :       0.0000    0.0000   -0.3889
  band No.  band energies     occupation 
      1     -22.9753      1.00000
      2     -22.9555      1.00000
      3     -22.8552      1.00000
      4     -22.8110      1.00000
      5     -22.7680      1.00000
      6     -22.7555      1.00000
      7     -22.7430      1.00000
      8     -22.7402      1.00000
      9     -22.6461      1.00000
     10     -22.6377      1.00000
     11     -22.6050      1.00000
     12     -22.5977      1.00000
     13     -22.5937      1.00000
     14     -22.5302      1.00000
     15     -22.3969      1.00000
     16     -22.3887      1.00000
     17     -22.3233      1.00000
     18     -22.3156      1.00000
     19     -22.2243      1.00000
     20     -22.1454      1.00000
     21     -22.1260      1.00000
     22     -22.1196      1.00000
     23     -22.1131      1.00000
     24     -22.1107      1.00000
     25     -22.0261      1.00000
     26     -22.0093      1.00000
     27     -22.0092      1.00000
     28     -22.0078      1.00000
     29     -21.9717      1.00000
     30     -21.9656      1.00000
     31     -21.9129      1.00000
     32     -21.9072      1.00000
     33     -21.7718      1.00000
     34     -21.7626      1.00000
     35     -21.7144      1.00000
     36     -21.6964      1.00000
     37     -21.6902      1.00000
     38     -21.5833      1.00000
     39     -21.5095      1.00000
     40     -21.5010      1.00000
     41     -21.3998      1.00000
     42     -21.3870      1.00000
     43     -21.3759      1.00000
     44     -21.3707      1.00000
     45     -21.2941      1.00000
     46     -21.2859      1.00000
     47     -21.1290      1.00000
     48     -21.1107      1.00000
     49     -21.0967      1.00000
     50     -21.0940      1.00000
     51     -21.0757      1.00000
     52     -21.0042      1.00000
     53     -20.9950      1.00000
     54     -20.9592      1.00000
     55     -20.9520      1.00000
     56     -20.9189      1.00000
     57     -20.8937      1.00000
     58     -20.8839      1.00000
     59     -20.8703      1.00000
     60     -20.8670      1.00000
     61     -20.7731      1.00000
     62     -20.7562      1.00000
     63     -20.7520      1.00000
     64     -20.7509      1.00000
     65     -20.7151      1.00000
     66     -20.7095      1.00000
     67     -20.6840      1.00000
     68     -20.6815      1.00000
     69     -20.3952      1.00000
     70     -20.3841      1.00000
     71     -20.3225      1.00000
     72     -20.2941      1.00000
     73     -20.2852      1.00000
     74     -20.2630      1.00000
     75     -20.2569      1.00000
     76     -20.1415      1.00000
     77     -20.1217      1.00000
     78     -20.1122      1.00000
     79     -20.1062      1.00000
     80     -20.1014      1.00000
     81     -19.9435      1.00000
     82     -19.9287      1.00000
     83     -19.8982      1.00000
     84     -19.8912      1.00000
     85     -19.7866      1.00000
     86     -19.7661      1.00000
     87     -19.7521      1.00000
     88     -19.7517      1.00000
     89     -19.7344      1.00000
     90     -19.7336      1.00000
     91     -19.6464      1.00000
     92     -19.6387      1.00000
     93     -19.6015      1.00000
     94     -19.5966      1.00000
     95     -19.5229      1.00000
     96     -19.5128      1.00000
     97     -19.4501      1.00000
     98     -19.4127      1.00000
     99     -19.4042      1.00000
    100     -19.3533      1.00000
    101     -19.3368      1.00000
    102     -19.3322      1.00000
    103     -19.3291      1.00000
    104     -19.2860      1.00000
    105     -19.2789      1.00000
    106     -19.2508      1.00000
    107     -19.2443      1.00000
    108     -19.2365      1.00000
    109     -19.1370      1.00000
    110     -19.1279      1.00000
    111     -19.0601      1.00000
    112     -19.0477      1.00000
    113     -19.0383      1.00000
    114     -19.0370      1.00000
    115     -18.9565      1.00000
    116     -18.9519      1.00000
    117     -18.6879      1.00000
    118     -18.6654      1.00000
    119     -18.6004      1.00000
    120     -18.5755      1.00000
    121     -18.5629      1.00000
    122     -18.5589      1.00000
    123     -18.4931      1.00000
    124     -18.4693      1.00000
    125     -18.4658      1.00000
    126     -18.4542      1.00000
    127     -18.4510      1.00000
    128     -18.3984      1.00000
    129     -18.3901      1.00000
    130     -18.2981      1.00000
    131     -18.2811      1.00000
    132     -18.2465      1.00000
    133     -18.1702      1.00000
    134     -18.1652      1.00000
    135     -18.1442      1.00000
    136     -18.1406      1.00000
    137     -18.0845      1.00000
    138     -18.0595      1.00000
    139     -18.0588      1.00000
    140     -18.0444      1.00000
    141     -18.0229      1.00000
    142     -18.0104      1.00000
    143     -17.9950      1.00000
    144     -17.9936      1.00000
    145     -17.8831      1.00000
    146     -17.8550      1.00000
    147     -17.8463      1.00000
    148     -17.8259      1.00000
    149     -17.8071      1.00000
    150     -17.7983      1.00000
    151     -17.7909      1.00000
    152     -17.7820      1.00000
    153     -17.7672      1.00000
    154     -17.7509      1.00000
    155     -17.6721      1.00000
    156     -17.6519      1.00000
    157     -17.6349      1.00000
    158     -17.5848      1.00000
    159     -17.5226      1.00000
    160     -17.4860      1.00000
    161     -17.4425      1.00000
    162     -17.4265      1.00000
    163     -17.4073      1.00000
    164     -17.3898      1.00000
    165     -17.3563      1.00000
    166     -17.3301      1.00000
    167     -17.3179      1.00000
    168     -17.2679      1.00000
    169     -17.2228      1.00000
    170     -17.1910      1.00000
    171     -17.1681      1.00000
    172     -17.0872      1.00000
    173     -17.0596      1.00000
    174     -17.0364      1.00000
    175     -16.9772      1.00000
    176     -16.9371      1.00000
    177     -16.6452      1.00000
    178     -16.5826      1.00000
    179     -16.5600      1.00000
    180     -16.4697      1.00000
    181     -16.4231      1.00000
    182     -16.3961      1.00000
    183     -16.3929      1.00000
    184     -16.3202      1.00000
    185     -16.2867      1.00000
    186     -16.2411      1.00000
    187     -16.2324      1.00000
    188     -16.2166      1.00000
    189     -16.1695      1.00000
    190     -16.1250      1.00000
    191     -16.0914      1.00000
    192     -16.0767      1.00000
    193     -16.0543      1.00000
    194     -15.9766      1.00000
    195     -15.9662      1.00000
    196     -15.8501      1.00000
    197     -15.8344      1.00000
    198     -15.8314      1.00000
    199     -15.7939      1.00000
    200     -15.7779      1.00000
    201     -15.7523      1.00000
    202     -15.7302      1.00000
    203     -15.7258      1.00000
    204     -15.7158      1.00000
    205     -15.6851      1.00000
    206     -15.6443      1.00000
    207     -15.6060      1.00000
    208     -15.5965      1.00000
    209     -15.5629      1.00000
    210     -15.5615      1.00000
    211     -15.5507      1.00000
    212     -15.5322      1.00000
    213     -15.5069      1.00000
    214     -15.4941      1.00000
    215     -15.4848      1.00000
    216     -15.4417      1.00000
    217     -15.4062      1.00000
    218     -15.3892      1.00000
    219     -15.3437      1.00000
    220     -15.3287      1.00000
    221     -15.3157      1.00000
    222     -15.3000      1.00000
    223     -15.2905      1.00000
    224     -15.2828      1.00000
    225     -15.2638      1.00000
    226     -15.2565      1.00000
    227     -15.2484      1.00000
    228     -15.2214      1.00000
    229     -15.1443      1.00000
    230     -15.1153      1.00000
    231     -15.0763      1.00000
    232     -15.0599      1.00000
    233     -15.0488      1.00000
    234     -15.0273      1.00000
    235     -14.9997      1.00000
    236     -14.9576      1.00000
    237     -14.9375      1.00000
    238     -14.8816      1.00000
    239     -14.8519      1.00000
    240     -14.8023      1.00000
    241     -14.7222      1.00000
    242     -14.6213      1.00000
    243     -14.4999      1.00000
    244     -14.3757      1.00000
    245     -14.3633      1.00000
    246     -14.3402      1.00000
    247     -14.2788      1.00000
    248     -14.2173      1.00000
    249     -14.1937      1.00000
    250     -14.1193      1.00000
    251     -14.1026      1.00000
    252     -14.1023      1.00000
    253     -14.0721      1.00000
    254     -14.0396      1.00000
    255     -14.0149      1.00000
    256     -13.9694      1.00000
    257     -13.9185      1.00000
    258     -13.8755      1.00000
    259     -13.8321      1.00000
    260     -13.8056      1.00000
    261     -13.7967      1.00000
    262     -13.7921      1.00000
    263     -13.7734      1.00000
    264     -13.7689      1.00000
    265     -13.7599      1.00000
    266     -13.7361      1.00000
    267     -13.7046      1.00000
    268     -13.7007      1.00000
    269     -13.6786      1.00000
    270     -13.6738      1.00000
    271     -13.6612      1.00000
    272     -13.6473      1.00000
    273     -13.5825      1.00000
    274     -13.5692      1.00000
    275     -13.5321      1.00000
    276     -13.4900      1.00000
    277     -13.4742      1.00000
    278     -13.3827      1.00000
    279     -13.3646      1.00000
    280     -13.3356      1.00000
    281     -13.3262      1.00000
    282     -13.3085      1.00000
    283     -13.2956      1.00000
    284     -13.2739      1.00000
    285     -13.2332      1.00000
    286     -13.2100      1.00000
    287     -13.1710      1.00000
    288     -13.1660      1.00000
    289     -13.1567      1.00000
    290     -13.0612      1.00000
    291     -13.0512      1.00000
    292     -13.0442      1.00000
    293     -12.9863      1.00000
    294     -12.9764      1.00000
    295     -12.9545      1.00000
    296     -12.9206      1.00000
    297     -12.9111      1.00000
    298     -12.8995      1.00000
    299     -12.8970      1.00000
    300     -12.8827      1.00000
    301     -12.8046      1.00000
    302     -12.7553      1.00000
    303     -12.6863      1.00000
    304     -12.6601      1.00000
    305     -12.5827      1.00000
    306     -12.5790      1.00000
    307     -12.4254      1.00000
    308     -12.3931      1.00000
    309     -12.3507      1.00000
    310     -12.3327      1.00000
    311     -12.3164      1.00000
    312     -12.2464      1.00000
    313     -12.2030      1.00000
    314     -12.1592      1.00000
    315     -12.1204      1.00000
    316     -12.0892      1.00000
    317     -12.0548      1.00000
    318     -12.0161      1.00000
    319     -12.0050      1.00000
    320     -12.0014      1.00000
    321     -11.9907      1.00000
    322     -11.9294      1.00000
    323     -11.9209      1.00000
    324     -11.9156      1.00000
    325     -11.8927      1.00000
    326     -11.8799      1.00000
    327     -11.8755      1.00000
    328     -11.8620      1.00000
    329     -11.8459      1.00000
    330     -11.8397      1.00000
    331     -11.7869      1.00000
    332     -11.7640      1.00000
    333     -11.7447      1.00000
    334     -11.7284      1.00000
    335     -11.7109      1.00000
    336     -11.6844      1.00000
    337     -11.6730      1.00000
    338     -11.6594      1.00000
    339     -11.6474      1.00000
    340     -11.6325      1.00000
    341     -11.6260      1.00000
    342     -11.6099      1.00000
    343     -11.5994      1.00000
    344     -11.5908      1.00000
    345     -11.5816      1.00000
    346     -11.5662      1.00000
    347     -11.5343      1.00000
    348     -11.5207      1.00000
    349     -11.5178      1.00000
    350     -11.4988      1.00000
    351     -11.4897      1.00000
    352     -11.4807      1.00000
    353     -11.4668      1.00000
    354     -11.4591      1.00000
    355     -11.4255      1.00000
    356     -11.4107      1.00000
    357     -11.4016      1.00000
    358     -11.3277      1.00000
    359     -11.3036      1.00000
    360     -11.1499      1.00000
    361     -11.1141      1.00000
    362     -11.0797      1.00000
    363     -11.0786      1.00000
    364     -11.0617      1.00000
    365     -11.0474      1.00000
    366     -11.0431      1.00000
    367     -10.9633      1.00000
    368     -10.9442      1.00000
    369     -10.9115      1.00000
    370     -10.8991      1.00000
    371     -10.8973      1.00000
    372     -10.8895      1.00000
    373     -10.8672      1.00000
    374     -10.8651      1.00000
    375     -10.8557      1.00000
    376     -10.8430      1.00000
    377     -10.8359      1.00000
    378     -10.8267      1.00000
    379     -10.8146      1.00000
    380     -10.8022      1.00000
    381     -10.7834      1.00000
    382     -10.7490      1.00000
    383     -10.7436      1.00000
    384     -10.7140      1.00000
    385     -10.7114      1.00000
    386     -10.6993      1.00000
    387     -10.6731      1.00000
    388     -10.6696      1.00000
    389     -10.6630      1.00000
    390     -10.6570      1.00000
    391     -10.6502      1.00000
    392     -10.6436      1.00000
    393     -10.6369      1.00000
    394     -10.6292      1.00000
    395     -10.6062      1.00000
    396     -10.5950      1.00000
    397     -10.5738      1.00000
    398     -10.5615      1.00000
    399     -10.5515      1.00000
    400     -10.5360      1.00000
    401     -10.4898      1.00000
    402     -10.4725      1.00000
    403     -10.4644      1.00000
    404     -10.4540      1.00000
    405     -10.4525      1.00000
    406     -10.4405      1.00000
    407     -10.4354      1.00000
    408     -10.4271      1.00000
    409     -10.4179      1.00000
    410     -10.4141      1.00000
    411     -10.4058      1.00000
    412     -10.3642      1.00000
    413     -10.3392      1.00000
    414     -10.3374      1.00000
    415     -10.3251      1.00000
    416     -10.3196      1.00000
    417     -10.3140      1.00000
    418     -10.3081      1.00000
    419     -10.2926      1.00000
    420     -10.2850      1.00000
    421     -10.2698      1.00000
    422     -10.2657      1.00000
    423     -10.2496      1.00000
    424     -10.2428      1.00000
    425     -10.2366      1.00000
    426     -10.2277      1.00000
    427     -10.2215      1.00000
    428     -10.2164      1.00000
    429     -10.2060      1.00000
    430     -10.1965      1.00000
    431     -10.1941      1.00000
    432     -10.1632      1.00000
    433     -10.1582      1.00000
    434     -10.1415      1.00000
    435     -10.1223      1.00000
    436     -10.0992      1.00000
    437     -10.0902      1.00000
    438     -10.0730      1.00000
    439     -10.0637      1.00000
    440     -10.0556      1.00000
    441     -10.0478      1.00000
    442     -10.0387      1.00000
    443     -10.0352      1.00000
    444     -10.0209      1.00000
    445     -10.0153      1.00000
    446     -10.0056      1.00000
    447      -9.9677      1.00000
    448      -9.9490      1.00000
    449      -9.9352      1.00000
    450      -9.9333      1.00000
    451      -9.9281      1.00000
    452      -9.9118      1.00000
    453      -9.8859      1.00000
    454      -9.8700      1.00000
    455      -9.8587      1.00000
    456      -9.8367      1.00000
    457      -9.8282      1.00000
    458      -9.8117      1.00000
    459      -9.7970      1.00000
    460      -9.7960      1.00000
    461      -9.7746      1.00000
    462      -9.7609      1.00000
    463      -9.7428      1.00000
    464      -9.7375      1.00000
    465      -9.7342      1.00000
    466      -9.6879      1.00000
    467      -9.6648      1.00000
    468      -9.6546      1.00000
    469      -9.6213      1.00000
    470      -9.6092      1.00000
    471      -9.5983      1.00000
    472      -9.5830      1.00000
    473      -9.5682      1.00000
    474      -9.5437      1.00000
    475      -9.5390      1.00000
    476      -9.5316      1.00000
    477      -9.5158      1.00000
    478      -9.5060      1.00000
    479      -9.5036      1.00000
    480      -9.4813      1.00000
    481      -9.4732      1.00000
    482      -9.4507      1.00000
    483      -9.4124      1.00000
    484      -9.4036      1.00000
    485      -9.3938      1.00000
    486      -9.3899      1.00000
    487      -9.3842      1.00000
    488      -9.3787      1.00000
    489      -9.3688      1.00000
    490      -9.3631      1.00000
    491      -9.3585      1.00000
    492      -9.3515      1.00000
    493      -9.3468      1.00000
    494      -9.3454      1.00000
    495      -9.3385      1.00000
    496      -9.3336      1.00000
    497      -9.2960      1.00000
    498      -9.2827      1.00000
    499      -9.2786      1.00000
    500      -9.2711      1.00000
    501      -9.2561      1.00000
    502      -9.2516      1.00000
    503      -9.2461      1.00000
    504      -9.2338      1.00000
    505      -9.1931      1.00000
    506      -9.1859      1.00000
    507      -9.1757      1.00000
    508      -9.1701      1.00000
    509      -9.1658      1.00000
    510      -9.1445      1.00000
    511      -9.1213      1.00000
    512      -9.1007      1.00000
    513      -9.0433      1.00000
    514      -8.9424      1.00000
    515      -8.9331      1.00000
    516      -8.8870      1.00000
    517      -8.8624      1.00000
    518      -8.8452      1.00000
    519      -8.8371      1.00000
    520      -8.8128      1.00000
    521      -8.8029      1.00000
    522      -8.7977      1.00000
    523      -8.7761      1.00000
    524      -8.7706      1.00000
    525      -8.6806      1.00000
    526      -8.6546      1.00000
    527      -8.6347      1.00000
    528      -8.6122      1.00000
    529      -8.5993      1.00000
    530      -8.5864      1.00000
    531      -8.5791      1.00000
    532      -8.5608      1.00000
    533      -8.5374      1.00000
    534      -8.5180      1.00000
    535      -8.5151      1.00000
    536      -8.5059      1.00000
    537      -8.4918      1.00000
    538      -8.4764      1.00000
    539      -8.4573      1.00000
    540      -8.4523      1.00000
    541      -8.4419      1.00000
    542      -8.4368      1.00000
    543      -8.4303      1.00000
    544      -8.4215      1.00000
    545      -8.4080      1.00000
    546      -8.4060      1.00000
    547      -8.3913      1.00000
    548      -8.3904      1.00000
    549      -8.3822      1.00000
    550      -8.3625      1.00000
    551      -8.3502      1.00000
    552      -8.3369      1.00000
    553      -8.3339      1.00000
    554      -8.3219      1.00000
    555      -8.3028      1.00000
    556      -8.2935      1.00000
    557      -8.2756      1.00000
    558      -8.2629      1.00000
    559      -8.2533      1.00000
    560      -8.2440      1.00000
    561      -8.2208      1.00000
    562      -8.1996      1.00000
    563      -8.1965      1.00000
    564      -8.1835      1.00000
    565      -8.1779      1.00000
    566      -8.1590      1.00000
    567      -8.1205      1.00000
    568      -8.1180      1.00000
    569      -8.1042      1.00000
    570      -8.0632      1.00000
    571      -8.0031      1.00000
    572      -7.9626      1.00000
    573      -7.9424      1.00000
    574      -7.9052      1.00000
    575      -7.8950      1.00000
    576      -7.8829      1.00000
    577      -7.8710      1.00000
    578      -7.8151      1.00000
    579      -7.8114      1.00000
    580      -7.7947      1.00000
    581      -7.7762      1.00000
    582      -7.7518      1.00000
    583      -7.7493      1.00000
    584      -7.7262      1.00000
    585      -7.7221      1.00000
    586      -7.7160      1.00000
    587      -7.7018      1.00000
    588      -7.6913      1.00000
    589      -7.6804      1.00000
    590      -7.6757      1.00000
    591      -7.6068      1.00000
    592      -7.5934      1.00000
    593      -7.5849      1.00000
    594      -7.5779      1.00000
    595      -7.5739      1.00000
    596      -7.5395      1.00000
    597      -7.5272      1.00000
    598      -7.5250      1.00000
    599      -7.5052      1.00000
    600      -7.4893      1.00000
    601      -7.4845      1.00000
    602      -7.4703      1.00000
    603      -7.4614      1.00000
    604      -7.4515      1.00000
    605      -7.4097      1.00000
    606      -7.3827      1.00000
    607      -7.3451      1.00000
    608      -7.3228      1.00000
    609      -7.2966      1.00000
    610      -7.2504      1.00000
    611      -7.2481      1.00000
    612      -7.2224      1.00000
    613      -7.2048      1.00000
    614      -7.1941      1.00000
    615      -7.1772      1.00000
    616      -7.1632      1.00000
    617      -7.1367      1.00000
    618      -7.1133      1.00000
    619      -7.1045      1.00000
    620      -7.0934      1.00000
    621      -7.0896      1.00000
    622      -7.0532      1.00000
    623      -7.0320      1.00000
    624      -7.0234      1.00000
    625      -7.0195      1.00000
    626      -6.9990      1.00000
    627      -6.9844      1.00000
    628      -6.9756      1.00000
    629      -6.9548      1.00000
    630      -6.9451      1.00000
    631      -6.9388      1.00000
    632      -6.9339      1.00000
    633      -6.8535      1.00000
    634      -6.8474      1.00000
    635      -6.8365      1.00000
    636      -6.7979      1.00000
    637      -6.7780      1.00000
    638      -6.7672      1.00000
    639      -6.7585      1.00000
    640      -6.7393      1.00000
    641      -6.7211      1.00000
    642      -6.6976      1.00000
    643      -6.6902      1.00000
    644      -6.6774      1.00000
    645      -6.6665      1.00000
    646      -6.6616      1.00000
    647      -6.6528      1.00000
    648      -6.6460      1.00000
    649      -6.6378      1.00000
    650      -6.6105      1.00000
    651      -6.6005      1.00000
    652      -6.5823      1.00000
    653      -6.5607      1.00000
    654      -6.5483      1.00000
    655      -6.5298      1.00000
    656      -6.4711      1.00000
    657      -6.4370      1.00000
    658      -6.4130      1.00000
    659      -6.3423      1.00000
    660      -6.2840      1.00000
    661      -6.2682      1.00000
    662      -6.2567      1.00000
    663      -6.2352      1.00000
    664      -6.2237      1.00000
    665      -6.2100      1.00000
    666      -6.1167      1.00000
    667      -6.0943      1.00000
    668      -6.0755      1.00000
    669      -6.0468      1.00000
    670      -6.0115      1.00000
    671      -5.9652      1.00000
    672      -5.9501      1.00000
    673      -5.8958      1.00000
    674      -5.8741      1.00000
    675      -5.8543      1.00000
    676      -5.8100      1.00000
    677      -5.7904      1.00000
    678      -5.7604      1.00000
    679      -5.7225      1.00000
    680      -5.6982      1.00000
    681      -5.6711      1.00000
    682      -5.6337      1.00000
    683      -5.6076      1.00000
    684      -5.5959      1.00000
    685      -5.5834      1.00000
    686      -5.5772      1.00000
    687      -5.5620      1.00000
    688      -5.5506      1.00000
    689      -5.5391      1.00000
    690      -5.5299      1.00000
    691      -5.5239      1.00000
    692      -5.5094      1.00000
    693      -5.4856      1.00000
    694      -5.4755      1.00000
    695      -5.4361      1.00000
    696      -5.4025      1.00000
    697      -5.3918      1.00000
    698      -5.3782      1.00000
    699      -5.3231      1.00000
    700      -5.3024      1.00000
    701      -5.2750      1.00000
    702      -5.2234      1.00000
    703      -5.1753      1.00000
    704      -5.1557      1.00000
    705      -5.1479      1.00000
    706      -5.1302      1.00000
    707      -5.0867      1.00000
    708      -5.0655      1.00000
    709      -4.9750      1.00000
    710      -4.9397      1.00000
    711      -4.9134      1.00000
    712      -4.8666      1.00000
    713      -4.8463      1.00000
    714      -4.8360      1.00000
    715      -4.8054      1.00000
    716      -4.7389      1.00000
    717      -4.6905      1.00000
    718      -4.6542      1.00000
    719      -4.6491      1.00000
    720      -4.5014      1.00000
    721      -4.3635      1.00000
    722      -4.3023      1.00000
    723      -4.2540      1.00000
    724      -4.2029      1.00000
    725      -4.1705      1.00000
    726      -4.1307      1.00000
    727      -4.0441      1.00000
    728      -3.9645      1.00000
    729      -3.8014      1.00000
    730      -3.7609      1.00000
    731      -3.6499      1.00000
    732      -2.6975      0.00000
    733      -2.5665      0.00000
    734      -2.5600      0.00000
    735      -2.4226      0.00000
    736      -2.3698      0.00000
    737      -2.2498      0.00000
    738      -2.2217      0.00000
    739      -2.1024      0.00000
    740      -2.0639      0.00000
    741      -2.0049      0.00000
    742      -1.9247      0.00000
    743      -1.9157      0.00000
    744      -1.8921      0.00000
    745      -1.8849      0.00000
    746      -1.8723      0.00000
    747      -1.8465      0.00000
    748      -1.8408      0.00000
    749      -1.8104      0.00000
    750      -1.7984      0.00000
    751      -1.7885      0.00000
    752      -1.7740      0.00000
    753      -1.7468      0.00000
    754      -1.7320      0.00000
    755      -1.7058      0.00000
    756      -1.6883      0.00000
    757      -1.6828      0.00000
    758      -1.6678      0.00000
    759      -1.6501      0.00000
    760      -1.6251      0.00000
    761      -1.6120      0.00000
    762      -1.5700      0.00000
    763      -1.5637      0.00000
    764      -1.5279      0.00000
    765      -1.4515      0.00000
    766      -1.4201      0.00000
    767      -1.3797      0.00000
    768      -1.3722      0.00000
    769      -1.3621      0.00000
    770      -1.3571      0.00000
    771      -1.3518      0.00000
    772      -1.3445      0.00000
    773      -1.3213      0.00000
    774      -1.3029      0.00000
    775      -1.2988      0.00000
    776      -1.2812      0.00000
    777      -1.2656      0.00000
    778      -1.2610      0.00000
    779      -1.2593      0.00000
    780      -1.2544      0.00000
    781      -1.2180      0.00000
    782      -1.2144      0.00000
    783      -1.1997      0.00000
    784      -1.1891      0.00000
    785      -1.1215      0.00000
    786      -1.0738      0.00000
    787      -1.0275      0.00000
    788      -1.0250      0.00000
    789      -1.0226      0.00000
    790      -0.8530      0.00000
    791      -0.8230      0.00000
    792      -0.8004      0.00000
    793      -0.7346      0.00000
    794      -0.6808      0.00000
    795      -0.5944      0.00000
    796      -0.5787      0.00000
    797      -0.5335      0.00000
    798      -0.5053      0.00000
    799      -0.4276      0.00000
    800      -0.4078      0.00000
    801      -0.3538      0.00000
    802      -0.3130      0.00000
    803      -0.2836      0.00000
    804      -0.2194      0.00000
    805      -0.1784      0.00000
    806      -0.1419      0.00000
    807      -0.1306      0.00000
    808      -0.1256      0.00000
    809      -0.1077      0.00000
    810      -0.0991      0.00000
    811      -0.0616      0.00000
    812      -0.0361      0.00000
    813      -0.0132      0.00000
    814       0.0293      0.00000
    815       0.0375      0.00000
    816       0.0899      0.00000
    817       0.1002      0.00000
    818       0.1563      0.00000
    819       0.2113      0.00000
    820       0.2470      0.00000
    821       0.2892      0.00000
    822       0.3554      0.00000
    823       0.3659      0.00000
    824       0.4066      0.00000
    825       0.4233      0.00000
    826       0.4459      0.00000
    827       0.4629      0.00000
    828       0.4681      0.00000
    829       0.4756      0.00000
    830       0.5044      0.00000
    831       0.5227      0.00000
    832       0.5368      0.00000
    833       0.5439      0.00000
    834       0.5578      0.00000
    835       0.5609      0.00000
    836       0.5804      0.00000
    837       0.5830      0.00000
    838       0.5836      0.00000
    839       0.5893      0.00000
    840       0.5977      0.00000
    841       0.6035      0.00000
    842       0.6488      0.00000
    843       0.6997      0.00000
    844       0.7028      0.00000
    845       0.7250      0.00000
    846       0.7424      0.00000
    847       0.7599      0.00000
    848       0.7638      0.00000
    849       0.8006      0.00000
    850       0.8066      0.00000
    851       0.8577      0.00000
    852       0.8662      0.00000
    853       0.8782      0.00000
    854       0.8851      0.00000
    855       0.9316      0.00000
    856       0.9376      0.00000
    857       0.9580      0.00000
    858       0.9724      0.00000
    859       0.9827      0.00000
    860       1.0146      0.00000
    861       1.0179      0.00000
    862       1.0404      0.00000
    863       1.0785      0.00000
    864       1.0790      0.00000
    865       1.0974      0.00000
    866       1.1122      0.00000
    867       1.1376      0.00000
    868       1.1540      0.00000
    869       1.1624      0.00000
    870       1.1771      0.00000
    871       1.1990      0.00000
    872       1.2302      0.00000
    873       1.2519      0.00000
    874       1.2779      0.00000
    875       1.3010      0.00000
    876       1.3185      0.00000
    877       1.3586      0.00000
    878       1.3647      0.00000
    879       1.3812      0.00000
    880       1.3916      0.00000
    881       1.3936      0.00000
    882       1.4009      0.00000
    883       1.4153      0.00000
    884       1.4241      0.00000
    885       1.4304      0.00000
    886       1.4406      0.00000
    887       1.4502      0.00000
    888       1.4554      0.00000
    889       1.4577      0.00000
    890       1.4805      0.00000
    891       1.5047      0.00000
    892       1.5092      0.00000
    893       1.5349      0.00000
    894       1.5531      0.00000
    895       1.5578      0.00000
    896       1.5666      0.00000

 k-point     9 :       0.0000    0.0000   -0.4444
  band No.  band energies     occupation 
      1     -22.9736      1.00000
      2     -22.9584      1.00000
      3     -22.8455      1.00000
      4     -22.8217      1.00000
      5     -22.7672      1.00000
      6     -22.7526      1.00000
      7     -22.7453      1.00000
      8     -22.7442      1.00000
      9     -22.6370      1.00000
     10     -22.6273      1.00000
     11     -22.6103      1.00000
     12     -22.6053      1.00000
     13     -22.5852      1.00000
     14     -22.5489      1.00000
     15     -22.3802      1.00000
     16     -22.3710      1.00000
     17     -22.3412      1.00000
     18     -22.3344      1.00000
     19     -22.2001      1.00000
     20     -22.1532      1.00000
     21     -22.1351      1.00000
     22     -22.1233      1.00000
     23     -22.1161      1.00000
     24     -22.1146      1.00000
     25     -22.0144      1.00000
     26     -21.9990      1.00000
     27     -21.9889      1.00000
     28     -21.9844      1.00000
     29     -21.9799      1.00000
     30     -21.9769      1.00000
     31     -21.9381      1.00000
     32     -21.9333      1.00000
     33     -21.7555      1.00000
     34     -21.7451      1.00000
     35     -21.7160      1.00000
     36     -21.7089      1.00000
     37     -21.6806      1.00000
     38     -21.6162      1.00000
     39     -21.4788      1.00000
     40     -21.4690      1.00000
     41     -21.4139      1.00000
     42     -21.4039      1.00000
     43     -21.3700      1.00000
     44     -21.3622      1.00000
     45     -21.3189      1.00000
     46     -21.3117      1.00000
     47     -21.1274      1.00000
     48     -21.1086      1.00000
     49     -21.0982      1.00000
     50     -21.0973      1.00000
     51     -21.0395      1.00000
     52     -20.9964      1.00000
     53     -20.9850      1.00000
     54     -20.9682      1.00000
     55     -20.9632      1.00000
     56     -20.9559      1.00000
     57     -20.8650      1.00000
     58     -20.8524      1.00000
     59     -20.8334      1.00000
     60     -20.8282      1.00000
     61     -20.7973      1.00000
     62     -20.7879      1.00000
     63     -20.7575      1.00000
     64     -20.7495      1.00000
     65     -20.7368      1.00000
     66     -20.7354      1.00000
     67     -20.7022      1.00000
     68     -20.6999      1.00000
     69     -20.3732      1.00000
     70     -20.3600      1.00000
     71     -20.3182      1.00000
     72     -20.3103      1.00000
     73     -20.2742      1.00000
     74     -20.2287      1.00000
     75     -20.2187      1.00000
     76     -20.1830      1.00000
     77     -20.1500      1.00000
     78     -20.1409      1.00000
     79     -20.0758      1.00000
     80     -20.0668      1.00000
     81     -19.9855      1.00000
     82     -19.9751      1.00000
     83     -19.8728      1.00000
     84     -19.8605      1.00000
     85     -19.8082      1.00000
     86     -19.7974      1.00000
     87     -19.7583      1.00000
     88     -19.7508      1.00000
     89     -19.7366      1.00000
     90     -19.7364      1.00000
     91     -19.6393      1.00000
     92     -19.6293      1.00000
     93     -19.6093      1.00000
     94     -19.6072      1.00000
     95     -19.4828      1.00000
     96     -19.4684      1.00000
     97     -19.4152      1.00000
     98     -19.3890      1.00000
     99     -19.3879      1.00000
    100     -19.3795      1.00000
    101     -19.3763      1.00000
    102     -19.3540      1.00000
    103     -19.3524      1.00000
    104     -19.2917      1.00000
    105     -19.2506      1.00000
    106     -19.2418      1.00000
    107     -19.2015      1.00000
    108     -19.1931      1.00000
    109     -19.1714      1.00000
    110     -19.1658      1.00000
    111     -19.0984      1.00000
    112     -19.0897      1.00000
    113     -19.0290      1.00000
    114     -19.0241      1.00000
    115     -18.9797      1.00000
    116     -18.9761      1.00000
    117     -18.6479      1.00000
    118     -18.6162      1.00000
    119     -18.5743      1.00000
    120     -18.5455      1.00000
    121     -18.5292      1.00000
    122     -18.5191      1.00000
    123     -18.5170      1.00000
    124     -18.5131      1.00000
    125     -18.4863      1.00000
    126     -18.4826      1.00000
    127     -18.4404      1.00000
    128     -18.4328      1.00000
    129     -18.4148      1.00000
    130     -18.3064      1.00000
    131     -18.2455      1.00000
    132     -18.2257      1.00000
    133     -18.1706      1.00000
    134     -18.1644      1.00000
    135     -18.1452      1.00000
    136     -18.1431      1.00000
    137     -18.1232      1.00000
    138     -18.1127      1.00000
    139     -18.0550      1.00000
    140     -18.0448      1.00000
    141     -18.0288      1.00000
    142     -18.0176      1.00000
    143     -17.9700      1.00000
    144     -17.9593      1.00000
    145     -17.9021      1.00000
    146     -17.8896      1.00000
    147     -17.8365      1.00000
    148     -17.8178      1.00000
    149     -17.7971      1.00000
    150     -17.7837      1.00000
    151     -17.7629      1.00000
    152     -17.7596      1.00000
    153     -17.7490      1.00000
    154     -17.7195      1.00000
    155     -17.6970      1.00000
    156     -17.6841      1.00000
    157     -17.6702      1.00000
    158     -17.6268      1.00000
    159     -17.5024      1.00000
    160     -17.4703      1.00000
    161     -17.4530      1.00000
    162     -17.4215      1.00000
    163     -17.3877      1.00000
    164     -17.3656      1.00000
    165     -17.3385      1.00000
    166     -17.3189      1.00000
    167     -17.2875      1.00000
    168     -17.2546      1.00000
    169     -17.2433      1.00000
    170     -17.2133      1.00000
    171     -17.2003      1.00000
    172     -17.1060      1.00000
    173     -17.0600      1.00000
    174     -17.0182      1.00000
    175     -17.0036      1.00000
    176     -16.9630      1.00000
    177     -16.6393      1.00000
    178     -16.5750      1.00000
    179     -16.5349      1.00000
    180     -16.4806      1.00000
    181     -16.4129      1.00000
    182     -16.3613      1.00000
    183     -16.3559      1.00000
    184     -16.3209      1.00000
    185     -16.2827      1.00000
    186     -16.2749      1.00000
    187     -16.2495      1.00000
    188     -16.1952      1.00000
    189     -16.1707      1.00000
    190     -16.1373      1.00000
    191     -16.1026      1.00000
    192     -16.0855      1.00000
    193     -16.0555      1.00000
    194     -16.0155      1.00000
    195     -15.9995      1.00000
    196     -15.8490      1.00000
    197     -15.8345      1.00000
    198     -15.8334      1.00000
    199     -15.7919      1.00000
    200     -15.7450      1.00000
    201     -15.7305      1.00000
    202     -15.7282      1.00000
    203     -15.7244      1.00000
    204     -15.7033      1.00000
    205     -15.6702      1.00000
    206     -15.6522      1.00000
    207     -15.6360      1.00000
    208     -15.6244      1.00000
    209     -15.6112      1.00000
    210     -15.5489      1.00000
    211     -15.5315      1.00000
    212     -15.5205      1.00000
    213     -15.5166      1.00000
    214     -15.4599      1.00000
    215     -15.4421      1.00000
    216     -15.4316      1.00000
    217     -15.4138      1.00000
    218     -15.3726      1.00000
    219     -15.3341      1.00000
    220     -15.3213      1.00000
    221     -15.3148      1.00000
    222     -15.3061      1.00000
    223     -15.2941      1.00000
    224     -15.2740      1.00000
    225     -15.2501      1.00000
    226     -15.2370      1.00000
    227     -15.2259      1.00000
    228     -15.2014      1.00000
    229     -15.1885      1.00000
    230     -15.1489      1.00000
    231     -15.1168      1.00000
    232     -15.0895      1.00000
    233     -15.0589      1.00000
    234     -15.0195      1.00000
    235     -15.0066      1.00000
    236     -14.9648      1.00000
    237     -14.9451      1.00000
    238     -14.9249      1.00000
    239     -14.8507      1.00000
    240     -14.7604      1.00000
    241     -14.6707      1.00000
    242     -14.6652      1.00000
    243     -14.5547      1.00000
    244     -14.3117      1.00000
    245     -14.2989      1.00000
    246     -14.2815      1.00000
    247     -14.2201      1.00000
    248     -14.1836      1.00000
    249     -14.1695      1.00000
    250     -14.1662      1.00000
    251     -14.1611      1.00000
    252     -14.1364      1.00000
    253     -14.0991      1.00000
    254     -14.0663      1.00000
    255     -14.0236      1.00000
    256     -14.0055      1.00000
    257     -13.8753      1.00000
    258     -13.8671      1.00000
    259     -13.8488      1.00000
    260     -13.8269      1.00000
    261     -13.7984      1.00000
    262     -13.7941      1.00000
    263     -13.7875      1.00000
    264     -13.7728      1.00000
    265     -13.7601      1.00000
    266     -13.7548      1.00000
    267     -13.7386      1.00000
    268     -13.6963      1.00000
    269     -13.6782      1.00000
    270     -13.6755      1.00000
    271     -13.6589      1.00000
    272     -13.6399      1.00000
    273     -13.6047      1.00000
    274     -13.5494      1.00000
    275     -13.5236      1.00000
    276     -13.5069      1.00000
    277     -13.4898      1.00000
    278     -13.3607      1.00000
    279     -13.3603      1.00000
    280     -13.3403      1.00000
    281     -13.3273      1.00000
    282     -13.3202      1.00000
    283     -13.3038      1.00000
    284     -13.2194      1.00000
    285     -13.1698      1.00000
    286     -13.1473      1.00000
    287     -13.1416      1.00000
    288     -13.1094      1.00000
    289     -13.1043      1.00000
    290     -13.0910      1.00000
    291     -13.0839      1.00000
    292     -13.0410      1.00000
    293     -13.0196      1.00000
    294     -13.0083      1.00000
    295     -12.9754      1.00000
    296     -12.9518      1.00000
    297     -12.9355      1.00000
    298     -12.9299      1.00000
    299     -12.8618      1.00000
    300     -12.8370      1.00000
    301     -12.8144      1.00000
    302     -12.7510      1.00000
    303     -12.7449      1.00000
    304     -12.7180      1.00000
    305     -12.6398      1.00000
    306     -12.5413      1.00000
    307     -12.4642      1.00000
    308     -12.3843      1.00000
    309     -12.3627      1.00000
    310     -12.2930      1.00000
    311     -12.2895      1.00000
    312     -12.2357      1.00000
    313     -12.2029      1.00000
    314     -12.1871      1.00000
    315     -12.0716      1.00000
    316     -12.0668      1.00000
    317     -12.0642      1.00000
    318     -12.0179      1.00000
    319     -11.9901      1.00000
    320     -11.9762      1.00000
    321     -11.9641      1.00000
    322     -11.9383      1.00000
    323     -11.9213      1.00000
    324     -11.9048      1.00000
    325     -11.8804      1.00000
    326     -11.8605      1.00000
    327     -11.8532      1.00000
    328     -11.8496      1.00000
    329     -11.8160      1.00000
    330     -11.8088      1.00000
    331     -11.8036      1.00000
    332     -11.7952      1.00000
    333     -11.7781      1.00000
    334     -11.7290      1.00000
    335     -11.7162      1.00000
    336     -11.7054      1.00000
    337     -11.6891      1.00000
    338     -11.6848      1.00000
    339     -11.6662      1.00000
    340     -11.6548      1.00000
    341     -11.6461      1.00000
    342     -11.6332      1.00000
    343     -11.5970      1.00000
    344     -11.5848      1.00000
    345     -11.5798      1.00000
    346     -11.5440      1.00000
    347     -11.5404      1.00000
    348     -11.5224      1.00000
    349     -11.5145      1.00000
    350     -11.5026      1.00000
    351     -11.4893      1.00000
    352     -11.4773      1.00000
    353     -11.4705      1.00000
    354     -11.4483      1.00000
    355     -11.4282      1.00000
    356     -11.4124      1.00000
    357     -11.4050      1.00000
    358     -11.3754      1.00000
    359     -11.3618      1.00000
    360     -11.0883      1.00000
    361     -11.0772      1.00000
    362     -11.0674      1.00000
    363     -11.0581      1.00000
    364     -11.0489      1.00000
    365     -11.0101      1.00000
    366     -11.0027      1.00000
    367     -10.9927      1.00000
    368     -10.9616      1.00000
    369     -10.9500      1.00000
    370     -10.9421      1.00000
    371     -10.9323      1.00000
    372     -10.9127      1.00000
    373     -10.9052      1.00000
    374     -10.8423      1.00000
    375     -10.8347      1.00000
    376     -10.8320      1.00000
    377     -10.8195      1.00000
    378     -10.8044      1.00000
    379     -10.7887      1.00000
    380     -10.7531      1.00000
    381     -10.7481      1.00000
    382     -10.7453      1.00000
    383     -10.7281      1.00000
    384     -10.7013      1.00000
    385     -10.6925      1.00000
    386     -10.6888      1.00000
    387     -10.6791      1.00000
    388     -10.6668      1.00000
    389     -10.6657      1.00000
    390     -10.6566      1.00000
    391     -10.6481      1.00000
    392     -10.6464      1.00000
    393     -10.6438      1.00000
    394     -10.6341      1.00000
    395     -10.6183      1.00000
    396     -10.6073      1.00000
    397     -10.5999      1.00000
    398     -10.5916      1.00000
    399     -10.5258      1.00000
    400     -10.5224      1.00000
    401     -10.5072      1.00000
    402     -10.5033      1.00000
    403     -10.5022      1.00000
    404     -10.4646      1.00000
    405     -10.4586      1.00000
    406     -10.4407      1.00000
    407     -10.4362      1.00000
    408     -10.4298      1.00000
    409     -10.4207      1.00000
    410     -10.4013      1.00000
    411     -10.3893      1.00000
    412     -10.3822      1.00000
    413     -10.3591      1.00000
    414     -10.3384      1.00000
    415     -10.3265      1.00000
    416     -10.3240      1.00000
    417     -10.3201      1.00000
    418     -10.3186      1.00000
    419     -10.3160      1.00000
    420     -10.3062      1.00000
    421     -10.2947      1.00000
    422     -10.2615      1.00000
    423     -10.2456      1.00000
    424     -10.2379      1.00000
    425     -10.2179      1.00000
    426     -10.2146      1.00000
    427     -10.2087      1.00000
    428     -10.2032      1.00000
    429     -10.1964      1.00000
    430     -10.1903      1.00000
    431     -10.1879      1.00000
    432     -10.1764      1.00000
    433     -10.1666      1.00000
    434     -10.1485      1.00000
    435     -10.1068      1.00000
    436     -10.0947      1.00000
    437     -10.0864      1.00000
    438     -10.0766      1.00000
    439     -10.0700      1.00000
    440     -10.0539      1.00000
    441     -10.0436      1.00000
    442     -10.0197      1.00000
    443     -10.0099      1.00000
    444     -10.0038      1.00000
    445      -9.9967      1.00000
    446      -9.9892      1.00000
    447      -9.9653      1.00000
    448      -9.9596      1.00000
    449      -9.9536      1.00000
    450      -9.9518      1.00000
    451      -9.9247      1.00000
    452      -9.9238      1.00000
    453      -9.8942      1.00000
    454      -9.8661      1.00000
    455      -9.8597      1.00000
    456      -9.8429      1.00000
    457      -9.8299      1.00000
    458      -9.8223      1.00000
    459      -9.7764      1.00000
    460      -9.7660      1.00000
    461      -9.7624      1.00000
    462      -9.7578      1.00000
    463      -9.7438      1.00000
    464      -9.7288      1.00000
    465      -9.7217      1.00000
    466      -9.7020      1.00000
    467      -9.6908      1.00000
    468      -9.6885      1.00000
    469      -9.6272      1.00000
    470      -9.6176      1.00000
    471      -9.5905      1.00000
    472      -9.5782      1.00000
    473      -9.5756      1.00000
    474      -9.5366      1.00000
    475      -9.5345      1.00000
    476      -9.5342      1.00000
    477      -9.5307      1.00000
    478      -9.5123      1.00000
    479      -9.5053      1.00000
    480      -9.4722      1.00000
    481      -9.4375      1.00000
    482      -9.4241      1.00000
    483      -9.4119      1.00000
    484      -9.4060      1.00000
    485      -9.3932      1.00000
    486      -9.3843      1.00000
    487      -9.3800      1.00000
    488      -9.3702      1.00000
    489      -9.3617      1.00000
    490      -9.3508      1.00000
    491      -9.3490      1.00000
    492      -9.3465      1.00000
    493      -9.3434      1.00000
    494      -9.3407      1.00000
    495      -9.3373      1.00000
    496      -9.3316      1.00000
    497      -9.3185      1.00000
    498      -9.3088      1.00000
    499      -9.2997      1.00000
    500      -9.2818      1.00000
    501      -9.2700      1.00000
    502      -9.2458      1.00000
    503      -9.2368      1.00000
    504      -9.2287      1.00000
    505      -9.2238      1.00000
    506      -9.1891      1.00000
    507      -9.1836      1.00000
    508      -9.1757      1.00000
    509      -9.1587      1.00000
    510      -9.1472      1.00000
    511      -9.1412      1.00000
    512      -9.1030      1.00000
    513      -9.0596      1.00000
    514      -8.9309      1.00000
    515      -8.9044      1.00000
    516      -8.8781      1.00000
    517      -8.8611      1.00000
    518      -8.8498      1.00000
    519      -8.8319      1.00000
    520      -8.8144      1.00000
    521      -8.8031      1.00000
    522      -8.7761      1.00000
    523      -8.7754      1.00000
    524      -8.7703      1.00000
    525      -8.6662      1.00000
    526      -8.6577      1.00000
    527      -8.6342      1.00000
    528      -8.6256      1.00000
    529      -8.6017      1.00000
    530      -8.5894      1.00000
    531      -8.5764      1.00000
    532      -8.5628      1.00000
    533      -8.5434      1.00000
    534      -8.5287      1.00000
    535      -8.5127      1.00000
    536      -8.5062      1.00000
    537      -8.4964      1.00000
    538      -8.4932      1.00000
    539      -8.4659      1.00000
    540      -8.4498      1.00000
    541      -8.4434      1.00000
    542      -8.4295      1.00000
    543      -8.4215      1.00000
    544      -8.4148      1.00000
    545      -8.4109      1.00000
    546      -8.3950      1.00000
    547      -8.3770      1.00000
    548      -8.3626      1.00000
    549      -8.3525      1.00000
    550      -8.3406      1.00000
    551      -8.3373      1.00000
    552      -8.3261      1.00000
    553      -8.3245      1.00000
    554      -8.3184      1.00000
    555      -8.3124      1.00000
    556      -8.3050      1.00000
    557      -8.3002      1.00000
    558      -8.2820      1.00000
    559      -8.2721      1.00000
    560      -8.2691      1.00000
    561      -8.2433      1.00000
    562      -8.2282      1.00000
    563      -8.1967      1.00000
    564      -8.1795      1.00000
    565      -8.1766      1.00000
    566      -8.1620      1.00000
    567      -8.1392      1.00000
    568      -8.1368      1.00000
    569      -8.1238      1.00000
    570      -8.0382      1.00000
    571      -7.9865      1.00000
    572      -7.9688      1.00000
    573      -7.9227      1.00000
    574      -7.9020      1.00000
    575      -7.8689      1.00000
    576      -7.8577      1.00000
    577      -7.8514      1.00000
    578      -7.8263      1.00000
    579      -7.8040      1.00000
    580      -7.7874      1.00000
    581      -7.7832      1.00000
    582      -7.7730      1.00000
    583      -7.7634      1.00000
    584      -7.7289      1.00000
    585      -7.7210      1.00000
    586      -7.7006      1.00000
    587      -7.6923      1.00000
    588      -7.6809      1.00000
    589      -7.6421      1.00000
    590      -7.6298      1.00000
    591      -7.6211      1.00000
    592      -7.6185      1.00000
    593      -7.5857      1.00000
    594      -7.5772      1.00000
    595      -7.5600      1.00000
    596      -7.5514      1.00000
    597      -7.5460      1.00000
    598      -7.5381      1.00000
    599      -7.5322      1.00000
    600      -7.5152      1.00000
    601      -7.4954      1.00000
    602      -7.4900      1.00000
    603      -7.4821      1.00000
    604      -7.4488      1.00000
    605      -7.4084      1.00000
    606      -7.3847      1.00000
    607      -7.3466      1.00000
    608      -7.3305      1.00000
    609      -7.2799      1.00000
    610      -7.2333      1.00000
    611      -7.2325      1.00000
    612      -7.2072      1.00000
    613      -7.1973      1.00000
    614      -7.1943      1.00000
    615      -7.1898      1.00000
    616      -7.1826      1.00000
    617      -7.1527      1.00000
    618      -7.1360      1.00000
    619      -7.1097      1.00000
    620      -7.0942      1.00000
    621      -7.0928      1.00000
    622      -7.0294      1.00000
    623      -7.0156      1.00000
    624      -7.0113      1.00000
    625      -6.9935      1.00000
    626      -6.9770      1.00000
    627      -6.9663      1.00000
    628      -6.9627      1.00000
    629      -6.9576      1.00000
    630      -6.9498      1.00000
    631      -6.9442      1.00000
    632      -6.9227      1.00000
    633      -6.8903      1.00000
    634      -6.8815      1.00000
    635      -6.8158      1.00000
    636      -6.8022      1.00000
    637      -6.7689      1.00000
    638      -6.7562      1.00000
    639      -6.7279      1.00000
    640      -6.7201      1.00000
    641      -6.7094      1.00000
    642      -6.7007      1.00000
    643      -6.6826      1.00000
    644      -6.6775      1.00000
    645      -6.6650      1.00000
    646      -6.6599      1.00000
    647      -6.6496      1.00000
    648      -6.6403      1.00000
    649      -6.6310      1.00000
    650      -6.6275      1.00000
    651      -6.6205      1.00000
    652      -6.6069      1.00000
    653      -6.6022      1.00000
    654      -6.5874      1.00000
    655      -6.5627      1.00000
    656      -6.4663      1.00000
    657      -6.4406      1.00000
    658      -6.4078      1.00000
    659      -6.3198      1.00000
    660      -6.2814      1.00000
    661      -6.2671      1.00000
    662      -6.2550      1.00000
    663      -6.2274      1.00000
    664      -6.2076      1.00000
    665      -6.1823      1.00000
    666      -6.1329      1.00000
    667      -6.1102      1.00000
    668      -6.0871      1.00000
    669      -6.0497      1.00000
    670      -5.9884      1.00000
    671      -5.9832      1.00000
    672      -5.9224      1.00000
    673      -5.8999      1.00000
    674      -5.8462      1.00000
    675      -5.8136      1.00000
    676      -5.7929      1.00000
    677      -5.7899      1.00000
    678      -5.7698      1.00000
    679      -5.7349      1.00000
    680      -5.7219      1.00000
    681      -5.7144      1.00000
    682      -5.6368      1.00000
    683      -5.6089      1.00000
    684      -5.5947      1.00000
    685      -5.5879      1.00000
    686      -5.5826      1.00000
    687      -5.5679      1.00000
    688      -5.5592      1.00000
    689      -5.5519      1.00000
    690      -5.5260      1.00000
    691      -5.5195      1.00000
    692      -5.4947      1.00000
    693      -5.4801      1.00000
    694      -5.4757      1.00000
    695      -5.4332      1.00000
    696      -5.4184      1.00000
    697      -5.3882      1.00000
    698      -5.3765      1.00000
    699      -5.3378      1.00000
    700      -5.2990      1.00000
    701      -5.2529      1.00000
    702      -5.2260      1.00000
    703      -5.1984      1.00000
    704      -5.1551      1.00000
    705      -5.1458      1.00000
    706      -5.1226      1.00000
    707      -5.0765      1.00000
    708      -5.0558      1.00000
    709      -4.9979      1.00000
    710      -4.9364      1.00000
    711      -4.8709      1.00000
    712      -4.8456      1.00000
    713      -4.8373      1.00000
    714      -4.8128      1.00000
    715      -4.7938      1.00000
    716      -4.7430      1.00000
    717      -4.7335      1.00000
    718      -4.6995      1.00000
    719      -4.6604      1.00000
    720      -4.5020      1.00000
    721      -4.3538      1.00000
    722      -4.2993      1.00000
    723      -4.2459      1.00000
    724      -4.2149      1.00000
    725      -4.1596      1.00000
    726      -4.1398      1.00000
    727      -4.0481      1.00000
    728      -3.9232      1.00000
    729      -3.8367      1.00000
    730      -3.7438      1.00000
    731      -3.6624      1.00000
    732      -2.6895      0.00000
    733      -2.5703      0.00000
    734      -2.5334      0.00000
    735      -2.4595      0.00000
    736      -2.3728      0.00000
    737      -2.2468      0.00000
    738      -2.2314      0.00000
    739      -2.0801      0.00000
    740      -2.0569      0.00000
    741      -2.0265      0.00000
    742      -1.9302      0.00000
    743      -1.9016      0.00000
    744      -1.8746      0.00000
    745      -1.8698      0.00000
    746      -1.8643      0.00000
    747      -1.8543      0.00000
    748      -1.8328      0.00000
    749      -1.8208      0.00000
    750      -1.8114      0.00000
    751      -1.8063      0.00000
    752      -1.7402      0.00000
    753      -1.7298      0.00000
    754      -1.7249      0.00000
    755      -1.7179      0.00000
    756      -1.7150      0.00000
    757      -1.6824      0.00000
    758      -1.6661      0.00000
    759      -1.6489      0.00000
    760      -1.6306      0.00000
    761      -1.6207      0.00000
    762      -1.6035      0.00000
    763      -1.5705      0.00000
    764      -1.5545      0.00000
    765      -1.4467      0.00000
    766      -1.4229      0.00000
    767      -1.3714      0.00000
    768      -1.3556      0.00000
    769      -1.3497      0.00000
    770      -1.3337      0.00000
    771      -1.3294      0.00000
    772      -1.3192      0.00000
    773      -1.3170      0.00000
    774      -1.2998      0.00000
    775      -1.2814      0.00000
    776      -1.2635      0.00000
    777      -1.2598      0.00000
    778      -1.2589      0.00000
    779      -1.2567      0.00000
    780      -1.2522      0.00000
    781      -1.2490      0.00000
    782      -1.2371      0.00000
    783      -1.2158      0.00000
    784      -1.1691      0.00000
    785      -1.1534      0.00000
    786      -1.1212      0.00000
    787      -1.0689      0.00000
    788      -0.9820      0.00000
    789      -0.9761      0.00000
    790      -0.8952      0.00000
    791      -0.8731      0.00000
    792      -0.7477      0.00000
    793      -0.7154      0.00000
    794      -0.6487      0.00000
    795      -0.6287      0.00000
    796      -0.6043      0.00000
    797      -0.5674      0.00000
    798      -0.4643      0.00000
    799      -0.4107      0.00000
    800      -0.3799      0.00000
    801      -0.3358      0.00000
    802      -0.3009      0.00000
    803      -0.2682      0.00000
    804      -0.2562      0.00000
    805      -0.1942      0.00000
    806      -0.1694      0.00000
    807      -0.1332      0.00000
    808      -0.1213      0.00000
    809      -0.1114      0.00000
    810      -0.0947      0.00000
    811      -0.0484      0.00000
    812      -0.0329      0.00000
    813      -0.0014      0.00000
    814       0.0155      0.00000
    815       0.0458      0.00000
    816       0.0731      0.00000
    817       0.0838      0.00000
    818       0.1073      0.00000
    819       0.2181      0.00000
    820       0.2818      0.00000
    821       0.2940      0.00000
    822       0.3659      0.00000
    823       0.3894      0.00000
    824       0.4123      0.00000
    825       0.4205      0.00000
    826       0.4337      0.00000
    827       0.4388      0.00000
    828       0.4651      0.00000
    829       0.4803      0.00000
    830       0.5104      0.00000
    831       0.5397      0.00000
    832       0.5439      0.00000
    833       0.5455      0.00000
    834       0.5563      0.00000
    835       0.5778      0.00000
    836       0.5818      0.00000
    837       0.5830      0.00000
    838       0.5871      0.00000
    839       0.5975      0.00000
    840       0.6031      0.00000
    841       0.6328      0.00000
    842       0.6424      0.00000
    843       0.6686      0.00000
    844       0.7138      0.00000
    845       0.7269      0.00000
    846       0.7441      0.00000
    847       0.7493      0.00000
    848       0.7567      0.00000
    849       0.7643      0.00000
    850       0.7863      0.00000
    851       0.8601      0.00000
    852       0.8615      0.00000
    853       0.8732      0.00000
    854       0.9121      0.00000
    855       0.9378      0.00000
    856       0.9579      0.00000
    857       0.9647      0.00000
    858       0.9707      0.00000
    859       0.9808      0.00000
    860       0.9905      0.00000
    861       1.0322      0.00000
    862       1.0612      0.00000
    863       1.0654      0.00000
    864       1.0931      0.00000
    865       1.1065      0.00000
    866       1.1120      0.00000
    867       1.1141      0.00000
    868       1.1379      0.00000
    869       1.1452      0.00000
    870       1.1526      0.00000
    871       1.1683      0.00000
    872       1.2337      0.00000
    873       1.2468      0.00000
    874       1.2802      0.00000
    875       1.2927      0.00000
    876       1.3166      0.00000
    877       1.3824      0.00000
    878       1.3883      0.00000
    879       1.4012      0.00000
    880       1.4076      0.00000
    881       1.4163      0.00000
    882       1.4187      0.00000
    883       1.4253      0.00000
    884       1.4330      0.00000
    885       1.4377      0.00000
    886       1.4550      0.00000
    887       1.4647      0.00000
    888       1.4825      0.00000
    889       1.4917      0.00000
    890       1.5117      0.00000
    891       1.5163      0.00000
    892       1.5261      0.00000
    893       1.5683      0.00000
    894       1.5776      0.00000
    895       1.5917      0.00000
    896       1.5997      0.00000

 k-point    10 :       0.0000    0.0000   -0.5000
  band No.  band energies     occupation 
      1     -22.9729      1.00000
      2     -22.9595      1.00000
      3     -22.8389      1.00000
      4     -22.8286      1.00000
      5     -22.7668      1.00000
      6     -22.7507      1.00000
      7     -22.7466      1.00000
      8     -22.7461      1.00000
      9     -22.6317      1.00000
     10     -22.6172      1.00000
     11     -22.6159      1.00000
     12     -22.6158      1.00000
     13     -22.5694      1.00000
     14     -22.5653      1.00000
     15     -22.3683      1.00000
     16     -22.3535      1.00000
     17     -22.3534      1.00000
     18     -22.3524      1.00000
     19     -22.1802      1.00000
     20     -22.1706      1.00000
     21     -22.1376      1.00000
     22     -22.1215      1.00000
     23     -22.1169      1.00000
     24     -22.1168      1.00000
     25     -22.0092      1.00000
     26     -21.9891      1.00000
     27     -21.9875      1.00000
     28     -21.9874      1.00000
     29     -21.9656      1.00000
     30     -21.9599      1.00000
     31     -21.9597      1.00000
     32     -21.9580      1.00000
     33     -21.7445      1.00000
     34     -21.7281      1.00000
     35     -21.7273      1.00000
     36     -21.7261      1.00000
     37     -21.6507      1.00000
     38     -21.6467      1.00000
     39     -21.4545      1.00000
     40     -21.4379      1.00000
     41     -21.4378      1.00000
     42     -21.4355      1.00000
     43     -21.3530      1.00000
     44     -21.3389      1.00000
     45     -21.3373      1.00000
     46     -21.3353      1.00000
     47     -21.1270      1.00000
     48     -21.1075      1.00000
     49     -21.0988      1.00000
     50     -21.0988      1.00000
     51     -21.0110      1.00000
     52     -20.9969      1.00000
     53     -20.9819      1.00000
     54     -20.9765      1.00000
     55     -20.9721      1.00000
     56     -20.9711      1.00000
     57     -20.8440      1.00000
     58     -20.8225      1.00000
     59     -20.8209      1.00000
     60     -20.8180      1.00000
     61     -20.7967      1.00000
     62     -20.7903      1.00000
     63     -20.7900      1.00000
     64     -20.7879      1.00000
     65     -20.7275      1.00000
     66     -20.7182      1.00000
     67     -20.7179      1.00000
     68     -20.7141      1.00000
     69     -20.3596      1.00000
     70     -20.3374      1.00000
     71     -20.3339      1.00000
     72     -20.3305      1.00000
     73     -20.2361      1.00000
     74     -20.2246      1.00000
     75     -20.1953      1.00000
     76     -20.1820      1.00000
     77     -20.1812      1.00000
     78     -20.1778      1.00000
     79     -20.0405      1.00000
     80     -20.0218      1.00000
     81     -20.0212      1.00000
     82     -20.0204      1.00000
     83     -19.8553      1.00000
     84     -19.8322      1.00000
     85     -19.8272      1.00000
     86     -19.8236      1.00000
     87     -19.7596      1.00000
     88     -19.7501      1.00000
     89     -19.7375      1.00000
     90     -19.7372      1.00000
     91     -19.6358      1.00000
     92     -19.6223      1.00000
     93     -19.6146      1.00000
     94     -19.6130      1.00000
     95     -19.4554      1.00000
     96     -19.4246      1.00000
     97     -19.4246      1.00000
     98     -19.4216      1.00000
     99     -19.3837      1.00000
    100     -19.3727      1.00000
    101     -19.3681      1.00000
    102     -19.3646      1.00000
    103     -19.3432      1.00000
    104     -19.3394      1.00000
    105     -19.2259      1.00000
    106     -19.2080      1.00000
    107     -19.2024      1.00000
    108     -19.1987      1.00000
    109     -19.1549      1.00000
    110     -19.1423      1.00000
    111     -19.1417      1.00000
    112     -19.1401      1.00000
    113     -19.0144      1.00000
    114     -19.0016      1.00000
    115     -19.0001      1.00000
    116     -18.9944      1.00000
    117     -18.6270      1.00000
    118     -18.5685      1.00000
    119     -18.5682      1.00000
    120     -18.5627      1.00000
    121     -18.5316      1.00000
    122     -18.5159      1.00000
    123     -18.5143      1.00000
    124     -18.5075      1.00000
    125     -18.4862      1.00000
    126     -18.4776      1.00000
    127     -18.4738      1.00000
    128     -18.4704      1.00000
    129     -18.3670      1.00000
    130     -18.3546      1.00000
    131     -18.2186      1.00000
    132     -18.1738      1.00000
    133     -18.1710      1.00000
    134     -18.1667      1.00000
    135     -18.1626      1.00000
    136     -18.1500      1.00000
    137     -18.1446      1.00000
    138     -18.1438      1.00000
    139     -18.0504      1.00000
    140     -18.0460      1.00000
    141     -18.0278      1.00000
    142     -18.0237      1.00000
    143     -17.9521      1.00000
    144     -17.9273      1.00000
    145     -17.9218      1.00000
    146     -17.9188      1.00000
    147     -17.8282      1.00000
    148     -17.8183      1.00000
    149     -17.7968      1.00000
    150     -17.7851      1.00000
    151     -17.7543      1.00000
    152     -17.7281      1.00000
    153     -17.7220      1.00000
    154     -17.7138      1.00000
    155     -17.7071      1.00000
    156     -17.7048      1.00000
    157     -17.6757      1.00000
    158     -17.6658      1.00000
    159     -17.4853      1.00000
    160     -17.4788      1.00000
    161     -17.4477      1.00000
    162     -17.4334      1.00000
    163     -17.3782      1.00000
    164     -17.3463      1.00000
    165     -17.3231      1.00000
    166     -17.3019      1.00000
    167     -17.2888      1.00000
    168     -17.2759      1.00000
    169     -17.2456      1.00000
    170     -17.2348      1.00000
    171     -17.1656      1.00000
    172     -17.1501      1.00000
    173     -17.0354      1.00000
    174     -17.0315      1.00000
    175     -16.9955      1.00000
    176     -16.9835      1.00000
    177     -16.6373      1.00000
    178     -16.5728      1.00000
    179     -16.5165      1.00000
    180     -16.4965      1.00000
    181     -16.4060      1.00000
    182     -16.3263      1.00000
    183     -16.3228      1.00000
    184     -16.3211      1.00000
    185     -16.3162      1.00000
    186     -16.3151      1.00000
    187     -16.2198      1.00000
    188     -16.1994      1.00000
    189     -16.1686      1.00000
    190     -16.1452      1.00000
    191     -16.1277      1.00000
    192     -16.0595      1.00000
    193     -16.0482      1.00000
    194     -16.0326      1.00000
    195     -16.0261      1.00000
    196     -15.8486      1.00000
    197     -15.8344      1.00000
    198     -15.8342      1.00000
    199     -15.7916      1.00000
    200     -15.7400      1.00000
    201     -15.7304      1.00000
    202     -15.7295      1.00000
    203     -15.6804      1.00000
    204     -15.6802      1.00000
    205     -15.6765      1.00000
    206     -15.6728      1.00000
    207     -15.6491      1.00000
    208     -15.6483      1.00000
    209     -15.6279      1.00000
    210     -15.5405      1.00000
    211     -15.5309      1.00000
    212     -15.5281      1.00000
    213     -15.4849      1.00000
    214     -15.4837      1.00000
    215     -15.4448      1.00000
    216     -15.3765      1.00000
    217     -15.3721      1.00000
    218     -15.3663      1.00000
    219     -15.3641      1.00000
    220     -15.3618      1.00000
    221     -15.3373      1.00000
    222     -15.3188      1.00000
    223     -15.2778      1.00000
    224     -15.2454      1.00000
    225     -15.2371      1.00000
    226     -15.2368      1.00000
    227     -15.2013      1.00000
    228     -15.1933      1.00000
    229     -15.1737      1.00000
    230     -15.1674      1.00000
    231     -15.1443      1.00000
    232     -15.1334      1.00000
    233     -15.0772      1.00000
    234     -15.0022      1.00000
    235     -14.9756      1.00000
    236     -14.9721      1.00000
    237     -14.9665      1.00000
    238     -14.9437      1.00000
    239     -14.8510      1.00000
    240     -14.7214      1.00000
    241     -14.7084      1.00000
    242     -14.6201      1.00000
    243     -14.6023      1.00000
    244     -14.2498      1.00000
    245     -14.2457      1.00000
    246     -14.2393      1.00000
    247     -14.2314      1.00000
    248     -14.2243      1.00000
    249     -14.2166      1.00000
    250     -14.1645      1.00000
    251     -14.1545      1.00000
    252     -14.1190      1.00000
    253     -14.1153      1.00000
    254     -14.0824      1.00000
    255     -14.0755      1.00000
    256     -13.9418      1.00000
    257     -13.9371      1.00000
    258     -13.8471      1.00000
    259     -13.8140      1.00000
    260     -13.8127      1.00000
    261     -13.8107      1.00000
    262     -13.8105      1.00000
    263     -13.7964      1.00000
    264     -13.7898      1.00000
    265     -13.7721      1.00000
    266     -13.7563      1.00000
    267     -13.7400      1.00000
    268     -13.6943      1.00000
    269     -13.6792      1.00000
    270     -13.6752      1.00000
    271     -13.6589      1.00000
    272     -13.6287      1.00000
    273     -13.6201      1.00000
    274     -13.5317      1.00000
    275     -13.5250      1.00000
    276     -13.5188      1.00000
    277     -13.4957      1.00000
    278     -13.3555      1.00000
    279     -13.3500      1.00000
    280     -13.3450      1.00000
    281     -13.3327      1.00000
    282     -13.3207      1.00000
    283     -13.3087      1.00000
    284     -13.1650      1.00000
    285     -13.1638      1.00000
    286     -13.1206      1.00000
    287     -13.1128      1.00000
    288     -13.1064      1.00000
    289     -13.1032      1.00000
    290     -13.0834      1.00000
    291     -13.0802      1.00000
    292     -13.0428      1.00000
    293     -13.0370      1.00000
    294     -13.0227      1.00000
    295     -13.0177      1.00000
    296     -12.9784      1.00000
    297     -12.9666      1.00000
    298     -12.8736      1.00000
    299     -12.8717      1.00000
    300     -12.8050      1.00000
    301     -12.8021      1.00000
    302     -12.7788      1.00000
    303     -12.7752      1.00000
    304     -12.6968      1.00000
    305     -12.6949      1.00000
    306     -12.5059      1.00000
    307     -12.5000      1.00000
    308     -12.3757      1.00000
    309     -12.3725      1.00000
    310     -12.2667      1.00000
    311     -12.2646      1.00000
    312     -12.2500      1.00000
    313     -12.2430      1.00000
    314     -12.1285      1.00000
    315     -12.1275      1.00000
    316     -12.0449      1.00000
    317     -12.0412      1.00000
    318     -12.0168      1.00000
    319     -12.0139      1.00000
    320     -11.9536      1.00000
    321     -11.9430      1.00000
    322     -11.9212      1.00000
    323     -11.9186      1.00000
    324     -11.8938      1.00000
    325     -11.8926      1.00000
    326     -11.8747      1.00000
    327     -11.8719      1.00000
    328     -11.8258      1.00000
    329     -11.8243      1.00000
    330     -11.7956      1.00000
    331     -11.7910      1.00000
    332     -11.7612      1.00000
    333     -11.7584      1.00000
    334     -11.7524      1.00000
    335     -11.7521      1.00000
    336     -11.7204      1.00000
    337     -11.7153      1.00000
    338     -11.7019      1.00000
    339     -11.6856      1.00000
    340     -11.6471      1.00000
    341     -11.6335      1.00000
    342     -11.6049      1.00000
    343     -11.6036      1.00000
    344     -11.5960      1.00000
    345     -11.5854      1.00000
    346     -11.5515      1.00000
    347     -11.5503      1.00000
    348     -11.5208      1.00000
    349     -11.5166      1.00000
    350     -11.5093      1.00000
    351     -11.5030      1.00000
    352     -11.4392      1.00000
    353     -11.4351      1.00000
    354     -11.4249      1.00000
    355     -11.4211      1.00000
    356     -11.4200      1.00000
    357     -11.4190      1.00000
    358     -11.4115      1.00000
    359     -11.4069      1.00000
    360     -11.0749      1.00000
    361     -11.0691      1.00000
    362     -11.0318      1.00000
    363     -11.0287      1.00000
    364     -11.0169      1.00000
    365     -11.0148      1.00000
    366     -11.0051      1.00000
    367     -11.0035      1.00000
    368     -10.9777      1.00000
    369     -10.9750      1.00000
    370     -10.9579      1.00000
    371     -10.9568      1.00000
    372     -10.9228      1.00000
    373     -10.9157      1.00000
    374     -10.8401      1.00000
    375     -10.8343      1.00000
    376     -10.8335      1.00000
    377     -10.8202      1.00000
    378     -10.7539      1.00000
    379     -10.7518      1.00000
    380     -10.7437      1.00000
    381     -10.7429      1.00000
    382     -10.7311      1.00000
    383     -10.7228      1.00000
    384     -10.7032      1.00000
    385     -10.6968      1.00000
    386     -10.6893      1.00000
    387     -10.6861      1.00000
    388     -10.6848      1.00000
    389     -10.6742      1.00000
    390     -10.6710      1.00000
    391     -10.6644      1.00000
    392     -10.6567      1.00000
    393     -10.6507      1.00000
    394     -10.6214      1.00000
    395     -10.6087      1.00000
    396     -10.5851      1.00000
    397     -10.5839      1.00000
    398     -10.5580      1.00000
    399     -10.5543      1.00000
    400     -10.5519      1.00000
    401     -10.5510      1.00000
    402     -10.4985      1.00000
    403     -10.4889      1.00000
    404     -10.4759      1.00000
    405     -10.4749      1.00000
    406     -10.4463      1.00000
    407     -10.4401      1.00000
    408     -10.4107      1.00000
    409     -10.3996      1.00000
    410     -10.3896      1.00000
    411     -10.3788      1.00000
    412     -10.3739      1.00000
    413     -10.3706      1.00000
    414     -10.3568      1.00000
    415     -10.3536      1.00000
    416     -10.3368      1.00000
    417     -10.3256      1.00000
    418     -10.3195      1.00000
    419     -10.3184      1.00000
    420     -10.3051      1.00000
    421     -10.2967      1.00000
    422     -10.2596      1.00000
    423     -10.2470      1.00000
    424     -10.2316      1.00000
    425     -10.2237      1.00000
    426     -10.2092      1.00000
    427     -10.2038      1.00000
    428     -10.1930      1.00000
    429     -10.1895      1.00000
    430     -10.1851      1.00000
    431     -10.1786      1.00000
    432     -10.1769      1.00000
    433     -10.1652      1.00000
    434     -10.1500      1.00000
    435     -10.1467      1.00000
    436     -10.0852      1.00000
    437     -10.0734      1.00000
    438     -10.0722      1.00000
    439     -10.0568      1.00000
    440     -10.0412      1.00000
    441     -10.0412      1.00000
    442     -10.0362      1.00000
    443     -10.0236      1.00000
    444      -9.9902      1.00000
    445      -9.9830      1.00000
    446      -9.9806      1.00000
    447      -9.9690      1.00000
    448      -9.9621      1.00000
    449      -9.9607      1.00000
    450      -9.9468      1.00000
    451      -9.9321      1.00000
    452      -9.9114      1.00000
    453      -9.9071      1.00000
    454      -9.8622      1.00000
    455      -9.8593      1.00000
    456      -9.8575      1.00000
    457      -9.8465      1.00000
    458      -9.7972      1.00000
    459      -9.7916      1.00000
    460      -9.7590      1.00000
    461      -9.7505      1.00000
    462      -9.7442      1.00000
    463      -9.7344      1.00000
    464      -9.7244      1.00000
    465      -9.7243      1.00000
    466      -9.7089      1.00000
    467      -9.7006      1.00000
    468      -9.6756      1.00000
    469      -9.6746      1.00000
    470      -9.6118      1.00000
    471      -9.6019      1.00000
    472      -9.5633      1.00000
    473      -9.5484      1.00000
    474      -9.5417      1.00000
    475      -9.5398      1.00000
    476      -9.5326      1.00000
    477      -9.5316      1.00000
    478      -9.5308      1.00000
    479      -9.5155      1.00000
    480      -9.4422      1.00000
    481      -9.4407      1.00000
    482      -9.4167      1.00000
    483      -9.4075      1.00000
    484      -9.4005      1.00000
    485      -9.3938      1.00000
    486      -9.3814      1.00000
    487      -9.3718      1.00000
    488      -9.3643      1.00000
    489      -9.3590      1.00000
    490      -9.3510      1.00000
    491      -9.3503      1.00000
    492      -9.3453      1.00000
    493      -9.3442      1.00000
    494      -9.3429      1.00000
    495      -9.3402      1.00000
    496      -9.3247      1.00000
    497      -9.3219      1.00000
    498      -9.3166      1.00000
    499      -9.3011      1.00000
    500      -9.2973      1.00000
    501      -9.2791      1.00000
    502      -9.2599      1.00000
    503      -9.2509      1.00000
    504      -9.2082      1.00000
    505      -9.2063      1.00000
    506      -9.1873      1.00000
    507      -9.1824      1.00000
    508      -9.1784      1.00000
    509      -9.1775      1.00000
    510      -9.1522      1.00000
    511      -9.1513      1.00000
    512      -9.0912      1.00000
    513      -9.0705      1.00000
    514      -8.9301      1.00000
    515      -8.8746      1.00000
    516      -8.8680      1.00000
    517      -8.8672      1.00000
    518      -8.8596      1.00000
    519      -8.8526      1.00000
    520      -8.8150      1.00000
    521      -8.8032      1.00000
    522      -8.7759      1.00000
    523      -8.7702      1.00000
    524      -8.7164      1.00000
    525      -8.7127      1.00000
    526      -8.6606      1.00000
    527      -8.6333      1.00000
    528      -8.6212      1.00000
    529      -8.5920      1.00000
    530      -8.5880      1.00000
    531      -8.5841      1.00000
    532      -8.5640      1.00000
    533      -8.5335      1.00000
    534      -8.5289      1.00000
    535      -8.5279      1.00000
    536      -8.5094      1.00000
    537      -8.5016      1.00000
    538      -8.4836      1.00000
    539      -8.4799      1.00000
    540      -8.4483      1.00000
    541      -8.4409      1.00000
    542      -8.4248      1.00000
    543      -8.4218      1.00000
    544      -8.4179      1.00000
    545      -8.4142      1.00000
    546      -8.3921      1.00000
    547      -8.3473      1.00000
    548      -8.3395      1.00000
    549      -8.3394      1.00000
    550      -8.3337      1.00000
    551      -8.3299      1.00000
    552      -8.3259      1.00000
    553      -8.3218      1.00000
    554      -8.3203      1.00000
    555      -8.3133      1.00000
    556      -8.3081      1.00000
    557      -8.3037      1.00000
    558      -8.2944      1.00000
    559      -8.2890      1.00000
    560      -8.2806      1.00000
    561      -8.2740      1.00000
    562      -8.2234      1.00000
    563      -8.2158      1.00000
    564      -8.1703      1.00000
    565      -8.1673      1.00000
    566      -8.1511      1.00000
    567      -8.1508      1.00000
    568      -8.1426      1.00000
    569      -8.1413      1.00000
    570      -8.0142      1.00000
    571      -8.0104      1.00000
    572      -7.9392      1.00000
    573      -7.9337      1.00000
    574      -7.9105      1.00000
    575      -7.8468      1.00000
    576      -7.8384      1.00000
    577      -7.8205      1.00000
    578      -7.8183      1.00000
    579      -7.8176      1.00000
    580      -7.8131      1.00000
    581      -7.8088      1.00000
    582      -7.7724      1.00000
    583      -7.7565      1.00000
    584      -7.7425      1.00000
    585      -7.7373      1.00000
    586      -7.6729      1.00000
    587      -7.6588      1.00000
    588      -7.6556      1.00000
    589      -7.6479      1.00000
    590      -7.6360      1.00000
    591      -7.6321      1.00000
    592      -7.6000      1.00000
    593      -7.5901      1.00000
    594      -7.5834      1.00000
    595      -7.5825      1.00000
    596      -7.5636      1.00000
    597      -7.5538      1.00000
    598      -7.5280      1.00000
    599      -7.5277      1.00000
    600      -7.5138      1.00000
    601      -7.5066      1.00000
    602      -7.5047      1.00000
    603      -7.4975      1.00000
    604      -7.4334      1.00000
    605      -7.4234      1.00000
    606      -7.3716      1.00000
    607      -7.3583      1.00000
    608      -7.3304      1.00000
    609      -7.2722      1.00000
    610      -7.2190      1.00000
    611      -7.2182      1.00000
    612      -7.2117      1.00000
    613      -7.2113      1.00000
    614      -7.1933      1.00000
    615      -7.1920      1.00000
    616      -7.1714      1.00000
    617      -7.1607      1.00000
    618      -7.1568      1.00000
    619      -7.1095      1.00000
    620      -7.0943      1.00000
    621      -7.0941      1.00000
    622      -7.0132      1.00000
    623      -7.0118      1.00000
    624      -7.0011      1.00000
    625      -6.9967      1.00000
    626      -6.9786      1.00000
    627      -6.9730      1.00000
    628      -6.9536      1.00000
    629      -6.9512      1.00000
    630      -6.9320      1.00000
    631      -6.9270      1.00000
    632      -6.9220      1.00000
    633      -6.9196      1.00000
    634      -6.8717      1.00000
    635      -6.8663      1.00000
    636      -6.7699      1.00000
    637      -6.7673      1.00000
    638      -6.7513      1.00000
    639      -6.7419      1.00000
    640      -6.6934      1.00000
    641      -6.6910      1.00000
    642      -6.6845      1.00000
    643      -6.6805      1.00000
    644      -6.6771      1.00000
    645      -6.6767      1.00000
    646      -6.6599      1.00000
    647      -6.6570      1.00000
    648      -6.6441      1.00000
    649      -6.6304      1.00000
    650      -6.6262      1.00000
    651      -6.6241      1.00000
    652      -6.6198      1.00000
    653      -6.6151      1.00000
    654      -6.5978      1.00000
    655      -6.5882      1.00000
    656      -6.4642      1.00000
    657      -6.4421      1.00000
    658      -6.4059      1.00000
    659      -6.3049      1.00000
    660      -6.2819      1.00000
    661      -6.2813      1.00000
    662      -6.2436      1.00000
    663      -6.2367      1.00000
    664      -6.1794      1.00000
    665      -6.1668      1.00000
    666      -6.1390      1.00000
    667      -6.1370      1.00000
    668      -6.0970      1.00000
    669      -6.0343      1.00000
    670      -6.0018      1.00000
    671      -5.9692      1.00000
    672      -5.9390      1.00000
    673      -5.8600      1.00000
    674      -5.8364      1.00000
    675      -5.8174      1.00000
    676      -5.7993      1.00000
    677      -5.7826      1.00000
    678      -5.7617      1.00000
    679      -5.7601      1.00000
    680      -5.7339      1.00000
    681      -5.6870      1.00000
    682      -5.6752      1.00000
    683      -5.6121      1.00000
    684      -5.5925      1.00000
    685      -5.5827      1.00000
    686      -5.5715      1.00000
    687      -5.5695      1.00000
    688      -5.5661      1.00000
    689      -5.5636      1.00000
    690      -5.5241      1.00000
    691      -5.5147      1.00000
    692      -5.4980      1.00000
    693      -5.4815      1.00000
    694      -5.4530      1.00000
    695      -5.4406      1.00000
    696      -5.4318      1.00000
    697      -5.3900      1.00000
    698      -5.3594      1.00000
    699      -5.3545      1.00000
    700      -5.2971      1.00000
    701      -5.2379      1.00000
    702      -5.2218      1.00000
    703      -5.2194      1.00000
    704      -5.1545      1.00000
    705      -5.1450      1.00000
    706      -5.1189      1.00000
    707      -5.0811      1.00000
    708      -5.0335      1.00000
    709      -5.0182      1.00000
    710      -4.9349      1.00000
    711      -4.8620      1.00000
    712      -4.8336      1.00000
    713      -4.8196      1.00000
    714      -4.8001      1.00000
    715      -4.7927      1.00000
    716      -4.7509      1.00000
    717      -4.7422      1.00000
    718      -4.7299      1.00000
    719      -4.6646      1.00000
    720      -4.5023      1.00000
    721      -4.3504      1.00000
    722      -4.2978      1.00000
    723      -4.2416      1.00000
    724      -4.2216      1.00000
    725      -4.1496      1.00000
    726      -4.1486      1.00000
    727      -4.0496      1.00000
    728      -3.8950      1.00000
    729      -3.8630      1.00000
    730      -3.7366      1.00000
    731      -3.6681      1.00000
    732      -2.6864      0.00000
    733      -2.5735      0.00000
    734      -2.5087      0.00000
    735      -2.4862      0.00000
    736      -2.3737      0.00000
    737      -2.2441      0.00000
    738      -2.2364      0.00000
    739      -2.0633      0.00000
    740      -2.0583      0.00000
    741      -2.0389      0.00000
    742      -1.9328      0.00000
    743      -1.8876      0.00000
    744      -1.8810      0.00000
    745      -1.8571      0.00000
    746      -1.8549      0.00000
    747      -1.8505      0.00000
    748      -1.8502      0.00000
    749      -1.8304      0.00000
    750      -1.8245      0.00000
    751      -1.7711      0.00000
    752      -1.7670      0.00000
    753      -1.7314      0.00000
    754      -1.7269      0.00000
    755      -1.7036      0.00000
    756      -1.6969      0.00000
    757      -1.6754      0.00000
    758      -1.6738      0.00000
    759      -1.6501      0.00000
    760      -1.6490      0.00000
    761      -1.6411      0.00000
    762      -1.5834      0.00000
    763      -1.5766      0.00000
    764      -1.5730      0.00000
    765      -1.4447      0.00000
    766      -1.4243      0.00000
    767      -1.3662      0.00000
    768      -1.3591      0.00000
    769      -1.3503      0.00000
    770      -1.3266      0.00000
    771      -1.3012      0.00000
    772      -1.2943      0.00000
    773      -1.2923      0.00000
    774      -1.2901      0.00000
    775      -1.2862      0.00000
    776      -1.2801      0.00000
    777      -1.2788      0.00000
    778      -1.2769      0.00000
    779      -1.2594      0.00000
    780      -1.2590      0.00000
    781      -1.2570      0.00000
    782      -1.2179      0.00000
    783      -1.2077      0.00000
    784      -1.1699      0.00000
    785      -1.1693      0.00000
    786      -1.1147      0.00000
    787      -1.1089      0.00000
    788      -0.9436      0.00000
    789      -0.9373      0.00000
    790      -0.9264      0.00000
    791      -0.9198      0.00000
    792      -0.7082      0.00000
    793      -0.7014      0.00000
    794      -0.6809      0.00000
    795      -0.6169      0.00000
    796      -0.6023      0.00000
    797      -0.5995      0.00000
    798      -0.4352      0.00000
    799      -0.4179      0.00000
    800      -0.3680      0.00000
    801      -0.3352      0.00000
    802      -0.2999      0.00000
    803      -0.2534      0.00000
    804      -0.2350      0.00000
    805      -0.2299      0.00000
    806      -0.2043      0.00000
    807      -0.1179      0.00000
    808      -0.1148      0.00000
    809      -0.1049      0.00000
    810      -0.0826      0.00000
    811      -0.0773      0.00000
    812      -0.0335      0.00000
    813       0.0054      0.00000
    814       0.0496      0.00000
    815       0.0576      0.00000
    816       0.0599      0.00000
    817       0.0614      0.00000
    818       0.0766      0.00000
    819       0.2207      0.00000
    820       0.2812      0.00000
    821       0.3168      0.00000
    822       0.3754      0.00000
    823       0.3992      0.00000
    824       0.4128      0.00000
    825       0.4140      0.00000
    826       0.4191      0.00000
    827       0.4203      0.00000
    828       0.4643      0.00000
    829       0.4861      0.00000
    830       0.5341      0.00000
    831       0.5411      0.00000
    832       0.5425      0.00000
    833       0.5536      0.00000
    834       0.5546      0.00000
    835       0.5670      0.00000
    836       0.5822      0.00000
    837       0.5828      0.00000
    838       0.5898      0.00000
    839       0.5941      0.00000
    840       0.6116      0.00000
    841       0.6272      0.00000
    842       0.6722      0.00000
    843       0.6814      0.00000
    844       0.6973      0.00000
    845       0.7039      0.00000
    846       0.7263      0.00000
    847       0.7312      0.00000
    848       0.7697      0.00000
    849       0.7718      0.00000
    850       0.8058      0.00000
    851       0.8421      0.00000
    852       0.8641      0.00000
    853       0.8700      0.00000
    854       0.8746      0.00000
    855       0.9381      0.00000
    856       0.9447      0.00000
    857       0.9449      0.00000
    858       0.9624      0.00000
    859       0.9674      0.00000
    860       0.9760      0.00000
    861       1.0371      0.00000
    862       1.0459      0.00000
    863       1.0488      0.00000
    864       1.0874      0.00000
    865       1.0952      0.00000
    866       1.1207      0.00000
    867       1.1272      0.00000
    868       1.1278      0.00000
    869       1.1325      0.00000
    870       1.1439      0.00000
    871       1.1450      0.00000
    872       1.2145      0.00000
    873       1.2357      0.00000
    874       1.2442      0.00000
    875       1.2819      0.00000
    876       1.2961      0.00000
    877       1.3949      0.00000
    878       1.4065      0.00000
    879       1.4101      0.00000
    880       1.4188      0.00000
    881       1.4226      0.00000
    882       1.4249      0.00000
    883       1.4270      0.00000
    884       1.4370      0.00000
    885       1.4487      0.00000
    886       1.4587      0.00000
    887       1.4651      0.00000
    888       1.4709      0.00000
    889       1.4858      0.00000
    890       1.5053      0.00000
    891       1.5166      0.00000
    892       1.5237      0.00000
    893       1.5325      0.00000
    894       1.5477      0.00000
    895       1.5932      0.00000
    896       1.6083      0.00000
 Fermi energy:        -3.5416586282

 spin component 2

 k-point     1 :       0.0000    0.0000    0.0000
  band No.  band energies     occupation 
      1     -22.9836      1.00000
      2     -22.9210      1.00000
      3     -22.9106      1.00000
      4     -22.7778      1.00000
      5     -22.7653      1.00000
      6     -22.7257      1.00000
      7     -22.7137      1.00000
      8     -22.7061      1.00000
      9     -22.7002      1.00000
     10     -22.6978      1.00000
     11     -22.6972      1.00000
     12     -22.5156      1.00000
     13     -22.5013      1.00000
     14     -22.5011      1.00000
     15     -22.5010      1.00000
     16     -22.3895      1.00000
     17     -22.3843      1.00000
     18     -22.1942      1.00000
     19     -22.1730      1.00000
     20     -22.1729      1.00000
     21     -22.1714      1.00000
     22     -22.1425      1.00000
     23     -22.1356      1.00000
     24     -22.0842      1.00000
     25     -22.0715      1.00000
     26     -22.0685      1.00000
     27     -22.0684      1.00000
     28     -21.9317      1.00000
     29     -21.9246      1.00000
     30     -21.8876      1.00000
     31     -21.8742      1.00000
     32     -21.8741      1.00000
     33     -21.8731      1.00000
     34     -21.7272      1.00000
     35     -21.7148      1.00000
     36     -21.7147      1.00000
     37     -21.7126      1.00000
     38     -21.5645      1.00000
     39     -21.5496      1.00000
     40     -21.5483      1.00000
     41     -21.5466      1.00000
     42     -21.3442      1.00000
     43     -21.3374      1.00000
     44     -21.1719      1.00000
     45     -21.1297      1.00000
     46     -21.1296      1.00000
     47     -21.1271      1.00000
     48     -21.1196      1.00000
     49     -21.1184      1.00000
     50     -21.1024      1.00000
     51     -21.0964      1.00000
     52     -21.0946      1.00000
     53     -21.0922      1.00000
     54     -21.0615      1.00000
     55     -21.0577      1.00000
     56     -21.0512      1.00000
     57     -21.0511      1.00000
     58     -20.8770      1.00000
     59     -20.8632      1.00000
     60     -20.8609      1.00000
     61     -20.8588      1.00000
     62     -20.6370      1.00000
     63     -20.6255      1.00000
     64     -20.5691      1.00000
     65     -20.5442      1.00000
     66     -20.5416      1.00000
     67     -20.5379      1.00000
     68     -20.5221      1.00000
     69     -20.5167      1.00000
     70     -20.5162      1.00000
     71     -20.5129      1.00000
     72     -20.4309      1.00000
     73     -20.4206      1.00000
     74     -20.4201      1.00000
     75     -20.4190      1.00000
     76     -20.1194      1.00000
     77     -20.1001      1.00000
     78     -20.0956      1.00000
     79     -20.0922      1.00000
     80     -19.8627      1.00000
     81     -19.8172      1.00000
     82     -19.8168      1.00000
     83     -19.8139      1.00000
     84     -19.8010      1.00000
     85     -19.7955      1.00000
     86     -19.7621      1.00000
     87     -19.7604      1.00000
     88     -19.7111      1.00000
     89     -19.7011      1.00000
     90     -19.6915      1.00000
     91     -19.6907      1.00000
     92     -19.6142      1.00000
     93     -19.5951      1.00000
     94     -19.5947      1.00000
     95     -19.5935      1.00000
     96     -19.5485      1.00000
     97     -19.5351      1.00000
     98     -19.5293      1.00000
     99     -19.5254      1.00000
    100     -19.5122      1.00000
    101     -19.5112      1.00000
    102     -19.5062      1.00000
    103     -19.5043      1.00000
    104     -19.2216      1.00000
    105     -19.2021      1.00000
    106     -19.1994      1.00000
    107     -19.1945      1.00000
    108     -19.0332      1.00000
    109     -19.0071      1.00000
    110     -19.0062      1.00000
    111     -19.0031      1.00000
    112     -18.8945      1.00000
    113     -18.8584      1.00000
    114     -18.8559      1.00000
    115     -18.8538      1.00000
    116     -18.8494      1.00000
    117     -18.8456      1.00000
    118     -18.7843      1.00000
    119     -18.7719      1.00000
    120     -18.7713      1.00000
    121     -18.7650      1.00000
    122     -18.6820      1.00000
    123     -18.6666      1.00000
    124     -18.6653      1.00000
    125     -18.6628      1.00000
    126     -18.2971      1.00000
    127     -18.2334      1.00000
    128     -18.2310      1.00000
    129     -18.2242      1.00000
    130     -18.1829      1.00000
    131     -18.1700      1.00000
    132     -18.1465      1.00000
    133     -18.1208      1.00000
    134     -18.1184      1.00000
    135     -18.1172      1.00000
    136     -18.1089      1.00000
    137     -18.1065      1.00000
    138     -18.0996      1.00000
    139     -18.0988      1.00000
    140     -18.0920      1.00000
    141     -18.0904      1.00000
    142     -18.0847      1.00000
    143     -18.0831      1.00000
    144     -17.9488      1.00000
    145     -17.9464      1.00000
    146     -17.9237      1.00000
    147     -17.9190      1.00000
    148     -17.8474      1.00000
    149     -17.8333      1.00000
    150     -17.7281      1.00000
    151     -17.6784      1.00000
    152     -17.6704      1.00000
    153     -17.6631      1.00000
    154     -17.6559      1.00000
    155     -17.6551      1.00000
    156     -17.6351      1.00000
    157     -17.6238      1.00000
    158     -17.6146      1.00000
    159     -17.6088      1.00000
    160     -17.6044      1.00000
    161     -17.5945      1.00000
    162     -17.5445      1.00000
    163     -17.5150      1.00000
    164     -17.5035      1.00000
    165     -17.3594      1.00000
    166     -17.3327      1.00000
    167     -17.2709      1.00000
    168     -17.2679      1.00000
    169     -17.2270      1.00000
    170     -17.2184      1.00000
    171     -17.0924      1.00000
    172     -17.0644      1.00000
    173     -16.8486      1.00000
    174     -16.7784      1.00000
    175     -16.7718      1.00000
    176     -16.7701      1.00000
    177     -16.7600      1.00000
    178     -16.7447      1.00000
    179     -16.7233      1.00000
    180     -16.7136      1.00000
    181     -16.5288      1.00000
    182     -16.4936      1.00000
    183     -16.4912      1.00000
    184     -16.3460      1.00000
    185     -16.2997      1.00000
    186     -16.2961      1.00000
    187     -16.2473      1.00000
    188     -16.1770      1.00000
    189     -16.0642      1.00000
    190     -16.0586      1.00000
    191     -15.8922      1.00000
    192     -15.8872      1.00000
    193     -15.8785      1.00000
    194     -15.8745      1.00000
    195     -15.8557      1.00000
    196     -15.8329      1.00000
    197     -15.8059      1.00000
    198     -15.7951      1.00000
    199     -15.7947      1.00000
    200     -15.7406      1.00000
    201     -15.7379      1.00000
    202     -15.7327      1.00000
    203     -15.7016      1.00000
    204     -15.6994      1.00000
    205     -15.6963      1.00000
    206     -15.6912      1.00000
    207     -15.6848      1.00000
    208     -15.6805      1.00000
    209     -15.6580      1.00000
    210     -15.6535      1.00000
    211     -15.6478      1.00000
    212     -15.6412      1.00000
    213     -15.6405      1.00000
    214     -15.6106      1.00000
    215     -15.6080      1.00000
    216     -15.5110      1.00000
    217     -15.4241      1.00000
    218     -15.4065      1.00000
    219     -15.3937      1.00000
    220     -15.3503      1.00000
    221     -15.3488      1.00000
    222     -15.3367      1.00000
    223     -15.3211      1.00000
    224     -15.3014      1.00000
    225     -15.2716      1.00000
    226     -15.1923      1.00000
    227     -15.1541      1.00000
    228     -15.1376      1.00000
    229     -15.1254      1.00000
    230     -15.1176      1.00000
    231     -15.0839      1.00000
    232     -15.0014      1.00000
    233     -14.8835      1.00000
    234     -14.8510      1.00000
    235     -14.8221      1.00000
    236     -14.8191      1.00000
    237     -14.8162      1.00000
    238     -14.7854      1.00000
    239     -14.7484      1.00000
    240     -14.7349      1.00000
    241     -14.6927      1.00000
    242     -14.6736      1.00000
    243     -14.6168      1.00000
    244     -14.6029      1.00000
    245     -14.5602      1.00000
    246     -14.5558      1.00000
    247     -14.5410      1.00000
    248     -14.5303      1.00000
    249     -14.2823      1.00000
    250     -14.2752      1.00000
    251     -14.1473      1.00000
    252     -14.1350      1.00000
    253     -13.8374      1.00000
    254     -13.7972      1.00000
    255     -13.7912      1.00000
    256     -13.7770      1.00000
    257     -13.7537      1.00000
    258     -13.7343      1.00000
    259     -13.7169      1.00000
    260     -13.7032      1.00000
    261     -13.6908      1.00000
    262     -13.6833      1.00000
    263     -13.6777      1.00000
    264     -13.6749      1.00000
    265     -13.6731      1.00000
    266     -13.6690      1.00000
    267     -13.6646      1.00000
    268     -13.6581      1.00000
    269     -13.6520      1.00000
    270     -13.6476      1.00000
    271     -13.6353      1.00000
    272     -13.6332      1.00000
    273     -13.6244      1.00000
    274     -13.6163      1.00000
    275     -13.6113      1.00000
    276     -13.6093      1.00000
    277     -13.6059      1.00000
    278     -13.5789      1.00000
    279     -13.4179      1.00000
    280     -13.4039      1.00000
    281     -13.3452      1.00000
    282     -13.3421      1.00000
    283     -13.3410      1.00000
    284     -13.3373      1.00000
    285     -13.3204      1.00000
    286     -13.3201      1.00000
    287     -13.3186      1.00000
    288     -13.3085      1.00000
    289     -13.2852      1.00000
    290     -13.2776      1.00000
    291     -13.2705      1.00000
    292     -13.2516      1.00000
    293     -13.1324      1.00000
    294     -13.1290      1.00000
    295     -12.8365      1.00000
    296     -12.8293      1.00000
    297     -12.6556      1.00000
    298     -12.6552      1.00000
    299     -12.6304      1.00000
    300     -12.6208      1.00000
    301     -12.5254      1.00000
    302     -12.5215      1.00000
    303     -12.5183      1.00000
    304     -12.5151      1.00000
    305     -12.4611      1.00000
    306     -12.4569      1.00000
    307     -12.4111      1.00000
    308     -12.4090      1.00000
    309     -12.4049      1.00000
    310     -12.4002      1.00000
    311     -12.3247      1.00000
    312     -12.3238      1.00000
    313     -12.2936      1.00000
    314     -12.2876      1.00000
    315     -12.2685      1.00000
    316     -12.2670      1.00000
    317     -12.2365      1.00000
    318     -12.2354      1.00000
    319     -12.1638      1.00000
    320     -12.1625      1.00000
    321     -12.1445      1.00000
    322     -12.1394      1.00000
    323     -11.9564      1.00000
    324     -11.9544      1.00000
    325     -11.9089      1.00000
    326     -11.9074      1.00000
    327     -11.8478      1.00000
    328     -11.8412      1.00000
    329     -11.8134      1.00000
    330     -11.8098      1.00000
    331     -11.7788      1.00000
    332     -11.7620      1.00000
    333     -11.7310      1.00000
    334     -11.7294      1.00000
    335     -11.6775      1.00000
    336     -11.6531      1.00000
    337     -11.6345      1.00000
    338     -11.6320      1.00000
    339     -11.6177      1.00000
    340     -11.6127      1.00000
    341     -11.5821      1.00000
    342     -11.5815      1.00000
    343     -11.5577      1.00000
    344     -11.5487      1.00000
    345     -11.4750      1.00000
    346     -11.4745      1.00000
    347     -11.4637      1.00000
    348     -11.4539      1.00000
    349     -11.3918      1.00000
    350     -11.3866      1.00000
    351     -11.3650      1.00000
    352     -11.3629      1.00000
    353     -11.3173      1.00000
    354     -11.3153      1.00000
    355     -11.2958      1.00000
    356     -11.2941      1.00000
    357     -11.2791      1.00000
    358     -11.2754      1.00000
    359     -11.2695      1.00000
    360     -11.2684      1.00000
    361     -11.2116      1.00000
    362     -11.2087      1.00000
    363     -11.1928      1.00000
    364     -11.1921      1.00000
    365     -11.1518      1.00000
    366     -11.1516      1.00000
    367     -11.0910      1.00000
    368     -11.0603      1.00000
    369     -11.0584      1.00000
    370     -11.0177      1.00000
    371     -11.0104      1.00000
    372     -10.9916      1.00000
    373     -10.9889      1.00000
    374     -10.8932      1.00000
    375     -10.8917      1.00000
    376     -10.8556      1.00000
    377     -10.8462      1.00000
    378     -10.7906      1.00000
    379     -10.7867      1.00000
    380     -10.7841      1.00000
    381     -10.7785      1.00000
    382     -10.7763      1.00000
    383     -10.7618      1.00000
    384     -10.7556      1.00000
    385     -10.7543      1.00000
    386     -10.7277      1.00000
    387     -10.7233      1.00000
    388     -10.6849      1.00000
    389     -10.6830      1.00000
    390     -10.6689      1.00000
    391     -10.6666      1.00000
    392     -10.5709      1.00000
    393     -10.5606      1.00000
    394     -10.5584      1.00000
    395     -10.5546      1.00000
    396     -10.5522      1.00000
    397     -10.5515      1.00000
    398     -10.5483      1.00000
    399     -10.5377      1.00000
    400     -10.5090      1.00000
    401     -10.5058      1.00000
    402     -10.4616      1.00000
    403     -10.4564      1.00000
    404     -10.4190      1.00000
    405     -10.4071      1.00000
    406     -10.3620      1.00000
    407     -10.3400      1.00000
    408     -10.3307      1.00000
    409     -10.3241      1.00000
    410     -10.3230      1.00000
    411     -10.3161      1.00000
    412     -10.3068      1.00000
    413     -10.3041      1.00000
    414     -10.2960      1.00000
    415     -10.2928      1.00000
    416     -10.2928      1.00000
    417     -10.2857      1.00000
    418     -10.2534      1.00000
    419     -10.2477      1.00000
    420     -10.2467      1.00000
    421     -10.2416      1.00000
    422     -10.2272      1.00000
    423     -10.2256      1.00000
    424     -10.2252      1.00000
    425     -10.2200      1.00000
    426     -10.2164      1.00000
    427     -10.2152      1.00000
    428     -10.2108      1.00000
    429     -10.2034      1.00000
    430     -10.2019      1.00000
    431     -10.1979      1.00000
    432     -10.1886      1.00000
    433     -10.1717      1.00000
    434     -10.1344      1.00000
    435     -10.1285      1.00000
    436     -10.1265      1.00000
    437     -10.1256      1.00000
    438     -10.1220      1.00000
    439     -10.1213      1.00000
    440     -10.1116      1.00000
    441     -10.1112      1.00000
    442     -10.1009      1.00000
    443     -10.0913      1.00000
    444     -10.0754      1.00000
    445     -10.0567      1.00000
    446     -10.0504      1.00000
    447     -10.0462      1.00000
    448     -10.0363      1.00000
    449     -10.0338      1.00000
    450      -9.9431      1.00000
    451      -9.9369      1.00000
    452      -9.9284      1.00000
    453      -9.9191      1.00000
    454      -9.9127      1.00000
    455      -9.9120      1.00000
    456      -9.8269      1.00000
    457      -9.8128      1.00000
    458      -9.8085      1.00000
    459      -9.7842      1.00000
    460      -9.7672      1.00000
    461      -9.7655      1.00000
    462      -9.7570      1.00000
    463      -9.7526      1.00000
    464      -9.7351      1.00000
    465      -9.6524      1.00000
    466      -9.6449      1.00000
    467      -9.6299      1.00000
    468      -9.6252      1.00000
    469      -9.6239      1.00000
    470      -9.6110      1.00000
    471      -9.6077      1.00000
    472      -9.6005      1.00000
    473      -9.5891      1.00000
    474      -9.5887      1.00000
    475      -9.5836      1.00000
    476      -9.5806      1.00000
    477      -9.5125      1.00000
    478      -9.5064      1.00000
    479      -9.4962      1.00000
    480      -9.4866      1.00000
    481      -9.4691      1.00000
    482      -9.4460      1.00000
    483      -9.4404      1.00000
    484      -9.4388      1.00000
    485      -9.4332      1.00000
    486      -9.4282      1.00000
    487      -9.3940      1.00000
    488      -9.3784      1.00000
    489      -9.3669      1.00000
    490      -9.3618      1.00000
    491      -9.3500      1.00000
    492      -9.3487      1.00000
    493      -9.2916      1.00000
    494      -9.2905      1.00000
    495      -9.2761      1.00000
    496      -9.2743      1.00000
    497      -9.2736      1.00000
    498      -9.2714      1.00000
    499      -9.2613      1.00000
    500      -9.2543      1.00000
    501      -9.2516      1.00000
    502      -9.2497      1.00000
    503      -9.2386      1.00000
    504      -9.2364      1.00000
    505      -9.1858      1.00000
    506      -9.1798      1.00000
    507      -9.1776      1.00000
    508      -9.1752      1.00000
    509      -9.1521      1.00000
    510      -9.1517      1.00000
    511      -9.0687      1.00000
    512      -9.0368      1.00000
    513      -8.9702      1.00000
    514      -8.9327      1.00000
    515      -8.8891      1.00000
    516      -8.8438      1.00000
    517      -8.8409      1.00000
    518      -8.8374      1.00000
    519      -8.8330      1.00000
    520      -8.8329      1.00000
    521      -8.8072      1.00000
    522      -8.7918      1.00000
    523      -8.7876      1.00000
    524      -8.7820      1.00000
    525      -8.7762      1.00000
    526      -8.7760      1.00000
    527      -8.7541      1.00000
    528      -8.7412      1.00000
    529      -8.6183      1.00000
    530      -8.6167      1.00000
    531      -8.6042      1.00000
    532      -8.6037      1.00000
    533      -8.5784      1.00000
    534      -8.5617      1.00000
    535      -8.5309      1.00000
    536      -8.5168      1.00000
    537      -8.4942      1.00000
    538      -8.4933      1.00000
    539      -8.4882      1.00000
    540      -8.4813      1.00000
    541      -8.4492      1.00000
    542      -8.4275      1.00000
    543      -8.4158      1.00000
    544      -8.4149      1.00000
    545      -8.4107      1.00000
    546      -8.4064      1.00000
    547      -8.3616      1.00000
    548      -8.3456      1.00000
    549      -8.3213      1.00000
    550      -8.3178      1.00000
    551      -8.3010      1.00000
    552      -8.2975      1.00000
    553      -8.2860      1.00000
    554      -8.2808      1.00000
    555      -8.2518      1.00000
    556      -8.2488      1.00000
    557      -8.2438      1.00000
    558      -8.2325      1.00000
    559      -8.2163      1.00000
    560      -8.2115      1.00000
    561      -8.1956      1.00000
    562      -8.1776      1.00000
    563      -8.1619      1.00000
    564      -8.1586      1.00000
    565      -8.1147      1.00000
    566      -8.0873      1.00000
    567      -8.0791      1.00000
    568      -8.0717      1.00000
    569      -8.0163      1.00000
    570      -7.9985      1.00000
    571      -7.9875      1.00000
    572      -7.9861      1.00000
    573      -7.9777      1.00000
    574      -7.9710      1.00000
    575      -7.9602      1.00000
    576      -7.9581      1.00000
    577      -7.9562      1.00000
    578      -7.9544      1.00000
    579      -7.9418      1.00000
    580      -7.9385      1.00000
    581      -7.8762      1.00000
    582      -7.8694      1.00000
    583      -7.8446      1.00000
    584      -7.8337      1.00000
    585      -7.7659      1.00000
    586      -7.7607      1.00000
    587      -7.6743      1.00000
    588      -7.6675      1.00000
    589      -7.6555      1.00000
    590      -7.6295      1.00000
    591      -7.5948      1.00000
    592      -7.5734      1.00000
    593      -7.5365      1.00000
    594      -7.5271      1.00000
    595      -7.4965      1.00000
    596      -7.4962      1.00000
    597      -7.4842      1.00000
    598      -7.4694      1.00000
    599      -7.4687      1.00000
    600      -7.4641      1.00000
    601      -7.3852      1.00000
    602      -7.3581      1.00000
    603      -7.3528      1.00000
    604      -7.3392      1.00000
    605      -7.3109      1.00000
    606      -7.3090      1.00000
    607      -7.2993      1.00000
    608      -7.2972      1.00000
    609      -7.2910      1.00000
    610      -7.2906      1.00000
    611      -7.2343      1.00000
    612      -7.2281      1.00000
    613      -7.2150      1.00000
    614      -7.1947      1.00000
    615      -7.1703      1.00000
    616      -7.1668      1.00000
    617      -7.1621      1.00000
    618      -7.1620      1.00000
    619      -7.1529      1.00000
    620      -7.1470      1.00000
    621      -7.1410      1.00000
    622      -7.1324      1.00000
    623      -7.1298      1.00000
    624      -7.1148      1.00000
    625      -7.0850      1.00000
    626      -7.0538      1.00000
    627      -7.0414      1.00000
    628      -7.0401      1.00000
    629      -6.9524      1.00000
    630      -6.9474      1.00000
    631      -6.9221      1.00000
    632      -6.9208      1.00000
    633      -6.9104      1.00000
    634      -6.8973      1.00000
    635      -6.8760      1.00000
    636      -6.8442      1.00000
    637      -6.8330      1.00000
    638      -6.8317      1.00000
    639      -6.7966      1.00000
    640      -6.7883      1.00000
    641      -6.7822      1.00000
    642      -6.7759      1.00000
    643      -6.6060      1.00000
    644      -6.6028      1.00000
    645      -6.5813      1.00000
    646      -6.5689      1.00000
    647      -6.5373      1.00000
    648      -6.5369      1.00000
    649      -6.5318      1.00000
    650      -6.5270      1.00000
    651      -6.5268      1.00000
    652      -6.5003      1.00000
    653      -6.4930      1.00000
    654      -6.4889      1.00000
    655      -6.4444      1.00000
    656      -6.4383      1.00000
    657      -6.4233      1.00000
    658      -6.3663      1.00000
    659      -6.3577      1.00000
    660      -6.3338      1.00000
    661      -6.3228      1.00000
    662      -6.2898      1.00000
    663      -6.2767      1.00000
    664      -6.2232      1.00000
    665      -6.2185      1.00000
    666      -6.1941      1.00000
    667      -6.1777      1.00000
    668      -6.1690      1.00000
    669      -6.1679      1.00000
    670      -6.0644      1.00000
    671      -6.0464      1.00000
    672      -6.0349      1.00000
    673      -5.9318      1.00000
    674      -5.8557      1.00000
    675      -5.8219      1.00000
    676      -5.7862      1.00000
    677      -5.7603      1.00000
    678      -5.7556      1.00000
    679      -5.7480      1.00000
    680      -5.6993      1.00000
    681      -5.6805      1.00000
    682      -5.6030      1.00000
    683      -5.5856      1.00000
    684      -5.5842      1.00000
    685      -5.5648      1.00000
    686      -5.5574      1.00000
    687      -5.5269      1.00000
    688      -5.5209      1.00000
    689      -5.4979      1.00000
    690      -5.4946      1.00000
    691      -5.4930      1.00000
    692      -5.4616      1.00000
    693      -5.4552      1.00000
    694      -5.4160      1.00000
    695      -5.3746      1.00000
    696      -5.3582      1.00000
    697      -5.3469      1.00000
    698      -5.3171      1.00000
    699      -5.3102      1.00000
    700      -5.2984      1.00000
    701      -5.2588      1.00000
    702      -5.2379      1.00000
    703      -5.2185      1.00000
    704      -5.2020      1.00000
    705      -5.1962      1.00000
    706      -5.1911      1.00000
    707      -5.1889      1.00000
    708      -5.1234      1.00000
    709      -5.0386      1.00000
    710      -5.0002      1.00000
    711      -4.9971      1.00000
    712      -4.9372      1.00000
    713      -4.8852      1.00000
    714      -4.8517      1.00000
    715      -4.8388      1.00000
    716      -4.7114      1.00000
    717      -4.5726      1.00000
    718      -4.5134      1.00000
    719      -4.4496      1.00000
    720      -4.3862      1.00000
    721      -4.3711      1.00000
    722      -4.3275      1.00000
    723      -4.3109      1.00000
    724      -4.2883      1.00000
    725      -4.2771      1.00000
    726      -4.1105      1.00000
    727      -4.0633      1.00000
    728      -4.0045      1.00000
    729      -3.8903      1.00000
    730      -3.6502      1.00000
    731      -3.6012      1.00000
    732      -2.7472      0.00000
    733      -2.6889      0.00000
    734      -2.5103      0.00000
    735      -2.3044      0.00000
    736      -2.2583      0.00000
    737      -2.2271      0.00000
    738      -2.1331      0.00000
    739      -2.1227      0.00000
    740      -2.1164      0.00000
    741      -2.0782      0.00000
    742      -2.0720      0.00000
    743      -1.9656      0.00000
    744      -1.9578      0.00000
    745      -1.9448      0.00000
    746      -1.9386      0.00000
    747      -1.8454      0.00000
    748      -1.8399      0.00000
    749      -1.8220      0.00000
    750      -1.7861      0.00000
    751      -1.7410      0.00000
    752      -1.7339      0.00000
    753      -1.7311      0.00000
    754      -1.6425      0.00000
    755      -1.6380      0.00000
    756      -1.6112      0.00000
    757      -1.6061      0.00000
    758      -1.5847      0.00000
    759      -1.5820      0.00000
    760      -1.5678      0.00000
    761      -1.5620      0.00000
    762      -1.5588      0.00000
    763      -1.5582      0.00000
    764      -1.5288      0.00000
    765      -1.5112      0.00000
    766      -1.4819      0.00000
    767      -1.4646      0.00000
    768      -1.4549      0.00000
    769      -1.4453      0.00000
    770      -1.3892      0.00000
    771      -1.3727      0.00000
    772      -1.3704      0.00000
    773      -1.3653      0.00000
    774      -1.3231      0.00000
    775      -1.3110      0.00000
    776      -1.3029      0.00000
    777      -1.3014      0.00000
    778      -1.2905      0.00000
    779      -1.2847      0.00000
    780      -1.2774      0.00000
    781      -1.2593      0.00000
    782      -1.2495      0.00000
    783      -1.1977      0.00000
    784      -1.1902      0.00000
    785      -0.9793      0.00000
    786      -0.9563      0.00000
    787      -0.9445      0.00000
    788      -0.9423      0.00000
    789      -0.8660      0.00000
    790      -0.8590      0.00000
    791      -0.7917      0.00000
    792      -0.7744      0.00000
    793      -0.7291      0.00000
    794      -0.7222      0.00000
    795      -0.6980      0.00000
    796      -0.6903      0.00000
    797      -0.5422      0.00000
    798      -0.5301      0.00000
    799      -0.4825      0.00000
    800      -0.4551      0.00000
    801      -0.4351      0.00000
    802      -0.3322      0.00000
    803      -0.2888      0.00000
    804      -0.2750      0.00000
    805      -0.1805      0.00000
    806      -0.1764      0.00000
    807      -0.1553      0.00000
    808      -0.1364      0.00000
    809      -0.0511      0.00000
    810      -0.0480      0.00000
    811       0.0234      0.00000
    812       0.0836      0.00000
    813       0.0994      0.00000
    814       0.1357      0.00000
    815       0.1368      0.00000
    816       0.1688      0.00000
    817       0.2111      0.00000
    818       0.2151      0.00000
    819       0.2153      0.00000
    820       0.2368      0.00000
    821       0.2397      0.00000
    822       0.2432      0.00000
    823       0.2491      0.00000
    824       0.2844      0.00000
    825       0.3312      0.00000
    826       0.3626      0.00000
    827       0.3694      0.00000
    828       0.3946      0.00000
    829       0.4552      0.00000
    830       0.4966      0.00000
    831       0.5026      0.00000
    832       0.5244      0.00000
    833       0.5389      0.00000
    834       0.5414      0.00000
    835       0.5588      0.00000
    836       0.5645      0.00000
    837       0.5701      0.00000
    838       0.5815      0.00000
    839       0.5905      0.00000
    840       0.6118      0.00000
    841       0.6198      0.00000
    842       0.6550      0.00000
    843       0.6574      0.00000
    844       0.6581      0.00000
    845       0.6605      0.00000
    846       0.8074      0.00000
    847       0.8358      0.00000
    848       0.8457      0.00000
    849       0.8846      0.00000
    850       0.8875      0.00000
    851       0.9037      0.00000
    852       0.9245      0.00000
    853       0.9264      0.00000
    854       0.9278      0.00000
    855       0.9337      0.00000
    856       0.9390      0.00000
    857       0.9440      0.00000
    858       0.9728      0.00000
    859       1.0080      0.00000
    860       1.0096      0.00000
    861       1.0277      0.00000
    862       1.0317      0.00000
    863       1.0324      0.00000
    864       1.0490      0.00000
    865       1.0597      0.00000
    866       1.0944      0.00000
    867       1.1130      0.00000
    868       1.1283      0.00000
    869       1.1611      0.00000
    870       1.2046      0.00000
    871       1.2063      0.00000
    872       1.2180      0.00000
    873       1.2248      0.00000
    874       1.2454      0.00000
    875       1.2632      0.00000
    876       1.2731      0.00000
    877       1.2744      0.00000
    878       1.2778      0.00000
    879       1.2879      0.00000
    880       1.3015      0.00000
    881       1.3072      0.00000
    882       1.3083      0.00000
    883       1.3107      0.00000
    884       1.3345      0.00000
    885       1.3348      0.00000
    886       1.3524      0.00000
    887       1.3652      0.00000
    888       1.3726      0.00000
    889       1.3727      0.00000
    890       1.3761      0.00000
    891       1.4026      0.00000
    892       1.4387      0.00000
    893       1.4646      0.00000
    894       1.4920      0.00000
    895       1.4928      0.00000
    896       1.4968      0.00000

 k-point     2 :       0.0000    0.0000   -0.0556
  band No.  band energies     occupation 
      1     -22.9835      1.00000
      2     -22.9245      1.00000
      3     -22.9067      1.00000
      4     -22.7777      1.00000
      5     -22.7651      1.00000
      6     -22.7333      1.00000
      7     -22.7149      1.00000
      8     -22.7062      1.00000
      9     -22.7008      1.00000
     10     -22.6927      1.00000
     11     -22.6914      1.00000
     12     -22.5244      1.00000
     13     -22.5155      1.00000
     14     -22.4921      1.00000
     15     -22.4863      1.00000
     16     -22.4086      1.00000
     17     -22.3647      1.00000
     18     -22.2064      1.00000
     19     -22.1939      1.00000
     20     -22.1626      1.00000
     21     -22.1501      1.00000
     22     -22.1401      1.00000
     23     -22.1354      1.00000
     24     -22.0866      1.00000
     25     -22.0772      1.00000
     26     -22.0656      1.00000
     27     -22.0623      1.00000
     28     -21.9565      1.00000
     29     -21.9040      1.00000
     30     -21.8917      1.00000
     31     -21.8882      1.00000
     32     -21.8645      1.00000
     33     -21.8592      1.00000
     34     -21.7500      1.00000
     35     -21.7425      1.00000
     36     -21.6915      1.00000
     37     -21.6845      1.00000
     38     -21.5790      1.00000
     39     -21.5697      1.00000
     40     -21.5332      1.00000
     41     -21.5263      1.00000
     42     -21.3765      1.00000
     43     -21.3049      1.00000
     44     -21.1861      1.00000
     45     -21.1641      1.00000
     46     -21.1417      1.00000
     47     -21.1234      1.00000
     48     -21.1195      1.00000
     49     -21.1191      1.00000
     50     -21.0990      1.00000
     51     -21.0920      1.00000
     52     -21.0735      1.00000
     53     -21.0657      1.00000
     54     -21.0621      1.00000
     55     -21.0609      1.00000
     56     -21.0473      1.00000
     57     -21.0464      1.00000
     58     -20.8843      1.00000
     59     -20.8761      1.00000
     60     -20.8512      1.00000
     61     -20.8475      1.00000
     62     -20.6729      1.00000
     63     -20.5965      1.00000
     64     -20.5735      1.00000
     65     -20.5639      1.00000
     66     -20.5543      1.00000
     67     -20.5503      1.00000
     68     -20.5246      1.00000
     69     -20.5207      1.00000
     70     -20.4866      1.00000
     71     -20.4793      1.00000
     72     -20.4663      1.00000
     73     -20.4621      1.00000
     74     -20.3833      1.00000
     75     -20.3768      1.00000
     76     -20.1366      1.00000
     77     -20.1254      1.00000
     78     -20.0759      1.00000
     79     -20.0688      1.00000
     80     -19.8834      1.00000
     81     -19.8577      1.00000
     82     -19.8476      1.00000
     83     -19.7995      1.00000
     84     -19.7738      1.00000
     85     -19.7614      1.00000
     86     -19.7601      1.00000
     87     -19.7470      1.00000
     88     -19.7116      1.00000
     89     -19.7044      1.00000
     90     -19.6890      1.00000
     91     -19.6877      1.00000
     92     -19.6489      1.00000
     93     -19.6432      1.00000
     94     -19.5791      1.00000
     95     -19.5659      1.00000
     96     -19.5521      1.00000
     97     -19.5455      1.00000
     98     -19.5247      1.00000
     99     -19.5234      1.00000
    100     -19.5017      1.00000
    101     -19.4989      1.00000
    102     -19.4926      1.00000
    103     -19.4903      1.00000
    104     -19.2321      1.00000
    105     -19.2210      1.00000
    106     -19.1845      1.00000
    107     -19.1797      1.00000
    108     -19.0664      1.00000
    109     -19.0529      1.00000
    110     -18.9751      1.00000
    111     -18.9576      1.00000
    112     -18.9223      1.00000
    113     -18.8987      1.00000
    114     -18.8920      1.00000
    115     -18.8325      1.00000
    116     -18.8115      1.00000
    117     -18.8035      1.00000
    118     -18.7988      1.00000
    119     -18.7954      1.00000
    120     -18.7499      1.00000
    121     -18.7437      1.00000
    122     -18.7235      1.00000
    123     -18.7188      1.00000
    124     -18.6205      1.00000
    125     -18.6108      1.00000
    126     -18.3062      1.00000
    127     -18.2644      1.00000
    128     -18.2284      1.00000
    129     -18.2000      1.00000
    130     -18.1798      1.00000
    131     -18.1695      1.00000
    132     -18.1670      1.00000
    133     -18.1581      1.00000
    134     -18.1403      1.00000
    135     -18.1318      1.00000
    136     -18.1192      1.00000
    137     -18.1125      1.00000
    138     -18.1015      1.00000
    139     -18.0944      1.00000
    140     -18.0761      1.00000
    141     -18.0628      1.00000
    142     -18.0485      1.00000
    143     -18.0452      1.00000
    144     -17.9585      1.00000
    145     -17.9424      1.00000
    146     -17.9271      1.00000
    147     -17.9104      1.00000
    148     -17.8947      1.00000
    149     -17.7884      1.00000
    150     -17.7479      1.00000
    151     -17.7213      1.00000
    152     -17.6856      1.00000
    153     -17.6717      1.00000
    154     -17.6436      1.00000
    155     -17.6397      1.00000
    156     -17.6374      1.00000
    157     -17.6253      1.00000
    158     -17.6112      1.00000
    159     -17.5995      1.00000
    160     -17.5820      1.00000
    161     -17.5657      1.00000
    162     -17.5452      1.00000
    163     -17.5172      1.00000
    164     -17.5062      1.00000
    165     -17.3724      1.00000
    166     -17.3248      1.00000
    167     -17.2933      1.00000
    168     -17.2510      1.00000
    169     -17.2408      1.00000
    170     -17.1983      1.00000
    171     -17.0963      1.00000
    172     -17.0657      1.00000
    173     -16.8683      1.00000
    174     -16.8104      1.00000
    175     -16.7930      1.00000
    176     -16.7627      1.00000
    177     -16.7441      1.00000
    178     -16.7314      1.00000
    179     -16.7200      1.00000
    180     -16.6861      1.00000
    181     -16.5258      1.00000
    182     -16.4975      1.00000
    183     -16.4806      1.00000
    184     -16.3474      1.00000
    185     -16.3043      1.00000
    186     -16.2863      1.00000
    187     -16.2518      1.00000
    188     -16.1738      1.00000
    189     -16.0836      1.00000
    190     -16.0334      1.00000
    191     -15.9427      1.00000
    192     -15.9284      1.00000
    193     -15.8564      1.00000
    194     -15.8379      1.00000
    195     -15.8330      1.00000
    196     -15.8215      1.00000
    197     -15.8081      1.00000
    198     -15.7949      1.00000
    199     -15.7923      1.00000
    200     -15.7606      1.00000
    201     -15.7573      1.00000
    202     -15.7496      1.00000
    203     -15.7356      1.00000
    204     -15.7222      1.00000
    205     -15.7172      1.00000
    206     -15.6989      1.00000
    207     -15.6573      1.00000
    208     -15.6442      1.00000
    209     -15.6438      1.00000
    210     -15.6391      1.00000
    211     -15.6357      1.00000
    212     -15.6327      1.00000
    213     -15.6309      1.00000
    214     -15.6073      1.00000
    215     -15.5839      1.00000
    216     -15.5092      1.00000
    217     -15.4294      1.00000
    218     -15.4075      1.00000
    219     -15.3899      1.00000
    220     -15.3871      1.00000
    221     -15.3633      1.00000
    222     -15.3185      1.00000
    223     -15.3092      1.00000
    224     -15.2788      1.00000
    225     -15.2721      1.00000
    226     -15.2191      1.00000
    227     -15.1797      1.00000
    228     -15.1554      1.00000
    229     -15.0960      1.00000
    230     -15.0848      1.00000
    231     -15.0774      1.00000
    232     -14.9997      1.00000
    233     -14.8872      1.00000
    234     -14.8808      1.00000
    235     -14.8794      1.00000
    236     -14.8315      1.00000
    237     -14.7977      1.00000
    238     -14.7575      1.00000
    239     -14.7512      1.00000
    240     -14.7293      1.00000
    241     -14.6866      1.00000
    242     -14.6702      1.00000
    243     -14.6271      1.00000
    244     -14.6041      1.00000
    245     -14.6012      1.00000
    246     -14.5491      1.00000
    247     -14.5091      1.00000
    248     -14.4711      1.00000
    249     -14.3288      1.00000
    250     -14.2283      1.00000
    251     -14.1882      1.00000
    252     -14.0959      1.00000
    253     -13.8377      1.00000
    254     -13.7971      1.00000
    255     -13.7916      1.00000
    256     -13.7767      1.00000
    257     -13.7553      1.00000
    258     -13.7398      1.00000
    259     -13.7330      1.00000
    260     -13.7282      1.00000
    261     -13.7180      1.00000
    262     -13.7062      1.00000
    263     -13.7008      1.00000
    264     -13.6996      1.00000
    265     -13.6930      1.00000
    266     -13.6791      1.00000
    267     -13.6761      1.00000
    268     -13.6701      1.00000
    269     -13.6668      1.00000
    270     -13.6512      1.00000
    271     -13.6181      1.00000
    272     -13.6103      1.00000
    273     -13.6018      1.00000
    274     -13.5952      1.00000
    275     -13.5888      1.00000
    276     -13.5755      1.00000
    277     -13.5632      1.00000
    278     -13.5432      1.00000
    279     -13.4240      1.00000
    280     -13.4101      1.00000
    281     -13.3963      1.00000
    282     -13.3815      1.00000
    283     -13.3735      1.00000
    284     -13.3301      1.00000
    285     -13.3132      1.00000
    286     -13.2987      1.00000
    287     -13.2931      1.00000
    288     -13.2804      1.00000
    289     -13.2705      1.00000
    290     -13.2665      1.00000
    291     -13.2573      1.00000
    292     -13.2412      1.00000
    293     -13.1679      1.00000
    294     -13.0907      1.00000
    295     -12.8672      1.00000
    296     -12.7981      1.00000
    297     -12.7128      1.00000
    298     -12.6661      1.00000
    299     -12.5982      1.00000
    300     -12.5869      1.00000
    301     -12.5860      1.00000
    302     -12.5777      1.00000
    303     -12.5240      1.00000
    304     -12.4722      1.00000
    305     -12.4621      1.00000
    306     -12.4519      1.00000
    307     -12.4132      1.00000
    308     -12.4041      1.00000
    309     -12.3935      1.00000
    310     -12.3870      1.00000
    311     -12.3396      1.00000
    312     -12.3342      1.00000
    313     -12.3274      1.00000
    314     -12.2614      1.00000
    315     -12.2556      1.00000
    316     -12.2431      1.00000
    317     -12.2245      1.00000
    318     -12.2181      1.00000
    319     -12.2061      1.00000
    320     -12.1828      1.00000
    321     -12.1018      1.00000
    322     -12.1002      1.00000
    323     -11.9577      1.00000
    324     -11.9555      1.00000
    325     -11.9515      1.00000
    326     -11.8901      1.00000
    327     -11.8586      1.00000
    328     -11.8380      1.00000
    329     -11.7995      1.00000
    330     -11.7918      1.00000
    331     -11.7774      1.00000
    332     -11.7600      1.00000
    333     -11.7474      1.00000
    334     -11.7101      1.00000
    335     -11.6808      1.00000
    336     -11.6601      1.00000
    337     -11.6525      1.00000
    338     -11.6424      1.00000
    339     -11.6245      1.00000
    340     -11.6122      1.00000
    341     -11.5992      1.00000
    342     -11.5596      1.00000
    343     -11.5470      1.00000
    344     -11.5226      1.00000
    345     -11.5194      1.00000
    346     -11.4663      1.00000
    347     -11.4516      1.00000
    348     -11.4265      1.00000
    349     -11.4094      1.00000
    350     -11.3922      1.00000
    351     -11.3866      1.00000
    352     -11.3820      1.00000
    353     -11.3576      1.00000
    354     -11.3197      1.00000
    355     -11.3064      1.00000
    356     -11.2996      1.00000
    357     -11.2727      1.00000
    358     -11.2535      1.00000
    359     -11.2516      1.00000
    360     -11.2462      1.00000
    361     -11.2392      1.00000
    362     -11.2302      1.00000
    363     -11.2144      1.00000
    364     -11.1490      1.00000
    365     -11.1324      1.00000
    366     -11.1183      1.00000
    367     -11.0909      1.00000
    368     -11.0883      1.00000
    369     -11.0390      1.00000
    370     -11.0230      1.00000
    371     -11.0070      1.00000
    372     -10.9985      1.00000
    373     -10.9507      1.00000
    374     -10.9417      1.00000
    375     -10.8554      1.00000
    376     -10.8474      1.00000
    377     -10.8332      1.00000
    378     -10.8039      1.00000
    379     -10.7912      1.00000
    380     -10.7856      1.00000
    381     -10.7818      1.00000
    382     -10.7731      1.00000
    383     -10.7695      1.00000
    384     -10.7528      1.00000
    385     -10.7333      1.00000
    386     -10.7286      1.00000
    387     -10.7180      1.00000
    388     -10.7032      1.00000
    389     -10.6947      1.00000
    390     -10.6673      1.00000
    391     -10.6350      1.00000
    392     -10.5976      1.00000
    393     -10.5795      1.00000
    394     -10.5705      1.00000
    395     -10.5675      1.00000
    396     -10.5562      1.00000
    397     -10.5466      1.00000
    398     -10.5429      1.00000
    399     -10.5279      1.00000
    400     -10.5206      1.00000
    401     -10.5055      1.00000
    402     -10.4550      1.00000
    403     -10.4376      1.00000
    404     -10.4003      1.00000
    405     -10.3876      1.00000
    406     -10.3746      1.00000
    407     -10.3486      1.00000
    408     -10.3335      1.00000
    409     -10.3268      1.00000
    410     -10.3229      1.00000
    411     -10.3158      1.00000
    412     -10.3105      1.00000
    413     -10.3076      1.00000
    414     -10.2998      1.00000
    415     -10.2938      1.00000
    416     -10.2898      1.00000
    417     -10.2719      1.00000
    418     -10.2654      1.00000
    419     -10.2578      1.00000
    420     -10.2543      1.00000
    421     -10.2505      1.00000
    422     -10.2469      1.00000
    423     -10.2421      1.00000
    424     -10.2361      1.00000
    425     -10.2163      1.00000
    426     -10.2092      1.00000
    427     -10.2085      1.00000
    428     -10.2040      1.00000
    429     -10.2021      1.00000
    430     -10.1945      1.00000
    431     -10.1762      1.00000
    432     -10.1691      1.00000
    433     -10.1669      1.00000
    434     -10.1622      1.00000
    435     -10.1577      1.00000
    436     -10.1526      1.00000
    437     -10.1410      1.00000
    438     -10.1177      1.00000
    439     -10.1112      1.00000
    440     -10.0992      1.00000
    441     -10.0904      1.00000
    442     -10.0862      1.00000
    443     -10.0808      1.00000
    444     -10.0729      1.00000
    445     -10.0684      1.00000
    446     -10.0650      1.00000
    447     -10.0471      1.00000
    448     -10.0079      1.00000
    449      -9.9960      1.00000
    450      -9.9672      1.00000
    451      -9.9502      1.00000
    452      -9.9467      1.00000
    453      -9.9237      1.00000
    454      -9.8976      1.00000
    455      -9.8685      1.00000
    456      -9.8343      1.00000
    457      -9.8180      1.00000
    458      -9.8053      1.00000
    459      -9.7969      1.00000
    460      -9.7834      1.00000
    461      -9.7781      1.00000
    462      -9.7402      1.00000
    463      -9.7311      1.00000
    464      -9.7238      1.00000
    465      -9.6855      1.00000
    466      -9.6484      1.00000
    467      -9.6374      1.00000
    468      -9.6248      1.00000
    469      -9.6196      1.00000
    470      -9.6142      1.00000
    471      -9.6053      1.00000
    472      -9.6011      1.00000
    473      -9.5972      1.00000
    474      -9.5903      1.00000
    475      -9.5752      1.00000
    476      -9.5396      1.00000
    477      -9.5175      1.00000
    478      -9.5056      1.00000
    479      -9.4973      1.00000
    480      -9.4809      1.00000
    481      -9.4782      1.00000
    482      -9.4586      1.00000
    483      -9.4440      1.00000
    484      -9.4357      1.00000
    485      -9.4284      1.00000
    486      -9.4091      1.00000
    487      -9.4047      1.00000
    488      -9.3691      1.00000
    489      -9.3675      1.00000
    490      -9.3611      1.00000
    491      -9.3503      1.00000
    492      -9.3486      1.00000
    493      -9.3331      1.00000
    494      -9.3042      1.00000
    495      -9.2902      1.00000
    496      -9.2862      1.00000
    497      -9.2805      1.00000
    498      -9.2742      1.00000
    499      -9.2643      1.00000
    500      -9.2545      1.00000
    501      -9.2417      1.00000
    502      -9.2402      1.00000
    503      -9.2107      1.00000
    504      -9.1956      1.00000
    505      -9.1883      1.00000
    506      -9.1869      1.00000
    507      -9.1769      1.00000
    508      -9.1690      1.00000
    509      -9.1602      1.00000
    510      -9.1448      1.00000
    511      -9.0823      1.00000
    512      -9.0266      1.00000
    513      -8.9705      1.00000
    514      -8.9335      1.00000
    515      -8.9055      1.00000
    516      -8.8768      1.00000
    517      -8.8727      1.00000
    518      -8.8399      1.00000
    519      -8.8337      1.00000
    520      -8.8110      1.00000
    521      -8.8045      1.00000
    522      -8.7907      1.00000
    523      -8.7791      1.00000
    524      -8.7770      1.00000
    525      -8.7758      1.00000
    526      -8.7552      1.00000
    527      -8.7383      1.00000
    528      -8.7287      1.00000
    529      -8.6297      1.00000
    530      -8.6165      1.00000
    531      -8.6085      1.00000
    532      -8.5922      1.00000
    533      -8.5775      1.00000
    534      -8.5608      1.00000
    535      -8.5298      1.00000
    536      -8.5163      1.00000
    537      -8.4952      1.00000
    538      -8.4917      1.00000
    539      -8.4851      1.00000
    540      -8.4793      1.00000
    541      -8.4495      1.00000
    542      -8.4294      1.00000
    543      -8.4219      1.00000
    544      -8.4181      1.00000
    545      -8.4067      1.00000
    546      -8.3967      1.00000
    547      -8.3615      1.00000
    548      -8.3453      1.00000
    549      -8.3304      1.00000
    550      -8.3204      1.00000
    551      -8.3016      1.00000
    552      -8.2943      1.00000
    553      -8.2868      1.00000
    554      -8.2842      1.00000
    555      -8.2745      1.00000
    556      -8.2702      1.00000
    557      -8.2366      1.00000
    558      -8.2262      1.00000
    559      -8.2203      1.00000
    560      -8.2093      1.00000
    561      -8.1977      1.00000
    562      -8.1963      1.00000
    563      -8.1526      1.00000
    564      -8.1241      1.00000
    565      -8.1063      1.00000
    566      -8.1017      1.00000
    567      -8.0671      1.00000
    568      -8.0535      1.00000
    569      -8.0357      1.00000
    570      -8.0303      1.00000
    571      -8.0029      1.00000
    572      -7.9955      1.00000
    573      -7.9848      1.00000
    574      -7.9693      1.00000
    575      -7.9531      1.00000
    576      -7.9522      1.00000
    577      -7.9407      1.00000
    578      -7.9357      1.00000
    579      -7.9268      1.00000
    580      -7.9180      1.00000
    581      -7.9114      1.00000
    582      -7.8833      1.00000
    583      -7.8279      1.00000
    584      -7.7988      1.00000
    585      -7.7884      1.00000
    586      -7.7380      1.00000
    587      -7.6953      1.00000
    588      -7.6678      1.00000
    589      -7.6468      1.00000
    590      -7.6266      1.00000
    591      -7.6008      1.00000
    592      -7.5652      1.00000
    593      -7.5489      1.00000
    594      -7.5370      1.00000
    595      -7.5101      1.00000
    596      -7.4864      1.00000
    597      -7.4829      1.00000
    598      -7.4706      1.00000
    599      -7.4659      1.00000
    600      -7.4406      1.00000
    601      -7.4120      1.00000
    602      -7.3713      1.00000
    603      -7.3657      1.00000
    604      -7.3319      1.00000
    605      -7.3267      1.00000
    606      -7.3070      1.00000
    607      -7.3017      1.00000
    608      -7.2915      1.00000
    609      -7.2675      1.00000
    610      -7.2635      1.00000
    611      -7.2430      1.00000
    612      -7.2354      1.00000
    613      -7.2123      1.00000
    614      -7.2056      1.00000
    615      -7.1935      1.00000
    616      -7.1849      1.00000
    617      -7.1835      1.00000
    618      -7.1700      1.00000
    619      -7.1593      1.00000
    620      -7.1461      1.00000
    621      -7.1212      1.00000
    622      -7.1147      1.00000
    623      -7.0955      1.00000
    624      -7.0864      1.00000
    625      -7.0801      1.00000
    626      -7.0556      1.00000
    627      -7.0405      1.00000
    628      -7.0365      1.00000
    629      -6.9731      1.00000
    630      -6.9604      1.00000
    631      -6.9340      1.00000
    632      -6.9134      1.00000
    633      -6.9022      1.00000
    634      -6.8779      1.00000
    635      -6.8705      1.00000
    636      -6.8518      1.00000
    637      -6.8321      1.00000
    638      -6.8205      1.00000
    639      -6.8107      1.00000
    640      -6.8012      1.00000
    641      -6.7724      1.00000
    642      -6.7579      1.00000
    643      -6.6165      1.00000
    644      -6.6110      1.00000
    645      -6.5818      1.00000
    646      -6.5704      1.00000
    647      -6.5632      1.00000
    648      -6.5585      1.00000
    649      -6.5346      1.00000
    650      -6.5227      1.00000
    651      -6.4996      1.00000
    652      -6.4947      1.00000
    653      -6.4811      1.00000
    654      -6.4721      1.00000
    655      -6.4682      1.00000
    656      -6.4273      1.00000
    657      -6.4143      1.00000
    658      -6.4120      1.00000
    659      -6.3560      1.00000
    660      -6.3319      1.00000
    661      -6.3047      1.00000
    662      -6.2829      1.00000
    663      -6.2700      1.00000
    664      -6.2605      1.00000
    665      -6.2249      1.00000
    666      -6.1925      1.00000
    667      -6.1750      1.00000
    668      -6.1666      1.00000
    669      -6.1182      1.00000
    670      -6.0818      1.00000
    671      -6.0396      1.00000
    672      -6.0255      1.00000
    673      -5.9282      1.00000
    674      -5.8730      1.00000
    675      -5.8211      1.00000
    676      -5.7942      1.00000
    677      -5.7814      1.00000
    678      -5.7404      1.00000
    679      -5.7229      1.00000
    680      -5.7136      1.00000
    681      -5.6645      1.00000
    682      -5.6062      1.00000
    683      -5.5964      1.00000
    684      -5.5843      1.00000
    685      -5.5591      1.00000
    686      -5.5520      1.00000
    687      -5.5336      1.00000
    688      -5.5247      1.00000
    689      -5.5067      1.00000
    690      -5.4918      1.00000
    691      -5.4790      1.00000
    692      -5.4601      1.00000
    693      -5.4547      1.00000
    694      -5.4169      1.00000
    695      -5.3974      1.00000
    696      -5.3720      1.00000
    697      -5.3656      1.00000
    698      -5.3143      1.00000
    699      -5.3011      1.00000
    700      -5.2715      1.00000
    701      -5.2495      1.00000
    702      -5.2441      1.00000
    703      -5.2397      1.00000
    704      -5.2152      1.00000
    705      -5.2020      1.00000
    706      -5.1850      1.00000
    707      -5.1431      1.00000
    708      -5.1251      1.00000
    709      -5.0384      1.00000
    710      -5.0192      1.00000
    711      -4.9782      1.00000
    712      -4.9405      1.00000
    713      -4.8809      1.00000
    714      -4.8580      1.00000
    715      -4.8342      1.00000
    716      -4.7128      1.00000
    717      -4.5766      1.00000
    718      -4.5111      1.00000
    719      -4.4508      1.00000
    720      -4.4090      1.00000
    721      -4.3641      1.00000
    722      -4.3454      1.00000
    723      -4.3087      1.00000
    724      -4.2842      1.00000
    725      -4.2479      1.00000
    726      -4.1118      1.00000
    727      -4.0661      1.00000
    728      -4.0070      1.00000
    729      -3.8849      1.00000
    730      -3.6546      1.00000
    731      -3.6015      1.00000
    732      -2.7461      0.00000
    733      -2.6858      0.00000
    734      -2.5115      0.00000
    735      -2.3104      0.00000
    736      -2.2555      0.00000
    737      -2.2236      0.00000
    738      -2.1659      0.00000
    739      -2.1310      0.00000
    740      -2.1005      0.00000
    741      -2.0725      0.00000
    742      -2.0476      0.00000
    743      -1.9648      0.00000
    744      -1.9562      0.00000
    745      -1.9436      0.00000
    746      -1.9375      0.00000
    747      -1.8629      0.00000
    748      -1.8360      0.00000
    749      -1.8119      0.00000
    750      -1.7853      0.00000
    751      -1.7420      0.00000
    752      -1.7359      0.00000
    753      -1.7236      0.00000
    754      -1.6732      0.00000
    755      -1.6395      0.00000
    756      -1.6191      0.00000
    757      -1.6053      0.00000
    758      -1.5963      0.00000
    759      -1.5897      0.00000
    760      -1.5748      0.00000
    761      -1.5471      0.00000
    762      -1.5422      0.00000
    763      -1.5303      0.00000
    764      -1.5205      0.00000
    765      -1.5118      0.00000
    766      -1.4924      0.00000
    767      -1.4797      0.00000
    768      -1.4426      0.00000
    769      -1.4268      0.00000
    770      -1.4191      0.00000
    771      -1.3882      0.00000
    772      -1.3649      0.00000
    773      -1.3376      0.00000
    774      -1.3251      0.00000
    775      -1.3218      0.00000
    776      -1.3107      0.00000
    777      -1.2949      0.00000
    778      -1.2839      0.00000
    779      -1.2770      0.00000
    780      -1.2650      0.00000
    781      -1.2593      0.00000
    782      -1.2507      0.00000
    783      -1.2462      0.00000
    784      -1.1392      0.00000
    785      -1.0027      0.00000
    786      -0.9863      0.00000
    787      -0.9260      0.00000
    788      -0.9135      0.00000
    789      -0.9050      0.00000
    790      -0.8338      0.00000
    791      -0.8133      0.00000
    792      -0.7737      0.00000
    793      -0.7507      0.00000
    794      -0.7276      0.00000
    795      -0.6712      0.00000
    796      -0.6507      0.00000
    797      -0.5752      0.00000
    798      -0.5136      0.00000
    799      -0.5034      0.00000
    800      -0.4598      0.00000
    801      -0.3929      0.00000
    802      -0.3423      0.00000
    803      -0.2985      0.00000
    804      -0.2616      0.00000
    805      -0.2236      0.00000
    806      -0.1704      0.00000
    807      -0.1361      0.00000
    808      -0.1122      0.00000
    809      -0.0591      0.00000
    810      -0.0394      0.00000
    811       0.0043      0.00000
    812       0.0639      0.00000
    813       0.1061      0.00000
    814       0.1307      0.00000
    815       0.1403      0.00000
    816       0.1676      0.00000
    817       0.1946      0.00000
    818       0.1973      0.00000
    819       0.2066      0.00000
    820       0.2315      0.00000
    821       0.2358      0.00000
    822       0.2732      0.00000
    823       0.2858      0.00000
    824       0.3003      0.00000
    825       0.3181      0.00000
    826       0.3390      0.00000
    827       0.3855      0.00000
    828       0.4154      0.00000
    829       0.4556      0.00000
    830       0.4919      0.00000
    831       0.4980      0.00000
    832       0.5187      0.00000
    833       0.5247      0.00000
    834       0.5403      0.00000
    835       0.5475      0.00000
    836       0.5698      0.00000
    837       0.5810      0.00000
    838       0.5858      0.00000
    839       0.6051      0.00000
    840       0.6142      0.00000
    841       0.6258      0.00000
    842       0.6288      0.00000
    843       0.6495      0.00000
    844       0.6693      0.00000
    845       0.6858      0.00000
    846       0.8049      0.00000
    847       0.8157      0.00000
    848       0.8450      0.00000
    849       0.8667      0.00000
    850       0.9029      0.00000
    851       0.9060      0.00000
    852       0.9125      0.00000
    853       0.9233      0.00000
    854       0.9280      0.00000
    855       0.9450      0.00000
    856       0.9472      0.00000
    857       0.9520      0.00000
    858       0.9733      0.00000
    859       1.0024      0.00000
    860       1.0173      0.00000
    861       1.0222      0.00000
    862       1.0283      0.00000
    863       1.0494      0.00000
    864       1.0652      0.00000
    865       1.0918      0.00000
    866       1.1097      0.00000
    867       1.1455      0.00000
    868       1.1857      0.00000
    869       1.1913      0.00000
    870       1.2178      0.00000
    871       1.2260      0.00000
    872       1.2361      0.00000
    873       1.2580      0.00000
    874       1.2645      0.00000
    875       1.2696      0.00000
    876       1.2868      0.00000
    877       1.2981      0.00000
    878       1.2995      0.00000
    879       1.3082      0.00000
    880       1.3144      0.00000
    881       1.3203      0.00000
    882       1.3233      0.00000
    883       1.3444      0.00000
    884       1.3458      0.00000
    885       1.3555      0.00000
    886       1.3611      0.00000
    887       1.3785      0.00000
    888       1.3926      0.00000
    889       1.4036      0.00000
    890       1.4053      0.00000
    891       1.4669      0.00000
    892       1.4793      0.00000
    893       1.4970      0.00000
    894       1.5024      0.00000
    895       1.5186      0.00000
    896       1.5977      0.00000

 k-point     3 :       0.0000    0.0000   -0.1111
  band No.  band energies     occupation 
      1     -22.9829      1.00000
      2     -22.9303      1.00000
      3     -22.8996      1.00000
      4     -22.7777      1.00000
      5     -22.7644      1.00000
      6     -22.7454      1.00000
      7     -22.7199      1.00000
      8     -22.7129      1.00000
      9     -22.6913      1.00000
     10     -22.6835      1.00000
     11     -22.6821      1.00000
     12     -22.5375      1.00000
     13     -22.5296      1.00000
     14     -22.4779      1.00000
     15     -22.4710      1.00000
     16     -22.4296      1.00000
     17     -22.3424      1.00000
     18     -22.2256      1.00000
     19     -22.2152      1.00000
     20     -22.1530      1.00000
     21     -22.1348      1.00000
     22     -22.1295      1.00000
     23     -22.1275      1.00000
     24     -22.0910      1.00000
     25     -22.0837      1.00000
     26     -22.0595      1.00000
     27     -22.0545      1.00000
     28     -21.9844      1.00000
     29     -21.9114      1.00000
     30     -21.9021      1.00000
     31     -21.8688      1.00000
     32     -21.8499      1.00000
     33     -21.8441      1.00000
     34     -21.7775      1.00000
     35     -21.7710      1.00000
     36     -21.6630      1.00000
     37     -21.6549      1.00000
     38     -21.5987      1.00000
     39     -21.5908      1.00000
     40     -21.5120      1.00000
     41     -21.5040      1.00000
     42     -21.4115      1.00000
     43     -21.2695      1.00000
     44     -21.2142      1.00000
     45     -21.1995      1.00000
     46     -21.1631      1.00000
     47     -21.1512      1.00000
     48     -21.1266      1.00000
     49     -21.1189      1.00000
     50     -21.0816      1.00000
     51     -21.0683      1.00000
     52     -21.0588      1.00000
     53     -21.0555      1.00000
     54     -21.0432      1.00000
     55     -21.0397      1.00000
     56     -21.0364      1.00000
     57     -21.0351      1.00000
     58     -20.8963      1.00000
     59     -20.8897      1.00000
     60     -20.8380      1.00000
     61     -20.8327      1.00000
     62     -20.7142      1.00000
     63     -20.6089      1.00000
     64     -20.5873      1.00000
     65     -20.5834      1.00000
     66     -20.5820      1.00000
     67     -20.5427      1.00000
     68     -20.5150      1.00000
     69     -20.5045      1.00000
     70     -20.4992      1.00000
     71     -20.4982      1.00000
     72     -20.4501      1.00000
     73     -20.4431      1.00000
     74     -20.3411      1.00000
     75     -20.3336      1.00000
     76     -20.1621      1.00000
     77     -20.1529      1.00000
     78     -20.0497      1.00000
     79     -20.0402      1.00000
     80     -19.9194      1.00000
     81     -19.8993      1.00000
     82     -19.8944      1.00000
     83     -19.7897      1.00000
     84     -19.7597      1.00000
     85     -19.7401      1.00000
     86     -19.7310      1.00000
     87     -19.7164      1.00000
     88     -19.7099      1.00000
     89     -19.6978      1.00000
     90     -19.6941      1.00000
     91     -19.6916      1.00000
     92     -19.6809      1.00000
     93     -19.6789      1.00000
     94     -19.6063      1.00000
     95     -19.5995      1.00000
     96     -19.5444      1.00000
     97     -19.5365      1.00000
     98     -19.5048      1.00000
     99     -19.4962      1.00000
    100     -19.4820      1.00000
    101     -19.4815      1.00000
    102     -19.4627      1.00000
    103     -19.4590      1.00000
    104     -19.2495      1.00000
    105     -19.2409      1.00000
    106     -19.1676      1.00000
    107     -19.1587      1.00000
    108     -19.1094      1.00000
    109     -19.1000      1.00000
    110     -18.9796      1.00000
    111     -18.9462      1.00000
    112     -18.9323      1.00000
    113     -18.9159      1.00000
    114     -18.9092      1.00000
    115     -18.8366      1.00000
    116     -18.8248      1.00000
    117     -18.7895      1.00000
    118     -18.7732      1.00000
    119     -18.7710      1.00000
    120     -18.7681      1.00000
    121     -18.7502      1.00000
    122     -18.7188      1.00000
    123     -18.7155      1.00000
    124     -18.5684      1.00000
    125     -18.5564      1.00000
    126     -18.3272      1.00000
    127     -18.2967      1.00000
    128     -18.2493      1.00000
    129     -18.2164      1.00000
    130     -18.1949      1.00000
    131     -18.1757      1.00000
    132     -18.1742      1.00000
    133     -18.1636      1.00000
    134     -18.1605      1.00000
    135     -18.1579      1.00000
    136     -18.1251      1.00000
    137     -18.1179      1.00000
    138     -18.0983      1.00000
    139     -18.0883      1.00000
    140     -18.0374      1.00000
    141     -18.0170      1.00000
    142     -18.0046      1.00000
    143     -18.0027      1.00000
    144     -17.9694      1.00000
    145     -17.9571      1.00000
    146     -17.9450      1.00000
    147     -17.9173      1.00000
    148     -17.8952      1.00000
    149     -17.8017      1.00000
    150     -17.7764      1.00000
    151     -17.7293      1.00000
    152     -17.7009      1.00000
    153     -17.6928      1.00000
    154     -17.6730      1.00000
    155     -17.6624      1.00000
    156     -17.6251      1.00000
    157     -17.6011      1.00000
    158     -17.5773      1.00000
    159     -17.5628      1.00000
    160     -17.5455      1.00000
    161     -17.5430      1.00000
    162     -17.5345      1.00000
    163     -17.5183      1.00000
    164     -17.5131      1.00000
    165     -17.3970      1.00000
    166     -17.3199      1.00000
    167     -17.3124      1.00000
    168     -17.2707      1.00000
    169     -17.2191      1.00000
    170     -17.1744      1.00000
    171     -17.1066      1.00000
    172     -17.0703      1.00000
    173     -16.9121      1.00000
    174     -16.8419      1.00000
    175     -16.8215      1.00000
    176     -16.7962      1.00000
    177     -16.7224      1.00000
    178     -16.7069      1.00000
    179     -16.6775      1.00000
    180     -16.6536      1.00000
    181     -16.5167      1.00000
    182     -16.4957      1.00000
    183     -16.4626      1.00000
    184     -16.3521      1.00000
    185     -16.3042      1.00000
    186     -16.2725      1.00000
    187     -16.2604      1.00000
    188     -16.1671      1.00000
    189     -16.0992      1.00000
    190     -16.0017      1.00000
    191     -15.9937      1.00000
    192     -15.9793      1.00000
    193     -15.8559      1.00000
    194     -15.8351      1.00000
    195     -15.8179      1.00000
    196     -15.8124      1.00000
    197     -15.8081      1.00000
    198     -15.7947      1.00000
    199     -15.7874      1.00000
    200     -15.7804      1.00000
    201     -15.7755      1.00000
    202     -15.7692      1.00000
    203     -15.7601      1.00000
    204     -15.7535      1.00000
    205     -15.7194      1.00000
    206     -15.6956      1.00000
    207     -15.6675      1.00000
    208     -15.6581      1.00000
    209     -15.6393      1.00000
    210     -15.6219      1.00000
    211     -15.5939      1.00000
    212     -15.5873      1.00000
    213     -15.5779      1.00000
    214     -15.5633      1.00000
    215     -15.5544      1.00000
    216     -15.5029      1.00000
    217     -15.4412      1.00000
    218     -15.4247      1.00000
    219     -15.4115      1.00000
    220     -15.4038      1.00000
    221     -15.3733      1.00000
    222     -15.3171      1.00000
    223     -15.2760      1.00000
    224     -15.2728      1.00000
    225     -15.2684      1.00000
    226     -15.2447      1.00000
    227     -15.2119      1.00000
    228     -15.1674      1.00000
    229     -15.0907      1.00000
    230     -15.0408      1.00000
    231     -15.0353      1.00000
    232     -14.9944      1.00000
    233     -14.9456      1.00000
    234     -14.9307      1.00000
    235     -14.8883      1.00000
    236     -14.8616      1.00000
    237     -14.8327      1.00000
    238     -14.7909      1.00000
    239     -14.7316      1.00000
    240     -14.6943      1.00000
    241     -14.6829      1.00000
    242     -14.6648      1.00000
    243     -14.6514      1.00000
    244     -14.6271      1.00000
    245     -14.5691      1.00000
    246     -14.4901      1.00000
    247     -14.4612      1.00000
    248     -14.4055      1.00000
    249     -14.3781      1.00000
    250     -14.2364      1.00000
    251     -14.1776      1.00000
    252     -14.0534      1.00000
    253     -13.8397      1.00000
    254     -13.8011      1.00000
    255     -13.7970      1.00000
    256     -13.7928      1.00000
    257     -13.7917      1.00000
    258     -13.7748      1.00000
    259     -13.7699      1.00000
    260     -13.7586      1.00000
    261     -13.7545      1.00000
    262     -13.7333      1.00000
    263     -13.7292      1.00000
    264     -13.7197      1.00000
    265     -13.7147      1.00000
    266     -13.6983      1.00000
    267     -13.6939      1.00000
    268     -13.6789      1.00000
    269     -13.6718      1.00000
    270     -13.6476      1.00000
    271     -13.6200      1.00000
    272     -13.5809      1.00000
    273     -13.5543      1.00000
    274     -13.5439      1.00000
    275     -13.5388      1.00000
    276     -13.5304      1.00000
    277     -13.4988      1.00000
    278     -13.4826      1.00000
    279     -13.4732      1.00000
    280     -13.4364      1.00000
    281     -13.4276      1.00000
    282     -13.4211      1.00000
    283     -13.3869      1.00000
    284     -13.3439      1.00000
    285     -13.3381      1.00000
    286     -13.2823      1.00000
    287     -13.2735      1.00000
    288     -13.2637      1.00000
    289     -13.2465      1.00000
    290     -13.2177      1.00000
    291     -13.2106      1.00000
    292     -13.2051      1.00000
    293     -13.2002      1.00000
    294     -13.0482      1.00000
    295     -12.9006      1.00000
    296     -12.7701      1.00000
    297     -12.7631      1.00000
    298     -12.7056      1.00000
    299     -12.6517      1.00000
    300     -12.6416      1.00000
    301     -12.5890      1.00000
    302     -12.5442      1.00000
    303     -12.5420      1.00000
    304     -12.5372      1.00000
    305     -12.4498      1.00000
    306     -12.4148      1.00000
    307     -12.4049      1.00000
    308     -12.3954      1.00000
    309     -12.3904      1.00000
    310     -12.3874      1.00000
    311     -12.3830      1.00000
    312     -12.3289      1.00000
    313     -12.2858      1.00000
    314     -12.2729      1.00000
    315     -12.2666      1.00000
    316     -12.2248      1.00000
    317     -12.2007      1.00000
    318     -12.1977      1.00000
    319     -12.1949      1.00000
    320     -12.1461      1.00000
    321     -12.0591      1.00000
    322     -12.0396      1.00000
    323     -12.0028      1.00000
    324     -11.9548      1.00000
    325     -11.9463      1.00000
    326     -11.9352      1.00000
    327     -11.8648      1.00000
    328     -11.8075      1.00000
    329     -11.8013      1.00000
    330     -11.7741      1.00000
    331     -11.7576      1.00000
    332     -11.7495      1.00000
    333     -11.7454      1.00000
    334     -11.7094      1.00000
    335     -11.7007      1.00000
    336     -11.6866      1.00000
    337     -11.6695      1.00000
    338     -11.6522      1.00000
    339     -11.6254      1.00000
    340     -11.6107      1.00000
    341     -11.5748      1.00000
    342     -11.5670      1.00000
    343     -11.5603      1.00000
    344     -11.5431      1.00000
    345     -11.4721      1.00000
    346     -11.4591      1.00000
    347     -11.4565      1.00000
    348     -11.4479      1.00000
    349     -11.4450      1.00000
    350     -11.4215      1.00000
    351     -11.3925      1.00000
    352     -11.3878      1.00000
    353     -11.3764      1.00000
    354     -11.3372      1.00000
    355     -11.3353      1.00000
    356     -11.3281      1.00000
    357     -11.3144      1.00000
    358     -11.2776      1.00000
    359     -11.2740      1.00000
    360     -11.2202      1.00000
    361     -11.2067      1.00000
    362     -11.1831      1.00000
    363     -11.1774      1.00000
    364     -11.1689      1.00000
    365     -11.0923      1.00000
    366     -11.0874      1.00000
    367     -11.0863      1.00000
    368     -11.0725      1.00000
    369     -11.0311      1.00000
    370     -11.0261      1.00000
    371     -11.0089      1.00000
    372     -10.9956      1.00000
    373     -10.9428      1.00000
    374     -10.8933      1.00000
    375     -10.8548      1.00000
    376     -10.8462      1.00000
    377     -10.8194      1.00000
    378     -10.8164      1.00000
    379     -10.7966      1.00000
    380     -10.7873      1.00000
    381     -10.7775      1.00000
    382     -10.7637      1.00000
    383     -10.7560      1.00000
    384     -10.7467      1.00000
    385     -10.7408      1.00000
    386     -10.7288      1.00000
    387     -10.7174      1.00000
    388     -10.7031      1.00000
    389     -10.6968      1.00000
    390     -10.6514      1.00000
    391     -10.6418      1.00000
    392     -10.6192      1.00000
    393     -10.6014      1.00000
    394     -10.5945      1.00000
    395     -10.5835      1.00000
    396     -10.5774      1.00000
    397     -10.5771      1.00000
    398     -10.5329      1.00000
    399     -10.5285      1.00000
    400     -10.5118      1.00000
    401     -10.4619      1.00000
    402     -10.4606      1.00000
    403     -10.4080      1.00000
    404     -10.4004      1.00000
    405     -10.3807      1.00000
    406     -10.3639      1.00000
    407     -10.3516      1.00000
    408     -10.3456      1.00000
    409     -10.3271      1.00000
    410     -10.3228      1.00000
    411     -10.3185      1.00000
    412     -10.3128      1.00000
    413     -10.3068      1.00000
    414     -10.3009      1.00000
    415     -10.2959      1.00000
    416     -10.2935      1.00000
    417     -10.2886      1.00000
    418     -10.2843      1.00000
    419     -10.2829      1.00000
    420     -10.2652      1.00000
    421     -10.2647      1.00000
    422     -10.2594      1.00000
    423     -10.2405      1.00000
    424     -10.2303      1.00000
    425     -10.2174      1.00000
    426     -10.2162      1.00000
    427     -10.2141      1.00000
    428     -10.2089      1.00000
    429     -10.2024      1.00000
    430     -10.1969      1.00000
    431     -10.1864      1.00000
    432     -10.1825      1.00000
    433     -10.1742      1.00000
    434     -10.1583      1.00000
    435     -10.1508      1.00000
    436     -10.1408      1.00000
    437     -10.1259      1.00000
    438     -10.1241      1.00000
    439     -10.1128      1.00000
    440     -10.1106      1.00000
    441     -10.1064      1.00000
    442     -10.0901      1.00000
    443     -10.0828      1.00000
    444     -10.0423      1.00000
    445     -10.0390      1.00000
    446     -10.0254      1.00000
    447     -10.0183      1.00000
    448     -10.0135      1.00000
    449      -9.9787      1.00000
    450      -9.9723      1.00000
    451      -9.9583      1.00000
    452      -9.9558      1.00000
    453      -9.9155      1.00000
    454      -9.8718      1.00000
    455      -9.8511      1.00000
    456      -9.8463      1.00000
    457      -9.8240      1.00000
    458      -9.8135      1.00000
    459      -9.7976      1.00000
    460      -9.7936      1.00000
    461      -9.7788      1.00000
    462      -9.7380      1.00000
    463      -9.7253      1.00000
    464      -9.7100      1.00000
    465      -9.6865      1.00000
    466      -9.6755      1.00000
    467      -9.6662      1.00000
    468      -9.6373      1.00000
    469      -9.6292      1.00000
    470      -9.6215      1.00000
    471      -9.5929      1.00000
    472      -9.5893      1.00000
    473      -9.5784      1.00000
    474      -9.5650      1.00000
    475      -9.5617      1.00000
    476      -9.5304      1.00000
    477      -9.5080      1.00000
    478      -9.5041      1.00000
    479      -9.4994      1.00000
    480      -9.4902      1.00000
    481      -9.4690      1.00000
    482      -9.4675      1.00000
    483      -9.4400      1.00000
    484      -9.4315      1.00000
    485      -9.4247      1.00000
    486      -9.4213      1.00000
    487      -9.3942      1.00000
    488      -9.3830      1.00000
    489      -9.3689      1.00000
    490      -9.3587      1.00000
    491      -9.3531      1.00000
    492      -9.3492      1.00000
    493      -9.3483      1.00000
    494      -9.3335      1.00000
    495      -9.3249      1.00000
    496      -9.2941      1.00000
    497      -9.2917      1.00000
    498      -9.2836      1.00000
    499      -9.2756      1.00000
    500      -9.2373      1.00000
    501      -9.2315      1.00000
    502      -9.2245      1.00000
    503      -9.2016      1.00000
    504      -9.1938      1.00000
    505      -9.1777      1.00000
    506      -9.1752      1.00000
    507      -9.1574      1.00000
    508      -9.1534      1.00000
    509      -9.1461      1.00000
    510      -9.1397      1.00000
    511      -9.1063      1.00000
    512      -9.0153      1.00000
    513      -8.9698      1.00000
    514      -8.9588      1.00000
    515      -8.9322      1.00000
    516      -8.9092      1.00000
    517      -8.9027      1.00000
    518      -8.8662      1.00000
    519      -8.8344      1.00000
    520      -8.8069      1.00000
    521      -8.7929      1.00000
    522      -8.7784      1.00000
    523      -8.7767      1.00000
    524      -8.7749      1.00000
    525      -8.7504      1.00000
    526      -8.7287      1.00000
    527      -8.7232      1.00000
    528      -8.6756      1.00000
    529      -8.6511      1.00000
    530      -8.6152      1.00000
    531      -8.6077      1.00000
    532      -8.5843      1.00000
    533      -8.5744      1.00000
    534      -8.5580      1.00000
    535      -8.5272      1.00000
    536      -8.5148      1.00000
    537      -8.4945      1.00000
    538      -8.4873      1.00000
    539      -8.4786      1.00000
    540      -8.4734      1.00000
    541      -8.4526      1.00000
    542      -8.4349      1.00000
    543      -8.4263      1.00000
    544      -8.4163      1.00000
    545      -8.4031      1.00000
    546      -8.3837      1.00000
    547      -8.3606      1.00000
    548      -8.3445      1.00000
    549      -8.3428      1.00000
    550      -8.3310      1.00000
    551      -8.3259      1.00000
    552      -8.3096      1.00000
    553      -8.3017      1.00000
    554      -8.2829      1.00000
    555      -8.2791      1.00000
    556      -8.2724      1.00000
    557      -8.2666      1.00000
    558      -8.2601      1.00000
    559      -8.2427      1.00000
    560      -8.1824      1.00000
    561      -8.1773      1.00000
    562      -8.1678      1.00000
    563      -8.1479      1.00000
    564      -8.1316      1.00000
    565      -8.1030      1.00000
    566      -8.0789      1.00000
    567      -8.0700      1.00000
    568      -8.0439      1.00000
    569      -8.0392      1.00000
    570      -8.0284      1.00000
    571      -8.0246      1.00000
    572      -8.0149      1.00000
    573      -8.0091      1.00000
    574      -7.9939      1.00000
    575      -7.9636      1.00000
    576      -7.9301      1.00000
    577      -7.9277      1.00000
    578      -7.9236      1.00000
    579      -7.9050      1.00000
    580      -7.9010      1.00000
    581      -7.8928      1.00000
    582      -7.8827      1.00000
    583      -7.8166      1.00000
    584      -7.7847      1.00000
    585      -7.7587      1.00000
    586      -7.7230      1.00000
    587      -7.7110      1.00000
    588      -7.6870      1.00000
    589      -7.6414      1.00000
    590      -7.6258      1.00000
    591      -7.5947      1.00000
    592      -7.5752      1.00000
    593      -7.5680      1.00000
    594      -7.5441      1.00000
    595      -7.5286      1.00000
    596      -7.4838      1.00000
    597      -7.4738      1.00000
    598      -7.4697      1.00000
    599      -7.4566      1.00000
    600      -7.4458      1.00000
    601      -7.4112      1.00000
    602      -7.3908      1.00000
    603      -7.3889      1.00000
    604      -7.3552      1.00000
    605      -7.3442      1.00000
    606      -7.3009      1.00000
    607      -7.2961      1.00000
    608      -7.2717      1.00000
    609      -7.2598      1.00000
    610      -7.2532      1.00000
    611      -7.2479      1.00000
    612      -7.2425      1.00000
    613      -7.2312      1.00000
    614      -7.2242      1.00000
    615      -7.2067      1.00000
    616      -7.2035      1.00000
    617      -7.1785      1.00000
    618      -7.1694      1.00000
    619      -7.1592      1.00000
    620      -7.1279      1.00000
    621      -7.1186      1.00000
    622      -7.0874      1.00000
    623      -7.0692      1.00000
    624      -7.0684      1.00000
    625      -7.0454      1.00000
    626      -7.0384      1.00000
    627      -7.0330      1.00000
    628      -7.0242      1.00000
    629      -7.0009      1.00000
    630      -6.9866      1.00000
    631      -6.9606      1.00000
    632      -6.9106      1.00000
    633      -6.8810      1.00000
    634      -6.8654      1.00000
    635      -6.8591      1.00000
    636      -6.8472      1.00000
    637      -6.8299      1.00000
    638      -6.8245      1.00000
    639      -6.8156      1.00000
    640      -6.8038      1.00000
    641      -6.7540      1.00000
    642      -6.7378      1.00000
    643      -6.6450      1.00000
    644      -6.6335      1.00000
    645      -6.5945      1.00000
    646      -6.5820      1.00000
    647      -6.5791      1.00000
    648      -6.5686      1.00000
    649      -6.5459      1.00000
    650      -6.5229      1.00000
    651      -6.5066      1.00000
    652      -6.4804      1.00000
    653      -6.4790      1.00000
    654      -6.4648      1.00000
    655      -6.4462      1.00000
    656      -6.4395      1.00000
    657      -6.4209      1.00000
    658      -6.3933      1.00000
    659      -6.3812      1.00000
    660      -6.3553      1.00000
    661      -6.3213      1.00000
    662      -6.2821      1.00000
    663      -6.2647      1.00000
    664      -6.2526      1.00000
    665      -6.2304      1.00000
    666      -6.1861      1.00000
    667      -6.1690      1.00000
    668      -6.1233      1.00000
    669      -6.1049      1.00000
    670      -6.0630      1.00000
    671      -6.0443      1.00000
    672      -6.0001      1.00000
    673      -5.9202      1.00000
    674      -5.9004      1.00000
    675      -5.8498      1.00000
    676      -5.8142      1.00000
    677      -5.7710      1.00000
    678      -5.7416      1.00000
    679      -5.7134      1.00000
    680      -5.6878      1.00000
    681      -5.6431      1.00000
    682      -5.6234      1.00000
    683      -5.5997      1.00000
    684      -5.5849      1.00000
    685      -5.5611      1.00000
    686      -5.5581      1.00000
    687      -5.5323      1.00000
    688      -5.5273      1.00000
    689      -5.5063      1.00000
    690      -5.4872      1.00000
    691      -5.4772      1.00000
    692      -5.4578      1.00000
    693      -5.4455      1.00000
    694      -5.4372      1.00000
    695      -5.4261      1.00000
    696      -5.4166      1.00000
    697      -5.3633      1.00000
    698      -5.3096      1.00000
    699      -5.3047      1.00000
    700      -5.2786      1.00000
    701      -5.2615      1.00000
    702      -5.2410      1.00000
    703      -5.2257      1.00000
    704      -5.2003      1.00000
    705      -5.1900      1.00000
    706      -5.1736      1.00000
    707      -5.1317      1.00000
    708      -5.0924      1.00000
    709      -5.0481      1.00000
    710      -5.0288      1.00000
    711      -4.9615      1.00000
    712      -4.9446      1.00000
    713      -4.8721      1.00000
    714      -4.8689      1.00000
    715      -4.8273      1.00000
    716      -4.7169      1.00000
    717      -4.5865      1.00000
    718      -4.5069      1.00000
    719      -4.4640      1.00000
    720      -4.4255      1.00000
    721      -4.4111      1.00000
    722      -4.3236      1.00000
    723      -4.3066      1.00000
    724      -4.2748      1.00000
    725      -4.2021      1.00000
    726      -4.1156      1.00000
    727      -4.0739      1.00000
    728      -4.0128      1.00000
    729      -3.8706      1.00000
    730      -3.6669      1.00000
    731      -3.6030      1.00000
    732      -2.7427      0.00000
    733      -2.6768      0.00000
    734      -2.5150      0.00000
    735      -2.3230      0.00000
    736      -2.2527      0.00000
    737      -2.2192      0.00000
    738      -2.2023      0.00000
    739      -2.1394      0.00000
    740      -2.1101      0.00000
    741      -2.0286      0.00000
    742      -2.0161      0.00000
    743      -1.9622      0.00000
    744      -1.9517      0.00000
    745      -1.9401      0.00000
    746      -1.9344      0.00000
    747      -1.8846      0.00000
    748      -1.8434      0.00000
    749      -1.7918      0.00000
    750      -1.7824      0.00000
    751      -1.7463      0.00000
    752      -1.7308      0.00000
    753      -1.7136      0.00000
    754      -1.7033      0.00000
    755      -1.6687      0.00000
    756      -1.6524      0.00000
    757      -1.6312      0.00000
    758      -1.6119      0.00000
    759      -1.5698      0.00000
    760      -1.5480      0.00000
    761      -1.5402      0.00000
    762      -1.5273      0.00000
    763      -1.5141      0.00000
    764      -1.5108      0.00000
    765      -1.5034      0.00000
    766      -1.4863      0.00000
    767      -1.4729      0.00000
    768      -1.4649      0.00000
    769      -1.4355      0.00000
    770      -1.3960      0.00000
    771      -1.3869      0.00000
    772      -1.3717      0.00000
    773      -1.3620      0.00000
    774      -1.3246      0.00000
    775      -1.3117      0.00000
    776      -1.3038      0.00000
    777      -1.2966      0.00000
    778      -1.2825      0.00000
    779      -1.2759      0.00000
    780      -1.2755      0.00000
    781      -1.2594      0.00000
    782      -1.2503      0.00000
    783      -1.2255      0.00000
    784      -1.0846      0.00000
    785      -1.0374      0.00000
    786      -1.0235      0.00000
    787      -0.9596      0.00000
    788      -0.8925      0.00000
    789      -0.8830      0.00000
    790      -0.8687      0.00000
    791      -0.8232      0.00000
    792      -0.7973      0.00000
    793      -0.7612      0.00000
    794      -0.6840      0.00000
    795      -0.6308      0.00000
    796      -0.6102      0.00000
    797      -0.6052      0.00000
    798      -0.5544      0.00000
    799      -0.5075      0.00000
    800      -0.4231      0.00000
    801      -0.3691      0.00000
    802      -0.3395      0.00000
    803      -0.3096      0.00000
    804      -0.2833      0.00000
    805      -0.2329      0.00000
    806      -0.1560      0.00000
    807      -0.1347      0.00000
    808      -0.0690      0.00000
    809      -0.0670      0.00000
    810      -0.0304      0.00000
    811      -0.0267      0.00000
    812       0.0352      0.00000
    813       0.0767      0.00000
    814       0.1165      0.00000
    815       0.1338      0.00000
    816       0.1636      0.00000
    817       0.1755      0.00000
    818       0.1787      0.00000
    819       0.2092      0.00000
    820       0.2460      0.00000
    821       0.2556      0.00000
    822       0.2768      0.00000
    823       0.3026      0.00000
    824       0.3212      0.00000
    825       0.3363      0.00000
    826       0.3496      0.00000
    827       0.3915      0.00000
    828       0.4272      0.00000
    829       0.4633      0.00000
    830       0.4702      0.00000
    831       0.4970      0.00000
    832       0.5115      0.00000
    833       0.5255      0.00000
    834       0.5434      0.00000
    835       0.5470      0.00000
    836       0.5706      0.00000
    837       0.5812      0.00000
    838       0.5864      0.00000
    839       0.5944      0.00000
    840       0.6012      0.00000
    841       0.6374      0.00000
    842       0.6399      0.00000
    843       0.6637      0.00000
    844       0.6804      0.00000
    845       0.7156      0.00000
    846       0.7676      0.00000
    847       0.8064      0.00000
    848       0.8436      0.00000
    849       0.8497      0.00000
    850       0.8832      0.00000
    851       0.8938      0.00000
    852       0.9162      0.00000
    853       0.9245      0.00000
    854       0.9289      0.00000
    855       0.9471      0.00000
    856       0.9577      0.00000
    857       0.9650      0.00000
    858       0.9706      0.00000
    859       0.9915      0.00000
    860       1.0062      0.00000
    861       1.0196      0.00000
    862       1.0305      0.00000
    863       1.0551      0.00000
    864       1.0668      0.00000
    865       1.0999      0.00000
    866       1.1298      0.00000
    867       1.1606      0.00000
    868       1.1671      0.00000
    869       1.1882      0.00000
    870       1.1995      0.00000
    871       1.2187      0.00000
    872       1.2292      0.00000
    873       1.2455      0.00000
    874       1.2469      0.00000
    875       1.2646      0.00000
    876       1.2672      0.00000
    877       1.2781      0.00000
    878       1.2918      0.00000
    879       1.3147      0.00000
    880       1.3197      0.00000
    881       1.3301      0.00000
    882       1.3369      0.00000
    883       1.3438      0.00000
    884       1.3468      0.00000
    885       1.3541      0.00000
    886       1.3769      0.00000
    887       1.3786      0.00000
    888       1.4000      0.00000
    889       1.4053      0.00000
    890       1.4339      0.00000
    891       1.4526      0.00000
    892       1.4751      0.00000
    893       1.4912      0.00000
    894       1.4984      0.00000
    895       1.5142      0.00000
    896       1.5640      0.00000

 k-point     4 :       0.0000    0.0000   -0.1667
  band No.  band energies     occupation 
      1     -22.9820      1.00000
      2     -22.9362      1.00000
      3     -22.8916      1.00000
      4     -22.7781      1.00000
      5     -22.7634      1.00000
      6     -22.7571      1.00000
      7     -22.7255      1.00000
      8     -22.7192      1.00000
      9     -22.6825      1.00000
     10     -22.6752      1.00000
     11     -22.6682      1.00000
     12     -22.5506      1.00000
     13     -22.5432      1.00000
     14     -22.4636      1.00000
     15     -22.4553      1.00000
     16     -22.4496      1.00000
     17     -22.3197      1.00000
     18     -22.2453      1.00000
     19     -22.2360      1.00000
     20     -22.1495      1.00000
     21     -22.1338      1.00000
     22     -22.1125      1.00000
     23     -22.1047      1.00000
     24     -22.0944      1.00000
     25     -22.0899      1.00000
     26     -22.0520      1.00000
     27     -22.0463      1.00000
     28     -22.0119      1.00000
     29     -21.9240      1.00000
     30     -21.9156      1.00000
     31     -21.8437      1.00000
     32     -21.8315      1.00000
     33     -21.8287      1.00000
     34     -21.8041      1.00000
     35     -21.7990      1.00000
     36     -21.6364      1.00000
     37     -21.6250      1.00000
     38     -21.6160      1.00000
     39     -21.6113      1.00000
     40     -21.4903      1.00000
     41     -21.4814      1.00000
     42     -21.4460      1.00000
     43     -21.2509      1.00000
     44     -21.2345      1.00000
     45     -21.2290      1.00000
     46     -21.1882      1.00000
     47     -21.1789      1.00000
     48     -21.1277      1.00000
     49     -21.1179      1.00000
     50     -21.0820      1.00000
     51     -21.0743      1.00000
     52     -21.0415      1.00000
     53     -21.0312      1.00000
     54     -21.0217      1.00000
     55     -21.0185      1.00000
     56     -21.0090      1.00000
     57     -21.0062      1.00000
     58     -20.9085      1.00000
     59     -20.9030      1.00000
     60     -20.8238      1.00000
     61     -20.8175      1.00000
     62     -20.7553      1.00000
     63     -20.6364      1.00000
     64     -20.6207      1.00000
     65     -20.6076      1.00000
     66     -20.6041      1.00000
     67     -20.5529      1.00000
     68     -20.5461      1.00000
     69     -20.5007      1.00000
     70     -20.4801      1.00000
     71     -20.4768      1.00000
     72     -20.4148      1.00000
     73     -20.4067      1.00000
     74     -20.2985      1.00000
     75     -20.2900      1.00000
     76     -20.1879      1.00000
     77     -20.1800      1.00000
     78     -20.0238      1.00000
     79     -20.0113      1.00000
     80     -19.9572      1.00000
     81     -19.9413      1.00000
     82     -19.9398      1.00000
     83     -19.7921      1.00000
     84     -19.7589      1.00000
     85     -19.7432      1.00000
     86     -19.7397      1.00000
     87     -19.7209      1.00000
     88     -19.7156      1.00000
     89     -19.6950      1.00000
     90     -19.6880      1.00000
     91     -19.6740      1.00000
     92     -19.6733      1.00000
     93     -19.6491      1.00000
     94     -19.6363      1.00000
     95     -19.6328      1.00000
     96     -19.5544      1.00000
     97     -19.5493      1.00000
     98     -19.4775      1.00000
     99     -19.4670      1.00000
    100     -19.4501      1.00000
    101     -19.4463      1.00000
    102     -19.4278      1.00000
    103     -19.4239      1.00000
    104     -19.2678      1.00000
    105     -19.2605      1.00000
    106     -19.1661      1.00000
    107     -19.1480      1.00000
    108     -19.1375      1.00000
    109     -19.1350      1.00000
    110     -19.0287      1.00000
    111     -18.9821      1.00000
    112     -18.9718      1.00000
    113     -18.8864      1.00000
    114     -18.8620      1.00000
    115     -18.8521      1.00000
    116     -18.8491      1.00000
    117     -18.8312      1.00000
    118     -18.8260      1.00000
    119     -18.7408      1.00000
    120     -18.7288      1.00000
    121     -18.6996      1.00000
    122     -18.6891      1.00000
    123     -18.6867      1.00000
    124     -18.5164      1.00000
    125     -18.5017      1.00000
    126     -18.3527      1.00000
    127     -18.3287      1.00000
    128     -18.2862      1.00000
    129     -18.2655      1.00000
    130     -18.2325      1.00000
    131     -18.2181      1.00000
    132     -18.1730      1.00000
    133     -18.1700      1.00000
    134     -18.1410      1.00000
    135     -18.1330      1.00000
    136     -18.1262      1.00000
    137     -18.1189      1.00000
    138     -18.0923      1.00000
    139     -18.0810      1.00000
    140     -18.0222      1.00000
    141     -17.9938      1.00000
    142     -17.9769      1.00000
    143     -17.9714      1.00000
    144     -17.9605      1.00000
    145     -17.9581      1.00000
    146     -17.9544      1.00000
    147     -17.9046      1.00000
    148     -17.8823      1.00000
    149     -17.8491      1.00000
    150     -17.8308      1.00000
    151     -17.7361      1.00000
    152     -17.7193      1.00000
    153     -17.7058      1.00000
    154     -17.6841      1.00000
    155     -17.6622      1.00000
    156     -17.6089      1.00000
    157     -17.5889      1.00000
    158     -17.5600      1.00000
    159     -17.5499      1.00000
    160     -17.5309      1.00000
    161     -17.5218      1.00000
    162     -17.5172      1.00000
    163     -17.4911      1.00000
    164     -17.4859      1.00000
    165     -17.4259      1.00000
    166     -17.3417      1.00000
    167     -17.3121      1.00000
    168     -17.2892      1.00000
    169     -17.1946      1.00000
    170     -17.1516      1.00000
    171     -17.1205      1.00000
    172     -17.0794      1.00000
    173     -16.9637      1.00000
    174     -16.8737      1.00000
    175     -16.8549      1.00000
    176     -16.8281      1.00000
    177     -16.7018      1.00000
    178     -16.6805      1.00000
    179     -16.6406      1.00000
    180     -16.6158      1.00000
    181     -16.5019      1.00000
    182     -16.4873      1.00000
    183     -16.4389      1.00000
    184     -16.3610      1.00000
    185     -16.2978      1.00000
    186     -16.2772      1.00000
    187     -16.2477      1.00000
    188     -16.1618      1.00000
    189     -16.1082      1.00000
    190     -16.0459      1.00000
    191     -16.0291      1.00000
    192     -15.9629      1.00000
    193     -15.8751      1.00000
    194     -15.8619      1.00000
    195     -15.8545      1.00000
    196     -15.8341      1.00000
    197     -15.8193      1.00000
    198     -15.8150      1.00000
    199     -15.8008      1.00000
    200     -15.7919      1.00000
    201     -15.7808      1.00000
    202     -15.7640      1.00000
    203     -15.7351      1.00000
    204     -15.7223      1.00000
    205     -15.7062      1.00000
    206     -15.6800      1.00000
    207     -15.6755      1.00000
    208     -15.6696      1.00000
    209     -15.6381      1.00000
    210     -15.6101      1.00000
    211     -15.5589      1.00000
    212     -15.5399      1.00000
    213     -15.5267      1.00000
    214     -15.5152      1.00000
    215     -15.5100      1.00000
    216     -15.4888      1.00000
    217     -15.4643      1.00000
    218     -15.4521      1.00000
    219     -15.4459      1.00000
    220     -15.4069      1.00000
    221     -15.3632      1.00000
    222     -15.3335      1.00000
    223     -15.3089      1.00000
    224     -15.2800      1.00000
    225     -15.2509      1.00000
    226     -15.2290      1.00000
    227     -15.2172      1.00000
    228     -15.1669      1.00000
    229     -15.0945      1.00000
    230     -15.0179      1.00000
    231     -15.0068      1.00000
    232     -14.9972      1.00000
    233     -14.9827      1.00000
    234     -14.9563      1.00000
    235     -14.9133      1.00000
    236     -14.8924      1.00000
    237     -14.8670      1.00000
    238     -14.8264      1.00000
    239     -14.7845      1.00000
    240     -14.7310      1.00000
    241     -14.6980      1.00000
    242     -14.6308      1.00000
    243     -14.6165      1.00000
    244     -14.5721      1.00000
    245     -14.5125      1.00000
    246     -14.4352      1.00000
    247     -14.4230      1.00000
    248     -14.4126      1.00000
    249     -14.3395      1.00000
    250     -14.2858      1.00000
    251     -14.1265      1.00000
    252     -14.0129      1.00000
    253     -13.8677      1.00000
    254     -13.8562      1.00000
    255     -13.8415      1.00000
    256     -13.8308      1.00000
    257     -13.8085      1.00000
    258     -13.7967      1.00000
    259     -13.7944      1.00000
    260     -13.7923      1.00000
    261     -13.7731      1.00000
    262     -13.7632      1.00000
    263     -13.7551      1.00000
    264     -13.7272      1.00000
    265     -13.7230      1.00000
    266     -13.7055      1.00000
    267     -13.6932      1.00000
    268     -13.6790      1.00000
    269     -13.6704      1.00000
    270     -13.6389      1.00000
    271     -13.6247      1.00000
    272     -13.5723      1.00000
    273     -13.5393      1.00000
    274     -13.5056      1.00000
    275     -13.4928      1.00000
    276     -13.4864      1.00000
    277     -13.4844      1.00000
    278     -13.4671      1.00000
    279     -13.4599      1.00000
    280     -13.4444      1.00000
    281     -13.4300      1.00000
    282     -13.4196      1.00000
    283     -13.3793      1.00000
    284     -13.3676      1.00000
    285     -13.3492      1.00000
    286     -13.2787      1.00000
    287     -13.2682      1.00000
    288     -13.2593      1.00000
    289     -13.2336      1.00000
    290     -13.1980      1.00000
    291     -13.1821      1.00000
    292     -13.1522      1.00000
    293     -13.1451      1.00000
    294     -13.0034      1.00000
    295     -12.9334      1.00000
    296     -12.8270      1.00000
    297     -12.7463      1.00000
    298     -12.7268      1.00000
    299     -12.7163      1.00000
    300     -12.7034      1.00000
    301     -12.6536      1.00000
    302     -12.6089      1.00000
    303     -12.5119      1.00000
    304     -12.5024      1.00000
    305     -12.4818      1.00000
    306     -12.4496      1.00000
    307     -12.4386      1.00000
    308     -12.4132      1.00000
    309     -12.3859      1.00000
    310     -12.3463      1.00000
    311     -12.3437      1.00000
    312     -12.3203      1.00000
    313     -12.2903      1.00000
    314     -12.2659      1.00000
    315     -12.2628      1.00000
    316     -12.1985      1.00000
    317     -12.1768      1.00000
    318     -12.1561      1.00000
    319     -12.1342      1.00000
    320     -12.0854      1.00000
    321     -12.0472      1.00000
    322     -12.0174      1.00000
    323     -11.9804      1.00000
    324     -11.9775      1.00000
    325     -11.9509      1.00000
    326     -11.9380      1.00000
    327     -11.8909      1.00000
    328     -11.8167      1.00000
    329     -11.7933      1.00000
    330     -11.7660      1.00000
    331     -11.7546      1.00000
    332     -11.7479      1.00000
    333     -11.7315      1.00000
    334     -11.7259      1.00000
    335     -11.7048      1.00000
    336     -11.6779      1.00000
    337     -11.6603      1.00000
    338     -11.6514      1.00000
    339     -11.6268      1.00000
    340     -11.6105      1.00000
    341     -11.6086      1.00000
    342     -11.5694      1.00000
    343     -11.5455      1.00000
    344     -11.5378      1.00000
    345     -11.5188      1.00000
    346     -11.4956      1.00000
    347     -11.4860      1.00000
    348     -11.4751      1.00000
    349     -11.4421      1.00000
    350     -11.4016      1.00000
    351     -11.3969      1.00000
    352     -11.3929      1.00000
    353     -11.3899      1.00000
    354     -11.3761      1.00000
    355     -11.3680      1.00000
    356     -11.3560      1.00000
    357     -11.3392      1.00000
    358     -11.3253      1.00000
    359     -11.2376      1.00000
    360     -11.2298      1.00000
    361     -11.1913      1.00000
    362     -11.1743      1.00000
    363     -11.1355      1.00000
    364     -11.1170      1.00000
    365     -11.1073      1.00000
    366     -11.0888      1.00000
    367     -11.0687      1.00000
    368     -11.0373      1.00000
    369     -11.0290      1.00000
    370     -11.0137      1.00000
    371     -10.9859      1.00000
    372     -10.9628      1.00000
    373     -10.8861      1.00000
    374     -10.8540      1.00000
    375     -10.8473      1.00000
    376     -10.8456      1.00000
    377     -10.8431      1.00000
    378     -10.8333      1.00000
    379     -10.8038      1.00000
    380     -10.7937      1.00000
    381     -10.7755      1.00000
    382     -10.7545      1.00000
    383     -10.7449      1.00000
    384     -10.7397      1.00000
    385     -10.7319      1.00000
    386     -10.7201      1.00000
    387     -10.7120      1.00000
    388     -10.7024      1.00000
    389     -10.6871      1.00000
    390     -10.6733      1.00000
    391     -10.6677      1.00000
    392     -10.6474      1.00000
    393     -10.6322      1.00000
    394     -10.6073      1.00000
    395     -10.5927      1.00000
    396     -10.5908      1.00000
    397     -10.5665      1.00000
    398     -10.5200      1.00000
    399     -10.5128      1.00000
    400     -10.4975      1.00000
    401     -10.4812      1.00000
    402     -10.4394      1.00000
    403     -10.4254      1.00000
    404     -10.4165      1.00000
    405     -10.3713      1.00000
    406     -10.3638      1.00000
    407     -10.3590      1.00000
    408     -10.3498      1.00000
    409     -10.3366      1.00000
    410     -10.3359      1.00000
    411     -10.3253      1.00000
    412     -10.3197      1.00000
    413     -10.3114      1.00000
    414     -10.3095      1.00000
    415     -10.2951      1.00000
    416     -10.2835      1.00000
    417     -10.2817      1.00000
    418     -10.2787      1.00000
    419     -10.2746      1.00000
    420     -10.2729      1.00000
    421     -10.2689      1.00000
    422     -10.2639      1.00000
    423     -10.2631      1.00000
    424     -10.2590      1.00000
    425     -10.2498      1.00000
    426     -10.2421      1.00000
    427     -10.2272      1.00000
    428     -10.2195      1.00000
    429     -10.2136      1.00000
    430     -10.1957      1.00000
    431     -10.1854      1.00000
    432     -10.1676      1.00000
    433     -10.1626      1.00000
    434     -10.1551      1.00000
    435     -10.1481      1.00000
    436     -10.1456      1.00000
    437     -10.1247      1.00000
    438     -10.1127      1.00000
    439     -10.1057      1.00000
    440     -10.0964      1.00000
    441     -10.0930      1.00000
    442     -10.0865      1.00000
    443     -10.0758      1.00000
    444     -10.0621      1.00000
    445     -10.0230      1.00000
    446     -10.0084      1.00000
    447     -10.0005      1.00000
    448      -9.9837      1.00000
    449      -9.9715      1.00000
    450      -9.9657      1.00000
    451      -9.9394      1.00000
    452      -9.9281      1.00000
    453      -9.9080      1.00000
    454      -9.8896      1.00000
    455      -9.8587      1.00000
    456      -9.8481      1.00000
    457      -9.8338      1.00000
    458      -9.8080      1.00000
    459      -9.7832      1.00000
    460      -9.7796      1.00000
    461      -9.7747      1.00000
    462      -9.7660      1.00000
    463      -9.7384      1.00000
    464      -9.7181      1.00000
    465      -9.6889      1.00000
    466      -9.6871      1.00000
    467      -9.6486      1.00000
    468      -9.6465      1.00000
    469      -9.6431      1.00000
    470      -9.6216      1.00000
    471      -9.5811      1.00000
    472      -9.5786      1.00000
    473      -9.5608      1.00000
    474      -9.5497      1.00000
    475      -9.5465      1.00000
    476      -9.5329      1.00000
    477      -9.5296      1.00000
    478      -9.5130      1.00000
    479      -9.4900      1.00000
    480      -9.4759      1.00000
    481      -9.4549      1.00000
    482      -9.4539      1.00000
    483      -9.4477      1.00000
    484      -9.4376      1.00000
    485      -9.4325      1.00000
    486      -9.4247      1.00000
    487      -9.4176      1.00000
    488      -9.3820      1.00000
    489      -9.3732      1.00000
    490      -9.3614      1.00000
    491      -9.3528      1.00000
    492      -9.3484      1.00000
    493      -9.3480      1.00000
    494      -9.3469      1.00000
    495      -9.3376      1.00000
    496      -9.3046      1.00000
    497      -9.3023      1.00000
    498      -9.2939      1.00000
    499      -9.2877      1.00000
    500      -9.2249      1.00000
    501      -9.2222      1.00000
    502      -9.2134      1.00000
    503      -9.2079      1.00000
    504      -9.1984      1.00000
    505      -9.1924      1.00000
    506      -9.1726      1.00000
    507      -9.1516      1.00000
    508      -9.1448      1.00000
    509      -9.1311      1.00000
    510      -9.1063      1.00000
    511      -9.0861      1.00000
    512      -9.0295      1.00000
    513      -8.9981      1.00000
    514      -8.9655      1.00000
    515      -8.9622      1.00000
    516      -8.9443      1.00000
    517      -8.9193      1.00000
    518      -8.8679      1.00000
    519      -8.8354      1.00000
    520      -8.8063      1.00000
    521      -8.7958      1.00000
    522      -8.7770      1.00000
    523      -8.7738      1.00000
    524      -8.7523      1.00000
    525      -8.7395      1.00000
    526      -8.7143      1.00000
    527      -8.6765      1.00000
    528      -8.6680      1.00000
    529      -8.6279      1.00000
    530      -8.6126      1.00000
    531      -8.6015      1.00000
    532      -8.5805      1.00000
    533      -8.5694      1.00000
    534      -8.5536      1.00000
    535      -8.5244      1.00000
    536      -8.5117      1.00000
    537      -8.4903      1.00000
    538      -8.4808      1.00000
    539      -8.4704      1.00000
    540      -8.4650      1.00000
    541      -8.4595      1.00000
    542      -8.4387      1.00000
    543      -8.4282      1.00000
    544      -8.4100      1.00000
    545      -8.3998      1.00000
    546      -8.3805      1.00000
    547      -8.3632      1.00000
    548      -8.3602      1.00000
    549      -8.3492      1.00000
    550      -8.3435      1.00000
    551      -8.3399      1.00000
    552      -8.3361      1.00000
    553      -8.3331      1.00000
    554      -8.3138      1.00000
    555      -8.3013      1.00000
    556      -8.2693      1.00000
    557      -8.2628      1.00000
    558      -8.2520      1.00000
    559      -8.2458      1.00000
    560      -8.1912      1.00000
    561      -8.1638      1.00000
    562      -8.1542      1.00000
    563      -8.1439      1.00000
    564      -8.1204      1.00000
    565      -8.1105      1.00000
    566      -8.1016      1.00000
    567      -8.0673      1.00000
    568      -8.0565      1.00000
    569      -8.0430      1.00000
    570      -8.0352      1.00000
    571      -8.0183      1.00000
    572      -8.0099      1.00000
    573      -8.0049      1.00000
    574      -7.9981      1.00000
    575      -7.9851      1.00000
    576      -7.9716      1.00000
    577      -7.9062      1.00000
    578      -7.8990      1.00000
    579      -7.8730      1.00000
    580      -7.8597      1.00000
    581      -7.8559      1.00000
    582      -7.8511      1.00000
    583      -7.8409      1.00000
    584      -7.7508      1.00000
    585      -7.7440      1.00000
    586      -7.7227      1.00000
    587      -7.7048      1.00000
    588      -7.6887      1.00000
    589      -7.6630      1.00000
    590      -7.6155      1.00000
    591      -7.6035      1.00000
    592      -7.5949      1.00000
    593      -7.5753      1.00000
    594      -7.5628      1.00000
    595      -7.5214      1.00000
    596      -7.5049      1.00000
    597      -7.4887      1.00000
    598      -7.4692      1.00000
    599      -7.4493      1.00000
    600      -7.4466      1.00000
    601      -7.4129      1.00000
    602      -7.4073      1.00000
    603      -7.3821      1.00000
    604      -7.3706      1.00000
    605      -7.3558      1.00000
    606      -7.3205      1.00000
    607      -7.3053      1.00000
    608      -7.2955      1.00000
    609      -7.2923      1.00000
    610      -7.2802      1.00000
    611      -7.2634      1.00000
    612      -7.2365      1.00000
    613      -7.2258      1.00000
    614      -7.2014      1.00000
    615      -7.1876      1.00000
    616      -7.1782      1.00000
    617      -7.1713      1.00000
    618      -7.1572      1.00000
    619      -7.1487      1.00000
    620      -7.1182      1.00000
    621      -7.1069      1.00000
    622      -7.0885      1.00000
    623      -7.0722      1.00000
    624      -7.0399      1.00000
    625      -7.0361      1.00000
    626      -7.0297      1.00000
    627      -7.0182      1.00000
    628      -7.0069      1.00000
    629      -6.9966      1.00000
    630      -6.9868      1.00000
    631      -6.9760      1.00000
    632      -6.9162      1.00000
    633      -6.8842      1.00000
    634      -6.8641      1.00000
    635      -6.8543      1.00000
    636      -6.8405      1.00000
    637      -6.8271      1.00000
    638      -6.8183      1.00000
    639      -6.7975      1.00000
    640      -6.7874      1.00000
    641      -6.7366      1.00000
    642      -6.7195      1.00000
    643      -6.6800      1.00000
    644      -6.6678      1.00000
    645      -6.6121      1.00000
    646      -6.5989      1.00000
    647      -6.5826      1.00000
    648      -6.5730      1.00000
    649      -6.5658      1.00000
    650      -6.5364      1.00000
    651      -6.5321      1.00000
    652      -6.5100      1.00000
    653      -6.4752      1.00000
    654      -6.4520      1.00000
    655      -6.4237      1.00000
    656      -6.4140      1.00000
    657      -6.4079      1.00000
    658      -6.3983      1.00000
    659      -6.3878      1.00000
    660      -6.3702      1.00000
    661      -6.3579      1.00000
    662      -6.3339      1.00000
    663      -6.2556      1.00000
    664      -6.2186      1.00000
    665      -6.1892      1.00000
    666      -6.1803      1.00000
    667      -6.1538      1.00000
    668      -6.1346      1.00000
    669      -6.0685      1.00000
    670      -6.0506      1.00000
    671      -6.0114      1.00000
    672      -5.9735      1.00000
    673      -5.9370      1.00000
    674      -5.9008      1.00000
    675      -5.8854      1.00000
    676      -5.8400      1.00000
    677      -5.7769      1.00000
    678      -5.7359      1.00000
    679      -5.6945      1.00000
    680      -5.6587      1.00000
    681      -5.6422      1.00000
    682      -5.6200      1.00000
    683      -5.5999      1.00000
    684      -5.5888      1.00000
    685      -5.5809      1.00000
    686      -5.5580      1.00000
    687      -5.5301      1.00000
    688      -5.5286      1.00000
    689      -5.5005      1.00000
    690      -5.4902      1.00000
    691      -5.4802      1.00000
    692      -5.4775      1.00000
    693      -5.4763      1.00000
    694      -5.4559      1.00000
    695      -5.4364      1.00000
    696      -5.4074      1.00000
    697      -5.3595      1.00000
    698      -5.3538      1.00000
    699      -5.3108      1.00000
    700      -5.2916      1.00000
    701      -5.2456      1.00000
    702      -5.2393      1.00000
    703      -5.2212      1.00000
    704      -5.1843      1.00000
    705      -5.1649      1.00000
    706      -5.1397      1.00000
    707      -5.1373      1.00000
    708      -5.0701      1.00000
    709      -5.0459      1.00000
    710      -5.0251      1.00000
    711      -4.9593      1.00000
    712      -4.9340      1.00000
    713      -4.8842      1.00000
    714      -4.8603      1.00000
    715      -4.8204      1.00000
    716      -4.7231      1.00000
    717      -4.5993      1.00000
    718      -4.5081      1.00000
    719      -4.4920      1.00000
    720      -4.4619      1.00000
    721      -4.4210      1.00000
    722      -4.3115      1.00000
    723      -4.2990      1.00000
    724      -4.2587      1.00000
    725      -4.1589      1.00000
    726      -4.1193      1.00000
    727      -4.0853      1.00000
    728      -4.0193      1.00000
    729      -3.8510      1.00000
    730      -3.6853      1.00000
    731      -3.6069      1.00000
    732      -2.7369      0.00000
    733      -2.6624      0.00000
    734      -2.5209      0.00000
    735      -2.3367      0.00000
    736      -2.2603      0.00000
    737      -2.2480      0.00000
    738      -2.1913      0.00000
    739      -2.1570      0.00000
    740      -2.1062      0.00000
    741      -1.9905      0.00000
    742      -1.9760      0.00000
    743      -1.9574      0.00000
    744      -1.9445      0.00000
    745      -1.9345      0.00000
    746      -1.9303      0.00000
    747      -1.9049      0.00000
    748      -1.8549      0.00000
    749      -1.7777      0.00000
    750      -1.7709      0.00000
    751      -1.7491      0.00000
    752      -1.7379      0.00000
    753      -1.7233      0.00000
    754      -1.6993      0.00000
    755      -1.6935      0.00000
    756      -1.6845      0.00000
    757      -1.6633      0.00000
    758      -1.6328      0.00000
    759      -1.5573      0.00000
    760      -1.5545      0.00000
    761      -1.5345      0.00000
    762      -1.5212      0.00000
    763      -1.5110      0.00000
    764      -1.5061      0.00000
    765      -1.4821      0.00000
    766      -1.4761      0.00000
    767      -1.4671      0.00000
    768      -1.4377      0.00000
    769      -1.4273      0.00000
    770      -1.4050      0.00000
    771      -1.3930      0.00000
    772      -1.3609      0.00000
    773      -1.3582      0.00000
    774      -1.3537      0.00000
    775      -1.3262      0.00000
    776      -1.3133      0.00000
    777      -1.2982      0.00000
    778      -1.2815      0.00000
    779      -1.2734      0.00000
    780      -1.2594      0.00000
    781      -1.2507      0.00000
    782      -1.2276      0.00000
    783      -1.1875      0.00000
    784      -1.0735      0.00000
    785      -1.0623      0.00000
    786      -1.0293      0.00000
    787      -1.0059      0.00000
    788      -0.9302      0.00000
    789      -0.8777      0.00000
    790      -0.8599      0.00000
    791      -0.8385      0.00000
    792      -0.8297      0.00000
    793      -0.7174      0.00000
    794      -0.6692      0.00000
    795      -0.6308      0.00000
    796      -0.6048      0.00000
    797      -0.5818      0.00000
    798      -0.5576      0.00000
    799      -0.5002      0.00000
    800      -0.3977      0.00000
    801      -0.3833      0.00000
    802      -0.3402      0.00000
    803      -0.3207      0.00000
    804      -0.2824      0.00000
    805      -0.2103      0.00000
    806      -0.1400      0.00000
    807      -0.1295      0.00000
    808      -0.0902      0.00000
    809      -0.0757      0.00000
    810      -0.0244      0.00000
    811      -0.0178      0.00000
    812       0.0180      0.00000
    813       0.0539      0.00000
    814       0.0709      0.00000
    815       0.0921      0.00000
    816       0.1577      0.00000
    817       0.1662      0.00000
    818       0.1873      0.00000
    819       0.2128      0.00000
    820       0.2347      0.00000
    821       0.2764      0.00000
    822       0.2928      0.00000
    823       0.3151      0.00000
    824       0.3365      0.00000
    825       0.3728      0.00000
    826       0.3855      0.00000
    827       0.3932      0.00000
    828       0.4070      0.00000
    829       0.4561      0.00000
    830       0.4919      0.00000
    831       0.4942      0.00000
    832       0.5262      0.00000
    833       0.5273      0.00000
    834       0.5469      0.00000
    835       0.5492      0.00000
    836       0.5699      0.00000
    837       0.5721      0.00000
    838       0.5818      0.00000
    839       0.5862      0.00000
    840       0.5892      0.00000
    841       0.6315      0.00000
    842       0.6488      0.00000
    843       0.6888      0.00000
    844       0.7023      0.00000
    845       0.7312      0.00000
    846       0.7455      0.00000
    847       0.8016      0.00000
    848       0.8282      0.00000
    849       0.8475      0.00000
    850       0.8558      0.00000
    851       0.8715      0.00000
    852       0.9078      0.00000
    853       0.9200      0.00000
    854       0.9265      0.00000
    855       0.9477      0.00000
    856       0.9493      0.00000
    857       0.9693      0.00000
    858       0.9817      0.00000
    859       0.9892      0.00000
    860       1.0039      0.00000
    861       1.0192      0.00000
    862       1.0339      0.00000
    863       1.0566      0.00000
    864       1.0726      0.00000
    865       1.1058      0.00000
    866       1.1478      0.00000
    867       1.1564      0.00000
    868       1.1620      0.00000
    869       1.1826      0.00000
    870       1.2189      0.00000
    871       1.2216      0.00000
    872       1.2303      0.00000
    873       1.2475      0.00000
    874       1.2506      0.00000
    875       1.2644      0.00000
    876       1.2690      0.00000
    877       1.2796      0.00000
    878       1.2836      0.00000
    879       1.2949      0.00000
    880       1.3311      0.00000
    881       1.3447      0.00000
    882       1.3486      0.00000
    883       1.3663      0.00000
    884       1.3731      0.00000
    885       1.3826      0.00000
    886       1.3893      0.00000
    887       1.3954      0.00000
    888       1.4057      0.00000
    889       1.4304      0.00000
    890       1.4474      0.00000
    891       1.4647      0.00000
    892       1.4713      0.00000
    893       1.4978      0.00000
    894       1.5041      0.00000
    895       1.5265      0.00000
    896       1.5732      0.00000

 k-point     5 :       0.0000    0.0000   -0.2222
  band No.  band energies     occupation 
      1     -22.9807      1.00000
      2     -22.9418      1.00000
      3     -22.8831      1.00000
      4     -22.7811      1.00000
      5     -22.7659      1.00000
      6     -22.7620      1.00000
      7     -22.7307      1.00000
      8     -22.7251      1.00000
      9     -22.6738      1.00000
     10     -22.6664      1.00000
     11     -22.6529      1.00000
     12     -22.5635      1.00000
     13     -22.5564      1.00000
     14     -22.4718      1.00000
     15     -22.4460      1.00000
     16     -22.4393      1.00000
     17     -22.2970      1.00000
     18     -22.2647      1.00000
     19     -22.2565      1.00000
     20     -22.1477      1.00000
     21     -22.1324      1.00000
     22     -22.1053      1.00000
     23     -22.0958      1.00000
     24     -22.0855      1.00000
     25     -22.0813      1.00000
     26     -22.0457      1.00000
     27     -22.0377      1.00000
     28     -22.0370      1.00000
     29     -21.9366      1.00000
     30     -21.9287      1.00000
     31     -21.8376      1.00000
     32     -21.8268      1.00000
     33     -21.8182      1.00000
     34     -21.8126      1.00000
     35     -21.8051      1.00000
     36     -21.6415      1.00000
     37     -21.6318      1.00000
     38     -21.6008      1.00000
     39     -21.5944      1.00000
     40     -21.4832      1.00000
     41     -21.4649      1.00000
     42     -21.4583      1.00000
     43     -21.2812      1.00000
     44     -21.2692      1.00000
     45     -21.2178      1.00000
     46     -21.2062      1.00000
     47     -21.1920      1.00000
     48     -21.1269      1.00000
     49     -21.1166      1.00000
     50     -21.0857      1.00000
     51     -21.0799      1.00000
     52     -21.0310      1.00000
     53     -21.0228      1.00000
     54     -20.9926      1.00000
     55     -20.9813      1.00000
     56     -20.9772      1.00000
     57     -20.9761      1.00000
     58     -20.9201      1.00000
     59     -20.9158      1.00000
     60     -20.8112      1.00000
     61     -20.8019      1.00000
     62     -20.7939      1.00000
     63     -20.6673      1.00000
     64     -20.6547      1.00000
     65     -20.6298      1.00000
     66     -20.6242      1.00000
     67     -20.5925      1.00000
     68     -20.5874      1.00000
     69     -20.4667      1.00000
     70     -20.4542      1.00000
     71     -20.4494      1.00000
     72     -20.3788      1.00000
     73     -20.3699      1.00000
     74     -20.2567      1.00000
     75     -20.2461      1.00000
     76     -20.2123      1.00000
     77     -20.2068      1.00000
     78     -20.0136      1.00000
     79     -19.9874      1.00000
     80     -19.9839      1.00000
     81     -19.9800      1.00000
     82     -19.9781      1.00000
     83     -19.8123      1.00000
     84     -19.7875      1.00000
     85     -19.7633      1.00000
     86     -19.7577      1.00000
     87     -19.7270      1.00000
     88     -19.7209      1.00000
     89     -19.6836      1.00000
     90     -19.6676      1.00000
     91     -19.6654      1.00000
     92     -19.6609      1.00000
     93     -19.6480      1.00000
     94     -19.6439      1.00000
     95     -19.5999      1.00000
     96     -19.5646      1.00000
     97     -19.5617      1.00000
     98     -19.4602      1.00000
     99     -19.4518      1.00000
    100     -19.4086      1.00000
    101     -19.3966      1.00000
    102     -19.3902      1.00000
    103     -19.3875      1.00000
    104     -19.2856      1.00000
    105     -19.2797      1.00000
    106     -19.2051      1.00000
    107     -19.1940      1.00000
    108     -19.1228      1.00000
    109     -19.1152      1.00000
    110     -19.0794      1.00000
    111     -19.0200      1.00000
    112     -19.0112      1.00000
    113     -18.9031      1.00000
    114     -18.8804      1.00000
    115     -18.8768      1.00000
    116     -18.8735      1.00000
    117     -18.8218      1.00000
    118     -18.8121      1.00000
    119     -18.7035      1.00000
    120     -18.6878      1.00000
    121     -18.6642      1.00000
    122     -18.6593      1.00000
    123     -18.6395      1.00000
    124     -18.4667      1.00000
    125     -18.4470      1.00000
    126     -18.3783      1.00000
    127     -18.3605      1.00000
    128     -18.3290      1.00000
    129     -18.3151      1.00000
    130     -18.2728      1.00000
    131     -18.2612      1.00000
    132     -18.1763      1.00000
    133     -18.1689      1.00000
    134     -18.1379      1.00000
    135     -18.1312      1.00000
    136     -18.1060      1.00000
    137     -18.0977      1.00000
    138     -18.0836      1.00000
    139     -18.0743      1.00000
    140     -18.0663      1.00000
    141     -17.9964      1.00000
    142     -17.9794      1.00000
    143     -17.9474      1.00000
    144     -17.9252      1.00000
    145     -17.9186      1.00000
    146     -17.9105      1.00000
    147     -17.9005      1.00000
    148     -17.8888      1.00000
    149     -17.8863      1.00000
    150     -17.8638      1.00000
    151     -17.7626      1.00000
    152     -17.7492      1.00000
    153     -17.7310      1.00000
    154     -17.7024      1.00000
    155     -17.6232      1.00000
    156     -17.5908      1.00000
    157     -17.5825      1.00000
    158     -17.5671      1.00000
    159     -17.5497      1.00000
    160     -17.5430      1.00000
    161     -17.4957      1.00000
    162     -17.4755      1.00000
    163     -17.4592      1.00000
    164     -17.4518      1.00000
    165     -17.4319      1.00000
    166     -17.3647      1.00000
    167     -17.3254      1.00000
    168     -17.2968      1.00000
    169     -17.1716      1.00000
    170     -17.1461      1.00000
    171     -17.1202      1.00000
    172     -17.0930      1.00000
    173     -17.0179      1.00000
    174     -16.9108      1.00000
    175     -16.8890      1.00000
    176     -16.8567      1.00000
    177     -16.6834      1.00000
    178     -16.6529      1.00000
    179     -16.6156      1.00000
    180     -16.5713      1.00000
    181     -16.4818      1.00000
    182     -16.4727      1.00000
    183     -16.4106      1.00000
    184     -16.3740      1.00000
    185     -16.2894      1.00000
    186     -16.2832      1.00000
    187     -16.2247      1.00000
    188     -16.1615      1.00000
    189     -16.1104      1.00000
    190     -16.0954      1.00000
    191     -16.0760      1.00000
    192     -15.9318      1.00000
    193     -15.9213      1.00000
    194     -15.9124      1.00000
    195     -15.8601      1.00000
    196     -15.8527      1.00000
    197     -15.8450      1.00000
    198     -15.8327      1.00000
    199     -15.8209      1.00000
    200     -15.7929      1.00000
    201     -15.7743      1.00000
    202     -15.7633      1.00000
    203     -15.7292      1.00000
    204     -15.6914      1.00000
    205     -15.6864      1.00000
    206     -15.6689      1.00000
    207     -15.6598      1.00000
    208     -15.6444      1.00000
    209     -15.6321      1.00000
    210     -15.5981      1.00000
    211     -15.5452      1.00000
    212     -15.5005      1.00000
    213     -15.4943      1.00000
    214     -15.4886      1.00000
    215     -15.4822      1.00000
    216     -15.4704      1.00000
    217     -15.4629      1.00000
    218     -15.4555      1.00000
    219     -15.4520      1.00000
    220     -15.4068      1.00000
    221     -15.3860      1.00000
    222     -15.3499      1.00000
    223     -15.3082      1.00000
    224     -15.2926      1.00000
    225     -15.2822      1.00000
    226     -15.2097      1.00000
    227     -15.1862      1.00000
    228     -15.1540      1.00000
    229     -15.1029      1.00000
    230     -15.0698      1.00000
    231     -15.0512      1.00000
    232     -14.9910      1.00000
    233     -14.9642      1.00000
    234     -14.9470      1.00000
    235     -14.9149      1.00000
    236     -14.9115      1.00000
    237     -14.9014      1.00000
    238     -14.8668      1.00000
    239     -14.8263      1.00000
    240     -14.7805      1.00000
    241     -14.7437      1.00000
    242     -14.5673      1.00000
    243     -14.5549      1.00000
    244     -14.5152      1.00000
    245     -14.4779      1.00000
    246     -14.4536      1.00000
    247     -14.3715      1.00000
    248     -14.3646      1.00000
    249     -14.3365      1.00000
    250     -14.2723      1.00000
    251     -14.0752      1.00000
    252     -13.9753      1.00000
    253     -13.9282      1.00000
    254     -13.9182      1.00000
    255     -13.9039      1.00000
    256     -13.8653      1.00000
    257     -13.8541      1.00000
    258     -13.8348      1.00000
    259     -13.8088      1.00000
    260     -13.7951      1.00000
    261     -13.7942      1.00000
    262     -13.7684      1.00000
    263     -13.7624      1.00000
    264     -13.7316      1.00000
    265     -13.7232      1.00000
    266     -13.7117      1.00000
    267     -13.6899      1.00000
    268     -13.6774      1.00000
    269     -13.6697      1.00000
    270     -13.6379      1.00000
    271     -13.6198      1.00000
    272     -13.6055      1.00000
    273     -13.5613      1.00000
    274     -13.5406      1.00000
    275     -13.4951      1.00000
    276     -13.4691      1.00000
    277     -13.4558      1.00000
    278     -13.4380      1.00000
    279     -13.4232      1.00000
    280     -13.4060      1.00000
    281     -13.3967      1.00000
    282     -13.3678      1.00000
    283     -13.3642      1.00000
    284     -13.3606      1.00000
    285     -13.3491      1.00000
    286     -13.2833      1.00000
    287     -13.2726      1.00000
    288     -13.2609      1.00000
    289     -13.2396      1.00000
    290     -13.1507      1.00000
    291     -13.1457      1.00000
    292     -13.0935      1.00000
    293     -13.0840      1.00000
    294     -12.9656      1.00000
    295     -12.9563      1.00000
    296     -12.8837      1.00000
    297     -12.7848      1.00000
    298     -12.7818      1.00000
    299     -12.7656      1.00000
    300     -12.7183      1.00000
    301     -12.6913      1.00000
    302     -12.6768      1.00000
    303     -12.5736      1.00000
    304     -12.5090      1.00000
    305     -12.4925      1.00000
    306     -12.4605      1.00000
    307     -12.4237      1.00000
    308     -12.4098      1.00000
    309     -12.4064      1.00000
    310     -12.3728      1.00000
    311     -12.3097      1.00000
    312     -12.3030      1.00000
    313     -12.2856      1.00000
    314     -12.2540      1.00000
    315     -12.1989      1.00000
    316     -12.1560      1.00000
    317     -12.1305      1.00000
    318     -12.1157      1.00000
    319     -12.0896      1.00000
    320     -12.0706      1.00000
    321     -12.0266      1.00000
    322     -12.0235      1.00000
    323     -11.9752      1.00000
    324     -11.9452      1.00000
    325     -11.9282      1.00000
    326     -11.9165      1.00000
    327     -11.9143      1.00000
    328     -11.8368      1.00000
    329     -11.8240      1.00000
    330     -11.8102      1.00000
    331     -11.7832      1.00000
    332     -11.7286      1.00000
    333     -11.7010      1.00000
    334     -11.6997      1.00000
    335     -11.6774      1.00000
    336     -11.6587      1.00000
    337     -11.6527      1.00000
    338     -11.6508      1.00000
    339     -11.6384      1.00000
    340     -11.6278      1.00000
    341     -11.6064      1.00000
    342     -11.5855      1.00000
    343     -11.5717      1.00000
    344     -11.5500      1.00000
    345     -11.5409      1.00000
    346     -11.5347      1.00000
    347     -11.5204      1.00000
    348     -11.4808      1.00000
    349     -11.4630      1.00000
    350     -11.4383      1.00000
    351     -11.4370      1.00000
    352     -11.4081      1.00000
    353     -11.3964      1.00000
    354     -11.3958      1.00000
    355     -11.3917      1.00000
    356     -11.3822      1.00000
    357     -11.3354      1.00000
    358     -11.2978      1.00000
    359     -11.2736      1.00000
    360     -11.1869      1.00000
    361     -11.1824      1.00000
    362     -11.1622      1.00000
    363     -11.1419      1.00000
    364     -11.1276      1.00000
    365     -11.0875      1.00000
    366     -11.0512      1.00000
    367     -11.0469      1.00000
    368     -11.0423      1.00000
    369     -10.9791      1.00000
    370     -10.9686      1.00000
    371     -10.9543      1.00000
    372     -10.9003      1.00000
    373     -10.8752      1.00000
    374     -10.8532      1.00000
    375     -10.8515      1.00000
    376     -10.8408      1.00000
    377     -10.8288      1.00000
    378     -10.8113      1.00000
    379     -10.8079      1.00000
    380     -10.7998      1.00000
    381     -10.7962      1.00000
    382     -10.7450      1.00000
    383     -10.7438      1.00000
    384     -10.7338      1.00000
    385     -10.7318      1.00000
    386     -10.7293      1.00000
    387     -10.7253      1.00000
    388     -10.7121      1.00000
    389     -10.7085      1.00000
    390     -10.6960      1.00000
    391     -10.6582      1.00000
    392     -10.6391      1.00000
    393     -10.6227      1.00000
    394     -10.6134      1.00000
    395     -10.6073      1.00000
    396     -10.5999      1.00000
    397     -10.5337      1.00000
    398     -10.5130      1.00000
    399     -10.5063      1.00000
    400     -10.4940      1.00000
    401     -10.4761      1.00000
    402     -10.4743      1.00000
    403     -10.4715      1.00000
    404     -10.4194      1.00000
    405     -10.4098      1.00000
    406     -10.3785      1.00000
    407     -10.3733      1.00000
    408     -10.3509      1.00000
    409     -10.3372      1.00000
    410     -10.3249      1.00000
    411     -10.3207      1.00000
    412     -10.3190      1.00000
    413     -10.3119      1.00000
    414     -10.3105      1.00000
    415     -10.3060      1.00000
    416     -10.3011      1.00000
    417     -10.2953      1.00000
    418     -10.2930      1.00000
    419     -10.2874      1.00000
    420     -10.2817      1.00000
    421     -10.2769      1.00000
    422     -10.2747      1.00000
    423     -10.2704      1.00000
    424     -10.2641      1.00000
    425     -10.2619      1.00000
    426     -10.2519      1.00000
    427     -10.2252      1.00000
    428     -10.2197      1.00000
    429     -10.2050      1.00000
    430     -10.1940      1.00000
    431     -10.1808      1.00000
    432     -10.1752      1.00000
    433     -10.1579      1.00000
    434     -10.1434      1.00000
    435     -10.1325      1.00000
    436     -10.1303      1.00000
    437     -10.1220      1.00000
    438     -10.1197      1.00000
    439     -10.1125      1.00000
    440     -10.0900      1.00000
    441     -10.0845      1.00000
    442     -10.0744      1.00000
    443     -10.0701      1.00000
    444     -10.0446      1.00000
    445     -10.0336      1.00000
    446     -10.0088      1.00000
    447      -9.9777      1.00000
    448      -9.9642      1.00000
    449      -9.9402      1.00000
    450      -9.9334      1.00000
    451      -9.9227      1.00000
    452      -9.9170      1.00000
    453      -9.9010      1.00000
    454      -9.8969      1.00000
    455      -9.8707      1.00000
    456      -9.8572      1.00000
    457      -9.8276      1.00000
    458      -9.8155      1.00000
    459      -9.8095      1.00000
    460      -9.7721      1.00000
    461      -9.7692      1.00000
    462      -9.7606      1.00000
    463      -9.7392      1.00000
    464      -9.7367      1.00000
    465      -9.7129      1.00000
    466      -9.6652      1.00000
    467      -9.6643      1.00000
    468      -9.6547      1.00000
    469      -9.6118      1.00000
    470      -9.6049      1.00000
    471      -9.5770      1.00000
    472      -9.5705      1.00000
    473      -9.5643      1.00000
    474      -9.5599      1.00000
    475      -9.5486      1.00000
    476      -9.5304      1.00000
    477      -9.5207      1.00000
    478      -9.5086      1.00000
    479      -9.4968      1.00000
    480      -9.4821      1.00000
    481      -9.4742      1.00000
    482      -9.4549      1.00000
    483      -9.4348      1.00000
    484      -9.4316      1.00000
    485      -9.4269      1.00000
    486      -9.4181      1.00000
    487      -9.4083      1.00000
    488      -9.4019      1.00000
    489      -9.3790      1.00000
    490      -9.3763      1.00000
    491      -9.3574      1.00000
    492      -9.3485      1.00000
    493      -9.3478      1.00000
    494      -9.3264      1.00000
    495      -9.3232      1.00000
    496      -9.3174      1.00000
    497      -9.3121      1.00000
    498      -9.3062      1.00000
    499      -9.3001      1.00000
    500      -9.2356      1.00000
    501      -9.2199      1.00000
    502      -9.2102      1.00000
    503      -9.2050      1.00000
    504      -9.2021      1.00000
    505      -9.1863      1.00000
    506      -9.1708      1.00000
    507      -9.1651      1.00000
    508      -9.1473      1.00000
    509      -9.1420      1.00000
    510      -9.0806      1.00000
    511      -9.0648      1.00000
    512      -9.0302      1.00000
    513      -9.0225      1.00000
    514      -8.9970      1.00000
    515      -8.9829      1.00000
    516      -8.9524      1.00000
    517      -8.9158      1.00000
    518      -8.8663      1.00000
    519      -8.8367      1.00000
    520      -8.8064      1.00000
    521      -8.7989      1.00000
    522      -8.7768      1.00000
    523      -8.7728      1.00000
    524      -8.7348      1.00000
    525      -8.7195      1.00000
    526      -8.7041      1.00000
    527      -8.6937      1.00000
    528      -8.6260      1.00000
    529      -8.6104      1.00000
    530      -8.6011      1.00000
    531      -8.5802      1.00000
    532      -8.5746      1.00000
    533      -8.5542      1.00000
    534      -8.5465      1.00000
    535      -8.5222      1.00000
    536      -8.5067      1.00000
    537      -8.4836      1.00000
    538      -8.4756      1.00000
    539      -8.4667      1.00000
    540      -8.4608      1.00000
    541      -8.4522      1.00000
    542      -8.4447      1.00000
    543      -8.4256      1.00000
    544      -8.4126      1.00000
    545      -8.4020      1.00000
    546      -8.3969      1.00000
    547      -8.3927      1.00000
    548      -8.3733      1.00000
    549      -8.3681      1.00000
    550      -8.3593      1.00000
    551      -8.3474      1.00000
    552      -8.3453      1.00000
    553      -8.3397      1.00000
    554      -8.3309      1.00000
    555      -8.3135      1.00000
    556      -8.2737      1.00000
    557      -8.2488      1.00000
    558      -8.2467      1.00000
    559      -8.2311      1.00000
    560      -8.2145      1.00000
    561      -8.1849      1.00000
    562      -8.1570      1.00000
    563      -8.1483      1.00000
    564      -8.1325      1.00000
    565      -8.1077      1.00000
    566      -8.0902      1.00000
    567      -8.0781      1.00000
    568      -8.0637      1.00000
    569      -8.0560      1.00000
    570      -8.0456      1.00000
    571      -8.0414      1.00000
    572      -8.0272      1.00000
    573      -8.0164      1.00000
    574      -7.9794      1.00000
    575      -7.9701      1.00000
    576      -7.9294      1.00000
    577      -7.8854      1.00000
    578      -7.8753      1.00000
    579      -7.8681      1.00000
    580      -7.8369      1.00000
    581      -7.8236      1.00000
    582      -7.8140      1.00000
    583      -7.8129      1.00000
    584      -7.7765      1.00000
    585      -7.7356      1.00000
    586      -7.7013      1.00000
    587      -7.6968      1.00000
    588      -7.6735      1.00000
    589      -7.6660      1.00000
    590      -7.6394      1.00000
    591      -7.6249      1.00000
    592      -7.6074      1.00000
    593      -7.5835      1.00000
    594      -7.5667      1.00000
    595      -7.5428      1.00000
    596      -7.4989      1.00000
    597      -7.4952      1.00000
    598      -7.4725      1.00000
    599      -7.4698      1.00000
    600      -7.4630      1.00000
    601      -7.4111      1.00000
    602      -7.4051      1.00000
    603      -7.3853      1.00000
    604      -7.3760      1.00000
    605      -7.3694      1.00000
    606      -7.3438      1.00000
    607      -7.3375      1.00000
    608      -7.3316      1.00000
    609      -7.3134      1.00000
    610      -7.2850      1.00000
    611      -7.2619      1.00000
    612      -7.2467      1.00000
    613      -7.2229      1.00000
    614      -7.1895      1.00000
    615      -7.1670      1.00000
    616      -7.1514      1.00000
    617      -7.1392      1.00000
    618      -7.1332      1.00000
    619      -7.1246      1.00000
    620      -7.1126      1.00000
    621      -7.0925      1.00000
    622      -7.0860      1.00000
    623      -7.0782      1.00000
    624      -7.0619      1.00000
    625      -7.0524      1.00000
    626      -7.0273      1.00000
    627      -7.0174      1.00000
    628      -7.0113      1.00000
    629      -6.9739      1.00000
    630      -6.9473      1.00000
    631      -6.9290      1.00000
    632      -6.9221      1.00000
    633      -6.8954      1.00000
    634      -6.8816      1.00000
    635      -6.8721      1.00000
    636      -6.8211      1.00000
    637      -6.8126      1.00000
    638      -6.7930      1.00000
    639      -6.7721      1.00000
    640      -6.7679      1.00000
    641      -6.7272      1.00000
    642      -6.7201      1.00000
    643      -6.7040      1.00000
    644      -6.6940      1.00000
    645      -6.6269      1.00000
    646      -6.6181      1.00000
    647      -6.5909      1.00000
    648      -6.5874      1.00000
    649      -6.5817      1.00000
    650      -6.5741      1.00000
    651      -6.5679      1.00000
    652      -6.5049      1.00000
    653      -6.4756      1.00000
    654      -6.4588      1.00000
    655      -6.4300      1.00000
    656      -6.4203      1.00000
    657      -6.4134      1.00000
    658      -6.4056      1.00000
    659      -6.3869      1.00000
    660      -6.3698      1.00000
    661      -6.3562      1.00000
    662      -6.3351      1.00000
    663      -6.2548      1.00000
    664      -6.1941      1.00000
    665      -6.1864      1.00000
    666      -6.1574      1.00000
    667      -6.1363      1.00000
    668      -6.1239      1.00000
    669      -6.0554      1.00000
    670      -6.0209      1.00000
    671      -5.9797      1.00000
    672      -5.9559      1.00000
    673      -5.9401      1.00000
    674      -5.9234      1.00000
    675      -5.8833      1.00000
    676      -5.8650      1.00000
    677      -5.8010      1.00000
    678      -5.7173      1.00000
    679      -5.6829      1.00000
    680      -5.6599      1.00000
    681      -5.6283      1.00000
    682      -5.6113      1.00000
    683      -5.5966      1.00000
    684      -5.5942      1.00000
    685      -5.5841      1.00000
    686      -5.5604      1.00000
    687      -5.5489      1.00000
    688      -5.5299      1.00000
    689      -5.5295      1.00000
    690      -5.5182      1.00000
    691      -5.4947      1.00000
    692      -5.4861      1.00000
    693      -5.4627      1.00000
    694      -5.4594      1.00000
    695      -5.4372      1.00000
    696      -5.4090      1.00000
    697      -5.3891      1.00000
    698      -5.3511      1.00000
    699      -5.3137      1.00000
    700      -5.3105      1.00000
    701      -5.2598      1.00000
    702      -5.2276      1.00000
    703      -5.1935      1.00000
    704      -5.1723      1.00000
    705      -5.1559      1.00000
    706      -5.1450      1.00000
    707      -5.0945      1.00000
    708      -5.0824      1.00000
    709      -5.0348      1.00000
    710      -4.9896      1.00000
    711      -4.9599      1.00000
    712      -4.9187      1.00000
    713      -4.8983      1.00000
    714      -4.8516      1.00000
    715      -4.8133      1.00000
    716      -4.7304      1.00000
    717      -4.6134      1.00000
    718      -4.5400      1.00000
    719      -4.5128      1.00000
    720      -4.4984      1.00000
    721      -4.4087      1.00000
    722      -4.3086      1.00000
    723      -4.2864      1.00000
    724      -4.2384      1.00000
    725      -4.1456      1.00000
    726      -4.1019      1.00000
    727      -4.0932      1.00000
    728      -4.0257      1.00000
    729      -3.8288      1.00000
    730      -3.7088      1.00000
    731      -3.6139      1.00000
    732      -2.7288      0.00000
    733      -2.6434      0.00000
    734      -2.5291      0.00000
    735      -2.3490      0.00000
    736      -2.3001      0.00000
    737      -2.2511      0.00000
    738      -2.1794      0.00000
    739      -2.1674      0.00000
    740      -2.0970      0.00000
    741      -1.9568      0.00000
    742      -1.9515      0.00000
    743      -1.9393      0.00000
    744      -1.9359      0.00000
    745      -1.9301      0.00000
    746      -1.9242      0.00000
    747      -1.9104      0.00000
    748      -1.8675      0.00000
    749      -1.7713      0.00000
    750      -1.7662      0.00000
    751      -1.7526      0.00000
    752      -1.7480      0.00000
    753      -1.7345      0.00000
    754      -1.7158      0.00000
    755      -1.7083      0.00000
    756      -1.6865      0.00000
    757      -1.6833      0.00000
    758      -1.6515      0.00000
    759      -1.5829      0.00000
    760      -1.5685      0.00000
    761      -1.5556      0.00000
    762      -1.5334      0.00000
    763      -1.4927      0.00000
    764      -1.4791      0.00000
    765      -1.4634      0.00000
    766      -1.4522      0.00000
    767      -1.4397      0.00000
    768      -1.4273      0.00000
    769      -1.4180      0.00000
    770      -1.4109      0.00000
    771      -1.3968      0.00000
    772      -1.3926      0.00000
    773      -1.3587      0.00000
    774      -1.3295      0.00000
    775      -1.3206      0.00000
    776      -1.3128      0.00000
    777      -1.2987      0.00000
    778      -1.2810      0.00000
    779      -1.2707      0.00000
    780      -1.2594      0.00000
    781      -1.2513      0.00000
    782      -1.1788      0.00000
    783      -1.1487      0.00000
    784      -1.1098      0.00000
    785      -1.0993      0.00000
    786      -1.0540      0.00000
    787      -0.9830      0.00000
    788      -0.9680      0.00000
    789      -0.9255      0.00000
    790      -0.8903      0.00000
    791      -0.8218      0.00000
    792      -0.7943      0.00000
    793      -0.7175      0.00000
    794      -0.6704      0.00000
    795      -0.6536      0.00000
    796      -0.5811      0.00000
    797      -0.5617      0.00000
    798      -0.5095      0.00000
    799      -0.4797      0.00000
    800      -0.4286      0.00000
    801      -0.3993      0.00000
    802      -0.3504      0.00000
    803      -0.3126      0.00000
    804      -0.2341      0.00000
    805      -0.1871      0.00000
    806      -0.1373      0.00000
    807      -0.1333      0.00000
    808      -0.1075      0.00000
    809      -0.0836      0.00000
    810      -0.0621      0.00000
    811      -0.0063      0.00000
    812       0.0095      0.00000
    813       0.0299      0.00000
    814       0.0490      0.00000
    815       0.0731      0.00000
    816       0.1406      0.00000
    817       0.1558      0.00000
    818       0.1724      0.00000
    819       0.1904      0.00000
    820       0.2637      0.00000
    821       0.2977      0.00000
    822       0.3130      0.00000
    823       0.3185      0.00000
    824       0.3454      0.00000
    825       0.3681      0.00000
    826       0.3958      0.00000
    827       0.4255      0.00000
    828       0.4462      0.00000
    829       0.4582      0.00000
    830       0.4891      0.00000
    831       0.4999      0.00000
    832       0.5285      0.00000
    833       0.5421      0.00000
    834       0.5456      0.00000
    835       0.5474      0.00000
    836       0.5708      0.00000
    837       0.5746      0.00000
    838       0.5808      0.00000
    839       0.5827      0.00000
    840       0.5880      0.00000
    841       0.6236      0.00000
    842       0.6573      0.00000
    843       0.6607      0.00000
    844       0.7034      0.00000
    845       0.7610      0.00000
    846       0.7749      0.00000
    847       0.7947      0.00000
    848       0.8105      0.00000
    849       0.8265      0.00000
    850       0.8498      0.00000
    851       0.8523      0.00000
    852       0.8693      0.00000
    853       0.9000      0.00000
    854       0.9252      0.00000
    855       0.9451      0.00000
    856       0.9565      0.00000
    857       0.9662      0.00000
    858       0.9691      0.00000
    859       0.9820      0.00000
    860       0.9987      0.00000
    861       1.0034      0.00000
    862       1.0115      0.00000
    863       1.0617      0.00000
    864       1.0769      0.00000
    865       1.1114      0.00000
    866       1.1233      0.00000
    867       1.1307      0.00000
    868       1.1877      0.00000
    869       1.2041      0.00000
    870       1.2195      0.00000
    871       1.2237      0.00000
    872       1.2252      0.00000
    873       1.2324      0.00000
    874       1.2603      0.00000
    875       1.2661      0.00000
    876       1.2706      0.00000
    877       1.2754      0.00000
    878       1.2906      0.00000
    879       1.3150      0.00000
    880       1.3260      0.00000
    881       1.3571      0.00000
    882       1.3646      0.00000
    883       1.3764      0.00000
    884       1.3857      0.00000
    885       1.3985      0.00000
    886       1.4062      0.00000
    887       1.4129      0.00000
    888       1.4343      0.00000
    889       1.4355      0.00000
    890       1.4569      0.00000
    891       1.4618      0.00000
    892       1.4954      0.00000
    893       1.4992      0.00000
    894       1.5018      0.00000
    895       1.5154      0.00000
    896       1.5354      0.00000

 k-point     6 :       0.0000    0.0000   -0.2778
  band No.  band energies     occupation 
      1     -22.9791      1.00000
      2     -22.9469      1.00000
      3     -22.8741      1.00000
      4     -22.7892      1.00000
      5     -22.7689      1.00000
      6     -22.7602      1.00000
      7     -22.7355      1.00000
      8     -22.7306      1.00000
      9     -22.6648      1.00000
     10     -22.6572      1.00000
     11     -22.6369      1.00000
     12     -22.5760      1.00000
     13     -22.5693      1.00000
     14     -22.4915      1.00000
     15     -22.4302      1.00000
     16     -22.4228      1.00000
     17     -22.2868      1.00000
     18     -22.2766      1.00000
     19     -22.2709      1.00000
     20     -22.1463      1.00000
     21     -22.1307      1.00000
     22     -22.1083      1.00000
     23     -22.1012      1.00000
     24     -22.0698      1.00000
     25     -22.0622      1.00000
     26     -22.0577      1.00000
     27     -22.0334      1.00000
     28     -22.0286      1.00000
     29     -21.9489      1.00000
     30     -21.9414      1.00000
     31     -21.8612      1.00000
     32     -21.8539      1.00000
     33     -21.8045      1.00000
     34     -21.7964      1.00000
     35     -21.7753      1.00000
     36     -21.6602      1.00000
     37     -21.6516      1.00000
     38     -21.5716      1.00000
     39     -21.5637      1.00000
     40     -21.5157      1.00000
     41     -21.4435      1.00000
     42     -21.4349      1.00000
     43     -21.3138      1.00000
     44     -21.3034      1.00000
     45     -21.2427      1.00000
     46     -21.2332      1.00000
     47     -21.1584      1.00000
     48     -21.1242      1.00000
     49     -21.1149      1.00000
     50     -21.0896      1.00000
     51     -21.0851      1.00000
     52     -21.0220      1.00000
     53     -21.0139      1.00000
     54     -20.9642      1.00000
     55     -20.9461      1.00000
     56     -20.9438      1.00000
     57     -20.9427      1.00000
     58     -20.9292      1.00000
     59     -20.9281      1.00000
     60     -20.8386      1.00000
     61     -20.7920      1.00000
     62     -20.7859      1.00000
     63     -20.6991      1.00000
     64     -20.6885      1.00000
     65     -20.6516      1.00000
     66     -20.6438      1.00000
     67     -20.6310      1.00000
     68     -20.6284      1.00000
     69     -20.4416      1.00000
     70     -20.4312      1.00000
     71     -20.4085      1.00000
     72     -20.3425      1.00000
     73     -20.3327      1.00000
     74     -20.2431      1.00000
     75     -20.2333      1.00000
     76     -20.2077      1.00000
     77     -20.2017      1.00000
     78     -20.0487      1.00000
     79     -20.0293      1.00000
     80     -20.0217      1.00000
     81     -19.9600      1.00000
     82     -19.9519      1.00000
     83     -19.8500      1.00000
     84     -19.8349      1.00000
     85     -19.7704      1.00000
     86     -19.7562      1.00000
     87     -19.7313      1.00000
     88     -19.7259      1.00000
     89     -19.7044      1.00000
     90     -19.6995      1.00000
     91     -19.6613      1.00000
     92     -19.6568      1.00000
     93     -19.6112      1.00000
     94     -19.6011      1.00000
     95     -19.5761      1.00000
     96     -19.5737      1.00000
     97     -19.5477      1.00000
     98     -19.4444      1.00000
     99     -19.4363      1.00000
    100     -19.3705      1.00000
    101     -19.3531      1.00000
    102     -19.3468      1.00000
    103     -19.3450      1.00000
    104     -19.3018      1.00000
    105     -19.2985      1.00000
    106     -19.2486      1.00000
    107     -19.2403      1.00000
    108     -19.1361      1.00000
    109     -19.1001      1.00000
    110     -19.0932      1.00000
    111     -19.0564      1.00000
    112     -19.0500      1.00000
    113     -18.9458      1.00000
    114     -18.9326      1.00000
    115     -18.9058      1.00000
    116     -18.9020      1.00000
    117     -18.7775      1.00000
    118     -18.7635      1.00000
    119     -18.6667      1.00000
    120     -18.6468      1.00000
    121     -18.6329      1.00000
    122     -18.6295      1.00000
    123     -18.5854      1.00000
    124     -18.4354      1.00000
    125     -18.3940      1.00000
    126     -18.3913      1.00000
    127     -18.3870      1.00000
    128     -18.3728      1.00000
    129     -18.3642      1.00000
    130     -18.3134      1.00000
    131     -18.3042      1.00000
    132     -18.1798      1.00000
    133     -18.1677      1.00000
    134     -18.1418      1.00000
    135     -18.1359      1.00000
    136     -18.1245      1.00000
    137     -18.0852      1.00000
    138     -18.0741      1.00000
    139     -18.0622      1.00000
    140     -18.0572      1.00000
    141     -18.0053      1.00000
    142     -17.9888      1.00000
    143     -17.9607      1.00000
    144     -17.9449      1.00000
    145     -17.9050      1.00000
    146     -17.8818      1.00000
    147     -17.8773      1.00000
    148     -17.8723      1.00000
    149     -17.8625      1.00000
    150     -17.8484      1.00000
    151     -17.7913      1.00000
    152     -17.7830      1.00000
    153     -17.7502      1.00000
    154     -17.7203      1.00000
    155     -17.6275      1.00000
    156     -17.5953      1.00000
    157     -17.5755      1.00000
    158     -17.5606      1.00000
    159     -17.5452      1.00000
    160     -17.5261      1.00000
    161     -17.4999      1.00000
    162     -17.4593      1.00000
    163     -17.4324      1.00000
    164     -17.4147      1.00000
    165     -17.3876      1.00000
    166     -17.3786      1.00000
    167     -17.3447      1.00000
    168     -17.3012      1.00000
    169     -17.1729      1.00000
    170     -17.1421      1.00000
    171     -17.1152      1.00000
    172     -17.0951      1.00000
    173     -17.0718      1.00000
    174     -16.9545      1.00000
    175     -16.9199      1.00000
    176     -16.8840      1.00000
    177     -16.6676      1.00000
    178     -16.6252      1.00000
    179     -16.5967      1.00000
    180     -16.5277      1.00000
    181     -16.4569      1.00000
    182     -16.4522      1.00000
    183     -16.3951      1.00000
    184     -16.3741      1.00000
    185     -16.2959      1.00000
    186     -16.2665      1.00000
    187     -16.2001      1.00000
    188     -16.1697      1.00000
    189     -16.1436      1.00000
    190     -16.1163      1.00000
    191     -16.1053      1.00000
    192     -15.9863      1.00000
    193     -15.9621      1.00000
    194     -15.8992      1.00000
    195     -15.8877      1.00000
    196     -15.8768      1.00000
    197     -15.8522      1.00000
    198     -15.8338      1.00000
    199     -15.8249      1.00000
    200     -15.7923      1.00000
    201     -15.7674      1.00000
    202     -15.7567      1.00000
    203     -15.7285      1.00000
    204     -15.6988      1.00000
    205     -15.6943      1.00000
    206     -15.6457      1.00000
    207     -15.6175      1.00000
    208     -15.6060      1.00000
    209     -15.5969      1.00000
    210     -15.5857      1.00000
    211     -15.5428      1.00000
    212     -15.5336      1.00000
    213     -15.5231      1.00000
    214     -15.4803      1.00000
    215     -15.4626      1.00000
    216     -15.4509      1.00000
    217     -15.4463      1.00000
    218     -15.4217      1.00000
    219     -15.4049      1.00000
    220     -15.3964      1.00000
    221     -15.3806      1.00000
    222     -15.3420      1.00000
    223     -15.3278      1.00000
    224     -15.3035      1.00000
    225     -15.2905      1.00000
    226     -15.2136      1.00000
    227     -15.1481      1.00000
    228     -15.1428      1.00000
    229     -15.1302      1.00000
    230     -15.1240      1.00000
    231     -15.0736      1.00000
    232     -15.0235      1.00000
    233     -14.9823      1.00000
    234     -14.9602      1.00000
    235     -14.9220      1.00000
    236     -14.9143      1.00000
    237     -14.9036      1.00000
    238     -14.8788      1.00000
    239     -14.8609      1.00000
    240     -14.8003      1.00000
    241     -14.7851      1.00000
    242     -14.5269      1.00000
    243     -14.5032      1.00000
    244     -14.4911      1.00000
    245     -14.4575      1.00000
    246     -14.3976      1.00000
    247     -14.3895      1.00000
    248     -14.3173      1.00000
    249     -14.3086      1.00000
    250     -14.2061      1.00000
    251     -14.0240      1.00000
    252     -13.9914      1.00000
    253     -13.9804      1.00000
    254     -13.9708      1.00000
    255     -13.9387      1.00000
    256     -13.9202      1.00000
    257     -13.9095      1.00000
    258     -13.8649      1.00000
    259     -13.8305      1.00000
    260     -13.7955      1.00000
    261     -13.7942      1.00000
    262     -13.7667      1.00000
    263     -13.7650      1.00000
    264     -13.7408      1.00000
    265     -13.7274      1.00000
    266     -13.7109      1.00000
    267     -13.6863      1.00000
    268     -13.6750      1.00000
    269     -13.6738      1.00000
    270     -13.6665      1.00000
    271     -13.6427      1.00000
    272     -13.6059      1.00000
    273     -13.5939      1.00000
    274     -13.5522      1.00000
    275     -13.5266      1.00000
    276     -13.4664      1.00000
    277     -13.4387      1.00000
    278     -13.4247      1.00000
    279     -13.3844      1.00000
    280     -13.3658      1.00000
    281     -13.3597      1.00000
    282     -13.3542      1.00000
    283     -13.3375      1.00000
    284     -13.2987      1.00000
    285     -13.2924      1.00000
    286     -13.2891      1.00000
    287     -13.2866      1.00000
    288     -13.2754      1.00000
    289     -13.2173      1.00000
    290     -13.1157      1.00000
    291     -13.0947      1.00000
    292     -13.0358      1.00000
    293     -13.0227      1.00000
    294     -12.9962      1.00000
    295     -12.9400      1.00000
    296     -12.9075      1.00000
    297     -12.8470      1.00000
    298     -12.8283      1.00000
    299     -12.8229      1.00000
    300     -12.7828      1.00000
    301     -12.7462      1.00000
    302     -12.6541      1.00000
    303     -12.6348      1.00000
    304     -12.5682      1.00000
    305     -12.5469      1.00000
    306     -12.4658      1.00000
    307     -12.4190      1.00000
    308     -12.4064      1.00000
    309     -12.3641      1.00000
    310     -12.3575      1.00000
    311     -12.3456      1.00000
    312     -12.3213      1.00000
    313     -12.2297      1.00000
    314     -12.1878      1.00000
    315     -12.1373      1.00000
    316     -12.1321      1.00000
    317     -12.1285      1.00000
    318     -12.0784      1.00000
    319     -12.0704      1.00000
    320     -12.0618      1.00000
    321     -12.0070      1.00000
    322     -11.9635      1.00000
    323     -11.9445      1.00000
    324     -11.9400      1.00000
    325     -11.9299      1.00000
    326     -11.9122      1.00000
    327     -11.8876      1.00000
    328     -11.8530      1.00000
    329     -11.8511      1.00000
    330     -11.8295      1.00000
    331     -11.8241      1.00000
    332     -11.7229      1.00000
    333     -11.6935      1.00000
    334     -11.6823      1.00000
    335     -11.6669      1.00000
    336     -11.6533      1.00000
    337     -11.6485      1.00000
    338     -11.6462      1.00000
    339     -11.6301      1.00000
    340     -11.6156      1.00000
    341     -11.6144      1.00000
    342     -11.6113      1.00000
    343     -11.6027      1.00000
    344     -11.5848      1.00000
    345     -11.5751      1.00000
    346     -11.5324      1.00000
    347     -11.5261      1.00000
    348     -11.5017      1.00000
    349     -11.5003      1.00000
    350     -11.4840      1.00000
    351     -11.4671      1.00000
    352     -11.4321      1.00000
    353     -11.4283      1.00000
    354     -11.4116      1.00000
    355     -11.4006      1.00000
    356     -11.3941      1.00000
    357     -11.3584      1.00000
    358     -11.2737      1.00000
    359     -11.2319      1.00000
    360     -11.2210      1.00000
    361     -11.1864      1.00000
    362     -11.1431      1.00000
    363     -11.1309      1.00000
    364     -11.1091      1.00000
    365     -11.0852      1.00000
    366     -11.0507      1.00000
    367     -10.9865      1.00000
    368     -10.9842      1.00000
    369     -10.9653      1.00000
    370     -10.9141      1.00000
    371     -10.9039      1.00000
    372     -10.8970      1.00000
    373     -10.8662      1.00000
    374     -10.8510      1.00000
    375     -10.8424      1.00000
    376     -10.8408      1.00000
    377     -10.8359      1.00000
    378     -10.8161      1.00000
    379     -10.8068      1.00000
    380     -10.7827      1.00000
    381     -10.7794      1.00000
    382     -10.7732      1.00000
    383     -10.7697      1.00000
    384     -10.7485      1.00000
    385     -10.7446      1.00000
    386     -10.7364      1.00000
    387     -10.7316      1.00000
    388     -10.7207      1.00000
    389     -10.6952      1.00000
    390     -10.6880      1.00000
    391     -10.6366      1.00000
    392     -10.6220      1.00000
    393     -10.6152      1.00000
    394     -10.6098      1.00000
    395     -10.6013      1.00000
    396     -10.5871      1.00000
    397     -10.5369      1.00000
    398     -10.5244      1.00000
    399     -10.5144      1.00000
    400     -10.5017      1.00000
    401     -10.4877      1.00000
    402     -10.4783      1.00000
    403     -10.4744      1.00000
    404     -10.4614      1.00000
    405     -10.4554      1.00000
    406     -10.3930      1.00000
    407     -10.3785      1.00000
    408     -10.3616      1.00000
    409     -10.3558      1.00000
    410     -10.3452      1.00000
    411     -10.3337      1.00000
    412     -10.3320      1.00000
    413     -10.3265      1.00000
    414     -10.3231      1.00000
    415     -10.3207      1.00000
    416     -10.3171      1.00000
    417     -10.3129      1.00000
    418     -10.3007      1.00000
    419     -10.2957      1.00000
    420     -10.2867      1.00000
    421     -10.2769      1.00000
    422     -10.2734      1.00000
    423     -10.2630      1.00000
    424     -10.2507      1.00000
    425     -10.2417      1.00000
    426     -10.2398      1.00000
    427     -10.2281      1.00000
    428     -10.2153      1.00000
    429     -10.2112      1.00000
    430     -10.1939      1.00000
    431     -10.1856      1.00000
    432     -10.1657      1.00000
    433     -10.1477      1.00000
    434     -10.1408      1.00000
    435     -10.1338      1.00000
    436     -10.1309      1.00000
    437     -10.1230      1.00000
    438     -10.1028      1.00000
    439     -10.0957      1.00000
    440     -10.0764      1.00000
    441     -10.0707      1.00000
    442     -10.0670      1.00000
    443     -10.0629      1.00000
    444     -10.0504      1.00000
    445     -10.0050      1.00000
    446      -9.9951      1.00000
    447      -9.9898      1.00000
    448      -9.9721      1.00000
    449      -9.9290      1.00000
    450      -9.9143      1.00000
    451      -9.8979      1.00000
    452      -9.8940      1.00000
    453      -9.8848      1.00000
    454      -9.8775      1.00000
    455      -9.8732      1.00000
    456      -9.8644      1.00000
    457      -9.8535      1.00000
    458      -9.8226      1.00000
    459      -9.8128      1.00000
    460      -9.8034      1.00000
    461      -9.7672      1.00000
    462      -9.7575      1.00000
    463      -9.7404      1.00000
    464      -9.7390      1.00000
    465      -9.6963      1.00000
    466      -9.6861      1.00000
    467      -9.6653      1.00000
    468      -9.6423      1.00000
    469      -9.6053      1.00000
    470      -9.5920      1.00000
    471      -9.5770      1.00000
    472      -9.5708      1.00000
    473      -9.5597      1.00000
    474      -9.5584      1.00000
    475      -9.5537      1.00000
    476      -9.5444      1.00000
    477      -9.5342      1.00000
    478      -9.5026      1.00000
    479      -9.4903      1.00000
    480      -9.4802      1.00000
    481      -9.4740      1.00000
    482      -9.4638      1.00000
    483      -9.4472      1.00000
    484      -9.4232      1.00000
    485      -9.4154      1.00000
    486      -9.4110      1.00000
    487      -9.4047      1.00000
    488      -9.3957      1.00000
    489      -9.3799      1.00000
    490      -9.3631      1.00000
    491      -9.3526      1.00000
    492      -9.3477      1.00000
    493      -9.3475      1.00000
    494      -9.3367      1.00000
    495      -9.3251      1.00000
    496      -9.3197      1.00000
    497      -9.3143      1.00000
    498      -9.3063      1.00000
    499      -9.2977      1.00000
    500      -9.2539      1.00000
    501      -9.2339      1.00000
    502      -9.2192      1.00000
    503      -9.2014      1.00000
    504      -9.1936      1.00000
    505      -9.1899      1.00000
    506      -9.1736      1.00000
    507      -9.1633      1.00000
    508      -9.1521      1.00000
    509      -9.1445      1.00000
    510      -9.1349      1.00000
    511      -9.0790      1.00000
    512      -9.0257      1.00000
    513      -9.0199      1.00000
    514      -9.0111      1.00000
    515      -8.9613      1.00000
    516      -8.9436      1.00000
    517      -8.9078      1.00000
    518      -8.8645      1.00000
    519      -8.8385      1.00000
    520      -8.8079      1.00000
    521      -8.8011      1.00000
    522      -8.7766      1.00000
    523      -8.7718      1.00000
    524      -8.7360      1.00000
    525      -8.7155      1.00000
    526      -8.6947      1.00000
    527      -8.6740      1.00000
    528      -8.6178      1.00000
    529      -8.6058      1.00000
    530      -8.5832      1.00000
    531      -8.5688      1.00000
    532      -8.5500      1.00000
    533      -8.5431      1.00000
    534      -8.5249      1.00000
    535      -8.5123      1.00000
    536      -8.4945      1.00000
    537      -8.4812      1.00000
    538      -8.4758      1.00000
    539      -8.4634      1.00000
    540      -8.4577      1.00000
    541      -8.4554      1.00000
    542      -8.4518      1.00000
    543      -8.4431      1.00000
    544      -8.4317      1.00000
    545      -8.4094      1.00000
    546      -8.4015      1.00000
    547      -8.3904      1.00000
    548      -8.3897      1.00000
    549      -8.3806      1.00000
    550      -8.3726      1.00000
    551      -8.3668      1.00000
    552      -8.3486      1.00000
    553      -8.3393      1.00000
    554      -8.3212      1.00000
    555      -8.3106      1.00000
    556      -8.2829      1.00000
    557      -8.2498      1.00000
    558      -8.2330      1.00000
    559      -8.2277      1.00000
    560      -8.2152      1.00000
    561      -8.2076      1.00000
    562      -8.1908      1.00000
    563      -8.1802      1.00000
    564      -8.1231      1.00000
    565      -8.1221      1.00000
    566      -8.1070      1.00000
    567      -8.0831      1.00000
    568      -8.0791      1.00000
    569      -8.0709      1.00000
    570      -8.0633      1.00000
    571      -8.0618      1.00000
    572      -8.0205      1.00000
    573      -7.9849      1.00000
    574      -7.9533      1.00000
    575      -7.9417      1.00000
    576      -7.9040      1.00000
    577      -7.8751      1.00000
    578      -7.8535      1.00000
    579      -7.8476      1.00000
    580      -7.8136      1.00000
    581      -7.8014      1.00000
    582      -7.7888      1.00000
    583      -7.7742      1.00000
    584      -7.7681      1.00000
    585      -7.7519      1.00000
    586      -7.7175      1.00000
    587      -7.6786      1.00000
    588      -7.6596      1.00000
    589      -7.6550      1.00000
    590      -7.6444      1.00000
    591      -7.6397      1.00000
    592      -7.6331      1.00000
    593      -7.6162      1.00000
    594      -7.5654      1.00000
    595      -7.5312      1.00000
    596      -7.5112      1.00000
    597      -7.5080      1.00000
    598      -7.5008      1.00000
    599      -7.4734      1.00000
    600      -7.4610      1.00000
    601      -7.4256      1.00000
    602      -7.4223      1.00000
    603      -7.4147      1.00000
    604      -7.3911      1.00000
    605      -7.3825      1.00000
    606      -7.3733      1.00000
    607      -7.3558      1.00000
    608      -7.3351      1.00000
    609      -7.3045      1.00000
    610      -7.2803      1.00000
    611      -7.2678      1.00000
    612      -7.2467      1.00000
    613      -7.2161      1.00000
    614      -7.1900      1.00000
    615      -7.1683      1.00000
    616      -7.1347      1.00000
    617      -7.1071      1.00000
    618      -7.1010      1.00000
    619      -7.0971      1.00000
    620      -7.0915      1.00000
    621      -7.0884      1.00000
    622      -7.0860      1.00000
    623      -7.0783      1.00000
    624      -7.0759      1.00000
    625      -7.0643      1.00000
    626      -7.0445      1.00000
    627      -7.0227      1.00000
    628      -7.0023      1.00000
    629      -6.9335      1.00000
    630      -6.9317      1.00000
    631      -6.9173      1.00000
    632      -6.9030      1.00000
    633      -6.8995      1.00000
    634      -6.8865      1.00000
    635      -6.8719      1.00000
    636      -6.8028      1.00000
    637      -6.7997      1.00000
    638      -6.7694      1.00000
    639      -6.7565      1.00000
    640      -6.7522      1.00000
    641      -6.7472      1.00000
    642      -6.7376      1.00000
    643      -6.6987      1.00000
    644      -6.6815      1.00000
    645      -6.6513      1.00000
    646      -6.6394      1.00000
    647      -6.6241      1.00000
    648      -6.6057      1.00000
    649      -6.6017      1.00000
    650      -6.5924      1.00000
    651      -6.5824      1.00000
    652      -6.5094      1.00000
    653      -6.4919      1.00000
    654      -6.4777      1.00000
    655      -6.4637      1.00000
    656      -6.4441      1.00000
    657      -6.4269      1.00000
    658      -6.4224      1.00000
    659      -6.3875      1.00000
    660      -6.3317      1.00000
    661      -6.3192      1.00000
    662      -6.3088      1.00000
    663      -6.2572      1.00000
    664      -6.1960      1.00000
    665      -6.1925      1.00000
    666      -6.1492      1.00000
    667      -6.1154      1.00000
    668      -6.0719      1.00000
    669      -6.0534      1.00000
    670      -6.0122      1.00000
    671      -5.9756      1.00000
    672      -5.9612      1.00000
    673      -5.9233      1.00000
    674      -5.8947      1.00000
    675      -5.8921      1.00000
    676      -5.8634      1.00000
    677      -5.8246      1.00000
    678      -5.7175      1.00000
    679      -5.6792      1.00000
    680      -5.6496      1.00000
    681      -5.6419      1.00000
    682      -5.6112      1.00000
    683      -5.5966      1.00000
    684      -5.5874      1.00000
    685      -5.5844      1.00000
    686      -5.5710      1.00000
    687      -5.5696      1.00000
    688      -5.5564      1.00000
    689      -5.5299      1.00000
    690      -5.5286      1.00000
    691      -5.5050      1.00000
    692      -5.4849      1.00000
    693      -5.4661      1.00000
    694      -5.4577      1.00000
    695      -5.4427      1.00000
    696      -5.4383      1.00000
    697      -5.3814      1.00000
    698      -5.3406      1.00000
    699      -5.3344      1.00000
    700      -5.3072      1.00000
    701      -5.2757      1.00000
    702      -5.2222      1.00000
    703      -5.1731      1.00000
    704      -5.1534      1.00000
    705      -5.1494      1.00000
    706      -5.1449      1.00000
    707      -5.1182      1.00000
    708      -5.0448      1.00000
    709      -5.0240      1.00000
    710      -4.9586      1.00000
    711      -4.9414      1.00000
    712      -4.9215      1.00000
    713      -4.8945      1.00000
    714      -4.8461      1.00000
    715      -4.8066      1.00000
    716      -4.7372      1.00000
    717      -4.6286      1.00000
    718      -4.5833      1.00000
    719      -4.5617      1.00000
    720      -4.4994      1.00000
    721      -4.3933      1.00000
    722      -4.3070      1.00000
    723      -4.2745      1.00000
    724      -4.2179      1.00000
    725      -4.1574      1.00000
    726      -4.1104      1.00000
    727      -4.0535      1.00000
    728      -4.0316      1.00000
    729      -3.8056      1.00000
    730      -3.7363      1.00000
    731      -3.6238      1.00000
    732      -2.7189      0.00000
    733      -2.6205      0.00000
    734      -2.5393      0.00000
    735      -2.3599      0.00000
    736      -2.3407      0.00000
    737      -2.2517      0.00000
    738      -2.1945      0.00000
    739      -2.1475      0.00000
    740      -2.0859      0.00000
    741      -1.9598      0.00000
    742      -1.9421      0.00000
    743      -1.9254      0.00000
    744      -1.9202      0.00000
    745      -1.9173      0.00000
    746      -1.9098      0.00000
    747      -1.8787      0.00000
    748      -1.8747      0.00000
    749      -1.7928      0.00000
    750      -1.7631      0.00000
    751      -1.7617      0.00000
    752      -1.7486      0.00000
    753      -1.7456      0.00000
    754      -1.7343      0.00000
    755      -1.7234      0.00000
    756      -1.6862      0.00000
    757      -1.6720      0.00000
    758      -1.6623      0.00000
    759      -1.6082      0.00000
    760      -1.6005      0.00000
    761      -1.5812      0.00000
    762      -1.5438      0.00000
    763      -1.4738      0.00000
    764      -1.4648      0.00000
    765      -1.4636      0.00000
    766      -1.4523      0.00000
    767      -1.4339      0.00000
    768      -1.4230      0.00000
    769      -1.4130      0.00000
    770      -1.3921      0.00000
    771      -1.3862      0.00000
    772      -1.3567      0.00000
    773      -1.3527      0.00000
    774      -1.3335      0.00000
    775      -1.3184      0.00000
    776      -1.2999      0.00000
    777      -1.2827      0.00000
    778      -1.2771      0.00000
    779      -1.2672      0.00000
    780      -1.2594      0.00000
    781      -1.2519      0.00000
    782      -1.1463      0.00000
    783      -1.1399      0.00000
    784      -1.1282      0.00000
    785      -1.1110      0.00000
    786      -1.0964      0.00000
    787      -1.0259      0.00000
    788      -0.9751      0.00000
    789      -0.9364      0.00000
    790      -0.9154      0.00000
    791      -0.7940      0.00000
    792      -0.7619      0.00000
    793      -0.7527      0.00000
    794      -0.7153      0.00000
    795      -0.6154      0.00000
    796      -0.5654      0.00000
    797      -0.5301      0.00000
    798      -0.4744      0.00000
    799      -0.4543      0.00000
    800      -0.4489      0.00000
    801      -0.4425      0.00000
    802      -0.3468      0.00000
    803      -0.2759      0.00000
    804      -0.2070      0.00000
    805      -0.1716      0.00000
    806      -0.1528      0.00000
    807      -0.1309      0.00000
    808      -0.1071      0.00000
    809      -0.0929      0.00000
    810      -0.0838      0.00000
    811      -0.0370      0.00000
    812      -0.0134      0.00000
    813       0.0054      0.00000
    814       0.0254      0.00000
    815       0.1094      0.00000
    816       0.1242      0.00000
    817       0.1328      0.00000
    818       0.1440      0.00000
    819       0.1983      0.00000
    820       0.2616      0.00000
    821       0.3037      0.00000
    822       0.3201      0.00000
    823       0.3245      0.00000
    824       0.3585      0.00000
    825       0.3950      0.00000
    826       0.4127      0.00000
    827       0.4458      0.00000
    828       0.4745      0.00000
    829       0.4826      0.00000
    830       0.4964      0.00000
    831       0.5108      0.00000
    832       0.5160      0.00000
    833       0.5311      0.00000
    834       0.5469      0.00000
    835       0.5511      0.00000
    836       0.5732      0.00000
    837       0.5761      0.00000
    838       0.5806      0.00000
    839       0.5837      0.00000
    840       0.6041      0.00000
    841       0.6169      0.00000
    842       0.6220      0.00000
    843       0.6731      0.00000
    844       0.7152      0.00000
    845       0.7428      0.00000
    846       0.7931      0.00000
    847       0.7972      0.00000
    848       0.8110      0.00000
    849       0.8200      0.00000
    850       0.8357      0.00000
    851       0.8402      0.00000
    852       0.8523      0.00000
    853       0.8924      0.00000
    854       0.9036      0.00000
    855       0.9201      0.00000
    856       0.9451      0.00000
    857       0.9528      0.00000
    858       0.9856      0.00000
    859       0.9884      0.00000
    860       0.9938      0.00000
    861       0.9985      0.00000
    862       1.0332      0.00000
    863       1.0725      0.00000
    864       1.0862      0.00000
    865       1.0923      0.00000
    866       1.1127      0.00000
    867       1.1417      0.00000
    868       1.1844      0.00000
    869       1.1962      0.00000
    870       1.2122      0.00000
    871       1.2250      0.00000
    872       1.2311      0.00000
    873       1.2385      0.00000
    874       1.2649      0.00000
    875       1.2716      0.00000
    876       1.2734      0.00000
    877       1.3083      0.00000
    878       1.3116      0.00000
    879       1.3159      0.00000
    880       1.3673      0.00000
    881       1.3785      0.00000
    882       1.3869      0.00000
    883       1.3898      0.00000
    884       1.4082      0.00000
    885       1.4109      0.00000
    886       1.4137      0.00000
    887       1.4341      0.00000
    888       1.4478      0.00000
    889       1.4656      0.00000
    890       1.4760      0.00000
    891       1.4930      0.00000
    892       1.4990      0.00000
    893       1.5037      0.00000
    894       1.5212      0.00000
    895       1.5295      0.00000
    896       1.5472      0.00000

 k-point     7 :       0.0000    0.0000   -0.3333
  band No.  band energies     occupation 
      1     -22.9773      1.00000
      2     -22.9515      1.00000
      3     -22.8648      1.00000
      4     -22.7999      1.00000
      5     -22.7689      1.00000
      6     -22.7580      1.00000
      7     -22.7397      1.00000
      8     -22.7356      1.00000
      9     -22.6555      1.00000
     10     -22.6477      1.00000
     11     -22.6205      1.00000
     12     -22.5879      1.00000
     13     -22.5817      1.00000
     14     -22.5110      1.00000
     15     -22.4137      1.00000
     16     -22.4060      1.00000
     17     -22.3047      1.00000
     18     -22.2963      1.00000
     19     -22.2483      1.00000
     20     -22.1453      1.00000
     21     -22.1285      1.00000
     22     -22.1120      1.00000
     23     -22.1062      1.00000
     24     -22.0932      1.00000
     25     -22.0436      1.00000
     26     -22.0337      1.00000
     27     -22.0227      1.00000
     28     -22.0191      1.00000
     29     -21.9607      1.00000
     30     -21.9537      1.00000
     31     -21.8872      1.00000
     32     -21.8808      1.00000
     33     -21.7884      1.00000
     34     -21.7797      1.00000
     35     -21.7447      1.00000
     36     -21.6789      1.00000
     37     -21.6711      1.00000
     38     -21.5517      1.00000
     39     -21.5387      1.00000
     40     -21.5325      1.00000
     41     -21.4206      1.00000
     42     -21.4111      1.00000
     43     -21.3462      1.00000
     44     -21.3373      1.00000
     45     -21.2686      1.00000
     46     -21.2598      1.00000
     47     -21.1344      1.00000
     48     -21.1129      1.00000
     49     -21.1103      1.00000
     50     -21.0927      1.00000
     51     -21.0898      1.00000
     52     -21.0130      1.00000
     53     -21.0046      1.00000
     54     -20.9521      1.00000
     55     -20.9404      1.00000
     56     -20.9223      1.00000
     57     -20.9150      1.00000
     58     -20.9071      1.00000
     59     -20.9054      1.00000
     60     -20.8780      1.00000
     61     -20.7778      1.00000
     62     -20.7696      1.00000
     63     -20.7301      1.00000
     64     -20.7219      1.00000
     65     -20.6792      1.00000
     66     -20.6694      1.00000
     67     -20.6629      1.00000
     68     -20.6622      1.00000
     69     -20.4182      1.00000
     70     -20.4078      1.00000
     71     -20.3652      1.00000
     72     -20.3072      1.00000
     73     -20.2952      1.00000
     74     -20.2645      1.00000
     75     -20.2592      1.00000
     76     -20.1666      1.00000
     77     -20.1571      1.00000
     78     -20.0918      1.00000
     79     -20.0700      1.00000
     80     -20.0618      1.00000
     81     -19.9347      1.00000
     82     -19.9218      1.00000
     83     -19.8909      1.00000
     84     -19.8819      1.00000
     85     -19.7752      1.00000
     86     -19.7547      1.00000
     87     -19.7380      1.00000
     88     -19.7339      1.00000
     89     -19.7289      1.00000
     90     -19.7268      1.00000
     91     -19.6542      1.00000
     92     -19.6479      1.00000
     93     -19.5943      1.00000
     94     -19.5855      1.00000
     95     -19.5620      1.00000
     96     -19.5567      1.00000
     97     -19.4988      1.00000
     98     -19.4287      1.00000
     99     -19.4204      1.00000
    100     -19.3449      1.00000
    101     -19.3186      1.00000
    102     -19.3160      1.00000
    103     -19.3106      1.00000
    104     -19.2979      1.00000
    105     -19.2952      1.00000
    106     -19.2901      1.00000
    107     -19.2859      1.00000
    108     -19.1866      1.00000
    109     -19.1034      1.00000
    110     -19.0897      1.00000
    111     -19.0720      1.00000
    112     -19.0694      1.00000
    113     -18.9944      1.00000
    114     -18.9852      1.00000
    115     -18.9319      1.00000
    116     -18.9272      1.00000
    117     -18.7322      1.00000
    118     -18.7145      1.00000
    119     -18.6320      1.00000
    120     -18.6079      1.00000
    121     -18.6001      1.00000
    122     -18.5965      1.00000
    123     -18.5313      1.00000
    124     -18.4525      1.00000
    125     -18.4248      1.00000
    126     -18.4176      1.00000
    127     -18.4119      1.00000
    128     -18.3632      1.00000
    129     -18.3473      1.00000
    130     -18.3408      1.00000
    131     -18.3354      1.00000
    132     -18.1992      1.00000
    133     -18.1667      1.00000
    134     -18.1641      1.00000
    135     -18.1421      1.00000
    136     -18.1371      1.00000
    137     -18.0782      1.00000
    138     -18.0636      1.00000
    139     -18.0388      1.00000
    140     -18.0280      1.00000
    141     -18.0142      1.00000
    142     -18.0086      1.00000
    143     -18.0007      1.00000
    144     -17.9918      1.00000
    145     -17.8864      1.00000
    146     -17.8577      1.00000
    147     -17.8402      1.00000
    148     -17.8332      1.00000
    149     -17.8317      1.00000
    150     -17.8223      1.00000
    151     -17.8151      1.00000
    152     -17.8093      1.00000
    153     -17.7672      1.00000
    154     -17.7372      1.00000
    155     -17.6475      1.00000
    156     -17.6216      1.00000
    157     -17.6028      1.00000
    158     -17.5490      1.00000
    159     -17.5398      1.00000
    160     -17.5042      1.00000
    161     -17.4848      1.00000
    162     -17.4353      1.00000
    163     -17.4122      1.00000
    164     -17.3931      1.00000
    165     -17.3725      1.00000
    166     -17.3667      1.00000
    167     -17.3236      1.00000
    168     -17.3064      1.00000
    169     -17.1966      1.00000
    170     -17.1478      1.00000
    171     -17.1279      1.00000
    172     -17.1111      1.00000
    173     -17.0701      1.00000
    174     -17.0013      1.00000
    175     -16.9490      1.00000
    176     -16.9107      1.00000
    177     -16.6547      1.00000
    178     -16.5997      1.00000
    179     -16.5803      1.00000
    180     -16.4899      1.00000
    181     -16.4280      1.00000
    182     -16.4266      1.00000
    183     -16.4118      1.00000
    184     -16.3410      1.00000
    185     -16.2998      1.00000
    186     -16.2438      1.00000
    187     -16.2017      1.00000
    188     -16.1893      1.00000
    189     -16.1710      1.00000
    190     -16.1382      1.00000
    191     -16.0943      1.00000
    192     -16.0397      1.00000
    193     -16.0096      1.00000
    194     -15.9375      1.00000
    195     -15.9288      1.00000
    196     -15.8515      1.00000
    197     -15.8347      1.00000
    198     -15.8305      1.00000
    199     -15.8276      1.00000
    200     -15.7913      1.00000
    201     -15.7600      1.00000
    202     -15.7447      1.00000
    203     -15.7284      1.00000
    204     -15.7073      1.00000
    205     -15.6937      1.00000
    206     -15.6435      1.00000
    207     -15.5868      1.00000
    208     -15.5741      1.00000
    209     -15.5681      1.00000
    210     -15.5658      1.00000
    211     -15.5530      1.00000
    212     -15.5453      1.00000
    213     -15.5275      1.00000
    214     -15.5059      1.00000
    215     -15.4920      1.00000
    216     -15.4494      1.00000
    217     -15.4098      1.00000
    218     -15.3899      1.00000
    219     -15.3702      1.00000
    220     -15.3498      1.00000
    221     -15.3483      1.00000
    222     -15.3344      1.00000
    223     -15.3213      1.00000
    224     -15.3055      1.00000
    225     -15.2908      1.00000
    226     -15.2247      1.00000
    227     -15.1919      1.00000
    228     -15.1866      1.00000
    229     -15.1263      1.00000
    230     -15.1020      1.00000
    231     -15.0786      1.00000
    232     -15.0616      1.00000
    233     -15.0211      1.00000
    234     -14.9835      1.00000
    235     -14.9621      1.00000
    236     -14.9388      1.00000
    237     -14.9224      1.00000
    238     -14.8682      1.00000
    239     -14.8373      1.00000
    240     -14.8320      1.00000
    241     -14.7706      1.00000
    242     -14.5740      1.00000
    243     -14.4471      1.00000
    244     -14.4396      1.00000
    245     -14.4262      1.00000
    246     -14.3983      1.00000
    247     -14.3376      1.00000
    248     -14.2671      1.00000
    249     -14.2513      1.00000
    250     -14.1397      1.00000
    251     -14.0554      1.00000
    252     -14.0413      1.00000
    253     -14.0364      1.00000
    254     -13.9808      1.00000
    255     -13.9703      1.00000
    256     -13.9639      1.00000
    257     -13.9153      1.00000
    258     -13.9045      1.00000
    259     -13.8321      1.00000
    260     -13.7964      1.00000
    261     -13.7933      1.00000
    262     -13.7691      1.00000
    263     -13.7629      1.00000
    264     -13.7542      1.00000
    265     -13.7409      1.00000
    266     -13.7306      1.00000
    267     -13.7053      1.00000
    268     -13.6829      1.00000
    269     -13.6716      1.00000
    270     -13.6673      1.00000
    271     -13.6526      1.00000
    272     -13.6436      1.00000
    273     -13.5876      1.00000
    274     -13.5573      1.00000
    275     -13.5408      1.00000
    276     -13.4776      1.00000
    277     -13.4519      1.00000
    278     -13.4079      1.00000
    279     -13.3662      1.00000
    280     -13.3451      1.00000
    281     -13.3294      1.00000
    282     -13.3087      1.00000
    283     -13.2999      1.00000
    284     -13.2952      1.00000
    285     -13.2865      1.00000
    286     -13.2732      1.00000
    287     -13.2322      1.00000
    288     -13.2239      1.00000
    289     -13.1935      1.00000
    290     -13.0813      1.00000
    291     -13.0412      1.00000
    292     -13.0283      1.00000
    293     -12.9966      1.00000
    294     -12.9781      1.00000
    295     -12.9590      1.00000
    296     -12.9116      1.00000
    297     -12.8910      1.00000
    298     -12.8612      1.00000
    299     -12.8569      1.00000
    300     -12.8469      1.00000
    301     -12.8146      1.00000
    302     -12.6954      1.00000
    303     -12.6275      1.00000
    304     -12.6179      1.00000
    305     -12.6016      1.00000
    306     -12.5246      1.00000
    307     -12.4013      1.00000
    308     -12.3864      1.00000
    309     -12.3750      1.00000
    310     -12.3408      1.00000
    311     -12.3336      1.00000
    312     -12.3053      1.00000
    313     -12.1747      1.00000
    314     -12.1678      1.00000
    315     -12.1220      1.00000
    316     -12.1158      1.00000
    317     -12.1101      1.00000
    318     -12.0688      1.00000
    319     -12.0423      1.00000
    320     -11.9949      1.00000
    321     -11.9692      1.00000
    322     -11.9471      1.00000
    323     -11.9433      1.00000
    324     -11.9305      1.00000
    325     -11.9019      1.00000
    326     -11.8953      1.00000
    327     -11.8896      1.00000
    328     -11.8742      1.00000
    329     -11.8653      1.00000
    330     -11.8465      1.00000
    331     -11.7906      1.00000
    332     -11.7306      1.00000
    333     -11.7236      1.00000
    334     -11.7126      1.00000
    335     -11.6845      1.00000
    336     -11.6763      1.00000
    337     -11.6494      1.00000
    338     -11.6402      1.00000
    339     -11.6312      1.00000
    340     -11.6278      1.00000
    341     -11.6028      1.00000
    342     -11.5930      1.00000
    343     -11.5921      1.00000
    344     -11.5887      1.00000
    345     -11.5781      1.00000
    346     -11.5648      1.00000
    347     -11.5629      1.00000
    348     -11.5310      1.00000
    349     -11.5234      1.00000
    350     -11.4948      1.00000
    351     -11.4780      1.00000
    352     -11.4592      1.00000
    353     -11.4374      1.00000
    354     -11.4279      1.00000
    355     -11.4194      1.00000
    356     -11.4057      1.00000
    357     -11.3979      1.00000
    358     -11.2799      1.00000
    359     -11.2451      1.00000
    360     -11.2118      1.00000
    361     -11.1678      1.00000
    362     -11.1087      1.00000
    363     -11.0916      1.00000
    364     -11.0826      1.00000
    365     -11.0762      1.00000
    366     -11.0565      1.00000
    367     -10.9562      1.00000
    368     -10.9345      1.00000
    369     -10.9240      1.00000
    370     -10.9186      1.00000
    371     -10.8805      1.00000
    372     -10.8770      1.00000
    373     -10.8585      1.00000
    374     -10.8475      1.00000
    375     -10.8421      1.00000
    376     -10.8404      1.00000
    377     -10.8370      1.00000
    378     -10.8343      1.00000
    379     -10.8216      1.00000
    380     -10.8204      1.00000
    381     -10.8082      1.00000
    382     -10.7745      1.00000
    383     -10.7474      1.00000
    384     -10.7394      1.00000
    385     -10.7246      1.00000
    386     -10.7202      1.00000
    387     -10.7088      1.00000
    388     -10.6983      1.00000
    389     -10.6816      1.00000
    390     -10.6745      1.00000
    391     -10.6499      1.00000
    392     -10.6355      1.00000
    393     -10.6246      1.00000
    394     -10.5830      1.00000
    395     -10.5788      1.00000
    396     -10.5641      1.00000
    397     -10.5620      1.00000
    398     -10.5480      1.00000
    399     -10.5443      1.00000
    400     -10.5341      1.00000
    401     -10.5116      1.00000
    402     -10.4853      1.00000
    403     -10.4600      1.00000
    404     -10.4583      1.00000
    405     -10.4379      1.00000
    406     -10.4154      1.00000
    407     -10.4093      1.00000
    408     -10.4039      1.00000
    409     -10.3975      1.00000
    410     -10.3952      1.00000
    411     -10.3698      1.00000
    412     -10.3457      1.00000
    413     -10.3359      1.00000
    414     -10.3247      1.00000
    415     -10.3209      1.00000
    416     -10.3162      1.00000
    417     -10.3128      1.00000
    418     -10.3052      1.00000
    419     -10.2878      1.00000
    420     -10.2836      1.00000
    421     -10.2686      1.00000
    422     -10.2599      1.00000
    423     -10.2540      1.00000
    424     -10.2516      1.00000
    425     -10.2359      1.00000
    426     -10.2338      1.00000
    427     -10.2252      1.00000
    428     -10.2160      1.00000
    429     -10.2049      1.00000
    430     -10.1985      1.00000
    431     -10.1932      1.00000
    432     -10.1879      1.00000
    433     -10.1512      1.00000
    434     -10.1480      1.00000
    435     -10.1156      1.00000
    436     -10.1091      1.00000
    437     -10.0927      1.00000
    438     -10.0859      1.00000
    439     -10.0734      1.00000
    440     -10.0689      1.00000
    441     -10.0657      1.00000
    442     -10.0562      1.00000
    443     -10.0536      1.00000
    444     -10.0367      1.00000
    445     -10.0191      1.00000
    446      -9.9946      1.00000
    447      -9.9811      1.00000
    448      -9.9672      1.00000
    449      -9.9238      1.00000
    450      -9.9106      1.00000
    451      -9.8999      1.00000
    452      -9.8977      1.00000
    453      -9.8910      1.00000
    454      -9.8776      1.00000
    455      -9.8538      1.00000
    456      -9.8454      1.00000
    457      -9.8317      1.00000
    458      -9.8293      1.00000
    459      -9.8244      1.00000
    460      -9.8094      1.00000
    461      -9.7667      1.00000
    462      -9.7638      1.00000
    463      -9.7458      1.00000
    464      -9.7415      1.00000
    465      -9.7117      1.00000
    466      -9.6764      1.00000
    467      -9.6551      1.00000
    468      -9.6341      1.00000
    469      -9.6222      1.00000
    470      -9.6203      1.00000
    471      -9.5941      1.00000
    472      -9.5632      1.00000
    473      -9.5515      1.00000
    474      -9.5446      1.00000
    475      -9.5394      1.00000
    476      -9.5345      1.00000
    477      -9.5283      1.00000
    478      -9.5250      1.00000
    479      -9.4971      1.00000
    480      -9.4946      1.00000
    481      -9.4776      1.00000
    482      -9.4424      1.00000
    483      -9.4304      1.00000
    484      -9.4191      1.00000
    485      -9.4164      1.00000
    486      -9.3998      1.00000
    487      -9.3911      1.00000
    488      -9.3859      1.00000
    489      -9.3780      1.00000
    490      -9.3609      1.00000
    491      -9.3548      1.00000
    492      -9.3476      1.00000
    493      -9.3465      1.00000
    494      -9.3395      1.00000
    495      -9.3286      1.00000
    496      -9.3264      1.00000
    497      -9.3137      1.00000
    498      -9.2943      1.00000
    499      -9.2746      1.00000
    500      -9.2729      1.00000
    501      -9.2542      1.00000
    502      -9.2303      1.00000
    503      -9.2196      1.00000
    504      -9.1973      1.00000
    505      -9.1947      1.00000
    506      -9.1792      1.00000
    507      -9.1716      1.00000
    508      -9.1599      1.00000
    509      -9.1490      1.00000
    510      -9.1423      1.00000
    511      -9.1268      1.00000
    512      -9.0607      1.00000
    513      -9.0279      1.00000
    514      -8.9813      1.00000
    515      -8.9372      1.00000
    516      -8.9006      1.00000
    517      -8.8967      1.00000
    518      -8.8629      1.00000
    519      -8.8411      1.00000
    520      -8.8104      1.00000
    521      -8.8023      1.00000
    522      -8.7764      1.00000
    523      -8.7711      1.00000
    524      -8.7655      1.00000
    525      -8.6985      1.00000
    526      -8.6732      1.00000
    527      -8.6523      1.00000
    528      -8.6158      1.00000
    529      -8.6012      1.00000
    530      -8.5832      1.00000
    531      -8.5646      1.00000
    532      -8.5380      1.00000
    533      -8.5316      1.00000
    534      -8.5199      1.00000
    535      -8.5084      1.00000
    536      -8.4964      1.00000
    537      -8.4906      1.00000
    538      -8.4803      1.00000
    539      -8.4681      1.00000
    540      -8.4548      1.00000
    541      -8.4473      1.00000
    542      -8.4455      1.00000
    543      -8.4362      1.00000
    544      -8.4195      1.00000
    545      -8.4181      1.00000
    546      -8.4114      1.00000
    547      -8.4020      1.00000
    548      -8.3945      1.00000
    549      -8.3874      1.00000
    550      -8.3745      1.00000
    551      -8.3613      1.00000
    552      -8.3453      1.00000
    553      -8.3375      1.00000
    554      -8.3223      1.00000
    555      -8.2956      1.00000
    556      -8.2882      1.00000
    557      -8.2716      1.00000
    558      -8.2413      1.00000
    559      -8.2243      1.00000
    560      -8.2195      1.00000
    561      -8.2133      1.00000
    562      -8.2068      1.00000
    563      -8.1975      1.00000
    564      -8.1699      1.00000
    565      -8.1471      1.00000
    566      -8.1205      1.00000
    567      -8.1003      1.00000
    568      -8.0971      1.00000
    569      -8.0858      1.00000
    570      -8.0839      1.00000
    571      -8.0366      1.00000
    572      -7.9827      1.00000
    573      -7.9456      1.00000
    574      -7.9290      1.00000
    575      -7.9253      1.00000
    576      -7.9124      1.00000
    577      -7.8465      1.00000
    578      -7.8364      1.00000
    579      -7.8240      1.00000
    580      -7.8048      1.00000
    581      -7.7915      1.00000
    582      -7.7644      1.00000
    583      -7.7556      1.00000
    584      -7.7426      1.00000
    585      -7.7254      1.00000
    586      -7.7226      1.00000
    587      -7.7074      1.00000
    588      -7.6782      1.00000
    589      -7.6703      1.00000
    590      -7.6613      1.00000
    591      -7.6241      1.00000
    592      -7.6216      1.00000
    593      -7.6083      1.00000
    594      -7.5605      1.00000
    595      -7.5458      1.00000
    596      -7.5388      1.00000
    597      -7.5178      1.00000
    598      -7.4986      1.00000
    599      -7.4824      1.00000
    600      -7.4727      1.00000
    601      -7.4640      1.00000
    602      -7.4421      1.00000
    603      -7.4335      1.00000
    604      -7.4259      1.00000
    605      -7.4198      1.00000
    606      -7.3674      1.00000
    607      -7.3529      1.00000
    608      -7.3288      1.00000
    609      -7.2978      1.00000
    610      -7.2695      1.00000
    611      -7.2634      1.00000
    612      -7.2378      1.00000
    613      -7.2097      1.00000
    614      -7.1921      1.00000
    615      -7.1716      1.00000
    616      -7.1412      1.00000
    617      -7.1156      1.00000
    618      -7.1080      1.00000
    619      -7.0914      1.00000
    620      -7.0885      1.00000
    621      -7.0788      1.00000
    622      -7.0743      1.00000
    623      -7.0582      1.00000
    624      -7.0549      1.00000
    625      -7.0417      1.00000
    626      -7.0329      1.00000
    627      -7.0160      1.00000
    628      -6.9918      1.00000
    629      -6.9421      1.00000
    630      -6.9284      1.00000
    631      -6.9246      1.00000
    632      -6.9177      1.00000
    633      -6.8849      1.00000
    634      -6.8482      1.00000
    635      -6.8256      1.00000
    636      -6.8072      1.00000
    637      -6.8036      1.00000
    638      -6.7774      1.00000
    639      -6.7647      1.00000
    640      -6.7415      1.00000
    641      -6.7237      1.00000
    642      -6.7086      1.00000
    643      -6.7021      1.00000
    644      -6.6863      1.00000
    645      -6.6668      1.00000
    646      -6.6498      1.00000
    647      -6.6443      1.00000
    648      -6.6344      1.00000
    649      -6.6234      1.00000
    650      -6.6011      1.00000
    651      -6.5902      1.00000
    652      -6.5401      1.00000
    653      -6.5247      1.00000
    654      -6.5030      1.00000
    655      -6.4927      1.00000
    656      -6.4758      1.00000
    657      -6.4327      1.00000
    658      -6.4196      1.00000
    659      -6.3652      1.00000
    660      -6.2991      1.00000
    661      -6.2915      1.00000
    662      -6.2749      1.00000
    663      -6.2559      1.00000
    664      -6.2143      1.00000
    665      -6.2030      1.00000
    666      -6.1261      1.00000
    667      -6.1021      1.00000
    668      -6.0574      1.00000
    669      -6.0293      1.00000
    670      -6.0161      1.00000
    671      -6.0064      1.00000
    672      -5.9365      1.00000
    673      -5.9129      1.00000
    674      -5.8865      1.00000
    675      -5.8684      1.00000
    676      -5.8408      1.00000
    677      -5.8281      1.00000
    678      -5.7375      1.00000
    679      -5.6836      1.00000
    680      -5.6628      1.00000
    681      -5.6503      1.00000
    682      -5.6291      1.00000
    683      -5.6168      1.00000
    684      -5.5969      1.00000
    685      -5.5841      1.00000
    686      -5.5730      1.00000
    687      -5.5546      1.00000
    688      -5.5426      1.00000
    689      -5.5355      1.00000
    690      -5.5268      1.00000
    691      -5.5195      1.00000
    692      -5.5110      1.00000
    693      -5.4832      1.00000
    694      -5.4693      1.00000
    695      -5.4386      1.00000
    696      -5.4211      1.00000
    697      -5.3831      1.00000
    698      -5.3589      1.00000
    699      -5.3256      1.00000
    700      -5.2992      1.00000
    701      -5.2881      1.00000
    702      -5.2211      1.00000
    703      -5.1666      1.00000
    704      -5.1518      1.00000
    705      -5.1423      1.00000
    706      -5.1382      1.00000
    707      -5.1179      1.00000
    708      -5.0540      1.00000
    709      -4.9734      1.00000
    710      -4.9542      1.00000
    711      -4.9381      1.00000
    712      -4.8931      1.00000
    713      -4.8775      1.00000
    714      -4.8430      1.00000
    715      -4.8030      1.00000
    716      -4.7406      1.00000
    717      -4.6484      1.00000
    718      -4.6266      1.00000
    719      -4.6085      1.00000
    720      -4.5004      1.00000
    721      -4.3775      1.00000
    722      -4.3050      1.00000
    723      -4.2637      1.00000
    724      -4.2021      1.00000
    725      -4.1708      1.00000
    726      -4.1210      1.00000
    727      -4.0387      1.00000
    728      -4.0079      1.00000
    729      -3.7829      1.00000
    730      -3.7669      1.00000
    731      -3.6362      1.00000
    732      -2.7080      0.00000
    733      -2.5942      0.00000
    734      -2.5506      0.00000
    735      -2.3844      0.00000
    736      -2.3640      0.00000
    737      -2.2513      0.00000
    738      -2.2093      0.00000
    739      -2.1251      0.00000
    740      -2.0744      0.00000
    741      -1.9821      0.00000
    742      -1.9314      0.00000
    743      -1.9171      0.00000
    744      -1.9075      0.00000
    745      -1.8993      0.00000
    746      -1.8861      0.00000
    747      -1.8784      0.00000
    748      -1.8273      0.00000
    749      -1.8178      0.00000
    750      -1.7861      0.00000
    751      -1.7732      0.00000
    752      -1.7602      0.00000
    753      -1.7541      0.00000
    754      -1.7425      0.00000
    755      -1.7055      0.00000
    756      -1.6926      0.00000
    757      -1.6692      0.00000
    758      -1.6499      0.00000
    759      -1.6432      0.00000
    760      -1.6294      0.00000
    761      -1.5962      0.00000
    762      -1.5543      0.00000
    763      -1.5176      0.00000
    764      -1.5000      0.00000
    765      -1.4578      0.00000
    766      -1.4194      0.00000
    767      -1.4116      0.00000
    768      -1.3977      0.00000
    769      -1.3898      0.00000
    770      -1.3847      0.00000
    771      -1.3548      0.00000
    772      -1.3450      0.00000
    773      -1.3385      0.00000
    774      -1.3209      0.00000
    775      -1.3084      0.00000
    776      -1.2991      0.00000
    777      -1.2810      0.00000
    778      -1.2657      0.00000
    779      -1.2594      0.00000
    780      -1.2542      0.00000
    781      -1.2373      0.00000
    782      -1.1824      0.00000
    783      -1.1755      0.00000
    784      -1.1479      0.00000
    785      -1.0844      0.00000
    786      -1.0728      0.00000
    787      -1.0607      0.00000
    788      -1.0239      0.00000
    789      -0.9806      0.00000
    790      -0.8618      0.00000
    791      -0.8071      0.00000
    792      -0.7698      0.00000
    793      -0.7581      0.00000
    794      -0.7174      0.00000
    795      -0.5866      0.00000
    796      -0.5589      0.00000
    797      -0.5215      0.00000
    798      -0.4934      0.00000
    799      -0.4709      0.00000
    800      -0.4215      0.00000
    801      -0.4029      0.00000
    802      -0.3365      0.00000
    803      -0.2486      0.00000
    804      -0.2262      0.00000
    805      -0.1701      0.00000
    806      -0.1368      0.00000
    807      -0.1275      0.00000
    808      -0.1142      0.00000
    809      -0.0987      0.00000
    810      -0.0866      0.00000
    811      -0.0721      0.00000
    812      -0.0471      0.00000
    813       0.0035      0.00000
    814       0.0195      0.00000
    815       0.0747      0.00000
    816       0.1070      0.00000
    817       0.1207      0.00000
    818       0.1693      0.00000
    819       0.2130      0.00000
    820       0.2224      0.00000
    821       0.2954      0.00000
    822       0.3414      0.00000
    823       0.3432      0.00000
    824       0.3916      0.00000
    825       0.4071      0.00000
    826       0.4309      0.00000
    827       0.4626      0.00000
    828       0.4739      0.00000
    829       0.4897      0.00000
    830       0.5005      0.00000
    831       0.5283      0.00000
    832       0.5338      0.00000
    833       0.5407      0.00000
    834       0.5474      0.00000
    835       0.5543      0.00000
    836       0.5645      0.00000
    837       0.5667      0.00000
    838       0.5796      0.00000
    839       0.5824      0.00000
    840       0.5849      0.00000
    841       0.6097      0.00000
    842       0.6625      0.00000
    843       0.6862      0.00000
    844       0.6997      0.00000
    845       0.7287      0.00000
    846       0.7634      0.00000
    847       0.7762      0.00000
    848       0.7886      0.00000
    849       0.8178      0.00000
    850       0.8376      0.00000
    851       0.8447      0.00000
    852       0.8555      0.00000
    853       0.8818      0.00000
    854       0.8859      0.00000
    855       0.8974      0.00000
    856       0.9380      0.00000
    857       0.9546      0.00000
    858       0.9773      0.00000
    859       0.9871      0.00000
    860       1.0041      0.00000
    861       1.0180      0.00000
    862       1.0502      0.00000
    863       1.0558      0.00000
    864       1.0844      0.00000
    865       1.0958      0.00000
    866       1.1007      0.00000
    867       1.1546      0.00000
    868       1.1636      0.00000
    869       1.1761      0.00000
    870       1.1990      0.00000
    871       1.2086      0.00000
    872       1.2278      0.00000
    873       1.2588      0.00000
    874       1.2691      0.00000
    875       1.2764      0.00000
    876       1.3061      0.00000
    877       1.3176      0.00000
    878       1.3360      0.00000
    879       1.3450      0.00000
    880       1.3789      0.00000
    881       1.3857      0.00000
    882       1.3923      0.00000
    883       1.4056      0.00000
    884       1.4112      0.00000
    885       1.4163      0.00000
    886       1.4275      0.00000
    887       1.4299      0.00000
    888       1.4420      0.00000
    889       1.4582      0.00000
    890       1.4960      0.00000
    891       1.5056      0.00000
    892       1.5158      0.00000
    893       1.5212      0.00000
    894       1.5292      0.00000
    895       1.5377      0.00000
    896       1.5606      0.00000

 k-point     8 :       0.0000    0.0000   -0.3889
  band No.  band energies     occupation 
      1     -22.9753      1.00000
      2     -22.9555      1.00000
      3     -22.8552      1.00000
      4     -22.8110      1.00000
      5     -22.7680      1.00000
      6     -22.7555      1.00000
      7     -22.7430      1.00000
      8     -22.7402      1.00000
      9     -22.6461      1.00000
     10     -22.6377      1.00000
     11     -22.6050      1.00000
     12     -22.5977      1.00000
     13     -22.5937      1.00000
     14     -22.5302      1.00000
     15     -22.3969      1.00000
     16     -22.3887      1.00000
     17     -22.3233      1.00000
     18     -22.3156      1.00000
     19     -22.2243      1.00000
     20     -22.1454      1.00000
     21     -22.1260      1.00000
     22     -22.1196      1.00000
     23     -22.1131      1.00000
     24     -22.1107      1.00000
     25     -22.0261      1.00000
     26     -22.0093      1.00000
     27     -22.0092      1.00000
     28     -22.0078      1.00000
     29     -21.9717      1.00000
     30     -21.9656      1.00000
     31     -21.9129      1.00000
     32     -21.9072      1.00000
     33     -21.7718      1.00000
     34     -21.7626      1.00000
     35     -21.7144      1.00000
     36     -21.6964      1.00000
     37     -21.6902      1.00000
     38     -21.5833      1.00000
     39     -21.5095      1.00000
     40     -21.5010      1.00000
     41     -21.3998      1.00000
     42     -21.3870      1.00000
     43     -21.3759      1.00000
     44     -21.3707      1.00000
     45     -21.2941      1.00000
     46     -21.2859      1.00000
     47     -21.1290      1.00000
     48     -21.1107      1.00000
     49     -21.0967      1.00000
     50     -21.0940      1.00000
     51     -21.0757      1.00000
     52     -21.0042      1.00000
     53     -20.9950      1.00000
     54     -20.9592      1.00000
     55     -20.9520      1.00000
     56     -20.9189      1.00000
     57     -20.8937      1.00000
     58     -20.8839      1.00000
     59     -20.8703      1.00000
     60     -20.8670      1.00000
     61     -20.7731      1.00000
     62     -20.7562      1.00000
     63     -20.7520      1.00000
     64     -20.7509      1.00000
     65     -20.7151      1.00000
     66     -20.7095      1.00000
     67     -20.6840      1.00000
     68     -20.6815      1.00000
     69     -20.3952      1.00000
     70     -20.3841      1.00000
     71     -20.3225      1.00000
     72     -20.2941      1.00000
     73     -20.2852      1.00000
     74     -20.2630      1.00000
     75     -20.2569      1.00000
     76     -20.1415      1.00000
     77     -20.1217      1.00000
     78     -20.1122      1.00000
     79     -20.1062      1.00000
     80     -20.1014      1.00000
     81     -19.9435      1.00000
     82     -19.9287      1.00000
     83     -19.8982      1.00000
     84     -19.8912      1.00000
     85     -19.7866      1.00000
     86     -19.7661      1.00000
     87     -19.7521      1.00000
     88     -19.7517      1.00000
     89     -19.7344      1.00000
     90     -19.7336      1.00000
     91     -19.6464      1.00000
     92     -19.6387      1.00000
     93     -19.6015      1.00000
     94     -19.5966      1.00000
     95     -19.5229      1.00000
     96     -19.5128      1.00000
     97     -19.4501      1.00000
     98     -19.4127      1.00000
     99     -19.4042      1.00000
    100     -19.3533      1.00000
    101     -19.3368      1.00000
    102     -19.3322      1.00000
    103     -19.3291      1.00000
    104     -19.2860      1.00000
    105     -19.2789      1.00000
    106     -19.2508      1.00000
    107     -19.2443      1.00000
    108     -19.2365      1.00000
    109     -19.1370      1.00000
    110     -19.1279      1.00000
    111     -19.0601      1.00000
    112     -19.0477      1.00000
    113     -19.0383      1.00000
    114     -19.0370      1.00000
    115     -18.9565      1.00000
    116     -18.9519      1.00000
    117     -18.6879      1.00000
    118     -18.6654      1.00000
    119     -18.6004      1.00000
    120     -18.5755      1.00000
    121     -18.5629      1.00000
    122     -18.5589      1.00000
    123     -18.4931      1.00000
    124     -18.4693      1.00000
    125     -18.4658      1.00000
    126     -18.4542      1.00000
    127     -18.4510      1.00000
    128     -18.3984      1.00000
    129     -18.3901      1.00000
    130     -18.2981      1.00000
    131     -18.2811      1.00000
    132     -18.2465      1.00000
    133     -18.1702      1.00000
    134     -18.1652      1.00000
    135     -18.1442      1.00000
    136     -18.1406      1.00000
    137     -18.0845      1.00000
    138     -18.0595      1.00000
    139     -18.0588      1.00000
    140     -18.0444      1.00000
    141     -18.0229      1.00000
    142     -18.0104      1.00000
    143     -17.9950      1.00000
    144     -17.9936      1.00000
    145     -17.8831      1.00000
    146     -17.8550      1.00000
    147     -17.8463      1.00000
    148     -17.8259      1.00000
    149     -17.8071      1.00000
    150     -17.7983      1.00000
    151     -17.7909      1.00000
    152     -17.7820      1.00000
    153     -17.7672      1.00000
    154     -17.7509      1.00000
    155     -17.6721      1.00000
    156     -17.6519      1.00000
    157     -17.6349      1.00000
    158     -17.5848      1.00000
    159     -17.5226      1.00000
    160     -17.4860      1.00000
    161     -17.4425      1.00000
    162     -17.4265      1.00000
    163     -17.4073      1.00000
    164     -17.3898      1.00000
    165     -17.3563      1.00000
    166     -17.3301      1.00000
    167     -17.3179      1.00000
    168     -17.2679      1.00000
    169     -17.2228      1.00000
    170     -17.1910      1.00000
    171     -17.1681      1.00000
    172     -17.0872      1.00000
    173     -17.0596      1.00000
    174     -17.0364      1.00000
    175     -16.9772      1.00000
    176     -16.9371      1.00000
    177     -16.6452      1.00000
    178     -16.5826      1.00000
    179     -16.5600      1.00000
    180     -16.4697      1.00000
    181     -16.4231      1.00000
    182     -16.3961      1.00000
    183     -16.3929      1.00000
    184     -16.3202      1.00000
    185     -16.2867      1.00000
    186     -16.2411      1.00000
    187     -16.2324      1.00000
    188     -16.2166      1.00000
    189     -16.1695      1.00000
    190     -16.1250      1.00000
    191     -16.0914      1.00000
    192     -16.0767      1.00000
    193     -16.0543      1.00000
    194     -15.9766      1.00000
    195     -15.9662      1.00000
    196     -15.8501      1.00000
    197     -15.8344      1.00000
    198     -15.8314      1.00000
    199     -15.7939      1.00000
    200     -15.7779      1.00000
    201     -15.7523      1.00000
    202     -15.7302      1.00000
    203     -15.7258      1.00000
    204     -15.7158      1.00000
    205     -15.6851      1.00000
    206     -15.6443      1.00000
    207     -15.6060      1.00000
    208     -15.5965      1.00000
    209     -15.5629      1.00000
    210     -15.5615      1.00000
    211     -15.5507      1.00000
    212     -15.5322      1.00000
    213     -15.5069      1.00000
    214     -15.4941      1.00000
    215     -15.4848      1.00000
    216     -15.4417      1.00000
    217     -15.4062      1.00000
    218     -15.3892      1.00000
    219     -15.3437      1.00000
    220     -15.3287      1.00000
    221     -15.3157      1.00000
    222     -15.3000      1.00000
    223     -15.2905      1.00000
    224     -15.2828      1.00000
    225     -15.2638      1.00000
    226     -15.2565      1.00000
    227     -15.2484      1.00000
    228     -15.2214      1.00000
    229     -15.1443      1.00000
    230     -15.1153      1.00000
    231     -15.0763      1.00000
    232     -15.0599      1.00000
    233     -15.0488      1.00000
    234     -15.0273      1.00000
    235     -14.9997      1.00000
    236     -14.9576      1.00000
    237     -14.9375      1.00000
    238     -14.8816      1.00000
    239     -14.8519      1.00000
    240     -14.8023      1.00000
    241     -14.7222      1.00000
    242     -14.6213      1.00000
    243     -14.4999      1.00000
    244     -14.3757      1.00000
    245     -14.3633      1.00000
    246     -14.3402      1.00000
    247     -14.2788      1.00000
    248     -14.2173      1.00000
    249     -14.1937      1.00000
    250     -14.1193      1.00000
    251     -14.1026      1.00000
    252     -14.1023      1.00000
    253     -14.0721      1.00000
    254     -14.0396      1.00000
    255     -14.0149      1.00000
    256     -13.9694      1.00000
    257     -13.9185      1.00000
    258     -13.8755      1.00000
    259     -13.8321      1.00000
    260     -13.8056      1.00000
    261     -13.7967      1.00000
    262     -13.7921      1.00000
    263     -13.7734      1.00000
    264     -13.7689      1.00000
    265     -13.7599      1.00000
    266     -13.7361      1.00000
    267     -13.7046      1.00000
    268     -13.7007      1.00000
    269     -13.6786      1.00000
    270     -13.6738      1.00000
    271     -13.6612      1.00000
    272     -13.6473      1.00000
    273     -13.5825      1.00000
    274     -13.5692      1.00000
    275     -13.5321      1.00000
    276     -13.4900      1.00000
    277     -13.4742      1.00000
    278     -13.3827      1.00000
    279     -13.3646      1.00000
    280     -13.3356      1.00000
    281     -13.3262      1.00000
    282     -13.3085      1.00000
    283     -13.2956      1.00000
    284     -13.2739      1.00000
    285     -13.2332      1.00000
    286     -13.2100      1.00000
    287     -13.1710      1.00000
    288     -13.1660      1.00000
    289     -13.1567      1.00000
    290     -13.0612      1.00000
    291     -13.0512      1.00000
    292     -13.0442      1.00000
    293     -12.9863      1.00000
    294     -12.9764      1.00000
    295     -12.9545      1.00000
    296     -12.9206      1.00000
    297     -12.9111      1.00000
    298     -12.8995      1.00000
    299     -12.8970      1.00000
    300     -12.8827      1.00000
    301     -12.8046      1.00000
    302     -12.7553      1.00000
    303     -12.6863      1.00000
    304     -12.6601      1.00000
    305     -12.5827      1.00000
    306     -12.5790      1.00000
    307     -12.4254      1.00000
    308     -12.3931      1.00000
    309     -12.3507      1.00000
    310     -12.3327      1.00000
    311     -12.3164      1.00000
    312     -12.2464      1.00000
    313     -12.2030      1.00000
    314     -12.1592      1.00000
    315     -12.1204      1.00000
    316     -12.0892      1.00000
    317     -12.0548      1.00000
    318     -12.0161      1.00000
    319     -12.0050      1.00000
    320     -12.0014      1.00000
    321     -11.9907      1.00000
    322     -11.9294      1.00000
    323     -11.9209      1.00000
    324     -11.9156      1.00000
    325     -11.8927      1.00000
    326     -11.8799      1.00000
    327     -11.8755      1.00000
    328     -11.8620      1.00000
    329     -11.8459      1.00000
    330     -11.8397      1.00000
    331     -11.7869      1.00000
    332     -11.7640      1.00000
    333     -11.7447      1.00000
    334     -11.7284      1.00000
    335     -11.7109      1.00000
    336     -11.6844      1.00000
    337     -11.6730      1.00000
    338     -11.6594      1.00000
    339     -11.6474      1.00000
    340     -11.6325      1.00000
    341     -11.6260      1.00000
    342     -11.6099      1.00000
    343     -11.5994      1.00000
    344     -11.5908      1.00000
    345     -11.5816      1.00000
    346     -11.5662      1.00000
    347     -11.5343      1.00000
    348     -11.5207      1.00000
    349     -11.5178      1.00000
    350     -11.4988      1.00000
    351     -11.4897      1.00000
    352     -11.4807      1.00000
    353     -11.4668      1.00000
    354     -11.4591      1.00000
    355     -11.4255      1.00000
    356     -11.4107      1.00000
    357     -11.4016      1.00000
    358     -11.3277      1.00000
    359     -11.3036      1.00000
    360     -11.1499      1.00000
    361     -11.1141      1.00000
    362     -11.0797      1.00000
    363     -11.0786      1.00000
    364     -11.0617      1.00000
    365     -11.0474      1.00000
    366     -11.0431      1.00000
    367     -10.9633      1.00000
    368     -10.9442      1.00000
    369     -10.9115      1.00000
    370     -10.8991      1.00000
    371     -10.8973      1.00000
    372     -10.8895      1.00000
    373     -10.8672      1.00000
    374     -10.8651      1.00000
    375     -10.8557      1.00000
    376     -10.8430      1.00000
    377     -10.8359      1.00000
    378     -10.8267      1.00000
    379     -10.8146      1.00000
    380     -10.8022      1.00000
    381     -10.7834      1.00000
    382     -10.7490      1.00000
    383     -10.7436      1.00000
    384     -10.7140      1.00000
    385     -10.7114      1.00000
    386     -10.6993      1.00000
    387     -10.6731      1.00000
    388     -10.6696      1.00000
    389     -10.6630      1.00000
    390     -10.6570      1.00000
    391     -10.6502      1.00000
    392     -10.6436      1.00000
    393     -10.6369      1.00000
    394     -10.6292      1.00000
    395     -10.6062      1.00000
    396     -10.5950      1.00000
    397     -10.5738      1.00000
    398     -10.5615      1.00000
    399     -10.5515      1.00000
    400     -10.5360      1.00000
    401     -10.4898      1.00000
    402     -10.4725      1.00000
    403     -10.4644      1.00000
    404     -10.4540      1.00000
    405     -10.4525      1.00000
    406     -10.4405      1.00000
    407     -10.4354      1.00000
    408     -10.4271      1.00000
    409     -10.4179      1.00000
    410     -10.4141      1.00000
    411     -10.4058      1.00000
    412     -10.3642      1.00000
    413     -10.3392      1.00000
    414     -10.3374      1.00000
    415     -10.3251      1.00000
    416     -10.3196      1.00000
    417     -10.3140      1.00000
    418     -10.3081      1.00000
    419     -10.2926      1.00000
    420     -10.2850      1.00000
    421     -10.2698      1.00000
    422     -10.2657      1.00000
    423     -10.2496      1.00000
    424     -10.2428      1.00000
    425     -10.2366      1.00000
    426     -10.2277      1.00000
    427     -10.2215      1.00000
    428     -10.2164      1.00000
    429     -10.2060      1.00000
    430     -10.1965      1.00000
    431     -10.1941      1.00000
    432     -10.1632      1.00000
    433     -10.1582      1.00000
    434     -10.1415      1.00000
    435     -10.1223      1.00000
    436     -10.0992      1.00000
    437     -10.0902      1.00000
    438     -10.0730      1.00000
    439     -10.0637      1.00000
    440     -10.0556      1.00000
    441     -10.0478      1.00000
    442     -10.0387      1.00000
    443     -10.0352      1.00000
    444     -10.0209      1.00000
    445     -10.0153      1.00000
    446     -10.0056      1.00000
    447      -9.9677      1.00000
    448      -9.9490      1.00000
    449      -9.9352      1.00000
    450      -9.9333      1.00000
    451      -9.9281      1.00000
    452      -9.9118      1.00000
    453      -9.8859      1.00000
    454      -9.8700      1.00000
    455      -9.8587      1.00000
    456      -9.8367      1.00000
    457      -9.8282      1.00000
    458      -9.8117      1.00000
    459      -9.7970      1.00000
    460      -9.7960      1.00000
    461      -9.7746      1.00000
    462      -9.7609      1.00000
    463      -9.7428      1.00000
    464      -9.7375      1.00000
    465      -9.7342      1.00000
    466      -9.6879      1.00000
    467      -9.6648      1.00000
    468      -9.6546      1.00000
    469      -9.6213      1.00000
    470      -9.6092      1.00000
    471      -9.5983      1.00000
    472      -9.5830      1.00000
    473      -9.5682      1.00000
    474      -9.5437      1.00000
    475      -9.5390      1.00000
    476      -9.5316      1.00000
    477      -9.5158      1.00000
    478      -9.5060      1.00000
    479      -9.5036      1.00000
    480      -9.4813      1.00000
    481      -9.4732      1.00000
    482      -9.4507      1.00000
    483      -9.4124      1.00000
    484      -9.4036      1.00000
    485      -9.3938      1.00000
    486      -9.3899      1.00000
    487      -9.3842      1.00000
    488      -9.3787      1.00000
    489      -9.3688      1.00000
    490      -9.3631      1.00000
    491      -9.3585      1.00000
    492      -9.3515      1.00000
    493      -9.3468      1.00000
    494      -9.3454      1.00000
    495      -9.3385      1.00000
    496      -9.3336      1.00000
    497      -9.2960      1.00000
    498      -9.2827      1.00000
    499      -9.2786      1.00000
    500      -9.2711      1.00000
    501      -9.2561      1.00000
    502      -9.2516      1.00000
    503      -9.2461      1.00000
    504      -9.2338      1.00000
    505      -9.1931      1.00000
    506      -9.1859      1.00000
    507      -9.1757      1.00000
    508      -9.1701      1.00000
    509      -9.1658      1.00000
    510      -9.1445      1.00000
    511      -9.1213      1.00000
    512      -9.1007      1.00000
    513      -9.0433      1.00000
    514      -8.9424      1.00000
    515      -8.9331      1.00000
    516      -8.8870      1.00000
    517      -8.8624      1.00000
    518      -8.8452      1.00000
    519      -8.8371      1.00000
    520      -8.8128      1.00000
    521      -8.8029      1.00000
    522      -8.7977      1.00000
    523      -8.7761      1.00000
    524      -8.7706      1.00000
    525      -8.6806      1.00000
    526      -8.6546      1.00000
    527      -8.6347      1.00000
    528      -8.6122      1.00000
    529      -8.5993      1.00000
    530      -8.5864      1.00000
    531      -8.5791      1.00000
    532      -8.5608      1.00000
    533      -8.5374      1.00000
    534      -8.5180      1.00000
    535      -8.5151      1.00000
    536      -8.5059      1.00000
    537      -8.4918      1.00000
    538      -8.4764      1.00000
    539      -8.4573      1.00000
    540      -8.4523      1.00000
    541      -8.4419      1.00000
    542      -8.4368      1.00000
    543      -8.4303      1.00000
    544      -8.4215      1.00000
    545      -8.4080      1.00000
    546      -8.4060      1.00000
    547      -8.3913      1.00000
    548      -8.3904      1.00000
    549      -8.3822      1.00000
    550      -8.3625      1.00000
    551      -8.3502      1.00000
    552      -8.3369      1.00000
    553      -8.3339      1.00000
    554      -8.3219      1.00000
    555      -8.3028      1.00000
    556      -8.2935      1.00000
    557      -8.2756      1.00000
    558      -8.2629      1.00000
    559      -8.2533      1.00000
    560      -8.2440      1.00000
    561      -8.2208      1.00000
    562      -8.1996      1.00000
    563      -8.1965      1.00000
    564      -8.1835      1.00000
    565      -8.1779      1.00000
    566      -8.1590      1.00000
    567      -8.1205      1.00000
    568      -8.1180      1.00000
    569      -8.1042      1.00000
    570      -8.0632      1.00000
    571      -8.0031      1.00000
    572      -7.9626      1.00000
    573      -7.9424      1.00000
    574      -7.9052      1.00000
    575      -7.8950      1.00000
    576      -7.8829      1.00000
    577      -7.8710      1.00000
    578      -7.8151      1.00000
    579      -7.8114      1.00000
    580      -7.7947      1.00000
    581      -7.7762      1.00000
    582      -7.7518      1.00000
    583      -7.7493      1.00000
    584      -7.7262      1.00000
    585      -7.7221      1.00000
    586      -7.7160      1.00000
    587      -7.7018      1.00000
    588      -7.6913      1.00000
    589      -7.6804      1.00000
    590      -7.6757      1.00000
    591      -7.6068      1.00000
    592      -7.5934      1.00000
    593      -7.5849      1.00000
    594      -7.5779      1.00000
    595      -7.5739      1.00000
    596      -7.5395      1.00000
    597      -7.5272      1.00000
    598      -7.5250      1.00000
    599      -7.5052      1.00000
    600      -7.4893      1.00000
    601      -7.4845      1.00000
    602      -7.4703      1.00000
    603      -7.4614      1.00000
    604      -7.4515      1.00000
    605      -7.4097      1.00000
    606      -7.3827      1.00000
    607      -7.3451      1.00000
    608      -7.3228      1.00000
    609      -7.2966      1.00000
    610      -7.2504      1.00000
    611      -7.2481      1.00000
    612      -7.2224      1.00000
    613      -7.2048      1.00000
    614      -7.1941      1.00000
    615      -7.1772      1.00000
    616      -7.1632      1.00000
    617      -7.1367      1.00000
    618      -7.1133      1.00000
    619      -7.1045      1.00000
    620      -7.0934      1.00000
    621      -7.0896      1.00000
    622      -7.0532      1.00000
    623      -7.0320      1.00000
    624      -7.0234      1.00000
    625      -7.0195      1.00000
    626      -6.9990      1.00000
    627      -6.9844      1.00000
    628      -6.9756      1.00000
    629      -6.9548      1.00000
    630      -6.9451      1.00000
    631      -6.9388      1.00000
    632      -6.9339      1.00000
    633      -6.8535      1.00000
    634      -6.8474      1.00000
    635      -6.8365      1.00000
    636      -6.7979      1.00000
    637      -6.7780      1.00000
    638      -6.7672      1.00000
    639      -6.7585      1.00000
    640      -6.7393      1.00000
    641      -6.7211      1.00000
    642      -6.6976      1.00000
    643      -6.6902      1.00000
    644      -6.6774      1.00000
    645      -6.6665      1.00000
    646      -6.6616      1.00000
    647      -6.6528      1.00000
    648      -6.6460      1.00000
    649      -6.6378      1.00000
    650      -6.6105      1.00000
    651      -6.6005      1.00000
    652      -6.5823      1.00000
    653      -6.5607      1.00000
    654      -6.5483      1.00000
    655      -6.5298      1.00000
    656      -6.4711      1.00000
    657      -6.4370      1.00000
    658      -6.4130      1.00000
    659      -6.3423      1.00000
    660      -6.2840      1.00000
    661      -6.2682      1.00000
    662      -6.2567      1.00000
    663      -6.2352      1.00000
    664      -6.2237      1.00000
    665      -6.2100      1.00000
    666      -6.1167      1.00000
    667      -6.0943      1.00000
    668      -6.0755      1.00000
    669      -6.0468      1.00000
    670      -6.0115      1.00000
    671      -5.9652      1.00000
    672      -5.9501      1.00000
    673      -5.8958      1.00000
    674      -5.8741      1.00000
    675      -5.8543      1.00000
    676      -5.8100      1.00000
    677      -5.7904      1.00000
    678      -5.7604      1.00000
    679      -5.7225      1.00000
    680      -5.6982      1.00000
    681      -5.6711      1.00000
    682      -5.6337      1.00000
    683      -5.6076      1.00000
    684      -5.5959      1.00000
    685      -5.5834      1.00000
    686      -5.5772      1.00000
    687      -5.5620      1.00000
    688      -5.5506      1.00000
    689      -5.5391      1.00000
    690      -5.5299      1.00000
    691      -5.5239      1.00000
    692      -5.5094      1.00000
    693      -5.4856      1.00000
    694      -5.4755      1.00000
    695      -5.4361      1.00000
    696      -5.4025      1.00000
    697      -5.3918      1.00000
    698      -5.3782      1.00000
    699      -5.3231      1.00000
    700      -5.3024      1.00000
    701      -5.2750      1.00000
    702      -5.2234      1.00000
    703      -5.1753      1.00000
    704      -5.1557      1.00000
    705      -5.1479      1.00000
    706      -5.1302      1.00000
    707      -5.0867      1.00000
    708      -5.0655      1.00000
    709      -4.9750      1.00000
    710      -4.9397      1.00000
    711      -4.9134      1.00000
    712      -4.8666      1.00000
    713      -4.8463      1.00000
    714      -4.8360      1.00000
    715      -4.8054      1.00000
    716      -4.7389      1.00000
    717      -4.6905      1.00000
    718      -4.6542      1.00000
    719      -4.6491      1.00000
    720      -4.5014      1.00000
    721      -4.3635      1.00000
    722      -4.3023      1.00000
    723      -4.2540      1.00000
    724      -4.2029      1.00000
    725      -4.1705      1.00000
    726      -4.1307      1.00000
    727      -4.0441      1.00000
    728      -3.9645      1.00000
    729      -3.8014      1.00000
    730      -3.7609      1.00000
    731      -3.6499      1.00000
    732      -2.6975      0.00000
    733      -2.5665      0.00000
    734      -2.5600      0.00000
    735      -2.4226      0.00000
    736      -2.3698      0.00000
    737      -2.2498      0.00000
    738      -2.2217      0.00000
    739      -2.1024      0.00000
    740      -2.0639      0.00000
    741      -2.0049      0.00000
    742      -1.9247      0.00000
    743      -1.9157      0.00000
    744      -1.8921      0.00000
    745      -1.8849      0.00000
    746      -1.8723      0.00000
    747      -1.8465      0.00000
    748      -1.8408      0.00000
    749      -1.8104      0.00000
    750      -1.7984      0.00000
    751      -1.7885      0.00000
    752      -1.7740      0.00000
    753      -1.7468      0.00000
    754      -1.7320      0.00000
    755      -1.7058      0.00000
    756      -1.6883      0.00000
    757      -1.6828      0.00000
    758      -1.6678      0.00000
    759      -1.6501      0.00000
    760      -1.6251      0.00000
    761      -1.6120      0.00000
    762      -1.5700      0.00000
    763      -1.5637      0.00000
    764      -1.5279      0.00000
    765      -1.4515      0.00000
    766      -1.4201      0.00000
    767      -1.3797      0.00000
    768      -1.3722      0.00000
    769      -1.3621      0.00000
    770      -1.3571      0.00000
    771      -1.3518      0.00000
    772      -1.3445      0.00000
    773      -1.3213      0.00000
    774      -1.3029      0.00000
    775      -1.2988      0.00000
    776      -1.2812      0.00000
    777      -1.2656      0.00000
    778      -1.2610      0.00000
    779      -1.2593      0.00000
    780      -1.2544      0.00000
    781      -1.2180      0.00000
    782      -1.2144      0.00000
    783      -1.1997      0.00000
    784      -1.1891      0.00000
    785      -1.1215      0.00000
    786      -1.0738      0.00000
    787      -1.0275      0.00000
    788      -1.0250      0.00000
    789      -1.0226      0.00000
    790      -0.8530      0.00000
    791      -0.8230      0.00000
    792      -0.8004      0.00000
    793      -0.7346      0.00000
    794      -0.6808      0.00000
    795      -0.5944      0.00000
    796      -0.5787      0.00000
    797      -0.5335      0.00000
    798      -0.5053      0.00000
    799      -0.4276      0.00000
    800      -0.4078      0.00000
    801      -0.3538      0.00000
    802      -0.3130      0.00000
    803      -0.2836      0.00000
    804      -0.2194      0.00000
    805      -0.1784      0.00000
    806      -0.1419      0.00000
    807      -0.1306      0.00000
    808      -0.1255      0.00000
    809      -0.1077      0.00000
    810      -0.0991      0.00000
    811      -0.0616      0.00000
    812      -0.0361      0.00000
    813      -0.0132      0.00000
    814       0.0293      0.00000
    815       0.0375      0.00000
    816       0.0900      0.00000
    817       0.1002      0.00000
    818       0.1563      0.00000
    819       0.2113      0.00000
    820       0.2470      0.00000
    821       0.2892      0.00000
    822       0.3554      0.00000
    823       0.3659      0.00000
    824       0.4066      0.00000
    825       0.4233      0.00000
    826       0.4459      0.00000
    827       0.4629      0.00000
    828       0.4682      0.00000
    829       0.4759      0.00000
    830       0.5050      0.00000
    831       0.5227      0.00000
    832       0.5369      0.00000
    833       0.5439      0.00000
    834       0.5579      0.00000
    835       0.5608      0.00000
    836       0.5804      0.00000
    837       0.5830      0.00000
    838       0.5836      0.00000
    839       0.5893      0.00000
    840       0.5977      0.00000
    841       0.6035      0.00000
    842       0.6497      0.00000
    843       0.6997      0.00000
    844       0.7056      0.00000
    845       0.7274      0.00000
    846       0.7425      0.00000
    847       0.7599      0.00000
    848       0.7643      0.00000
    849       0.7944      0.00000
    850       0.8028      0.00000
    851       0.8585      0.00000
    852       0.8656      0.00000
    853       0.8788      0.00000
    854       0.8846      0.00000
    855       0.9318      0.00000
    856       0.9378      0.00000
    857       0.9581      0.00000
    858       0.9719      0.00000
    859       0.9821      0.00000
    860       1.0143      0.00000
    861       1.0186      0.00000
    862       1.0405      0.00000
    863       1.0787      0.00000
    864       1.0793      0.00000
    865       1.0974      0.00000
    866       1.1138      0.00000
    867       1.1372      0.00000
    868       1.1553      0.00000
    869       1.1650      0.00000
    870       1.1771      0.00000
    871       1.1952      0.00000
    872       1.2312      0.00000
    873       1.2455      0.00000
    874       1.2530      0.00000
    875       1.2786      0.00000
    876       1.3016      0.00000
    877       1.3304      0.00000
    878       1.3594      0.00000
    879       1.3649      0.00000
    880       1.3891      0.00000
    881       1.3947      0.00000
    882       1.4086      0.00000
    883       1.4177      0.00000
    884       1.4281      0.00000
    885       1.4320      0.00000
    886       1.4419      0.00000
    887       1.4527      0.00000
    888       1.4578      0.00000
    889       1.4776      0.00000
    890       1.4943      0.00000
    891       1.5096      0.00000
    892       1.5220      0.00000
    893       1.5395      0.00000
    894       1.5530      0.00000
    895       1.5611      0.00000
    896       1.5666      0.00000

 k-point     9 :       0.0000    0.0000   -0.4444
  band No.  band energies     occupation 
      1     -22.9736      1.00000
      2     -22.9584      1.00000
      3     -22.8455      1.00000
      4     -22.8217      1.00000
      5     -22.7672      1.00000
      6     -22.7526      1.00000
      7     -22.7453      1.00000
      8     -22.7442      1.00000
      9     -22.6370      1.00000
     10     -22.6273      1.00000
     11     -22.6103      1.00000
     12     -22.6053      1.00000
     13     -22.5852      1.00000
     14     -22.5489      1.00000
     15     -22.3802      1.00000
     16     -22.3710      1.00000
     17     -22.3412      1.00000
     18     -22.3344      1.00000
     19     -22.2001      1.00000
     20     -22.1532      1.00000
     21     -22.1351      1.00000
     22     -22.1233      1.00000
     23     -22.1161      1.00000
     24     -22.1146      1.00000
     25     -22.0144      1.00000
     26     -21.9990      1.00000
     27     -21.9889      1.00000
     28     -21.9844      1.00000
     29     -21.9799      1.00000
     30     -21.9769      1.00000
     31     -21.9381      1.00000
     32     -21.9333      1.00000
     33     -21.7555      1.00000
     34     -21.7451      1.00000
     35     -21.7160      1.00000
     36     -21.7089      1.00000
     37     -21.6806      1.00000
     38     -21.6162      1.00000
     39     -21.4788      1.00000
     40     -21.4690      1.00000
     41     -21.4139      1.00000
     42     -21.4039      1.00000
     43     -21.3700      1.00000
     44     -21.3622      1.00000
     45     -21.3189      1.00000
     46     -21.3117      1.00000
     47     -21.1274      1.00000
     48     -21.1086      1.00000
     49     -21.0982      1.00000
     50     -21.0973      1.00000
     51     -21.0395      1.00000
     52     -20.9964      1.00000
     53     -20.9850      1.00000
     54     -20.9682      1.00000
     55     -20.9632      1.00000
     56     -20.9559      1.00000
     57     -20.8650      1.00000
     58     -20.8524      1.00000
     59     -20.8334      1.00000
     60     -20.8282      1.00000
     61     -20.7973      1.00000
     62     -20.7879      1.00000
     63     -20.7575      1.00000
     64     -20.7495      1.00000
     65     -20.7368      1.00000
     66     -20.7354      1.00000
     67     -20.7022      1.00000
     68     -20.6999      1.00000
     69     -20.3732      1.00000
     70     -20.3600      1.00000
     71     -20.3182      1.00000
     72     -20.3103      1.00000
     73     -20.2742      1.00000
     74     -20.2287      1.00000
     75     -20.2187      1.00000
     76     -20.1830      1.00000
     77     -20.1500      1.00000
     78     -20.1409      1.00000
     79     -20.0758      1.00000
     80     -20.0668      1.00000
     81     -19.9855      1.00000
     82     -19.9751      1.00000
     83     -19.8728      1.00000
     84     -19.8605      1.00000
     85     -19.8082      1.00000
     86     -19.7974      1.00000
     87     -19.7583      1.00000
     88     -19.7508      1.00000
     89     -19.7366      1.00000
     90     -19.7364      1.00000
     91     -19.6393      1.00000
     92     -19.6293      1.00000
     93     -19.6093      1.00000
     94     -19.6072      1.00000
     95     -19.4828      1.00000
     96     -19.4684      1.00000
     97     -19.4152      1.00000
     98     -19.3890      1.00000
     99     -19.3879      1.00000
    100     -19.3795      1.00000
    101     -19.3763      1.00000
    102     -19.3540      1.00000
    103     -19.3524      1.00000
    104     -19.2917      1.00000
    105     -19.2506      1.00000
    106     -19.2418      1.00000
    107     -19.2015      1.00000
    108     -19.1931      1.00000
    109     -19.1714      1.00000
    110     -19.1658      1.00000
    111     -19.0984      1.00000
    112     -19.0897      1.00000
    113     -19.0290      1.00000
    114     -19.0241      1.00000
    115     -18.9797      1.00000
    116     -18.9761      1.00000
    117     -18.6479      1.00000
    118     -18.6162      1.00000
    119     -18.5743      1.00000
    120     -18.5455      1.00000
    121     -18.5292      1.00000
    122     -18.5191      1.00000
    123     -18.5170      1.00000
    124     -18.5131      1.00000
    125     -18.4863      1.00000
    126     -18.4826      1.00000
    127     -18.4404      1.00000
    128     -18.4328      1.00000
    129     -18.4148      1.00000
    130     -18.3064      1.00000
    131     -18.2455      1.00000
    132     -18.2257      1.00000
    133     -18.1706      1.00000
    134     -18.1644      1.00000
    135     -18.1452      1.00000
    136     -18.1431      1.00000
    137     -18.1232      1.00000
    138     -18.1127      1.00000
    139     -18.0550      1.00000
    140     -18.0448      1.00000
    141     -18.0288      1.00000
    142     -18.0176      1.00000
    143     -17.9700      1.00000
    144     -17.9593      1.00000
    145     -17.9021      1.00000
    146     -17.8896      1.00000
    147     -17.8365      1.00000
    148     -17.8178      1.00000
    149     -17.7971      1.00000
    150     -17.7837      1.00000
    151     -17.7629      1.00000
    152     -17.7596      1.00000
    153     -17.7490      1.00000
    154     -17.7195      1.00000
    155     -17.6970      1.00000
    156     -17.6841      1.00000
    157     -17.6702      1.00000
    158     -17.6268      1.00000
    159     -17.5024      1.00000
    160     -17.4703      1.00000
    161     -17.4530      1.00000
    162     -17.4215      1.00000
    163     -17.3877      1.00000
    164     -17.3656      1.00000
    165     -17.3385      1.00000
    166     -17.3189      1.00000
    167     -17.2875      1.00000
    168     -17.2546      1.00000
    169     -17.2433      1.00000
    170     -17.2133      1.00000
    171     -17.2003      1.00000
    172     -17.1060      1.00000
    173     -17.0600      1.00000
    174     -17.0182      1.00000
    175     -17.0036      1.00000
    176     -16.9630      1.00000
    177     -16.6393      1.00000
    178     -16.5750      1.00000
    179     -16.5349      1.00000
    180     -16.4806      1.00000
    181     -16.4129      1.00000
    182     -16.3613      1.00000
    183     -16.3559      1.00000
    184     -16.3209      1.00000
    185     -16.2827      1.00000
    186     -16.2749      1.00000
    187     -16.2495      1.00000
    188     -16.1952      1.00000
    189     -16.1707      1.00000
    190     -16.1373      1.00000
    191     -16.1026      1.00000
    192     -16.0855      1.00000
    193     -16.0555      1.00000
    194     -16.0155      1.00000
    195     -15.9995      1.00000
    196     -15.8490      1.00000
    197     -15.8345      1.00000
    198     -15.8334      1.00000
    199     -15.7919      1.00000
    200     -15.7450      1.00000
    201     -15.7305      1.00000
    202     -15.7282      1.00000
    203     -15.7244      1.00000
    204     -15.7033      1.00000
    205     -15.6702      1.00000
    206     -15.6522      1.00000
    207     -15.6360      1.00000
    208     -15.6244      1.00000
    209     -15.6112      1.00000
    210     -15.5489      1.00000
    211     -15.5315      1.00000
    212     -15.5205      1.00000
    213     -15.5166      1.00000
    214     -15.4599      1.00000
    215     -15.4421      1.00000
    216     -15.4316      1.00000
    217     -15.4138      1.00000
    218     -15.3726      1.00000
    219     -15.3341      1.00000
    220     -15.3213      1.00000
    221     -15.3148      1.00000
    222     -15.3061      1.00000
    223     -15.2941      1.00000
    224     -15.2740      1.00000
    225     -15.2501      1.00000
    226     -15.2370      1.00000
    227     -15.2259      1.00000
    228     -15.2014      1.00000
    229     -15.1885      1.00000
    230     -15.1489      1.00000
    231     -15.1168      1.00000
    232     -15.0895      1.00000
    233     -15.0589      1.00000
    234     -15.0195      1.00000
    235     -15.0066      1.00000
    236     -14.9648      1.00000
    237     -14.9451      1.00000
    238     -14.9249      1.00000
    239     -14.8507      1.00000
    240     -14.7604      1.00000
    241     -14.6707      1.00000
    242     -14.6652      1.00000
    243     -14.5547      1.00000
    244     -14.3117      1.00000
    245     -14.2989      1.00000
    246     -14.2815      1.00000
    247     -14.2201      1.00000
    248     -14.1836      1.00000
    249     -14.1695      1.00000
    250     -14.1662      1.00000
    251     -14.1611      1.00000
    252     -14.1364      1.00000
    253     -14.0991      1.00000
    254     -14.0663      1.00000
    255     -14.0236      1.00000
    256     -14.0055      1.00000
    257     -13.8753      1.00000
    258     -13.8671      1.00000
    259     -13.8488      1.00000
    260     -13.8269      1.00000
    261     -13.7984      1.00000
    262     -13.7941      1.00000
    263     -13.7875      1.00000
    264     -13.7728      1.00000
    265     -13.7601      1.00000
    266     -13.7548      1.00000
    267     -13.7386      1.00000
    268     -13.6963      1.00000
    269     -13.6782      1.00000
    270     -13.6755      1.00000
    271     -13.6589      1.00000
    272     -13.6399      1.00000
    273     -13.6047      1.00000
    274     -13.5494      1.00000
    275     -13.5236      1.00000
    276     -13.5069      1.00000
    277     -13.4898      1.00000
    278     -13.3607      1.00000
    279     -13.3603      1.00000
    280     -13.3403      1.00000
    281     -13.3273      1.00000
    282     -13.3202      1.00000
    283     -13.3038      1.00000
    284     -13.2194      1.00000
    285     -13.1698      1.00000
    286     -13.1473      1.00000
    287     -13.1416      1.00000
    288     -13.1094      1.00000
    289     -13.1043      1.00000
    290     -13.0910      1.00000
    291     -13.0839      1.00000
    292     -13.0410      1.00000
    293     -13.0196      1.00000
    294     -13.0083      1.00000
    295     -12.9754      1.00000
    296     -12.9518      1.00000
    297     -12.9355      1.00000
    298     -12.9299      1.00000
    299     -12.8618      1.00000
    300     -12.8370      1.00000
    301     -12.8144      1.00000
    302     -12.7510      1.00000
    303     -12.7449      1.00000
    304     -12.7180      1.00000
    305     -12.6398      1.00000
    306     -12.5413      1.00000
    307     -12.4642      1.00000
    308     -12.3843      1.00000
    309     -12.3627      1.00000
    310     -12.2930      1.00000
    311     -12.2895      1.00000
    312     -12.2357      1.00000
    313     -12.2029      1.00000
    314     -12.1871      1.00000
    315     -12.0716      1.00000
    316     -12.0668      1.00000
    317     -12.0642      1.00000
    318     -12.0179      1.00000
    319     -11.9901      1.00000
    320     -11.9762      1.00000
    321     -11.9641      1.00000
    322     -11.9383      1.00000
    323     -11.9213      1.00000
    324     -11.9048      1.00000
    325     -11.8804      1.00000
    326     -11.8605      1.00000
    327     -11.8532      1.00000
    328     -11.8496      1.00000
    329     -11.8160      1.00000
    330     -11.8088      1.00000
    331     -11.8036      1.00000
    332     -11.7952      1.00000
    333     -11.7781      1.00000
    334     -11.7290      1.00000
    335     -11.7162      1.00000
    336     -11.7054      1.00000
    337     -11.6891      1.00000
    338     -11.6848      1.00000
    339     -11.6662      1.00000
    340     -11.6548      1.00000
    341     -11.6461      1.00000
    342     -11.6332      1.00000
    343     -11.5970      1.00000
    344     -11.5848      1.00000
    345     -11.5798      1.00000
    346     -11.5440      1.00000
    347     -11.5404      1.00000
    348     -11.5224      1.00000
    349     -11.5145      1.00000
    350     -11.5026      1.00000
    351     -11.4893      1.00000
    352     -11.4773      1.00000
    353     -11.4705      1.00000
    354     -11.4483      1.00000
    355     -11.4282      1.00000
    356     -11.4124      1.00000
    357     -11.4050      1.00000
    358     -11.3754      1.00000
    359     -11.3618      1.00000
    360     -11.0883      1.00000
    361     -11.0772      1.00000
    362     -11.0674      1.00000
    363     -11.0581      1.00000
    364     -11.0489      1.00000
    365     -11.0101      1.00000
    366     -11.0027      1.00000
    367     -10.9927      1.00000
    368     -10.9616      1.00000
    369     -10.9500      1.00000
    370     -10.9421      1.00000
    371     -10.9323      1.00000
    372     -10.9127      1.00000
    373     -10.9052      1.00000
    374     -10.8423      1.00000
    375     -10.8347      1.00000
    376     -10.8320      1.00000
    377     -10.8195      1.00000
    378     -10.8044      1.00000
    379     -10.7887      1.00000
    380     -10.7531      1.00000
    381     -10.7481      1.00000
    382     -10.7453      1.00000
    383     -10.7281      1.00000
    384     -10.7013      1.00000
    385     -10.6925      1.00000
    386     -10.6888      1.00000
    387     -10.6791      1.00000
    388     -10.6668      1.00000
    389     -10.6657      1.00000
    390     -10.6566      1.00000
    391     -10.6481      1.00000
    392     -10.6464      1.00000
    393     -10.6438      1.00000
    394     -10.6341      1.00000
    395     -10.6183      1.00000
    396     -10.6073      1.00000
    397     -10.5999      1.00000
    398     -10.5916      1.00000
    399     -10.5258      1.00000
    400     -10.5224      1.00000
    401     -10.5072      1.00000
    402     -10.5033      1.00000
    403     -10.5022      1.00000
    404     -10.4646      1.00000
    405     -10.4586      1.00000
    406     -10.4407      1.00000
    407     -10.4362      1.00000
    408     -10.4298      1.00000
    409     -10.4207      1.00000
    410     -10.4013      1.00000
    411     -10.3893      1.00000
    412     -10.3822      1.00000
    413     -10.3591      1.00000
    414     -10.3384      1.00000
    415     -10.3265      1.00000
    416     -10.3240      1.00000
    417     -10.3201      1.00000
    418     -10.3186      1.00000
    419     -10.3160      1.00000
    420     -10.3062      1.00000
    421     -10.2947      1.00000
    422     -10.2615      1.00000
    423     -10.2456      1.00000
    424     -10.2379      1.00000
    425     -10.2179      1.00000
    426     -10.2146      1.00000
    427     -10.2087      1.00000
    428     -10.2032      1.00000
    429     -10.1964      1.00000
    430     -10.1903      1.00000
    431     -10.1879      1.00000
    432     -10.1764      1.00000
    433     -10.1666      1.00000
    434     -10.1485      1.00000
    435     -10.1068      1.00000
    436     -10.0947      1.00000
    437     -10.0864      1.00000
    438     -10.0766      1.00000
    439     -10.0700      1.00000
    440     -10.0539      1.00000
    441     -10.0436      1.00000
    442     -10.0197      1.00000
    443     -10.0099      1.00000
    444     -10.0038      1.00000
    445      -9.9967      1.00000
    446      -9.9892      1.00000
    447      -9.9653      1.00000
    448      -9.9596      1.00000
    449      -9.9536      1.00000
    450      -9.9518      1.00000
    451      -9.9247      1.00000
    452      -9.9238      1.00000
    453      -9.8942      1.00000
    454      -9.8661      1.00000
    455      -9.8597      1.00000
    456      -9.8429      1.00000
    457      -9.8299      1.00000
    458      -9.8223      1.00000
    459      -9.7764      1.00000
    460      -9.7660      1.00000
    461      -9.7624      1.00000
    462      -9.7578      1.00000
    463      -9.7438      1.00000
    464      -9.7288      1.00000
    465      -9.7217      1.00000
    466      -9.7020      1.00000
    467      -9.6908      1.00000
    468      -9.6885      1.00000
    469      -9.6272      1.00000
    470      -9.6176      1.00000
    471      -9.5905      1.00000
    472      -9.5782      1.00000
    473      -9.5756      1.00000
    474      -9.5366      1.00000
    475      -9.5345      1.00000
    476      -9.5342      1.00000
    477      -9.5307      1.00000
    478      -9.5123      1.00000
    479      -9.5053      1.00000
    480      -9.4722      1.00000
    481      -9.4375      1.00000
    482      -9.4241      1.00000
    483      -9.4119      1.00000
    484      -9.4060      1.00000
    485      -9.3932      1.00000
    486      -9.3843      1.00000
    487      -9.3800      1.00000
    488      -9.3702      1.00000
    489      -9.3617      1.00000
    490      -9.3508      1.00000
    491      -9.3490      1.00000
    492      -9.3465      1.00000
    493      -9.3434      1.00000
    494      -9.3407      1.00000
    495      -9.3373      1.00000
    496      -9.3316      1.00000
    497      -9.3185      1.00000
    498      -9.3088      1.00000
    499      -9.2997      1.00000
    500      -9.2818      1.00000
    501      -9.2700      1.00000
    502      -9.2458      1.00000
    503      -9.2368      1.00000
    504      -9.2287      1.00000
    505      -9.2238      1.00000
    506      -9.1891      1.00000
    507      -9.1836      1.00000
    508      -9.1757      1.00000
    509      -9.1587      1.00000
    510      -9.1472      1.00000
    511      -9.1412      1.00000
    512      -9.1030      1.00000
    513      -9.0596      1.00000
    514      -8.9309      1.00000
    515      -8.9044      1.00000
    516      -8.8781      1.00000
    517      -8.8611      1.00000
    518      -8.8498      1.00000
    519      -8.8319      1.00000
    520      -8.8144      1.00000
    521      -8.8031      1.00000
    522      -8.7761      1.00000
    523      -8.7754      1.00000
    524      -8.7703      1.00000
    525      -8.6662      1.00000
    526      -8.6577      1.00000
    527      -8.6342      1.00000
    528      -8.6256      1.00000
    529      -8.6017      1.00000
    530      -8.5894      1.00000
    531      -8.5764      1.00000
    532      -8.5628      1.00000
    533      -8.5434      1.00000
    534      -8.5287      1.00000
    535      -8.5127      1.00000
    536      -8.5062      1.00000
    537      -8.4964      1.00000
    538      -8.4932      1.00000
    539      -8.4659      1.00000
    540      -8.4498      1.00000
    541      -8.4434      1.00000
    542      -8.4295      1.00000
    543      -8.4215      1.00000
    544      -8.4148      1.00000
    545      -8.4109      1.00000
    546      -8.3950      1.00000
    547      -8.3770      1.00000
    548      -8.3626      1.00000
    549      -8.3525      1.00000
    550      -8.3406      1.00000
    551      -8.3373      1.00000
    552      -8.3261      1.00000
    553      -8.3245      1.00000
    554      -8.3184      1.00000
    555      -8.3124      1.00000
    556      -8.3050      1.00000
    557      -8.3002      1.00000
    558      -8.2820      1.00000
    559      -8.2721      1.00000
    560      -8.2691      1.00000
    561      -8.2433      1.00000
    562      -8.2282      1.00000
    563      -8.1967      1.00000
    564      -8.1795      1.00000
    565      -8.1766      1.00000
    566      -8.1620      1.00000
    567      -8.1392      1.00000
    568      -8.1368      1.00000
    569      -8.1238      1.00000
    570      -8.0382      1.00000
    571      -7.9865      1.00000
    572      -7.9688      1.00000
    573      -7.9227      1.00000
    574      -7.9020      1.00000
    575      -7.8689      1.00000
    576      -7.8577      1.00000
    577      -7.8514      1.00000
    578      -7.8263      1.00000
    579      -7.8040      1.00000
    580      -7.7874      1.00000
    581      -7.7832      1.00000
    582      -7.7730      1.00000
    583      -7.7634      1.00000
    584      -7.7289      1.00000
    585      -7.7210      1.00000
    586      -7.7006      1.00000
    587      -7.6923      1.00000
    588      -7.6809      1.00000
    589      -7.6421      1.00000
    590      -7.6298      1.00000
    591      -7.6211      1.00000
    592      -7.6185      1.00000
    593      -7.5857      1.00000
    594      -7.5772      1.00000
    595      -7.5600      1.00000
    596      -7.5514      1.00000
    597      -7.5460      1.00000
    598      -7.5381      1.00000
    599      -7.5322      1.00000
    600      -7.5152      1.00000
    601      -7.4954      1.00000
    602      -7.4900      1.00000
    603      -7.4821      1.00000
    604      -7.4488      1.00000
    605      -7.4084      1.00000
    606      -7.3847      1.00000
    607      -7.3466      1.00000
    608      -7.3305      1.00000
    609      -7.2799      1.00000
    610      -7.2333      1.00000
    611      -7.2325      1.00000
    612      -7.2072      1.00000
    613      -7.1973      1.00000
    614      -7.1943      1.00000
    615      -7.1898      1.00000
    616      -7.1826      1.00000
    617      -7.1527      1.00000
    618      -7.1360      1.00000
    619      -7.1097      1.00000
    620      -7.0942      1.00000
    621      -7.0928      1.00000
    622      -7.0294      1.00000
    623      -7.0156      1.00000
    624      -7.0113      1.00000
    625      -6.9935      1.00000
    626      -6.9770      1.00000
    627      -6.9663      1.00000
    628      -6.9627      1.00000
    629      -6.9576      1.00000
    630      -6.9498      1.00000
    631      -6.9442      1.00000
    632      -6.9227      1.00000
    633      -6.8903      1.00000
    634      -6.8815      1.00000
    635      -6.8158      1.00000
    636      -6.8022      1.00000
    637      -6.7689      1.00000
    638      -6.7562      1.00000
    639      -6.7279      1.00000
    640      -6.7201      1.00000
    641      -6.7094      1.00000
    642      -6.7007      1.00000
    643      -6.6826      1.00000
    644      -6.6775      1.00000
    645      -6.6650      1.00000
    646      -6.6599      1.00000
    647      -6.6496      1.00000
    648      -6.6403      1.00000
    649      -6.6310      1.00000
    650      -6.6275      1.00000
    651      -6.6205      1.00000
    652      -6.6069      1.00000
    653      -6.6022      1.00000
    654      -6.5874      1.00000
    655      -6.5627      1.00000
    656      -6.4663      1.00000
    657      -6.4406      1.00000
    658      -6.4078      1.00000
    659      -6.3198      1.00000
    660      -6.2814      1.00000
    661      -6.2671      1.00000
    662      -6.2550      1.00000
    663      -6.2274      1.00000
    664      -6.2076      1.00000
    665      -6.1823      1.00000
    666      -6.1329      1.00000
    667      -6.1102      1.00000
    668      -6.0871      1.00000
    669      -6.0497      1.00000
    670      -5.9884      1.00000
    671      -5.9832      1.00000
    672      -5.9224      1.00000
    673      -5.8999      1.00000
    674      -5.8462      1.00000
    675      -5.8136      1.00000
    676      -5.7929      1.00000
    677      -5.7899      1.00000
    678      -5.7698      1.00000
    679      -5.7349      1.00000
    680      -5.7219      1.00000
    681      -5.7144      1.00000
    682      -5.6368      1.00000
    683      -5.6089      1.00000
    684      -5.5947      1.00000
    685      -5.5879      1.00000
    686      -5.5826      1.00000
    687      -5.5679      1.00000
    688      -5.5592      1.00000
    689      -5.5519      1.00000
    690      -5.5260      1.00000
    691      -5.5195      1.00000
    692      -5.4947      1.00000
    693      -5.4801      1.00000
    694      -5.4757      1.00000
    695      -5.4332      1.00000
    696      -5.4184      1.00000
    697      -5.3882      1.00000
    698      -5.3765      1.00000
    699      -5.3378      1.00000
    700      -5.2990      1.00000
    701      -5.2529      1.00000
    702      -5.2260      1.00000
    703      -5.1984      1.00000
    704      -5.1551      1.00000
    705      -5.1458      1.00000
    706      -5.1226      1.00000
    707      -5.0765      1.00000
    708      -5.0558      1.00000
    709      -4.9979      1.00000
    710      -4.9364      1.00000
    711      -4.8709      1.00000
    712      -4.8456      1.00000
    713      -4.8373      1.00000
    714      -4.8128      1.00000
    715      -4.7938      1.00000
    716      -4.7430      1.00000
    717      -4.7335      1.00000
    718      -4.6995      1.00000
    719      -4.6604      1.00000
    720      -4.5020      1.00000
    721      -4.3538      1.00000
    722      -4.2993      1.00000
    723      -4.2459      1.00000
    724      -4.2149      1.00000
    725      -4.1596      1.00000
    726      -4.1398      1.00000
    727      -4.0481      1.00000
    728      -3.9232      1.00000
    729      -3.8367      1.00000
    730      -3.7438      1.00000
    731      -3.6624      1.00000
    732      -2.6895      0.00000
    733      -2.5703      0.00000
    734      -2.5334      0.00000
    735      -2.4595      0.00000
    736      -2.3728      0.00000
    737      -2.2468      0.00000
    738      -2.2314      0.00000
    739      -2.0801      0.00000
    740      -2.0569      0.00000
    741      -2.0265      0.00000
    742      -1.9302      0.00000
    743      -1.9016      0.00000
    744      -1.8746      0.00000
    745      -1.8698      0.00000
    746      -1.8643      0.00000
    747      -1.8543      0.00000
    748      -1.8328      0.00000
    749      -1.8208      0.00000
    750      -1.8114      0.00000
    751      -1.8063      0.00000
    752      -1.7402      0.00000
    753      -1.7298      0.00000
    754      -1.7249      0.00000
    755      -1.7179      0.00000
    756      -1.7150      0.00000
    757      -1.6824      0.00000
    758      -1.6661      0.00000
    759      -1.6489      0.00000
    760      -1.6306      0.00000
    761      -1.6207      0.00000
    762      -1.6035      0.00000
    763      -1.5705      0.00000
    764      -1.5545      0.00000
    765      -1.4467      0.00000
    766      -1.4229      0.00000
    767      -1.3714      0.00000
    768      -1.3556      0.00000
    769      -1.3497      0.00000
    770      -1.3337      0.00000
    771      -1.3294      0.00000
    772      -1.3192      0.00000
    773      -1.3170      0.00000
    774      -1.2998      0.00000
    775      -1.2814      0.00000
    776      -1.2635      0.00000
    777      -1.2598      0.00000
    778      -1.2589      0.00000
    779      -1.2567      0.00000
    780      -1.2522      0.00000
    781      -1.2490      0.00000
    782      -1.2371      0.00000
    783      -1.2158      0.00000
    784      -1.1691      0.00000
    785      -1.1534      0.00000
    786      -1.1212      0.00000
    787      -1.0689      0.00000
    788      -0.9820      0.00000
    789      -0.9761      0.00000
    790      -0.8952      0.00000
    791      -0.8731      0.00000
    792      -0.7477      0.00000
    793      -0.7154      0.00000
    794      -0.6487      0.00000
    795      -0.6287      0.00000
    796      -0.6043      0.00000
    797      -0.5675      0.00000
    798      -0.4643      0.00000
    799      -0.4107      0.00000
    800      -0.3799      0.00000
    801      -0.3358      0.00000
    802      -0.3009      0.00000
    803      -0.2682      0.00000
    804      -0.2562      0.00000
    805      -0.1942      0.00000
    806      -0.1694      0.00000
    807      -0.1332      0.00000
    808      -0.1213      0.00000
    809      -0.1114      0.00000
    810      -0.0947      0.00000
    811      -0.0484      0.00000
    812      -0.0329      0.00000
    813      -0.0014      0.00000
    814       0.0155      0.00000
    815       0.0458      0.00000
    816       0.0731      0.00000
    817       0.0838      0.00000
    818       0.1073      0.00000
    819       0.2181      0.00000
    820       0.2818      0.00000
    821       0.2940      0.00000
    822       0.3659      0.00000
    823       0.3894      0.00000
    824       0.4123      0.00000
    825       0.4206      0.00000
    826       0.4340      0.00000
    827       0.4388      0.00000
    828       0.4651      0.00000
    829       0.4804      0.00000
    830       0.5104      0.00000
    831       0.5398      0.00000
    832       0.5439      0.00000
    833       0.5456      0.00000
    834       0.5562      0.00000
    835       0.5778      0.00000
    836       0.5819      0.00000
    837       0.5830      0.00000
    838       0.5872      0.00000
    839       0.5977      0.00000
    840       0.6050      0.00000
    841       0.6330      0.00000
    842       0.6430      0.00000
    843       0.6739      0.00000
    844       0.7138      0.00000
    845       0.7281      0.00000
    846       0.7441      0.00000
    847       0.7478      0.00000
    848       0.7568      0.00000
    849       0.7651      0.00000
    850       0.7864      0.00000
    851       0.8578      0.00000
    852       0.8626      0.00000
    853       0.8736      0.00000
    854       0.9116      0.00000
    855       0.9251      0.00000
    856       0.9384      0.00000
    857       0.9600      0.00000
    858       0.9660      0.00000
    859       0.9759      0.00000
    860       0.9828      0.00000
    861       0.9935      0.00000
    862       1.0329      0.00000
    863       1.0618      0.00000
    864       1.0658      0.00000
    865       1.1034      0.00000
    866       1.1106      0.00000
    867       1.1136      0.00000
    868       1.1290      0.00000
    869       1.1429      0.00000
    870       1.1525      0.00000
    871       1.1592      0.00000
    872       1.2287      0.00000
    873       1.2347      0.00000
    874       1.2477      0.00000
    875       1.2815      0.00000
    876       1.2986      0.00000
    877       1.3795      0.00000
    878       1.3844      0.00000
    879       1.3954      0.00000
    880       1.4087      0.00000
    881       1.4116      0.00000
    882       1.4163      0.00000
    883       1.4186      0.00000
    884       1.4247      0.00000
    885       1.4353      0.00000
    886       1.4495      0.00000
    887       1.4585      0.00000
    888       1.4778      0.00000
    889       1.4803      0.00000
    890       1.4920      0.00000
    891       1.5148      0.00000
    892       1.5359      0.00000
    893       1.5531      0.00000
    894       1.5807      0.00000
    895       1.5928      0.00000
    896       1.6001      0.00000

 k-point    10 :       0.0000    0.0000   -0.5000
  band No.  band energies     occupation 
      1     -22.9729      1.00000
      2     -22.9595      1.00000
      3     -22.8389      1.00000
      4     -22.8286      1.00000
      5     -22.7668      1.00000
      6     -22.7507      1.00000
      7     -22.7466      1.00000
      8     -22.7461      1.00000
      9     -22.6317      1.00000
     10     -22.6172      1.00000
     11     -22.6159      1.00000
     12     -22.6158      1.00000
     13     -22.5694      1.00000
     14     -22.5653      1.00000
     15     -22.3683      1.00000
     16     -22.3535      1.00000
     17     -22.3534      1.00000
     18     -22.3524      1.00000
     19     -22.1802      1.00000
     20     -22.1706      1.00000
     21     -22.1376      1.00000
     22     -22.1215      1.00000
     23     -22.1169      1.00000
     24     -22.1168      1.00000
     25     -22.0092      1.00000
     26     -21.9891      1.00000
     27     -21.9875      1.00000
     28     -21.9874      1.00000
     29     -21.9656      1.00000
     30     -21.9599      1.00000
     31     -21.9597      1.00000
     32     -21.9580      1.00000
     33     -21.7445      1.00000
     34     -21.7281      1.00000
     35     -21.7273      1.00000
     36     -21.7261      1.00000
     37     -21.6507      1.00000
     38     -21.6467      1.00000
     39     -21.4545      1.00000
     40     -21.4379      1.00000
     41     -21.4378      1.00000
     42     -21.4355      1.00000
     43     -21.3530      1.00000
     44     -21.3389      1.00000
     45     -21.3373      1.00000
     46     -21.3353      1.00000
     47     -21.1270      1.00000
     48     -21.1075      1.00000
     49     -21.0988      1.00000
     50     -21.0988      1.00000
     51     -21.0110      1.00000
     52     -20.9969      1.00000
     53     -20.9819      1.00000
     54     -20.9765      1.00000
     55     -20.9721      1.00000
     56     -20.9711      1.00000
     57     -20.8440      1.00000
     58     -20.8225      1.00000
     59     -20.8209      1.00000
     60     -20.8180      1.00000
     61     -20.7967      1.00000
     62     -20.7903      1.00000
     63     -20.7900      1.00000
     64     -20.7879      1.00000
     65     -20.7275      1.00000
     66     -20.7182      1.00000
     67     -20.7179      1.00000
     68     -20.7141      1.00000
     69     -20.3596      1.00000
     70     -20.3374      1.00000
     71     -20.3339      1.00000
     72     -20.3305      1.00000
     73     -20.2361      1.00000
     74     -20.2246      1.00000
     75     -20.1953      1.00000
     76     -20.1820      1.00000
     77     -20.1812      1.00000
     78     -20.1778      1.00000
     79     -20.0405      1.00000
     80     -20.0218      1.00000
     81     -20.0212      1.00000
     82     -20.0204      1.00000
     83     -19.8553      1.00000
     84     -19.8322      1.00000
     85     -19.8272      1.00000
     86     -19.8236      1.00000
     87     -19.7596      1.00000
     88     -19.7501      1.00000
     89     -19.7375      1.00000
     90     -19.7372      1.00000
     91     -19.6358      1.00000
     92     -19.6223      1.00000
     93     -19.6146      1.00000
     94     -19.6130      1.00000
     95     -19.4554      1.00000
     96     -19.4246      1.00000
     97     -19.4246      1.00000
     98     -19.4216      1.00000
     99     -19.3837      1.00000
    100     -19.3727      1.00000
    101     -19.3681      1.00000
    102     -19.3646      1.00000
    103     -19.3432      1.00000
    104     -19.3394      1.00000
    105     -19.2259      1.00000
    106     -19.2080      1.00000
    107     -19.2024      1.00000
    108     -19.1987      1.00000
    109     -19.1549      1.00000
    110     -19.1423      1.00000
    111     -19.1417      1.00000
    112     -19.1401      1.00000
    113     -19.0144      1.00000
    114     -19.0016      1.00000
    115     -19.0001      1.00000
    116     -18.9944      1.00000
    117     -18.6270      1.00000
    118     -18.5685      1.00000
    119     -18.5682      1.00000
    120     -18.5627      1.00000
    121     -18.5316      1.00000
    122     -18.5159      1.00000
    123     -18.5143      1.00000
    124     -18.5075      1.00000
    125     -18.4862      1.00000
    126     -18.4776      1.00000
    127     -18.4738      1.00000
    128     -18.4704      1.00000
    129     -18.3670      1.00000
    130     -18.3546      1.00000
    131     -18.2186      1.00000
    132     -18.1738      1.00000
    133     -18.1710      1.00000
    134     -18.1667      1.00000
    135     -18.1626      1.00000
    136     -18.1500      1.00000
    137     -18.1446      1.00000
    138     -18.1438      1.00000
    139     -18.0504      1.00000
    140     -18.0460      1.00000
    141     -18.0278      1.00000
    142     -18.0237      1.00000
    143     -17.9521      1.00000
    144     -17.9273      1.00000
    145     -17.9218      1.00000
    146     -17.9188      1.00000
    147     -17.8282      1.00000
    148     -17.8183      1.00000
    149     -17.7968      1.00000
    150     -17.7851      1.00000
    151     -17.7543      1.00000
    152     -17.7281      1.00000
    153     -17.7220      1.00000
    154     -17.7138      1.00000
    155     -17.7071      1.00000
    156     -17.7048      1.00000
    157     -17.6757      1.00000
    158     -17.6658      1.00000
    159     -17.4853      1.00000
    160     -17.4788      1.00000
    161     -17.4477      1.00000
    162     -17.4334      1.00000
    163     -17.3782      1.00000
    164     -17.3463      1.00000
    165     -17.3231      1.00000
    166     -17.3019      1.00000
    167     -17.2888      1.00000
    168     -17.2759      1.00000
    169     -17.2456      1.00000
    170     -17.2348      1.00000
    171     -17.1656      1.00000
    172     -17.1501      1.00000
    173     -17.0354      1.00000
    174     -17.0315      1.00000
    175     -16.9955      1.00000
    176     -16.9835      1.00000
    177     -16.6373      1.00000
    178     -16.5728      1.00000
    179     -16.5165      1.00000
    180     -16.4965      1.00000
    181     -16.4060      1.00000
    182     -16.3263      1.00000
    183     -16.3228      1.00000
    184     -16.3211      1.00000
    185     -16.3162      1.00000
    186     -16.3151      1.00000
    187     -16.2198      1.00000
    188     -16.1994      1.00000
    189     -16.1686      1.00000
    190     -16.1452      1.00000
    191     -16.1277      1.00000
    192     -16.0595      1.00000
    193     -16.0482      1.00000
    194     -16.0326      1.00000
    195     -16.0261      1.00000
    196     -15.8486      1.00000
    197     -15.8344      1.00000
    198     -15.8342      1.00000
    199     -15.7916      1.00000
    200     -15.7400      1.00000
    201     -15.7304      1.00000
    202     -15.7295      1.00000
    203     -15.6804      1.00000
    204     -15.6802      1.00000
    205     -15.6765      1.00000
    206     -15.6728      1.00000
    207     -15.6491      1.00000
    208     -15.6483      1.00000
    209     -15.6279      1.00000
    210     -15.5405      1.00000
    211     -15.5309      1.00000
    212     -15.5281      1.00000
    213     -15.4849      1.00000
    214     -15.4837      1.00000
    215     -15.4448      1.00000
    216     -15.3765      1.00000
    217     -15.3721      1.00000
    218     -15.3663      1.00000
    219     -15.3641      1.00000
    220     -15.3618      1.00000
    221     -15.3373      1.00000
    222     -15.3188      1.00000
    223     -15.2778      1.00000
    224     -15.2454      1.00000
    225     -15.2371      1.00000
    226     -15.2368      1.00000
    227     -15.2013      1.00000
    228     -15.1933      1.00000
    229     -15.1737      1.00000
    230     -15.1674      1.00000
    231     -15.1443      1.00000
    232     -15.1334      1.00000
    233     -15.0772      1.00000
    234     -15.0022      1.00000
    235     -14.9756      1.00000
    236     -14.9721      1.00000
    237     -14.9665      1.00000
    238     -14.9437      1.00000
    239     -14.8510      1.00000
    240     -14.7214      1.00000
    241     -14.7084      1.00000
    242     -14.6201      1.00000
    243     -14.6023      1.00000
    244     -14.2498      1.00000
    245     -14.2457      1.00000
    246     -14.2393      1.00000
    247     -14.2314      1.00000
    248     -14.2243      1.00000
    249     -14.2166      1.00000
    250     -14.1645      1.00000
    251     -14.1545      1.00000
    252     -14.1190      1.00000
    253     -14.1153      1.00000
    254     -14.0824      1.00000
    255     -14.0755      1.00000
    256     -13.9418      1.00000
    257     -13.9371      1.00000
    258     -13.8471      1.00000
    259     -13.8140      1.00000
    260     -13.8127      1.00000
    261     -13.8107      1.00000
    262     -13.8105      1.00000
    263     -13.7964      1.00000
    264     -13.7898      1.00000
    265     -13.7721      1.00000
    266     -13.7563      1.00000
    267     -13.7400      1.00000
    268     -13.6943      1.00000
    269     -13.6792      1.00000
    270     -13.6752      1.00000
    271     -13.6589      1.00000
    272     -13.6287      1.00000
    273     -13.6201      1.00000
    274     -13.5317      1.00000
    275     -13.5250      1.00000
    276     -13.5188      1.00000
    277     -13.4957      1.00000
    278     -13.3555      1.00000
    279     -13.3500      1.00000
    280     -13.3450      1.00000
    281     -13.3327      1.00000
    282     -13.3207      1.00000
    283     -13.3087      1.00000
    284     -13.1650      1.00000
    285     -13.1638      1.00000
    286     -13.1206      1.00000
    287     -13.1128      1.00000
    288     -13.1064      1.00000
    289     -13.1032      1.00000
    290     -13.0834      1.00000
    291     -13.0802      1.00000
    292     -13.0428      1.00000
    293     -13.0370      1.00000
    294     -13.0227      1.00000
    295     -13.0177      1.00000
    296     -12.9784      1.00000
    297     -12.9666      1.00000
    298     -12.8736      1.00000
    299     -12.8717      1.00000
    300     -12.8050      1.00000
    301     -12.8021      1.00000
    302     -12.7788      1.00000
    303     -12.7752      1.00000
    304     -12.6968      1.00000
    305     -12.6949      1.00000
    306     -12.5059      1.00000
    307     -12.5000      1.00000
    308     -12.3757      1.00000
    309     -12.3725      1.00000
    310     -12.2667      1.00000
    311     -12.2646      1.00000
    312     -12.2500      1.00000
    313     -12.2430      1.00000
    314     -12.1285      1.00000
    315     -12.1275      1.00000
    316     -12.0449      1.00000
    317     -12.0412      1.00000
    318     -12.0168      1.00000
    319     -12.0139      1.00000
    320     -11.9536      1.00000
    321     -11.9430      1.00000
    322     -11.9212      1.00000
    323     -11.9186      1.00000
    324     -11.8938      1.00000
    325     -11.8926      1.00000
    326     -11.8747      1.00000
    327     -11.8719      1.00000
    328     -11.8258      1.00000
    329     -11.8243      1.00000
    330     -11.7956      1.00000
    331     -11.7910      1.00000
    332     -11.7612      1.00000
    333     -11.7584      1.00000
    334     -11.7524      1.00000
    335     -11.7521      1.00000
    336     -11.7204      1.00000
    337     -11.7153      1.00000
    338     -11.7019      1.00000
    339     -11.6856      1.00000
    340     -11.6471      1.00000
    341     -11.6335      1.00000
    342     -11.6049      1.00000
    343     -11.6036      1.00000
    344     -11.5960      1.00000
    345     -11.5854      1.00000
    346     -11.5515      1.00000
    347     -11.5503      1.00000
    348     -11.5208      1.00000
    349     -11.5166      1.00000
    350     -11.5093      1.00000
    351     -11.5030      1.00000
    352     -11.4392      1.00000
    353     -11.4351      1.00000
    354     -11.4249      1.00000
    355     -11.4211      1.00000
    356     -11.4200      1.00000
    357     -11.4190      1.00000
    358     -11.4115      1.00000
    359     -11.4069      1.00000
    360     -11.0749      1.00000
    361     -11.0691      1.00000
    362     -11.0318      1.00000
    363     -11.0287      1.00000
    364     -11.0169      1.00000
    365     -11.0148      1.00000
    366     -11.0051      1.00000
    367     -11.0035      1.00000
    368     -10.9777      1.00000
    369     -10.9750      1.00000
    370     -10.9579      1.00000
    371     -10.9568      1.00000
    372     -10.9228      1.00000
    373     -10.9157      1.00000
    374     -10.8401      1.00000
    375     -10.8343      1.00000
    376     -10.8335      1.00000
    377     -10.8202      1.00000
    378     -10.7539      1.00000
    379     -10.7518      1.00000
    380     -10.7437      1.00000
    381     -10.7429      1.00000
    382     -10.7311      1.00000
    383     -10.7228      1.00000
    384     -10.7032      1.00000
    385     -10.6968      1.00000
    386     -10.6893      1.00000
    387     -10.6861      1.00000
    388     -10.6848      1.00000
    389     -10.6742      1.00000
    390     -10.6710      1.00000
    391     -10.6644      1.00000
    392     -10.6567      1.00000
    393     -10.6507      1.00000
    394     -10.6214      1.00000
    395     -10.6087      1.00000
    396     -10.5851      1.00000
    397     -10.5839      1.00000
    398     -10.5580      1.00000
    399     -10.5543      1.00000
    400     -10.5519      1.00000
    401     -10.5510      1.00000
    402     -10.4985      1.00000
    403     -10.4889      1.00000
    404     -10.4759      1.00000
    405     -10.4749      1.00000
    406     -10.4463      1.00000
    407     -10.4401      1.00000
    408     -10.4107      1.00000
    409     -10.3996      1.00000
    410     -10.3896      1.00000
    411     -10.3788      1.00000
    412     -10.3739      1.00000
    413     -10.3706      1.00000
    414     -10.3568      1.00000
    415     -10.3536      1.00000
    416     -10.3368      1.00000
    417     -10.3256      1.00000
    418     -10.3195      1.00000
    419     -10.3184      1.00000
    420     -10.3051      1.00000
    421     -10.2967      1.00000
    422     -10.2596      1.00000
    423     -10.2470      1.00000
    424     -10.2316      1.00000
    425     -10.2237      1.00000
    426     -10.2092      1.00000
    427     -10.2038      1.00000
    428     -10.1930      1.00000
    429     -10.1895      1.00000
    430     -10.1851      1.00000
    431     -10.1786      1.00000
    432     -10.1769      1.00000
    433     -10.1652      1.00000
    434     -10.1500      1.00000
    435     -10.1467      1.00000
    436     -10.0852      1.00000
    437     -10.0734      1.00000
    438     -10.0722      1.00000
    439     -10.0568      1.00000
    440     -10.0412      1.00000
    441     -10.0412      1.00000
    442     -10.0362      1.00000
    443     -10.0236      1.00000
    444      -9.9902      1.00000
    445      -9.9830      1.00000
    446      -9.9806      1.00000
    447      -9.9690      1.00000
    448      -9.9621      1.00000
    449      -9.9607      1.00000
    450      -9.9468      1.00000
    451      -9.9321      1.00000
    452      -9.9114      1.00000
    453      -9.9071      1.00000
    454      -9.8622      1.00000
    455      -9.8593      1.00000
    456      -9.8575      1.00000
    457      -9.8465      1.00000
    458      -9.7972      1.00000
    459      -9.7916      1.00000
    460      -9.7590      1.00000
    461      -9.7505      1.00000
    462      -9.7442      1.00000
    463      -9.7344      1.00000
    464      -9.7244      1.00000
    465      -9.7243      1.00000
    466      -9.7089      1.00000
    467      -9.7006      1.00000
    468      -9.6756      1.00000
    469      -9.6746      1.00000
    470      -9.6118      1.00000
    471      -9.6019      1.00000
    472      -9.5633      1.00000
    473      -9.5484      1.00000
    474      -9.5417      1.00000
    475      -9.5398      1.00000
    476      -9.5326      1.00000
    477      -9.5316      1.00000
    478      -9.5308      1.00000
    479      -9.5155      1.00000
    480      -9.4422      1.00000
    481      -9.4407      1.00000
    482      -9.4167      1.00000
    483      -9.4075      1.00000
    484      -9.4005      1.00000
    485      -9.3938      1.00000
    486      -9.3814      1.00000
    487      -9.3718      1.00000
    488      -9.3643      1.00000
    489      -9.3590      1.00000
    490      -9.3510      1.00000
    491      -9.3503      1.00000
    492      -9.3453      1.00000
    493      -9.3442      1.00000
    494      -9.3429      1.00000
    495      -9.3402      1.00000
    496      -9.3247      1.00000
    497      -9.3219      1.00000
    498      -9.3166      1.00000
    499      -9.3011      1.00000
    500      -9.2973      1.00000
    501      -9.2791      1.00000
    502      -9.2599      1.00000
    503      -9.2509      1.00000
    504      -9.2082      1.00000
    505      -9.2063      1.00000
    506      -9.1873      1.00000
    507      -9.1824      1.00000
    508      -9.1784      1.00000
    509      -9.1775      1.00000
    510      -9.1522      1.00000
    511      -9.1513      1.00000
    512      -9.0912      1.00000
    513      -9.0705      1.00000
    514      -8.9301      1.00000
    515      -8.8746      1.00000
    516      -8.8680      1.00000
    517      -8.8672      1.00000
    518      -8.8596      1.00000
    519      -8.8526      1.00000
    520      -8.8150      1.00000
    521      -8.8032      1.00000
    522      -8.7759      1.00000
    523      -8.7702      1.00000
    524      -8.7164      1.00000
    525      -8.7127      1.00000
    526      -8.6606      1.00000
    527      -8.6333      1.00000
    528      -8.6212      1.00000
    529      -8.5920      1.00000
    530      -8.5880      1.00000
    531      -8.5841      1.00000
    532      -8.5640      1.00000
    533      -8.5335      1.00000
    534      -8.5289      1.00000
    535      -8.5279      1.00000
    536      -8.5094      1.00000
    537      -8.5016      1.00000
    538      -8.4836      1.00000
    539      -8.4799      1.00000
    540      -8.4483      1.00000
    541      -8.4409      1.00000
    542      -8.4248      1.00000
    543      -8.4218      1.00000
    544      -8.4179      1.00000
    545      -8.4142      1.00000
    546      -8.3921      1.00000
    547      -8.3473      1.00000
    548      -8.3395      1.00000
    549      -8.3394      1.00000
    550      -8.3337      1.00000
    551      -8.3299      1.00000
    552      -8.3259      1.00000
    553      -8.3218      1.00000
    554      -8.3203      1.00000
    555      -8.3133      1.00000
    556      -8.3081      1.00000
    557      -8.3037      1.00000
    558      -8.2944      1.00000
    559      -8.2890      1.00000
    560      -8.2806      1.00000
    561      -8.2740      1.00000
    562      -8.2234      1.00000
    563      -8.2158      1.00000
    564      -8.1703      1.00000
    565      -8.1673      1.00000
    566      -8.1511      1.00000
    567      -8.1508      1.00000
    568      -8.1426      1.00000
    569      -8.1413      1.00000
    570      -8.0142      1.00000
    571      -8.0104      1.00000
    572      -7.9392      1.00000
    573      -7.9337      1.00000
    574      -7.9105      1.00000
    575      -7.8468      1.00000
    576      -7.8384      1.00000
    577      -7.8205      1.00000
    578      -7.8183      1.00000
    579      -7.8176      1.00000
    580      -7.8131      1.00000
    581      -7.8088      1.00000
    582      -7.7724      1.00000
    583      -7.7565      1.00000
    584      -7.7425      1.00000
    585      -7.7373      1.00000
    586      -7.6729      1.00000
    587      -7.6588      1.00000
    588      -7.6556      1.00000
    589      -7.6479      1.00000
    590      -7.6360      1.00000
    591      -7.6321      1.00000
    592      -7.6000      1.00000
    593      -7.5901      1.00000
    594      -7.5834      1.00000
    595      -7.5825      1.00000
    596      -7.5636      1.00000
    597      -7.5538      1.00000
    598      -7.5280      1.00000
    599      -7.5277      1.00000
    600      -7.5138      1.00000
    601      -7.5066      1.00000
    602      -7.5047      1.00000
    603      -7.4975      1.00000
    604      -7.4334      1.00000
    605      -7.4234      1.00000
    606      -7.3716      1.00000
    607      -7.3583      1.00000
    608      -7.3304      1.00000
    609      -7.2722      1.00000
    610      -7.2190      1.00000
    611      -7.2182      1.00000
    612      -7.2117      1.00000
    613      -7.2113      1.00000
    614      -7.1933      1.00000
    615      -7.1920      1.00000
    616      -7.1714      1.00000
    617      -7.1607      1.00000
    618      -7.1568      1.00000
    619      -7.1095      1.00000
    620      -7.0943      1.00000
    621      -7.0941      1.00000
    622      -7.0132      1.00000
    623      -7.0118      1.00000
    624      -7.0011      1.00000
    625      -6.9967      1.00000
    626      -6.9786      1.00000
    627      -6.9730      1.00000
    628      -6.9536      1.00000
    629      -6.9512      1.00000
    630      -6.9320      1.00000
    631      -6.9270      1.00000
    632      -6.9220      1.00000
    633      -6.9196      1.00000
    634      -6.8717      1.00000
    635      -6.8663      1.00000
    636      -6.7699      1.00000
    637      -6.7673      1.00000
    638      -6.7513      1.00000
    639      -6.7419      1.00000
    640      -6.6934      1.00000
    641      -6.6910      1.00000
    642      -6.6845      1.00000
    643      -6.6805      1.00000
    644      -6.6771      1.00000
    645      -6.6767      1.00000
    646      -6.6599      1.00000
    647      -6.6570      1.00000
    648      -6.6441      1.00000
    649      -6.6304      1.00000
    650      -6.6262      1.00000
    651      -6.6241      1.00000
    652      -6.6198      1.00000
    653      -6.6151      1.00000
    654      -6.5978      1.00000
    655      -6.5882      1.00000
    656      -6.4642      1.00000
    657      -6.4421      1.00000
    658      -6.4059      1.00000
    659      -6.3049      1.00000
    660      -6.2819      1.00000
    661      -6.2813      1.00000
    662      -6.2436      1.00000
    663      -6.2367      1.00000
    664      -6.1794      1.00000
    665      -6.1668      1.00000
    666      -6.1390      1.00000
    667      -6.1370      1.00000
    668      -6.0970      1.00000
    669      -6.0343      1.00000
    670      -6.0018      1.00000
    671      -5.9692      1.00000
    672      -5.9390      1.00000
    673      -5.8600      1.00000
    674      -5.8364      1.00000
    675      -5.8174      1.00000
    676      -5.7993      1.00000
    677      -5.7826      1.00000
    678      -5.7617      1.00000
    679      -5.7601      1.00000
    680      -5.7339      1.00000
    681      -5.6870      1.00000
    682      -5.6752      1.00000
    683      -5.6121      1.00000
    684      -5.5925      1.00000
    685      -5.5827      1.00000
    686      -5.5715      1.00000
    687      -5.5695      1.00000
    688      -5.5661      1.00000
    689      -5.5636      1.00000
    690      -5.5241      1.00000
    691      -5.5147      1.00000
    692      -5.4980      1.00000
    693      -5.4815      1.00000
    694      -5.4530      1.00000
    695      -5.4406      1.00000
    696      -5.4318      1.00000
    697      -5.3900      1.00000
    698      -5.3594      1.00000
    699      -5.3545      1.00000
    700      -5.2971      1.00000
    701      -5.2379      1.00000
    702      -5.2218      1.00000
    703      -5.2194      1.00000
    704      -5.1545      1.00000
    705      -5.1450      1.00000
    706      -5.1189      1.00000
    707      -5.0811      1.00000
    708      -5.0335      1.00000
    709      -5.0182      1.00000
    710      -4.9349      1.00000
    711      -4.8620      1.00000
    712      -4.8336      1.00000
    713      -4.8196      1.00000
    714      -4.8001      1.00000
    715      -4.7927      1.00000
    716      -4.7509      1.00000
    717      -4.7422      1.00000
    718      -4.7299      1.00000
    719      -4.6646      1.00000
    720      -4.5023      1.00000
    721      -4.3504      1.00000
    722      -4.2978      1.00000
    723      -4.2416      1.00000
    724      -4.2216      1.00000
    725      -4.1496      1.00000
    726      -4.1486      1.00000
    727      -4.0496      1.00000
    728      -3.8950      1.00000
    729      -3.8630      1.00000
    730      -3.7366      1.00000
    731      -3.6681      1.00000
    732      -2.6864      0.00000
    733      -2.5735      0.00000
    734      -2.5087      0.00000
    735      -2.4862      0.00000
    736      -2.3737      0.00000
    737      -2.2441      0.00000
    738      -2.2364      0.00000
    739      -2.0633      0.00000
    740      -2.0583      0.00000
    741      -2.0389      0.00000
    742      -1.9328      0.00000
    743      -1.8876      0.00000
    744      -1.8810      0.00000
    745      -1.8571      0.00000
    746      -1.8549      0.00000
    747      -1.8505      0.00000
    748      -1.8502      0.00000
    749      -1.8305      0.00000
    750      -1.8245      0.00000
    751      -1.7711      0.00000
    752      -1.7670      0.00000
    753      -1.7314      0.00000
    754      -1.7269      0.00000
    755      -1.7036      0.00000
    756      -1.6969      0.00000
    757      -1.6754      0.00000
    758      -1.6738      0.00000
    759      -1.6501      0.00000
    760      -1.6490      0.00000
    761      -1.6411      0.00000
    762      -1.5834      0.00000
    763      -1.5766      0.00000
    764      -1.5730      0.00000
    765      -1.4447      0.00000
    766      -1.4243      0.00000
    767      -1.3662      0.00000
    768      -1.3591      0.00000
    769      -1.3503      0.00000
    770      -1.3266      0.00000
    771      -1.3012      0.00000
    772      -1.2943      0.00000
    773      -1.2923      0.00000
    774      -1.2901      0.00000
    775      -1.2862      0.00000
    776      -1.2801      0.00000
    777      -1.2788      0.00000
    778      -1.2769      0.00000
    779      -1.2594      0.00000
    780      -1.2590      0.00000
    781      -1.2570      0.00000
    782      -1.2179      0.00000
    783      -1.2077      0.00000
    784      -1.1699      0.00000
    785      -1.1693      0.00000
    786      -1.1147      0.00000
    787      -1.1089      0.00000
    788      -0.9436      0.00000
    789      -0.9373      0.00000
    790      -0.9264      0.00000
    791      -0.9198      0.00000
    792      -0.7082      0.00000
    793      -0.7014      0.00000
    794      -0.6809      0.00000
    795      -0.6169      0.00000
    796      -0.6023      0.00000
    797      -0.5995      0.00000
    798      -0.4352      0.00000
    799      -0.4179      0.00000
    800      -0.3680      0.00000
    801      -0.3352      0.00000
    802      -0.2999      0.00000
    803      -0.2534      0.00000
    804      -0.2350      0.00000
    805      -0.2299      0.00000
    806      -0.2043      0.00000
    807      -0.1179      0.00000
    808      -0.1148      0.00000
    809      -0.1049      0.00000
    810      -0.0826      0.00000
    811      -0.0773      0.00000
    812      -0.0335      0.00000
    813       0.0054      0.00000
    814       0.0496      0.00000
    815       0.0577      0.00000
    816       0.0599      0.00000
    817       0.0614      0.00000
    818       0.0766      0.00000
    819       0.2207      0.00000
    820       0.2812      0.00000
    821       0.3168      0.00000
    822       0.3755      0.00000
    823       0.3993      0.00000
    824       0.4128      0.00000
    825       0.4140      0.00000
    826       0.4191      0.00000
    827       0.4203      0.00000
    828       0.4643      0.00000
    829       0.4862      0.00000
    830       0.5343      0.00000
    831       0.5413      0.00000
    832       0.5426      0.00000
    833       0.5539      0.00000
    834       0.5549      0.00000
    835       0.5675      0.00000
    836       0.5822      0.00000
    837       0.5828      0.00000
    838       0.5900      0.00000
    839       0.5941      0.00000
    840       0.6120      0.00000
    841       0.6274      0.00000
    842       0.6723      0.00000
    843       0.6794      0.00000
    844       0.6954      0.00000
    845       0.6989      0.00000
    846       0.7263      0.00000
    847       0.7312      0.00000
    848       0.7698      0.00000
    849       0.7718      0.00000
    850       0.8057      0.00000
    851       0.8242      0.00000
    852       0.8654      0.00000
    853       0.8669      0.00000
    854       0.8703      0.00000
    855       0.9384      0.00000
    856       0.9447      0.00000
    857       0.9450      0.00000
    858       0.9626      0.00000
    859       0.9669      0.00000
    860       0.9756      0.00000
    861       1.0357      0.00000
    862       1.0466      0.00000
    863       1.0494      0.00000
    864       1.0872      0.00000
    865       1.0898      0.00000
    866       1.1205      0.00000
    867       1.1274      0.00000
    868       1.1278      0.00000
    869       1.1322      0.00000
    870       1.1446      0.00000
    871       1.1462      0.00000
    872       1.2369      0.00000
    873       1.2379      0.00000
    874       1.2450      0.00000
    875       1.2826      0.00000
    876       1.2975      0.00000
    877       1.3942      0.00000
    878       1.4049      0.00000
    879       1.4080      0.00000
    880       1.4203      0.00000
    881       1.4227      0.00000
    882       1.4232      0.00000
    883       1.4250      0.00000
    884       1.4333      0.00000
    885       1.4354      0.00000
    886       1.4576      0.00000
    887       1.4662      0.00000
    888       1.4753      0.00000
    889       1.4964      0.00000
    890       1.5037      0.00000
    891       1.5130      0.00000
    892       1.5213      0.00000
    893       1.5366      0.00000
    894       1.5648      0.00000
    895       1.5781      0.00000
    896       1.6026      0.00000


--------------------------------------------------------------------------------------------------------


 soft charge-density along one line, spin component            1
         0         1         2         3         4         5         6         7         8         9
 total charge-density along one line
 
 soft charge-density along one line, spin component            2
         0         1         2         3         4         5         6         7         8         9
 total charge-density along one line
 
 pseudopotential strength for first ion, spin component:            1
 10.261   0.000   0.020   0.000  -0.000   0.000  -0.000  -0.000  -0.000  -0.000   0.000  -0.000  -0.000   0.000   0.000   0.000
  0.020   0.000  -0.001   0.000  -0.000  -0.000   0.000   0.000  -0.000   0.000   0.000  -0.000  -0.000   0.000   0.000   0.000
 -0.000   0.000  -0.000  -0.000  -4.372  -0.000  -0.000  -0.000   0.003   0.000  -0.017  -0.000  -0.000  -0.000   0.001   0.000
 -0.000  -0.000   0.000   0.000  -0.000  -0.000  -4.374  -0.000  -0.000  -0.000  -0.000  -0.000  -0.018  -0.000  -0.000  -0.000
 -0.000  -0.000  -0.000   0.000   0.003   0.000  -0.000  -0.000  -4.371  -0.000   0.001   0.000  -0.000  -0.000  -0.016  -0.000
  0.000  -0.000   0.000  -0.000  -0.017  -0.000  -0.000  -0.000   0.001   0.000  -0.773  -0.000  -0.000  -0.000   0.000   0.000
 -0.000   0.000  -0.000   0.000  -0.000  -0.000  -0.018  -0.000  -0.000  -0.000  -0.000  -0.000  -0.773  -0.000  -0.000  -0.000
  0.000   0.000   0.000   0.000   0.001   0.000  -0.000  -0.000  -0.016  -0.000   0.000   0.000  -0.000  -0.000  -0.773  -0.000
 pseudopotential strength for first ion, spin component:            2
 10.261   0.000   0.020   0.000  -0.000   0.000  -0.000  -0.000  -0.000  -0.000   0.000  -0.000  -0.000   0.000   0.000   0.000
  0.020   0.000  -0.001   0.000  -0.000  -0.000   0.000   0.000  -0.000   0.000   0.000  -0.000  -0.000   0.000   0.000   0.000
 -0.000   0.000  -0.000  -0.000  -4.372  -0.000  -0.000  -0.000   0.003   0.000  -0.017  -0.000  -0.000  -0.000   0.001   0.000
 -0.000  -0.000   0.000   0.000  -0.000  -0.000  -4.374  -0.000  -0.000  -0.000  -0.000  -0.000  -0.018  -0.000  -0.000  -0.000
 -0.000  -0.000  -0.000   0.000   0.003   0.000  -0.000  -0.000  -4.371  -0.000   0.001   0.000  -0.000  -0.000  -0.016  -0.000
  0.000  -0.000   0.000  -0.000  -0.017  -0.000  -0.000  -0.000   0.001   0.000  -0.773  -0.000  -0.000  -0.000   0.000   0.000
 -0.000   0.000  -0.000   0.000  -0.000  -0.000  -0.018  -0.000  -0.000  -0.000  -0.000  -0.000  -0.773  -0.000  -0.000  -0.000
  0.000   0.000   0.000   0.000   0.001   0.000  -0.000  -0.000  -0.016  -0.000   0.000   0.000  -0.000  -0.000  -0.773  -0.000
 total augmentation occupancy for first ion, spin component:            1
  2.000   0.000   0.000   0.000   0.000   0.000   0.000   0.000
  0.000   0.000   0.000   0.000   0.000   0.000   0.000   0.000
  0.000   0.000   0.667   0.000   0.000   0.000   0.000   0.000
  0.000   0.000   0.000   0.667   0.000   0.000   0.000   0.000
  0.000   0.000   0.000   0.000   0.667   0.000   0.000   0.000
  0.000   0.000   0.000   0.000   0.000   0.000   0.000   0.000
  0.000   0.000   0.000   0.000   0.000   0.000   0.000   0.000
  0.000   0.000   0.000   0.000   0.000   0.000   0.000   0.000
 total augmentation occupancy for first ion, spin component:            2
  0.500   0.000   0.000   0.000   0.000   0.000   0.000   0.000
  0.000   0.000   0.000   0.000   0.000   0.000   0.000   0.000
  0.000   0.000   0.167   0.000   0.000   0.000   0.000   0.000
  0.000   0.000   0.000   0.167   0.000   0.000   0.000   0.000
  0.000   0.000   0.000   0.000   0.167   0.000   0.000   0.000
  0.000   0.000   0.000   0.000   0.000   0.000   0.000   0.000
  0.000   0.000   0.000   0.000   0.000   0.000   0.000   0.000
  0.000   0.000   0.000   0.000   0.000   0.000   0.000   0.000


------------------------ aborting loop because EDIFF is reached ----------------------------------------





 total charge

# of ion       s       p       d       tot
------------------------------------------
    1        0.868   1.790   0.000   2.658
    2        0.868   1.790   0.000   2.658
    3        0.868   1.790   0.000   2.658
    4        0.868   1.790   0.000   2.658
    5        0.868   1.791   0.000   2.659
    6        0.868   1.790   0.000   2.658
    7        0.868   1.790   0.000   2.658
    8        0.868   1.791   0.000   2.658
    9        0.868   1.791   0.000   2.659
   10        0.868   1.791   0.000   2.659
   11        0.868   1.791   0.000   2.659
   12        0.868   1.791   0.000   2.659
   13        0.868   1.791   0.000   2.659
   14        0.868   1.791   0.000   2.659
   15        0.868   1.791   0.000   2.659
   16        0.868   1.791   0.000   2.659
   17        0.868   1.791   0.000   2.659
   18        0.868   1.791   0.000   2.659
   19        0.868   1.791   0.000   2.659
   20        0.868   1.791   0.000   2.659
   21        0.868   1.791   0.000   2.659
   22        0.868   1.791   0.000   2.659
   23        0.868   1.791   0.000   2.659
   24        0.868   1.791   0.000   2.659
   25        0.868   1.791   0.000   2.659
   26        0.868   1.791   0.000   2.659
   27        0.868   1.791   0.000   2.658
   28        0.868   1.791   0.000   2.659
   29        0.868   1.791   0.000   2.659
   30        0.868   1.791   0.000   2.659
   31        0.868   1.791   0.000   2.659
   32        0.868   1.791   0.000   2.659
   33        0.868   1.791   0.000   2.658
   34        0.868   1.791   0.000   2.659
   35        0.868   1.791   0.000   2.659
   36        0.868   1.791   0.000   2.659
   37        0.868   1.791   0.000   2.659
   38        0.868   1.791   0.000   2.659
   39        0.868   1.791   0.000   2.659
   40        0.868   1.791   0.000   2.658
   41        0.868   1.790   0.000   2.658
   42        0.868   1.791   0.000   2.659
   43        0.868   1.791   0.000   2.659
   44        0.868   1.790   0.000   2.658
   45        0.868   1.790   0.000   2.658
   46        0.868   1.790   0.000   2.658
   47        0.868   1.790   0.000   2.658
   48        0.868   1.790   0.000   2.658
   49        0.868   1.790   0.000   2.658
   50        0.868   1.790   0.000   2.658
   51        0.868   1.790   0.000   2.658
   52        0.868   1.790   0.000   2.658
   53        0.868   1.790   0.000   2.658
   54        0.868   1.791   0.000   2.659
   55        0.868   1.791   0.000   2.659
   56        0.868   1.790   0.000   2.658
   57        0.868   1.790   0.000   2.658
   58        0.868   1.790   0.000   2.658
   59        0.868   1.790   0.000   2.658
   60        0.868   1.790   0.000   2.658
   61        0.868   1.790   0.000   2.658
   62        0.868   1.790   0.000   2.658
   63        0.869   1.793   0.000   2.662
   64        0.868   1.791   0.000   2.659
   65        0.868   1.790   0.000   2.658
   66        0.868   1.790   0.000   2.658
   67        0.868   1.790   0.000   2.657
   68        0.868   1.790   0.000   2.658
   69        0.868   1.790   0.000   2.658
   70        0.868   1.790   0.000   2.658
   71        0.868   1.790   0.000   2.658
   72        0.868   1.790   0.000   2.658
   73        0.868   1.790   0.000   2.658
   74        0.868   1.790   0.000   2.658
   75        0.868   1.791   0.000   2.659
   76        0.868   1.791   0.000   2.659
   77        0.868   1.791   0.000   2.659
   78        0.868   1.790   0.000   2.658
   79        0.868   1.791   0.000   2.659
   80        0.868   1.790   0.000   2.658
   81        0.868   1.790   0.000   2.658
   82        0.868   1.790   0.000   2.658
   83        0.868   1.790   0.000   2.658
   84        0.868   1.790   0.000   2.658
   85        0.868   1.790   0.000   2.658
   86        0.868   1.791   0.000   2.659
   87        0.868   1.792   0.000   2.660
   88        0.868   1.792   0.000   2.660
   89        0.868   1.790   0.000   2.657
   90        0.868   1.790   0.000   2.657
   91        0.868   1.790   0.000   2.657
   92        0.868   1.790   0.000   2.658
   93        0.868   1.790   0.000   2.658
   94        0.868   1.790   0.000   2.658
   95        0.868   1.790   0.000   2.658
   96        0.868   1.790   0.000   2.658
   97        0.868   1.790   0.000   2.658
   98        0.868   1.790   0.000   2.658
   99        0.868   1.791   0.000   2.658
  100        0.868   1.790   0.000   2.658
  101        0.868   1.791   0.000   2.658
  102        0.868   1.791   0.000   2.659
  103        0.868   1.790   0.000   2.658
  104        0.868   1.790   0.000   2.658
  105        0.868   1.790   0.000   2.658
  106        0.868   1.790   0.000   2.658
  107        0.868   1.790   0.000   2.658
  108        0.868   1.790   0.000   2.658
  109        0.867   1.791   0.000   2.658
  110        0.867   1.788   0.000   2.655
  111        0.868   1.791   0.000   2.658
  112        0.868   1.791   0.000   2.659
  113        0.868   1.791   0.000   2.659
  114        0.868   1.790   0.000   2.658
  115        0.868   1.790   0.000   2.658
  116        0.868   1.790   0.000   2.658
  117        0.868   1.790   0.000   2.658
  118        0.868   1.790   0.000   2.658
  119        0.868   1.790   0.000   2.658
  120        0.868   1.790   0.000   2.658
  121        0.868   1.790   0.000   2.658
  122        0.868   1.790   0.000   2.658
  123        0.868   1.790   0.000   2.658
  124        0.868   1.790   0.000   2.658
  125        0.868   1.790   0.000   2.658
  126        0.868   1.790   0.000   2.658
  127        0.868   1.790   0.000   2.658
  128        0.868   1.790   0.000   2.658
  129        0.868   1.790   0.000   2.658
  130        0.868   1.790   0.000   2.658
  131        0.868   1.790   0.000   2.658
  132        0.869   1.793   0.000   2.662
  133        0.868   1.792   0.000   2.660
  134        0.868   1.792   0.000   2.661
  135        0.868   1.791   0.000   2.660
  136        0.868   1.791   0.000   2.659
  137        0.868   1.791   0.000   2.659
  138        0.868   1.790   0.000   2.658
  139        0.868   1.790   0.000   2.658
  140        0.868   1.790   0.000   2.658
  141        0.868   1.790   0.000   2.658
  142        0.868   1.790   0.000   2.658
  143        0.868   1.790   0.000   2.658
  144        0.868   1.790   0.000   2.657
  145        0.868   1.790   0.000   2.658
  146        0.868   1.790   0.000   2.657
  147        0.868   1.790   0.000   2.658
  148        0.868   1.790   0.000   2.658
  149        0.868   1.791   0.000   2.658
  150        0.868   1.791   0.000   2.659
  151        0.868   1.791   0.000   2.659
  152        0.868   1.791   0.000   2.659
  153        0.868   1.791   0.000   2.659
  154        0.868   1.791   0.000   2.658
  155        0.868   1.791   0.000   2.659
  156        0.868   1.791   0.000   2.659
  157        0.868   1.790   0.000   2.658
  158        0.868   1.790   0.000   2.658
  159        0.868   1.790   0.000   2.658
  160        0.868   1.790   0.000   2.658
  161        0.868   1.790   0.000   2.658
  162        0.868   1.790   0.000   2.658
  163        0.868   1.790   0.000   2.658
  164        0.868   1.790   0.000   2.658
  165        0.868   1.790   0.000   2.658
  166        0.868   1.790   0.000   2.658
  167        0.868   1.790   0.000   2.658
  168        0.868   1.790   0.000   2.658
  169        0.868   1.790   0.000   2.658
  170        0.868   1.790   0.000   2.658
  171        0.868   1.791   0.000   2.659
  172        0.868   1.791   0.000   2.659
  173        0.868   1.792   0.000   2.660
  174        0.868   1.792   0.000   2.660
  175        0.868   1.792   0.000   2.660
  176        0.868   1.791   0.000   2.660
  177        0.868   1.791   0.000   2.659
  178        0.868   1.790   0.000   2.658
  179        0.868   1.790   0.000   2.658
  180        0.868   1.790   0.000   2.658
  181        0.868   1.789   0.000   2.657
  182        0.868   1.790   0.000   2.658
  183        0.868   1.790   0.000   2.657
  184        0.868   1.790   0.000   2.658
  185        0.868   1.790   0.000   2.658
  186        0.868   1.790   0.000   2.658
  187        0.868   1.790   0.000   2.658
  188        0.868   1.790   0.000   2.658
  189        0.868   1.790   0.000   2.659
  190        0.868   1.791   0.000   2.659
  191        0.868   1.791   0.000   2.659
  192        0.868   1.792   0.000   2.660
  193        0.868   1.793   0.000   2.661
  194        0.868   1.792   0.000   2.660
  195        0.869   1.793   0.000   2.662
  196        0.869   1.794   0.000   2.663
  197        0.869   1.794   0.000   2.663
  198        0.869   1.795   0.000   2.664
  199        0.868   1.792   0.000   2.661
  200        0.868   1.790   0.000   2.658
  201        0.868   1.790   0.000   2.658
  202        0.868   1.790   0.000   2.658
  203        0.868   1.790   0.000   2.658
  204        0.868   1.790   0.000   2.658
  205        0.868   1.790   0.000   2.658
  206        0.868   1.790   0.000   2.658
  207        0.868   1.790   0.000   2.658
  208        0.868   1.790   0.000   2.658
  209        0.868   1.790   0.000   2.658
  210        0.868   1.790   0.000   2.658
  211        0.868   1.790   0.000   2.658
  212        0.868   1.790   0.000   2.658
  213        0.868   1.791   0.000   2.659
  214        0.868   1.791   0.000   2.659
  215        0.868   1.791   0.000   2.659
  216        0.867   1.788   0.000   2.655
  217        0.867   1.791   0.000   2.658
  218        0.866   1.785   0.000   2.651
  219        0.868   1.788   0.000   2.656
  220        0.868   1.788   0.000   2.656
  221        0.869   1.794   0.000   2.664
  222        0.868   1.790   0.000   2.658
  223        0.868   1.791   0.000   2.659
  224        0.868   1.791   0.000   2.659
  225        0.868   1.791   0.000   2.659
  226        0.868   1.791   0.000   2.659
  227        0.868   1.790   0.000   2.658
  228        0.868   1.790   0.000   2.658
  229        0.868   1.790   0.000   2.658
  230        0.868   1.790   0.000   2.658
  231        0.868   1.790   0.000   2.658
  232        0.868   1.790   0.000   2.658
  233        0.868   1.790   0.000   2.658
  234        0.868   1.790   0.000   2.657
  235        0.868   1.790   0.000   2.658
  236        0.868   1.790   0.000   2.657
  237        0.868   1.792   0.000   2.660
  238        0.868   1.792   0.000   2.660
  239        0.868   1.791   0.000   2.659
  240        0.867   1.784   0.000   2.650
  241        0.841   1.702   0.000   2.543
  242        0.841   1.702   0.000   2.542
  243        0.867   1.783   0.000   2.650
  244        0.868   1.790   0.000   2.658
  245        0.868   1.790   0.000   2.658
  246        0.868   1.791   0.000   2.659
  247        0.868   1.791   0.000   2.659
  248        0.868   1.791   0.000   2.659
  249        0.868   1.791   0.000   2.659
  250        0.868   1.790   0.000   2.658
  251        0.868   1.790   0.000   2.658
  252        0.868   1.790   0.000   2.658
  253        0.868   1.790   0.000   2.658
  254        0.868   1.790   0.000   2.658
  255        0.868   1.790   0.000   2.658
  256        0.868   1.790   0.000   2.658
  257        0.868   1.790   0.000   2.658
  258        0.868   1.790   0.000   2.658
  259        0.868   1.790   0.000   2.658
  260        0.868   1.791   0.000   2.659
  261        0.869   1.794   0.000   2.663
  262        0.869   1.794   0.000   2.664
  263        0.868   1.788   0.000   2.656
  264        0.868   1.788   0.000   2.656
  265        0.866   1.785   0.000   2.651
  266        0.868   1.790   0.000   2.658
  267        0.868   1.790   0.000   2.658
  268        0.868   1.791   0.000   2.659
  269        0.868   1.791   0.000   2.659
  270        0.868   1.791   0.000   2.659
  271        0.868   1.791   0.000   2.659
  272        0.868   1.791   0.000   2.658
  273        0.868   1.790   0.000   2.658
  274        0.868   1.791   0.000   2.658
  275        0.868   1.790   0.000   2.658
  276        0.868   1.790   0.000   2.658
  277        0.868   1.790   0.000   2.658
  278        0.868   1.791   0.000   2.659
  279        0.868   1.790   0.000   2.658
  280        0.868   1.790   0.000   2.658
  281        0.868   1.790   0.000   2.658
  282        0.868   1.791   0.000   2.659
  283        0.868   1.791   0.000   2.659
  284        0.868   1.792   0.000   2.661
  285        0.869   1.795   0.000   2.664
  286        0.869   1.794   0.000   2.663
  287        0.869   1.794   0.000   2.663
  288        0.868   1.790   0.000   2.658
  289        0.868   1.790   0.000   2.658
  290        0.868   1.791   0.000   2.659
  291        0.868   1.791   0.000   2.659
  292        0.868   1.791   0.000   2.659
  293        0.868   1.791   0.000   2.659
  294        0.868   1.791   0.000   2.659
  295        0.868   1.791   0.000   2.659
  296        0.868   1.791   0.000   2.659
  297        0.868   1.791   0.000   2.658
  298        0.868   1.791   0.000   2.659
  299        0.868   1.790   0.000   2.658
  300        0.868   1.791   0.000   2.659
  301        0.868   1.791   0.000   2.659
  302        0.868   1.791   0.000   2.659
  303        0.868   1.791   0.000   2.658
  304        0.868   1.791   0.000   2.659
  305        0.868   1.791   0.000   2.659
  306        0.868   1.791   0.000   2.659
  307        0.868   1.792   0.000   2.660
  308        0.868   1.792   0.000   2.660
  309        0.868   1.792   0.000   2.660
  310        0.868   1.791   0.000   2.659
  311        0.868   1.791   0.000   2.659
  312        0.868   1.791   0.000   2.659
  313        0.868   1.791   0.000   2.659
  314        0.868   1.791   0.000   2.659
  315        0.868   1.791   0.000   2.659
  316        0.868   1.791   0.000   2.659
  317        0.868   1.791   0.000   2.659
  318        0.868   1.791   0.000   2.659
  319        0.868   1.791   0.000   2.659
  320        0.868   1.791   0.000   2.659
  321        0.868   1.791   0.000   2.659
  322        0.868   1.791   0.000   2.658
  323        0.868   1.791   0.000   2.659
  324        0.868   1.790   0.000   2.658
  325        0.868   1.791   0.000   2.659
  326        0.868   1.791   0.000   2.659
  327        0.868   1.791   0.000   2.659
  328        0.868   1.791   0.000   2.659
  329        0.868   1.791   0.000   2.659
  330        0.868   1.791   0.000   2.659
  331        0.868   1.791   0.000   2.659
  332        0.868   1.791   0.000   2.659
  333        0.868   1.791   0.000   2.659
  334        0.868   1.791   0.000   2.659
  335        0.868   1.791   0.000   2.659
  336        0.868   1.790   0.000   2.658
  337        0.868   1.790   0.000   2.658
  338        0.868   1.790   0.000   2.658
  339        0.868   1.790   0.000   2.658
  340        0.868   1.790   0.000   2.658
  341        0.868   1.790   0.000   2.658
  342        0.868   1.790   0.000   2.658
  343        0.868   1.790   0.000   2.658
  344        0.868   1.791   0.000   2.659
  345        0.868   1.791   0.000   2.659
  346        0.868   1.791   0.000   2.659
  347        0.868   1.790   0.000   2.658
  348        0.868   1.790   0.000   2.658
  349        0.868   1.790   0.000   2.658
  350        0.868   1.790   0.000   2.658
  351        0.868   1.790   0.000   2.658
  352        0.868   1.790   0.000   2.658
  353        0.868   1.790   0.000   2.658
  354        0.868   1.790   0.000   2.658
  355        0.868   1.790   0.000   2.658
  356        0.868   1.790   0.000   2.658
  357        0.868   1.790   0.000   2.658
  358        0.868   1.790   0.000   2.658
  359        0.868   1.790   0.000   2.658
  360        0.868   1.790   0.000   2.658
  361        0.868   1.790   0.000   2.658
  362        0.868   1.790   0.000   2.658
  363        0.868   1.790   0.000   2.658
  364        0.868   1.790   0.000   2.658
  365        1.485   2.268   0.047   3.800
--------------------------------------------------
tot        317.365 653.834   0.047 971.246



 magnetization (x)

# of ion       s       p       d       tot
------------------------------------------
    1        0.000  -0.000   0.000  -0.000
    2       -0.000  -0.000   0.000  -0.000
    3        0.000  -0.000   0.000  -0.000
    4       -0.000  -0.000   0.000  -0.000
    5       -0.000  -0.000   0.000  -0.000
    6        0.000  -0.000   0.000  -0.000
    7        0.000  -0.000   0.000  -0.000
    8        0.000  -0.000   0.000  -0.000
    9       -0.000  -0.000   0.000  -0.000
   10        0.000  -0.000   0.000  -0.000
   11        0.000  -0.000   0.000  -0.000
   12        0.000  -0.000   0.000  -0.000
   13        0.000  -0.000   0.000  -0.000
   14        0.000  -0.000   0.000  -0.000
   15        0.000  -0.000   0.000  -0.000
   16        0.000  -0.000   0.000  -0.000
   17        0.000  -0.000   0.000  -0.000
   18        0.000  -0.000   0.000  -0.000
   19        0.000  -0.000   0.000  -0.000
   20        0.000  -0.000   0.000  -0.000
   21        0.000  -0.000   0.000  -0.000
   22       -0.000  -0.000   0.000  -0.000
   23        0.000  -0.000   0.000  -0.000
   24        0.000  -0.000   0.000   0.000
   25        0.000  -0.000   0.000  -0.000
   26        0.000  -0.000   0.000  -0.000
   27        0.000  -0.000   0.000  -0.000
   28        0.000  -0.000   0.000  -0.000
   29        0.000  -0.000   0.000  -0.000
   30        0.000  -0.000   0.000  -0.000
   31        0.000  -0.000   0.000  -0.000
   32        0.000  -0.000   0.000  -0.000
   33        0.000  -0.000   0.000  -0.000
   34        0.000  -0.000   0.000  -0.000
   35        0.000  -0.000   0.000  -0.000
   36        0.000  -0.000   0.000  -0.000
   37        0.000  -0.000   0.000  -0.000
   38        0.000  -0.000   0.000  -0.000
   39        0.000  -0.000   0.000  -0.000
   40        0.000  -0.000   0.000  -0.000
   41        0.000  -0.000   0.000  -0.000
   42        0.000   0.000   0.000   0.000
   43        0.000  -0.000   0.000   0.000
   44        0.000   0.000   0.000   0.000
   45        0.000   0.000   0.000   0.000
   46        0.000   0.000   0.000   0.000
   47        0.000  -0.000   0.000  -0.000
   48        0.000   0.000   0.000   0.000
   49        0.000  -0.000   0.000  -0.000
   50        0.000  -0.000   0.000  -0.000
   51       -0.000  -0.000   0.000  -0.000
   52        0.000   0.000   0.000   0.000
   53        0.000  -0.000   0.000  -0.000
   54        0.000  -0.000   0.000  -0.000
   55        0.000  -0.000   0.000   0.000
   56        0.000  -0.000   0.000  -0.000
   57        0.000  -0.000   0.000  -0.000
   58        0.000  -0.000   0.000  -0.000
   59        0.000  -0.000   0.000  -0.000
   60        0.000  -0.000   0.000  -0.000
   61        0.000  -0.000   0.000  -0.000
   62       -0.000  -0.000   0.000  -0.000
   63        0.000   0.000   0.000   0.000
   64        0.000  -0.000   0.000   0.000
   65        0.000   0.000   0.000   0.000
   66        0.000   0.000   0.000   0.000
   67        0.000  -0.000   0.000   0.000
   68        0.000  -0.000   0.000  -0.000
   69        0.000  -0.000   0.000  -0.000
   70        0.000  -0.000   0.000  -0.000
   71        0.000  -0.000   0.000  -0.000
   72        0.000  -0.000   0.000  -0.000
   73        0.000  -0.000   0.000   0.000
   74        0.000  -0.000   0.000  -0.000
   75        0.000  -0.000   0.000  -0.000
   76        0.000  -0.000   0.000  -0.000
   77        0.000  -0.000   0.000  -0.000
   78        0.000   0.000   0.000   0.000
   79        0.000  -0.000   0.000  -0.000
   80        0.000  -0.000   0.000  -0.000
   81        0.000  -0.000   0.000  -0.000
   82        0.000  -0.000   0.000  -0.000
   83        0.000  -0.000   0.000  -0.000
   84        0.000  -0.000   0.000  -0.000
   85        0.000  -0.000   0.000  -0.000
   86        0.000   0.000   0.000   0.000
   87        0.000   0.000   0.000   0.000
   88        0.000   0.000   0.000   0.000
   89        0.000   0.000   0.000   0.000
   90        0.000   0.000   0.000   0.000
   91        0.000   0.000   0.000   0.000
   92        0.000   0.000   0.000   0.000
   93        0.000  -0.000   0.000   0.000
   94       -0.000  -0.000   0.000  -0.000
   95        0.000   0.000   0.000   0.000
   96        0.000  -0.000   0.000  -0.000
   97        0.000  -0.000   0.000  -0.000
   98        0.000  -0.000   0.000  -0.000
   99        0.000   0.000   0.000   0.000
  100        0.000  -0.000   0.000  -0.000
  101        0.000  -0.000   0.000  -0.000
  102        0.000  -0.000   0.000  -0.000
  103        0.000  -0.000   0.000  -0.000
  104        0.000   0.000   0.000   0.000
  105        0.000  -0.000   0.000  -0.000
  106        0.000  -0.000   0.000  -0.000
  107       -0.000  -0.000   0.000  -0.000
  108        0.000  -0.000   0.000  -0.000
  109        0.000  -0.000   0.000  -0.000
  110        0.000  -0.000   0.000  -0.000
  111        0.000   0.000   0.000   0.000
  112        0.000  -0.000   0.000   0.000
  113        0.000   0.000   0.000   0.000
  114        0.000   0.000   0.000   0.000
  115        0.000  -0.000   0.000  -0.000
  116        0.000  -0.000   0.000  -0.000
  117        0.000  -0.000   0.000  -0.000
  118        0.000   0.000   0.000   0.000
  119        0.000  -0.000   0.000  -0.000
  120        0.000  -0.000   0.000  -0.000
  121        0.000   0.000   0.000   0.000
  122        0.000  -0.000   0.000  -0.000
  123        0.000  -0.000   0.000  -0.000
  124        0.000  -0.000   0.000  -0.000
  125        0.000  -0.000   0.000  -0.000
  126        0.000  -0.000   0.000  -0.000
  127        0.000  -0.000   0.000   0.000
  128        0.000  -0.000   0.000  -0.000
  129        0.000  -0.000   0.000  -0.000
  130        0.000   0.000   0.000   0.000
  131        0.000  -0.000   0.000  -0.000
  132        0.000   0.000   0.000   0.000
  133        0.000   0.000   0.000   0.000
  134        0.000   0.000   0.000   0.000
  135        0.000   0.000   0.000   0.000
  136        0.000   0.000   0.000   0.000
  137        0.000  -0.000   0.000  -0.000
  138        0.000   0.000   0.000   0.000
  139        0.000  -0.000   0.000   0.000
  140        0.000   0.000   0.000   0.000
  141        0.000  -0.000   0.000   0.000
  142        0.000  -0.000   0.000  -0.000
  143        0.000  -0.000   0.000  -0.000
  144        0.000  -0.000   0.000  -0.000
  145        0.000  -0.000   0.000  -0.000
  146        0.000  -0.000   0.000  -0.000
  147        0.000   0.000   0.000   0.000
  148        0.000   0.000   0.000   0.000
  149        0.000   0.000   0.000   0.000
  150        0.000  -0.000   0.000   0.000
  151        0.000   0.000   0.000   0.000
  152        0.000  -0.000   0.000  -0.000
  153        0.000   0.000   0.000   0.000
  154        0.000   0.000   0.000   0.000
  155        0.000   0.000   0.000   0.000
  156        0.000   0.000   0.000   0.000
  157        0.000   0.000   0.000   0.000
  158        0.000  -0.000   0.000  -0.000
  159        0.000  -0.000   0.000  -0.000
  160        0.000   0.000   0.000   0.000
  161        0.000  -0.000   0.000  -0.000
  162        0.000  -0.000   0.000  -0.000
  163        0.000  -0.000   0.000  -0.000
  164        0.000  -0.000   0.000  -0.000
  165        0.000   0.000   0.000   0.000
  166        0.000   0.000   0.000   0.000
  167        0.000   0.000   0.000   0.000
  168        0.000  -0.000   0.000  -0.000
  169        0.000   0.000   0.000   0.000
  170        0.000   0.000   0.000   0.000
  171        0.000   0.000   0.000   0.000
  172        0.000   0.000   0.000   0.000
  173        0.000   0.000   0.000   0.000
  174        0.000   0.000   0.000   0.000
  175        0.000   0.000   0.000   0.000
  176        0.000   0.000   0.000   0.000
  177        0.000   0.000   0.000   0.000
  178        0.000   0.000   0.000   0.000
  179        0.000   0.000   0.000   0.000
  180        0.000   0.000   0.000   0.000
  181        0.000   0.000   0.000   0.000
  182        0.000  -0.000   0.000  -0.000
  183        0.000   0.000   0.000   0.000
  184        0.000  -0.000   0.000   0.000
  185        0.000  -0.000   0.000   0.000
  186        0.000  -0.000   0.000  -0.000
  187        0.000  -0.000   0.000  -0.000
  188        0.000  -0.000   0.000  -0.000
  189        0.000  -0.000   0.000  -0.000
  190        0.000   0.000   0.000   0.000
  191        0.000  -0.000   0.000  -0.000
  192        0.000   0.000   0.000   0.000
  193        0.000   0.000   0.000   0.000
  194        0.000   0.000   0.000   0.000
  195        0.000   0.000   0.000   0.000
  196        0.000   0.000   0.000   0.000
  197        0.000   0.000   0.000   0.000
  198        0.000   0.000   0.000   0.000
  199        0.000   0.000   0.000   0.000
  200        0.000   0.000   0.000   0.000
  201        0.000   0.000   0.000   0.000
  202        0.000  -0.000   0.000  -0.000
  203        0.000   0.000   0.000   0.000
  204        0.000  -0.000   0.000  -0.000
  205        0.000  -0.000   0.000   0.000
  206        0.000  -0.000   0.000  -0.000
  207        0.000  -0.000   0.000  -0.000
  208        0.000  -0.000   0.000  -0.000
  209        0.000  -0.000   0.000  -0.000
  210        0.000  -0.000   0.000  -0.000
  211        0.000  -0.000   0.000  -0.000
  212        0.000   0.000   0.000   0.000
  213        0.000  -0.000   0.000  -0.000
  214        0.000   0.000   0.000   0.000
  215        0.000   0.000   0.000   0.000
  216        0.000  -0.000   0.000   0.000
  217        0.000   0.000   0.000   0.000
  218        0.000  -0.000   0.000  -0.000
  219        0.000   0.000   0.000   0.000
  220        0.000   0.000   0.000   0.000
  221        0.000   0.000   0.000   0.000
  222        0.000  -0.000   0.000  -0.000
  223        0.000  -0.000   0.000  -0.000
  224       -0.000  -0.000   0.000  -0.000
  225        0.000  -0.000   0.000  -0.000
  226        0.000   0.000   0.000   0.000
  227        0.000   0.000   0.000   0.000
  228        0.000  -0.000   0.000   0.000
  229        0.000  -0.000   0.000  -0.000
  230        0.000  -0.000   0.000  -0.000
  231        0.000  -0.000   0.000  -0.000
  232        0.000   0.000   0.000   0.000
  233        0.000  -0.000   0.000   0.000
  234        0.000  -0.000   0.000  -0.000
  235        0.000   0.000   0.000   0.000
  236        0.000   0.000   0.000   0.000
  237        0.000   0.000   0.000   0.000
  238        0.000   0.000   0.000   0.000
  239        0.000   0.000   0.000   0.000
  240        0.000   0.000   0.000   0.000
  241       -0.000   0.000   0.000   0.000
  242        0.000  -0.000   0.000  -0.000
  243        0.000  -0.000   0.000  -0.000
  244       -0.000  -0.000   0.000  -0.000
  245        0.000  -0.000   0.000  -0.000
  246       -0.000  -0.000   0.000  -0.000
  247        0.000  -0.000   0.000  -0.000
  248        0.000  -0.000   0.000  -0.000
  249        0.000  -0.000   0.000  -0.000
  250        0.000  -0.000   0.000  -0.000
  251        0.000  -0.000   0.000  -0.000
  252        0.000  -0.000   0.000  -0.000
  253        0.000  -0.000   0.000   0.000
  254        0.000  -0.000   0.000  -0.000
  255        0.000  -0.000   0.000  -0.000
  256        0.000  -0.000   0.000  -0.000
  257        0.000   0.000   0.000   0.000
  258        0.000   0.000   0.000   0.000
  259        0.000  -0.000   0.000  -0.000
  260        0.000   0.000   0.000   0.000
  261        0.000   0.000   0.000   0.000
  262        0.000   0.000   0.000   0.000
  263        0.000   0.000   0.000   0.000
  264        0.000  -0.000   0.000  -0.000
  265        0.000   0.000   0.000   0.000
  266       -0.000  -0.000   0.000  -0.000
  267        0.000  -0.000   0.000  -0.000
  268        0.000  -0.000   0.000  -0.000
  269       -0.000  -0.000   0.000  -0.000
  270        0.000  -0.000   0.000  -0.000
  271        0.000  -0.000   0.000  -0.000
  272        0.000  -0.000   0.000  -0.000
  273        0.000  -0.000   0.000   0.000
  274        0.000  -0.000   0.000  -0.000
  275        0.000  -0.000   0.000  -0.000
  276        0.000  -0.000   0.000   0.000
  277        0.000  -0.000   0.000  -0.000
  278        0.000  -0.000   0.000  -0.000
  279        0.000  -0.000   0.000   0.000
  280        0.000   0.000   0.000   0.000
  281        0.000  -0.000   0.000  -0.000
  282        0.000   0.000   0.000   0.000
  283        0.000   0.000   0.000   0.000
  284        0.000   0.000   0.000   0.000
  285        0.000   0.000   0.000   0.000
  286        0.000   0.000   0.000   0.000
  287        0.000   0.000   0.000   0.000
  288       -0.000  -0.000   0.000  -0.000
  289       -0.000  -0.000   0.000  -0.000
  290        0.000  -0.000   0.000  -0.000
  291       -0.000  -0.000   0.000  -0.000
  292        0.000  -0.000   0.000  -0.000
  293       -0.000  -0.000   0.000  -0.000
  294        0.000  -0.000   0.000   0.000
  295        0.000  -0.000   0.000  -0.000
  296        0.000  -0.000   0.000  -0.000
  297        0.000  -0.000   0.000   0.000
  298        0.000  -0.000   0.000  -0.000
  299        0.000  -0.000   0.000  -0.000
  300       -0.000  -0.000   0.000  -0.000
  301        0.000  -0.000   0.000  -0.000
  302        0.000   0.000   0.000   0.000
  303        0.000  -0.000   0.000  -0.000
  304        0.000   0.000   0.000   0.000
  305        0.000  -0.000   0.000  -0.000
  306        0.000   0.000   0.000   0.000
  307        0.000   0.000   0.000   0.000
  308        0.000   0.000   0.000   0.000
  309        0.000   0.000   0.000   0.000
  310       -0.000  -0.000   0.000  -0.000
  311        0.000  -0.000   0.000  -0.000
  312        0.000  -0.000   0.000  -0.000
  313        0.000  -0.000   0.000  -0.000
  314        0.000  -0.000   0.000  -0.000
  315       -0.000  -0.000   0.000  -0.000
  316        0.000   0.000   0.000   0.000
  317        0.000  -0.000   0.000  -0.000
  318        0.000   0.000   0.000   0.000
  319        0.000  -0.000   0.000  -0.000
  320        0.000  -0.000   0.000  -0.000
  321        0.000  -0.000   0.000  -0.000
  322        0.000  -0.000   0.000  -0.000
  323        0.000  -0.000   0.000  -0.000
  324        0.000  -0.000   0.000  -0.000
  325        0.000  -0.000   0.000   0.000
  326        0.000   0.000   0.000   0.000
  327        0.000  -0.000   0.000  -0.000
  328        0.000   0.000   0.000   0.000
  329        0.000   0.000   0.000   0.000
  330        0.000  -0.000   0.000  -0.000
  331        0.000  -0.000   0.000  -0.000
  332        0.000  -0.000   0.000  -0.000
  333        0.000  -0.000   0.000  -0.000
  334       -0.000  -0.000   0.000  -0.000
  335        0.000  -0.000   0.000  -0.000
  336       -0.000  -0.000   0.000  -0.000
  337        0.000  -0.000   0.000  -0.000
  338        0.000  -0.000   0.000  -0.000
  339        0.000  -0.000   0.000  -0.000
  340        0.000  -0.000   0.000  -0.000
  341        0.000  -0.000   0.000  -0.000
  342        0.000   0.000   0.000   0.000
  343        0.000  -0.000   0.000  -0.000
  344        0.000  -0.000   0.000   0.000
  345        0.000  -0.000   0.000  -0.000
  346       -0.000  -0.000   0.000  -0.000
  347       -0.000  -0.000   0.000  -0.000
  348        0.000  -0.000   0.000  -0.000
  349        0.000  -0.000   0.000  -0.000
  350        0.000  -0.000   0.000  -0.000
  351       -0.000  -0.000   0.000  -0.000
  352        0.000  -0.000   0.000  -0.000
  353        0.000  -0.000   0.000  -0.000
  354        0.000  -0.000   0.000  -0.000
  355        0.000  -0.000   0.000   0.000
  356        0.000  -0.000   0.000  -0.000
  357        0.000  -0.000   0.000  -0.000
  358        0.000  -0.000   0.000  -0.000
  359        0.000  -0.000   0.000  -0.000
  360        0.000  -0.000   0.000  -0.000
  361        0.000  -0.000   0.000  -0.000
  362        0.000  -0.000   0.000  -0.000
  363       -0.000  -0.000   0.000  -0.000
  364       -0.000  -0.000   0.000  -0.000
  365        0.000   0.000   0.000   0.000
--------------------------------------------------
tot          0.000  -0.000   0.000   0.000
 
    CHARGE:  cpu time     17.1473: real time     17.1489
    FORLOC:  cpu time      0.6038: real time      0.6039
    FORNL :  cpu time    387.0742: real time    387.1016
    STRESS:  cpu time    442.1112: real time    442.1434
    FORCOR:  cpu time      1.2298: real time      1.2299
    FORHAR:  cpu time      0.7515: real time      0.7516
    OFIELD:  cpu time      0.0064: real time      0.0064

 ---------------------------------------------------------------------------------------------

         DFTD3 V3.0 Rev 1        
 IVDW         = 11
 DF pbe       
 parameters
 VDW_S6       =    1.0000
 VDW_S8       =    0.7220
 VDW_SR       =    1.2170
 rs18     =    1.0000
 alpha6   =   14.0000
 alpha8   =   16.0000
 k1-k3    =   16.0000    1.3333   -4.0000
 VDW_RADIUS   =   50.2022 A
 VDW_CNRADIUS =   21.1671 A
 Edisp (eV)  -14.07849

 E6    (eV) :    -8.0821
 E8    (eV) :    -5.9964
 % E8        : 42.59
    FORVDW:  cpu time      2.5895: real time      2.5897

  FORCE on cell =-STRESS in cart. coord.  units (eV):
  Direction    XX          YY          ZZ          XY          YZ          ZX
  --------------------------------------------------------------------------------------
  Alpha Z   418.83068   418.83068   418.83068
  Ewald  ************202287.63482514368.06137  -323.10931     0.03747    -0.02372
  Hartree************226553.64586507468.75636  -278.77532    -0.11313    -0.02140
  E(xc)   -5437.87519 -5439.41283 -5336.28807    -0.19249     0.00003    -0.00001
  Local  458383.04839************************   598.82653    -0.10011     0.01464
  n-local -1172.38582 -1170.92911 -1245.63953     0.18189     0.00931     0.00598
  augment  -137.33633  -138.37442  -144.98967    -0.13208    -0.02689    -0.00316
  Kinetic 23452.32679 23475.74788 22100.72654     2.92149     0.19019    -0.00185
  Fock        0.00000     0.00000     0.00000     0.00000     0.00000     0.00000
  vdW        -2.97339    -3.15733    -2.31155    -0.00627     0.00158     0.00019
  -------------------------------------------------------------------------------------
  Total     -43.40896   -45.60989   130.01393    -0.28555    -0.00155    -0.02933
  in kB      -2.66624    -2.80142     7.98563    -0.01754    -0.00010    -0.00180
  external pressure =        0.84 kB  Pullay stress =        0.00 kB


 VOLUME and BASIS-vectors are now :
 -----------------------------------------------------------------------------
  energy-cutoff  :      400.00
  volume of cell :    26085.03
      direct lattice vectors                 reciprocal lattice vectors
    32.372299194  0.000000000  0.000000000     0.030890608  0.000000000  0.000000000
     0.000000000 19.921413422  0.000000000     0.000000000  0.050197241  0.000000000
     0.000000000  0.000000000 40.448047638     0.000000000  0.000000000  0.024723072

  length of vectors
    32.372299194 19.921413422 40.448047638     0.030890608  0.050197241  0.024723072


 FORCES acting on ions
    electron-ion (+dipol)            ewald-force                    non-local-force                 convergence-correction
 -----------------------------------------------------------------------------------------------
   -.416E+03 -.205E+03 0.449E+00   0.416E+03 0.206E+03 -.442E+00   -.286E+00 -.124E+00 -.907E-02   -.122E-02 -.649E-03 -.221E-02
   -.407E+03 -.217E+03 0.946E+00   0.407E+03 0.217E+03 -.937E+00   -.283E+00 -.134E+00 -.774E-02   -.406E-02 -.140E-02 -.284E-02
   -.285E+03 -.313E+03 0.159E+00   0.285E+03 0.313E+03 -.162E+00   -.144E+00 -.277E+00 0.716E-02   -.193E-02 -.223E-02 -.518E-02
   -.206E+03 -.347E+03 0.658E+00   0.206E+03 0.348E+03 -.647E+00   -.169E+00 -.261E+00 -.117E-01   0.402E-03 -.301E-02 -.241E-02
   -.311E+02 -.378E+03 -.127E+00   0.311E+02 0.379E+03 0.122E+00   0.205E-01 -.313E+00 0.110E-01   -.372E-02 0.598E-03 -.136E-02
   -.397E+03 -.227E+03 0.152E+01   0.398E+03 0.227E+03 -.151E+01   -.280E+00 -.144E+00 -.542E-02   -.250E-02 -.244E-02 -.307E-02
   -.271E+03 -.320E+03 0.651E+00   0.271E+03 0.320E+03 -.656E+00   -.136E+00 -.280E+00 0.702E-02   -.916E-03 -.165E-02 -.189E-02
   -.190E+03 -.352E+03 0.117E+01   0.191E+03 0.353E+03 -.116E+01   -.159E+00 -.269E+00 -.137E-01   -.496E-02 0.849E-03 -.133E-02
   -.137E+02 -.379E+03 0.328E+00   0.137E+02 0.379E+03 -.335E+00   0.316E-01 -.310E+00 0.155E-01   0.199E-02 0.640E-04 -.230E-02
   0.792E+02 -.375E+03 0.935E+00   -.792E+02 0.375E+03 -.924E+00   0.657E-02 -.313E+00 -.811E-02   -.118E-02 0.145E-02 -.432E-02
   0.248E+03 -.331E+03 0.843E-01   -.249E+03 0.332E+03 -.933E-01   0.190E+00 -.247E+00 0.854E-02   0.519E-02 0.561E-02 -.832E-03
   0.322E+03 -.291E+03 0.651E+00   -.322E+03 0.291E+03 -.645E+00   0.167E+00 -.266E+00 -.960E-02   0.785E-02 0.847E-02 0.309E-02
   0.431E+03 -.185E+03 -.169E+00   -.431E+03 0.185E+03 0.162E+00   0.292E+00 -.111E+00 0.977E-02   0.362E-02 0.546E-02 0.673E-03
   -.387E+03 -.238E+03 0.223E+01   0.388E+03 0.238E+03 -.222E+01   -.276E+00 -.154E+00 -.659E-02   -.322E-02 -.395E-03 -.113E-02
   -.257E+03 -.327E+03 0.118E+01   0.257E+03 0.327E+03 -.118E+01   -.126E+00 -.286E+00 0.666E-02   -.136E-02 -.844E-03 -.114E-02
   -.174E+03 -.357E+03 0.182E+01   0.174E+03 0.357E+03 -.181E+01   -.153E+00 -.273E+00 -.149E-01   0.453E-03 -.729E-03 -.218E-02
   0.378E+01 -.379E+03 0.823E+00   -.383E+01 0.379E+03 -.829E+00   0.420E-01 -.310E+00 0.154E-01   -.130E-02 -.330E-03 -.264E-02
   0.963E+02 -.372E+03 0.143E+01   -.963E+02 0.373E+03 -.142E+01   0.160E-01 -.313E+00 -.585E-02   0.278E-02 -.187E-03 -.262E-02
   0.263E+03 -.325E+03 0.473E+00   -.263E+03 0.325E+03 -.476E+00   0.197E+00 -.239E+00 0.843E-02   0.695E-03 0.169E-02 -.539E-02
   0.335E+03 -.282E+03 0.108E+01   -.335E+03 0.282E+03 -.107E+01   0.177E+00 -.258E+00 -.964E-02   0.251E-02 0.615E-02 -.764E-03
   0.438E+03 -.173E+03 0.218E+00   -.438E+03 0.173E+03 -.228E+00   0.294E+00 -.991E-01 0.111E-01   -.996E-03 0.524E-02 0.356E-02
   0.469E+03 -.104E+03 0.831E+00   -.470E+03 0.104E+03 -.829E+00   0.288E+00 -.127E+00 -.125E-01   -.159E-02 0.343E-02 0.439E-02
   0.485E+03 0.356E+02 0.363E-01   -.485E+03 -.357E+02 -.453E-01   0.305E+00 0.712E-01 0.124E-01   -.586E-02 -.333E-02 -.670E-03
   0.468E+03 0.109E+03 0.560E+00   -.469E+03 -.109E+03 -.542E+00   0.310E+00 0.450E-01 -.624E-02   -.453E-03 -.572E-02 -.961E-02
   0.392E+03 0.232E+03 -.196E+00   -.392E+03 -.232E+03 0.201E+00   0.219E+00 0.219E+00 0.908E-02   -.361E-02 0.174E-02 -.120E-01
   -.377E+03 -.249E+03 0.329E+01   0.377E+03 0.249E+03 -.329E+01   -.272E+00 -.161E+00 -.106E-01   -.747E-04 -.590E-03 0.534E-02
   -.242E+03 -.334E+03 0.186E+01   0.242E+03 0.334E+03 -.186E+01   -.115E+00 -.292E+00 0.613E-02   -.730E-02 0.365E-02 0.424E-02
   -.158E+03 -.361E+03 0.244E+01   0.158E+03 0.362E+03 -.244E+01   -.141E+00 -.278E+00 -.143E-01   -.719E-02 0.212E-02 0.825E-02
   0.216E+02 -.379E+03 0.129E+01   -.217E+02 0.379E+03 -.131E+01   0.546E-01 -.309E+00 0.143E-01   -.315E-02 -.259E-03 0.935E-02
   0.113E+03 -.370E+03 0.188E+01   -.113E+03 0.370E+03 -.188E+01   0.274E-01 -.312E+00 -.456E-02   0.168E-02 0.738E-03 0.590E-02
   0.277E+03 -.318E+03 0.815E+00   -.278E+03 0.318E+03 -.830E+00   0.209E+00 -.232E+00 0.554E-02   0.257E-02 0.450E-03 0.713E-02
   0.347E+03 -.273E+03 0.148E+01   -.347E+03 0.274E+03 -.147E+01   0.189E+00 -.251E+00 -.125E-01   -.448E-02 -.233E-02 -.276E-02
   0.445E+03 -.161E+03 0.567E+00   -.446E+03 0.161E+03 -.579E+00   0.303E+00 -.880E-01 0.125E-01   -.652E-02 -.672E-02 0.478E-02
   0.474E+03 -.913E+02 0.117E+01   -.474E+03 0.915E+02 -.118E+01   0.290E+00 -.115E+00 -.102E-01   -.524E-02 0.927E-04 0.968E-02
   0.483E+03 0.490E+02 0.392E+00   -.483E+03 -.491E+02 -.413E+00   0.302E+00 0.817E-01 0.961E-02   -.518E-02 -.625E-03 0.103E-01
   0.464E+03 0.121E+03 0.939E+00   -.464E+03 -.121E+03 -.935E+00   0.306E+00 0.553E-01 -.880E-02   -.767E-02 -.207E-02 0.580E-02
   0.382E+03 0.243E+03 0.225E+00   -.382E+03 -.243E+03 -.241E+00   0.213E+00 0.230E+00 0.805E-02   -.525E-02 -.287E-02 0.955E-02
   0.319E+03 0.294E+03 0.738E+00   -.320E+03 -.294E+03 -.724E+00   0.233E+00 0.209E+00 -.133E-01   -.262E-02 -.229E-02 -.577E-02
   0.165E+03 0.359E+03 0.389E-01   -.165E+03 -.359E+03 -.460E-01   0.608E-01 0.308E+00 0.145E-01   0.861E-02 -.447E-02 -.172E-02
   0.754E+02 0.375E+03 0.515E+00   -.755E+02 -.376E+03 -.503E+00   0.861E-01 0.300E+00 -.654E-02   0.479E-02 -.163E-02 -.440E-02
   -.106E+03 0.371E+03 -.221E+00   0.106E+03 -.372E+03 0.211E+00   -.110E+00 0.293E+00 0.697E-02   0.498E-02 -.960E-04 0.253E-02
   -.417E+03 -.202E+03 0.515E+01   0.417E+03 0.202E+03 -.516E+01   -.256E+00 -.217E+00 0.818E-02   0.607E-02 0.630E-03 -.933E-03
   -.365E+03 -.260E+03 0.452E+01   0.365E+03 0.260E+03 -.452E+01   -.262E+00 -.171E+00 -.849E-02   0.455E-02 -.169E-02 -.150E-03
   -.226E+03 -.341E+03 0.249E+01   0.226E+03 0.341E+03 -.249E+01   -.106E+00 -.297E+00 0.744E-02   -.120E-02 0.131E-02 -.392E-02
   -.141E+03 -.366E+03 0.286E+01   0.141E+03 0.366E+03 -.285E+01   -.132E+00 -.285E+00 -.812E-02   -.329E-02 0.440E-03 -.567E-02
   0.396E+02 -.379E+03 0.163E+01   -.396E+02 0.379E+03 -.163E+01   0.673E-01 -.307E+00 0.173E-01   0.128E-02 0.141E-03 -.397E-02
   0.131E+03 -.367E+03 0.224E+01   -.131E+03 0.367E+03 -.223E+01   0.392E-01 -.309E+00 -.353E-02   0.231E-02 0.729E-03 -.315E-02
   0.292E+03 -.311E+03 0.116E+01   -.292E+03 0.311E+03 -.116E+01   0.219E+00 -.225E+00 0.744E-02   0.773E-02 0.452E-02 -.141E-03
   0.359E+03 -.264E+03 0.173E+01   -.359E+03 0.264E+03 -.172E+01   0.197E+00 -.243E+00 -.152E-01   0.505E-02 0.367E-02 0.241E-02
   0.452E+03 -.149E+03 0.827E+00   -.452E+03 0.149E+03 -.828E+00   0.304E+00 -.760E-01 0.172E-01   -.275E-02 -.279E-02 -.717E-02
   0.477E+03 -.782E+02 0.145E+01   -.478E+03 0.783E+02 -.144E+01   0.294E+00 -.102E+00 -.625E-02   -.180E-02 -.410E-02 -.578E-02
   0.481E+03 0.624E+02 0.693E+00   -.481E+03 -.625E+02 -.701E+00   0.299E+00 0.939E-01 0.855E-02   0.617E-03 -.570E-03 -.129E-02
   0.459E+03 0.134E+03 0.128E+01   -.459E+03 -.134E+03 -.128E+01   0.306E+00 0.654E-01 -.124E-01   -.110E-02 0.257E-02 0.803E-02
   0.372E+03 0.253E+03 0.660E+00   -.372E+03 -.253E+03 -.672E+00   0.205E+00 0.237E+00 0.121E-01   0.436E-02 -.324E-02 0.454E-02
   0.307E+03 0.302E+03 0.111E+01   -.307E+03 -.302E+03 -.111E+01   0.223E+00 0.217E+00 -.135E-01   0.316E-02 -.313E-02 0.130E-01
   0.149E+03 0.363E+03 0.497E+00   -.149E+03 -.363E+03 -.520E+00   0.479E-01 0.308E+00 0.127E-01   0.641E-02 -.206E-02 0.114E-01
   0.584E+02 0.377E+03 0.946E+00   -.585E+02 -.377E+03 -.945E+00   0.755E-01 0.303E+00 -.723E-02   0.107E-01 -.199E-02 0.734E-02
   -.122E+03 0.368E+03 0.257E+00   0.123E+03 -.369E+03 -.261E+00   -.121E+00 0.288E+00 0.823E-02   0.568E-03 0.248E-02 -.266E-02
   -.209E+03 0.345E+03 0.728E+00   0.210E+03 -.346E+03 -.722E+00   -.921E-01 0.297E+00 -.148E-01   0.393E-02 0.269E-02 0.184E-02
   -.353E+03 0.269E+03 0.305E-01   0.353E+03 -.269E+03 -.425E-01   -.252E+00 0.184E+00 0.149E-01   -.603E-02 -.276E-02 0.267E-02
   -.409E+03 0.213E+03 0.509E+00   0.409E+03 -.213E+03 -.501E+00   -.233E+00 0.205E+00 -.752E-02   -.495E-02 -.269E-02 -.194E-02
   -.475E+03 0.851E+02 -.215E+00   0.476E+03 -.851E+02 0.213E+00   -.312E+00 0.234E-01 0.798E-02   -.542E-02 0.234E-02 -.611E-02
   -.401E+03 -.217E+03 0.813E+01   0.401E+03 0.217E+03 -.815E+01   -.289E+00 -.271E+00 0.206E-01   0.158E-02 0.698E-02 0.409E-02
   -.351E+03 -.271E+03 0.486E+01   0.352E+03 0.271E+03 -.488E+01   -.251E+00 -.199E+00 0.152E-01   0.673E-02 -.237E-03 0.475E-02
   -.209E+03 -.348E+03 0.241E+01   0.209E+03 0.348E+03 -.242E+01   -.924E-01 -.300E+00 0.161E-01   0.387E-02 0.285E-03 0.452E-02
   -.124E+03 -.371E+03 0.294E+01   0.124E+03 0.371E+03 -.293E+01   -.127E+00 -.296E+00 -.634E-02   0.222E-03 0.965E-03 -.520E-02
   0.575E+02 -.379E+03 0.171E+01   -.576E+02 0.379E+03 -.171E+01   0.763E-01 -.302E+00 0.127E-01   0.137E-03 0.671E-03 -.532E-02
   0.148E+03 -.364E+03 0.235E+01   -.148E+03 0.365E+03 -.233E+01   0.491E-01 -.311E+00 -.570E-02   0.242E-02 0.134E-02 -.644E-02
   0.306E+03 -.303E+03 0.132E+01   -.306E+03 0.304E+03 -.132E+01   0.225E+00 -.218E+00 0.111E-01   0.484E-02 0.347E-02 -.563E-02
   0.371E+03 -.254E+03 0.183E+01   -.371E+03 0.255E+03 -.182E+01   0.206E+00 -.237E+00 -.126E-01   0.684E-02 0.477E-02 -.224E-02
   0.458E+03 -.136E+03 0.961E+00   -.458E+03 0.136E+03 -.967E+00   0.307E+00 -.677E-01 0.177E-01   0.180E-02 0.126E-02 -.426E-02
   0.481E+03 -.650E+02 0.164E+01   -.481E+03 0.651E+02 -.163E+01   0.300E+00 -.941E-01 -.715E-02   -.263E-02 -.333E-02 -.201E-02
   0.478E+03 0.755E+02 0.934E+00   -.478E+03 -.756E+02 -.936E+00   0.294E+00 0.102E+00 0.731E-02   0.560E-03 -.443E-02 -.571E-02
   0.453E+03 0.146E+03 0.154E+01   -.453E+03 -.146E+03 -.152E+01   0.305E+00 0.751E-01 -.130E-01   0.235E-02 -.143E-02 -.469E-02
   0.361E+03 0.262E+03 0.965E+00   -.361E+03 -.262E+03 -.977E+00   0.197E+00 0.240E+00 0.154E-01   0.138E-04 0.520E-03 0.158E-02
   0.294E+03 0.309E+03 0.156E+01   -.294E+03 -.310E+03 -.155E+01   0.219E+00 0.223E+00 -.941E-02   0.747E-03 -.579E-03 -.242E-02
   0.133E+03 0.366E+03 0.105E+01   -.133E+03 -.366E+03 -.106E+01   0.404E-01 0.308E+00 0.935E-02   -.177E-02 -.268E-03 -.335E-02
   0.415E+02 0.378E+03 0.143E+01   -.416E+02 -.378E+03 -.142E+01   0.679E-01 0.306E+00 -.902E-02   -.684E-02 -.857E-03 -.244E-02
   -.139E+03 0.365E+03 0.831E+00   0.139E+03 -.366E+03 -.841E+00   -.128E+00 0.285E+00 0.883E-02   -.724E-02 -.159E-02 0.306E-02
   -.225E+03 0.340E+03 0.120E+01   0.225E+03 -.340E+03 -.118E+01   -.104E+00 0.295E+00 -.129E-01   -.294E-03 0.263E-02 -.824E-02
   -.364E+03 0.260E+03 0.513E+00   0.365E+03 -.260E+03 -.520E+00   -.261E+00 0.174E+00 0.150E-01   0.256E-03 0.273E-02 -.227E-02
   -.418E+03 0.202E+03 0.976E+00   0.418E+03 -.202E+03 -.967E+00   -.239E+00 0.199E+00 -.574E-02   -.622E-02 -.358E-02 -.158E-02
   -.479E+03 0.719E+02 0.233E+00   0.479E+03 -.719E+02 -.242E+00   -.313E+00 0.150E-01 0.520E-02   -.618E-02 -.363E-03 0.270E-02
   -.486E+03 -.206E+01 0.703E+00   0.487E+03 0.202E+01 -.691E+00   -.312E+00 0.419E-01 -.153E-01   -.456E-02 0.513E-02 -.245E-02
   -.455E+03 -.140E+03 -.133E-01   0.455E+03 0.140E+03 0.111E-01   -.273E+00 -.151E+00 0.148E-01   -.309E-02 0.160E-02 -.589E-02
   -.375E+03 -.228E+03 0.232E+01   0.375E+03 0.228E+03 -.239E+01   -.364E-01 -.229E+00 0.586E-01   -.126E-02 0.636E-02 0.232E-02
   -.331E+03 -.279E+03 0.256E+01   0.331E+03 0.279E+03 -.258E+01   -.187E+00 -.160E+00 0.934E-02   0.406E-02 0.327E-02 0.215E-02
   -.191E+03 -.352E+03 0.156E+01   0.191E+03 0.352E+03 -.159E+01   -.826E-01 -.323E+00 0.239E-01   0.925E-02 -.172E-02 0.621E-02
   -.106E+03 -.374E+03 0.207E+01   0.106E+03 0.375E+03 -.207E+01   -.121E+00 -.309E+00 0.737E-03   0.659E-02 -.916E-04 0.898E-03
   0.755E+02 -.379E+03 0.128E+01   -.756E+02 0.379E+03 -.130E+01   0.851E-01 -.302E+00 0.132E-01   0.209E-03 0.553E-03 0.963E-03
   0.165E+03 -.362E+03 0.202E+01   -.165E+03 0.362E+03 -.202E+01   0.656E-01 -.320E+00 0.256E-03   0.484E-03 0.511E-03 -.226E-02
   0.319E+03 -.296E+03 0.113E+01   -.320E+03 0.296E+03 -.114E+01   0.234E+00 -.211E+00 0.152E-01   -.283E-02 0.122E-02 -.186E-02
   0.382E+03 -.244E+03 0.193E+01   -.382E+03 0.245E+03 -.192E+01   0.214E+00 -.228E+00 -.125E-01   0.114E-02 0.340E-02 0.186E-02
   0.463E+03 -.124E+03 0.107E+01   -.464E+03 0.124E+03 -.109E+01   0.305E+00 -.552E-01 0.133E-01   -.153E-02 0.125E-03 0.437E-02
   0.483E+03 -.518E+02 0.172E+01   -.483E+03 0.519E+02 -.171E+01   0.303E+00 -.835E-01 -.441E-02   -.206E-02 -.350E-02 -.145E-02
   0.475E+03 0.886E+02 0.102E+01   -.475E+03 -.887E+02 -.103E+01   0.290E+00 0.111E+00 0.903E-02   -.296E-02 -.350E-02 -.402E-02
   0.447E+03 0.158E+03 0.177E+01   -.447E+03 -.159E+03 -.176E+01   0.304E+00 0.855E-01 -.119E-01   0.227E-02 -.418E-02 -.318E-02
   0.350E+03 0.271E+03 0.125E+01   -.350E+03 -.272E+03 -.126E+01   0.189E+00 0.247E+00 0.189E-01   0.298E-02 -.545E-03 -.702E-02
   0.281E+03 0.317E+03 0.201E+01   -.281E+03 -.317E+03 -.200E+01   0.207E+00 0.230E+00 -.702E-02   0.154E-02 0.176E-03 -.218E-02
   0.117E+03 0.369E+03 0.158E+01   -.117E+03 -.370E+03 -.159E+01   0.269E-01 0.311E+00 0.805E-02   0.269E-02 -.650E-03 -.811E-04
   0.247E+02 0.379E+03 0.192E+01   -.248E+02 -.379E+03 -.192E+01   0.552E-01 0.309E+00 -.107E-01   0.304E-03 -.139E-02 0.534E-02
   -.155E+03 0.362E+03 0.146E+01   0.155E+03 -.362E+03 -.147E+01   -.141E+00 0.281E+00 0.109E-01   -.219E-02 -.269E-02 0.357E-02
   -.239E+03 0.334E+03 0.177E+01   0.239E+03 -.334E+03 -.177E+01   -.112E+00 0.289E+00 -.146E-01   -.559E-03 -.263E-02 0.444E-02
   -.375E+03 0.250E+03 0.117E+01   0.375E+03 -.250E+03 -.118E+01   -.269E+00 0.165E+00 0.119E-01   -.525E-03 -.268E-02 -.123E-03
   -.426E+03 0.190E+03 0.149E+01   0.426E+03 -.191E+03 -.147E+01   -.249E+00 0.189E+00 -.624E-02   0.283E-03 0.116E-02 -.543E-02
   -.481E+03 0.586E+02 0.753E+00   0.482E+03 -.586E+02 -.752E+00   -.313E+00 0.507E-02 0.793E-02   -.782E-03 -.286E-02 -.680E-02
   -.486E+03 -.156E+02 0.117E+01   0.486E+03 0.156E+02 -.117E+01   -.313E+00 0.317E-01 -.160E-01   -.450E-02 -.945E-03 0.309E-02
   -.449E+03 -.152E+03 0.432E+00   0.449E+03 0.153E+03 -.442E+00   -.269E+00 -.159E+00 0.161E-01   -.369E-02 -.216E-02 0.936E-03
   -.364E+03 -.236E+03 -.150E+01   0.364E+03 0.236E+03 0.154E+01   -.249E-01 -.182E+00 -.368E-01   -.102E-02 0.402E-02 -.105E-02
   -.316E+03 -.284E+03 0.275E+00   0.317E+03 0.285E+03 -.263E+00   -.443E+00 -.541E+00 -.155E-01   0.189E-02 0.283E-02 -.332E-02
   -.173E+03 -.352E+03 -.199E+00   0.173E+03 0.352E+03 0.186E+00   -.121E+00 -.257E+00 0.195E-01   0.382E-03 0.112E-02 0.160E-02
   -.885E+02 -.375E+03 -.330E+00   0.886E+02 0.375E+03 0.313E+00   -.110E+00 -.343E+00 0.789E-02   0.190E-02 0.217E-03 0.775E-02
   0.926E+02 -.377E+03 -.121E-01   -.927E+02 0.377E+03 -.175E-01   0.968E-01 -.332E+00 0.186E-01   0.318E-03 -.940E-03 0.100E-01
   0.182E+03 -.358E+03 0.144E+01   -.182E+03 0.359E+03 -.145E+01   0.688E-01 -.319E+00 -.334E-02   -.168E-02 0.998E-03 0.803E-02
   0.333E+03 -.288E+03 0.761E+00   -.333E+03 0.288E+03 -.776E+00   0.246E+00 -.203E+00 0.144E-01   -.344E-02 -.138E-04 0.643E-02
   0.392E+03 -.235E+03 0.174E+01   -.393E+03 0.235E+03 -.174E+01   0.220E+00 -.219E+00 -.531E-02   -.385E-02 0.684E-03 0.359E-02
   0.469E+03 -.111E+03 0.851E+00   -.469E+03 0.111E+03 -.870E+00   0.307E+00 -.484E-01 0.122E-01   -.307E-02 0.161E-02 0.709E-02
   0.485E+03 -.384E+02 0.165E+01   -.485E+03 0.385E+02 -.164E+01   0.305E+00 -.731E-01 -.432E-02   -.321E-02 -.135E-02 -.112E-02
   0.472E+03 0.101E+03 0.986E+00   -.472E+03 -.102E+03 -.996E+00   0.290E+00 0.120E+00 0.107E-01   -.110E-02 -.132E-02 0.857E-03
   0.441E+03 0.170E+03 0.196E+01   -.441E+03 -.171E+03 -.195E+01   0.298E+00 0.945E-01 -.148E-01   -.347E-02 0.677E-03 0.113E-02
   0.339E+03 0.281E+03 0.146E+01   -.340E+03 -.281E+03 -.147E+01   0.183E+00 0.257E+00 0.166E-01   -.180E-02 -.866E-03 -.224E-02
   0.268E+03 0.324E+03 0.220E+01   -.268E+03 -.324E+03 -.219E+01   0.201E+00 0.236E+00 -.254E-02   0.267E-02 -.208E-02 -.104E-01
   0.101E+03 0.373E+03 0.177E+01   -.101E+03 -.373E+03 -.178E+01   0.193E-01 0.314E+00 0.139E-01   -.176E-02 -.238E-02 -.119E-01
   0.813E+01 0.380E+03 0.247E+01   -.817E+01 -.380E+03 -.246E+01   0.467E-01 0.314E+00 -.127E-01   -.549E-02 -.121E-02 -.776E-02
   -.170E+03 0.359E+03 0.235E+01   0.170E+03 -.359E+03 -.235E+01   -.154E+00 0.275E+00 0.125E-01   -.258E-02 -.179E-02 -.881E-02
   -.254E+03 0.328E+03 0.250E+01   0.254E+03 -.328E+03 -.248E+01   -.124E+00 0.284E+00 -.129E-01   -.195E-03 -.945E-03 -.229E-02
   -.385E+03 0.240E+03 0.212E+01   0.385E+03 -.240E+03 -.213E+01   -.274E+00 0.156E+00 0.973E-02   0.303E-02 -.339E-02 -.246E-02
   -.433E+03 0.179E+03 0.213E+01   0.434E+03 -.179E+03 -.213E+01   -.255E+00 0.180E+00 -.107E-01   0.371E-02 -.388E-02 0.818E-02
   -.483E+03 0.453E+02 0.143E+01   0.483E+03 -.453E+02 -.145E+01   -.314E+00 -.610E-02 0.776E-02   0.440E-02 -.348E-02 0.476E-02
   -.485E+03 -.292E+02 0.184E+01   0.485E+03 0.291E+02 -.183E+01   -.315E+00 0.220E-01 -.154E-01   0.290E-02 -.156E-02 -.913E-03
   -.442E+03 -.164E+03 0.102E+01   0.442E+03 0.165E+03 -.102E+01   -.260E+00 -.168E+00 0.141E-01   -.239E-02 0.821E-04 -.444E-02
   -.372E+03 -.248E+03 -.756E+01   0.372E+03 0.248E+03 0.757E+01   -.246E+00 -.290E+00 0.143E-02   -.547E-02 0.217E-02 -.259E-02
   -.306E+03 -.295E+03 -.608E+00   0.306E+03 0.295E+03 0.629E+00   -.167E+00 -.147E+00 -.293E-01   -.613E-02 0.381E-02 0.174E-02
   -.160E+03 -.360E+03 -.161E+01   0.160E+03 0.361E+03 0.161E+01   -.673E-01 -.321E+00 0.323E-02   0.219E-02 -.232E-02 -.650E-03
   -.720E+02 -.376E+03 0.125E+01   0.721E+02 0.376E+03 -.123E+01   -.965E-01 -.340E+00 -.194E-01   -.926E-03 -.252E-02 0.236E-02
   0.110E+03 -.374E+03 -.322E+00   -.110E+03 0.375E+03 0.320E+00   0.108E+00 -.333E+00 -.275E-02   -.287E-02 -.513E-02 0.335E-02
   0.197E+03 -.354E+03 0.396E+00   -.198E+03 0.354E+03 -.401E+00   0.100E+00 -.320E+00 -.751E-02   -.463E-03 -.204E-02 0.658E-02
   0.346E+03 -.279E+03 -.245E+00   -.346E+03 0.279E+03 0.223E+00   0.269E+00 -.210E+00 0.196E-01   0.408E-02 0.120E-02 0.789E-02
   0.403E+03 -.224E+03 0.914E+00   -.403E+03 0.225E+03 -.925E+00   0.232E+00 -.210E+00 0.389E-02   -.122E-02 0.569E-03 0.474E-02
   0.474E+03 -.979E+02 0.169E+00   -.474E+03 0.979E+02 -.189E+00   0.310E+00 -.364E-01 0.165E-01   -.244E-02 -.339E-02 0.312E-02
   0.487E+03 -.251E+02 0.141E+01   -.487E+03 0.252E+02 -.141E+01   0.306E+00 -.612E-01 -.935E-02   -.158E-02 0.162E-02 0.823E-02
   0.468E+03 0.114E+03 0.841E+00   -.468E+03 -.115E+03 -.857E+00   0.283E+00 0.129E+00 0.143E-01   0.771E-03 -.798E-04 0.527E-02
   0.435E+03 0.182E+03 0.163E+01   -.435E+03 -.182E+03 -.163E+01   0.294E+00 0.108E+00 -.953E-02   0.158E-02 -.162E-03 0.309E-02
   0.328E+03 0.291E+03 0.109E+01   -.329E+03 -.291E+03 -.111E+01   0.182E+00 0.272E+00 0.256E-01   0.606E-02 -.149E-02 0.427E-02
   0.254E+03 0.332E+03 0.209E+01   -.255E+03 -.332E+03 -.210E+01   0.192E+00 0.241E+00 -.226E-02   0.355E-02 -.316E-02 0.992E-02
   0.856E+02 0.377E+03 0.161E+01   -.856E+02 -.377E+03 -.163E+01   0.888E-02 0.320E+00 0.149E-01   -.120E-02 -.274E-02 0.952E-02
   -.791E+01 0.381E+03 0.293E+01   0.788E+01 -.381E+03 -.291E+01   0.337E-01 0.312E+00 -.178E-01   -.952E-03 -.405E-02 -.141E-02
   -.185E+03 0.355E+03 0.325E+01   0.185E+03 -.355E+03 -.325E+01   -.161E+00 0.268E+00 0.140E-01   0.291E-02 -.159E-02 -.110E-02
   -.267E+03 0.322E+03 0.336E+01   0.267E+03 -.322E+03 -.335E+01   -.136E+00 0.286E+00 -.107E-01   0.401E-02 -.209E-02 -.386E-02
   -.394E+03 0.230E+03 0.361E+01   0.394E+03 -.230E+03 -.362E+01   -.273E+00 0.147E+00 0.943E-02   0.358E-04 -.554E-02 -.270E-02
   -.440E+03 0.167E+03 0.347E+01   0.440E+03 -.167E+03 -.344E+01   -.260E+00 0.170E+00 -.137E-01   0.262E-02 -.447E-02 -.937E-02
   -.483E+03 0.319E+02 0.283E+01   0.484E+03 -.319E+02 -.282E+01   -.310E+00 -.177E-01 0.752E-02   0.220E-02 0.102E-02 -.693E-02
   -.483E+03 -.427E+02 0.283E+01   0.483E+03 0.427E+02 -.283E+01   -.315E+00 0.114E-01 -.129E-01   0.237E-02 -.454E-02 0.237E-02
   -.435E+03 -.177E+03 0.181E+01   0.435E+03 0.177E+03 -.182E+01   -.256E+00 -.175E+00 0.907E-02   0.640E-03 -.248E-02 0.400E-02
   -.369E+03 -.256E+03 -.515E+01   0.369E+03 0.256E+03 0.514E+01   -.215E+00 -.261E+00 0.122E-01   -.116E-02 0.132E-02 -.294E-05
   -.302E+03 -.305E+03 -.310E+01   0.303E+03 0.306E+03 0.314E+01   -.219E+00 -.236E+00 -.392E-01   -.665E-02 0.930E-03 -.153E-02
   -.145E+03 -.366E+03 -.261E+01   0.145E+03 0.366E+03 0.261E+01   -.516E-01 -.304E+00 0.564E-02   -.207E-02 -.126E-02 0.694E-03
   -.552E+02 -.380E+03 -.102E+01   0.552E+02 0.381E+03 0.103E+01   -.914E-01 -.319E+00 -.182E-01   0.320E-02 -.308E-02 0.110E-02
   0.126E+03 -.372E+03 -.178E+01   -.127E+03 0.372E+03 0.178E+01   0.119E+00 -.298E+00 0.476E-02   -.264E-02 -.331E-02 -.299E-02
   0.214E+03 -.349E+03 -.261E+00   -.214E+03 0.349E+03 0.287E+00   0.957E-01 -.313E+00 -.315E-01   0.186E-02 -.439E-02 -.358E-02
   0.357E+03 -.270E+03 -.928E+00   -.358E+03 0.270E+03 0.932E+00   0.265E+00 -.187E+00 0.974E-02   0.572E-02 -.568E-03 -.608E-02
   0.412E+03 -.214E+03 0.272E+00   -.412E+03 0.214E+03 -.258E+00   0.243E+00 -.198E+00 -.194E-01   0.681E-02 0.265E-02 0.399E-02
   0.477E+03 -.845E+02 -.352E+00   -.478E+03 0.845E+02 0.350E+00   0.313E+00 -.272E-01 0.142E-02   0.610E-02 0.404E-02 -.996E-03
   0.488E+03 -.121E+02 0.382E+00   -.488E+03 0.122E+02 -.376E+00   0.312E+00 -.496E-01 -.553E-02   0.280E-02 -.274E-02 -.235E-02
   0.464E+03 0.128E+03 -.256E+00   -.464E+03 -.128E+03 0.234E+00   0.286E+00 0.133E+00 0.236E-01   0.307E-04 0.290E-02 0.253E-02
   0.428E+03 0.195E+03 0.928E+00   -.429E+03 -.195E+03 -.930E+00   0.302E+00 0.115E+00 -.493E-02   -.666E-03 0.247E-02 0.403E-02
   0.317E+03 0.300E+03 0.229E+00   -.317E+03 -.300E+03 -.254E+00   0.168E+00 0.280E+00 0.286E-01   0.252E-02 0.301E-03 -.944E-03
   0.241E+03 0.339E+03 0.169E+01   -.241E+03 -.339E+03 -.169E+01   0.188E+00 0.258E+00 -.361E-02   0.467E-02 0.783E-04 0.348E-03
   0.693E+02 0.379E+03 0.938E+00   -.692E+02 -.379E+03 -.951E+00   -.804E-02 0.331E+00 0.216E-01   -.653E-02 0.145E-03 -.458E-02
   -.234E+02 0.381E+03 0.255E+01   0.234E+02 -.382E+03 -.255E+01   0.219E-01 0.310E+00 -.779E-02   -.785E-02 -.186E-02 0.339E-02
   -.198E+03 0.351E+03 0.302E+01   0.198E+03 -.352E+03 -.306E+01   -.156E+00 0.280E+00 0.442E-01   0.921E-03 -.247E-02 -.187E-02
   -.279E+03 0.317E+03 0.514E+01   0.280E+03 -.317E+03 -.514E+01   -.146E+00 0.305E+00 -.707E-02   0.470E-02 -.168E-02 0.248E-02
   -.400E+03 0.221E+03 0.694E+01   0.400E+03 -.221E+03 -.695E+01   -.264E+00 0.134E+00 0.523E-02   0.217E-02 -.160E-02 -.418E-02
   -.444E+03 0.155E+03 0.610E+01   0.444E+03 -.155E+03 -.610E+01   -.259E+00 0.153E+00 -.178E-01   0.305E-03 -.100E-02 0.636E-02
   -.482E+03 0.179E+02 0.564E+01   0.483E+03 -.179E+02 -.566E+01   -.301E+00 -.238E-01 0.783E-02   0.258E-02 0.468E-02 0.822E-02
   -.480E+03 -.565E+02 0.458E+01   0.480E+03 0.565E+02 -.457E+01   -.309E+00 -.568E-02 -.779E-02   -.650E-04 0.684E-02 -.200E-02
   -.426E+03 -.189E+03 0.295E+01   0.427E+03 0.189E+03 -.295E+01   -.256E+00 -.189E+00 0.701E-02   0.637E-03 0.138E-02 0.710E-03
   -.359E+03 -.263E+03 -.336E+01   0.359E+03 0.264E+03 0.334E+01   -.204E+00 -.244E+00 0.163E-01   0.299E-02 -.163E-02 0.423E-02
   -.291E+03 -.312E+03 -.335E+01   0.292E+03 0.312E+03 0.335E+01   -.221E+00 -.220E+00 -.988E-02   0.275E-02 0.116E-02 0.166E-02
   -.131E+03 -.368E+03 -.300E+01   0.131E+03 0.369E+03 0.299E+01   -.435E-01 -.311E+00 0.123E-01   0.861E-02 0.128E-03 -.377E-02
   -.386E+02 -.381E+03 -.174E+01   0.387E+02 0.381E+03 0.177E+01   -.727E-01 -.313E+00 -.169E-01   0.631E-02 0.480E-03 -.126E-01
   0.142E+03 -.367E+03 -.218E+01   -.142E+03 0.367E+03 0.219E+01   0.127E+00 -.281E+00 0.545E-02   0.150E-02 0.173E-02 -.112E-01
   0.228E+03 -.342E+03 -.115E+01   -.228E+03 0.342E+03 0.117E+01   0.110E+00 -.307E+00 -.255E-01   0.243E-02 0.724E-04 -.414E-02
   0.367E+03 -.260E+03 -.167E+01   -.368E+03 0.260E+03 0.166E+01   0.260E+00 -.178E+00 0.117E-01   0.828E-02 0.584E-02 -.416E-02
   0.420E+03 -.202E+03 -.841E+00   -.421E+03 0.202E+03 0.861E+00   0.242E+00 -.195E+00 -.924E-02   0.647E-02 0.215E-02 -.913E-02
   0.480E+03 -.717E+02 -.141E+01   -.481E+03 0.718E+02 0.142E+01   0.311E+00 -.168E-01 0.596E-02   0.476E-02 0.138E-02 -.884E-02
   0.488E+03 0.168E+01 -.150E+00   -.489E+03 -.164E+01 0.167E+00   0.311E+00 -.424E-01 -.231E-01   0.456E-02 0.262E-02 0.209E-03
   0.458E+03 0.140E+03 -.878E+00   -.459E+03 -.140E+03 0.889E+00   0.277E+00 0.146E+00 0.175E-02   0.510E-03 0.311E-02 -.541E-02
   0.420E+03 0.205E+03 0.263E+00   -.421E+03 -.206E+03 -.245E+00   0.312E+00 0.137E+00 -.154E-01   -.170E-02 0.625E-02 -.512E-02
   0.303E+03 0.308E+03 -.406E+00   -.303E+03 -.308E+03 0.408E+00   0.175E+00 0.284E+00 0.275E-03   -.262E-02 0.532E-02 -.357E-02
   0.226E+03 0.344E+03 0.274E+00   -.226E+03 -.345E+03 -.267E+00   0.188E+00 0.296E+00 -.308E-03   -.293E-02 0.213E-02 -.499E-02
   0.515E+02 0.378E+03 -.129E+01   -.515E+02 -.378E+03 0.128E+01   -.765E-02 0.353E+00 0.213E-01   -.902E-02 -.650E-03 -.328E-02
   -.394E+02 0.378E+03 0.157E+01   0.394E+02 -.379E+03 -.156E+01   0.155E-01 0.329E+00 -.281E-03   -.117E-01 -.175E-02 -.688E-02
   -.205E+03 0.341E+03 0.574E+00   0.206E+03 -.341E+03 -.595E+00   -.125E+00 0.182E+00 0.305E-01   0.245E-02 -.162E-02 -.451E-02
   -.285E+03 0.310E+03 0.754E+01   0.285E+03 -.310E+03 -.754E+01   -.168E+00 0.340E+00 0.378E-02   0.267E-02 -.401E-02 -.493E-02
   -.399E+03 0.210E+03 0.127E+02   0.399E+03 -.210E+03 -.127E+02   -.227E+00 0.101E+00 0.260E-02   0.471E-02 -.473E-02 0.101E-02
   -.446E+03 0.144E+03 0.112E+02   0.446E+03 -.144E+03 -.113E+02   -.326E+00 0.170E+00 0.201E-01   0.570E-02 -.835E-03 -.583E-02
   -.479E+03 0.294E+01 0.111E+02   0.480E+03 -.291E+01 -.112E+02   -.373E+00 -.311E-01 0.500E-01   0.415E-02 0.281E-02 -.700E-02
   -.475E+03 -.716E+02 0.840E+01   0.475E+03 0.716E+02 -.840E+01   -.297E+00 -.197E-01 -.667E-02   0.369E-02 0.265E-02 -.379E-02
   -.348E+03 -.272E+03 -.248E+01   0.348E+03 0.272E+03 0.248E+01   -.193E+00 -.246E+00 0.190E-01   0.117E-02 -.128E-02 -.566E-02
   -.278E+03 -.318E+03 -.240E+01   0.279E+03 0.318E+03 0.241E+01   -.216E+00 -.226E+00 -.536E-02   0.341E-02 -.131E-02 -.374E-02
   -.115E+03 -.370E+03 -.252E+01   0.115E+03 0.371E+03 0.251E+01   -.343E-01 -.315E+00 0.711E-02   0.612E-02 -.165E-02 -.140E-02
   -.223E+02 -.380E+03 -.191E+01   0.223E+02 0.380E+03 0.192E+01   -.589E-01 -.308E+00 -.191E-01   0.956E-02 -.173E-03 0.597E-02
   0.157E+03 -.362E+03 -.226E+01   -.158E+03 0.363E+03 0.225E+01   0.136E+00 -.279E+00 0.870E-02   0.203E-02 0.290E-02 0.291E-02
   0.242E+03 -.335E+03 -.154E+01   -.242E+03 0.335E+03 0.155E+01   0.115E+00 -.294E+00 -.121E-01   0.516E-03 0.291E-02 -.840E-02
   0.377E+03 -.250E+03 -.200E+01   -.377E+03 0.250E+03 0.200E+01   0.266E+00 -.165E+00 0.112E-01   0.379E-02 0.291E-02 -.471E-02
   0.428E+03 -.190E+03 -.103E+01   -.428E+03 0.190E+03 0.105E+01   0.248E+00 -.188E+00 -.838E-02   0.567E-02 0.538E-02 -.682E-02
   0.482E+03 -.585E+02 -.166E+01   -.483E+03 0.585E+02 0.166E+01   0.314E+00 -.480E-02 0.354E-02   0.143E-03 -.282E-02 -.135E-02
   0.487E+03 0.153E+02 -.830E+00   -.487E+03 -.153E+02 0.846E+00   0.309E+00 -.279E-01 -.163E-01   0.214E-02 -.159E-02 -.582E-02
   0.451E+03 0.152E+03 -.170E+01   -.451E+03 -.152E+03 0.170E+01   0.270E+00 0.159E+00 0.103E-01   0.310E-02 -.129E-02 -.273E-02
   0.411E+03 0.217E+03 -.722E+00   -.411E+03 -.217E+03 0.730E+00   0.288E+00 0.137E+00 -.898E-02   0.367E-02 0.455E-03 0.284E-03
   0.290E+03 0.315E+03 -.142E+01   -.290E+03 -.315E+03 0.142E+01   0.144E+00 0.292E+00 -.425E-02   0.271E-02 0.187E-03 0.343E-02
   0.210E+03 0.350E+03 0.121E-01   -.210E+03 -.350E+03 0.666E-02   0.173E+00 0.295E+00 -.264E-01   0.251E-02 0.103E-02 0.382E-02
   0.349E+02 0.379E+03 0.368E+00   -.348E+02 -.379E+03 -.362E+00   -.226E-01 0.360E+00 -.453E-02   0.497E-02 0.535E-03 0.368E-02
   -.552E+02 0.373E+03 0.211E+00   0.553E+02 -.373E+03 -.211E+00   -.571E-01 0.280E+00 -.172E-01   0.120E-02 -.807E-03 0.111E-01
   -.219E+03 0.333E+03 -.300E+00   0.219E+03 -.334E+03 0.277E+00   -.297E+00 0.631E+00 0.915E-02   0.330E-02 -.452E-03 0.136E-01
   -.282E+03 0.296E+03 0.149E+01   0.281E+03 -.296E+03 -.153E+01   0.199E-01 0.183E+00 0.369E-01   0.867E-02 0.823E-03 0.435E-02
   -.391E+03 0.207E+03 0.449E+01   0.391E+03 -.207E+03 -.500E+01   -.161E+00 0.477E+00 0.507E+00   0.795E-02 0.361E-02 0.472E-02
   -.441E+03 0.133E+03 0.220E+02   0.442E+03 -.133E+03 -.220E+02   -.618E+00 0.246E+00 0.352E-01   0.584E-02 0.104E-02 0.645E-02
   -.468E+03 -.134E+02 0.221E+02   0.468E+03 0.134E+02 -.222E+02   -.650E+00 -.142E-01 0.733E-01   0.545E-03 0.384E-02 0.482E-02
   -.462E+03 -.876E+02 0.148E+02   0.463E+03 0.876E+02 -.148E+02   -.253E+00 -.222E-01 0.197E-02   -.369E-03 0.964E-02 0.300E-02
   -.337E+03 -.281E+03 -.178E+01   0.337E+03 0.281E+03 0.176E+01   -.182E+00 -.254E+00 0.160E-01   0.934E-03 0.921E-03 0.206E-02
   -.265E+03 -.324E+03 -.151E+01   0.265E+03 0.324E+03 0.152E+01   -.202E+00 -.236E+00 -.741E-02   -.286E-02 0.151E-02 0.903E-03
   -.986E+02 -.372E+03 -.195E+01   0.986E+02 0.372E+03 0.194E+01   -.217E-01 -.313E+00 0.674E-02   0.127E-02 0.149E-03 0.146E-02
   -.564E+01 -.379E+03 -.168E+01   0.568E+01 0.380E+03 0.168E+01   -.487E-01 -.307E+00 -.140E-01   0.340E-02 -.749E-03 0.312E-02
   0.173E+03 -.358E+03 -.207E+01   -.173E+03 0.358E+03 0.206E+01   0.147E+00 -.276E+00 0.127E-01   0.165E-02 -.248E-02 0.227E-02
   0.256E+03 -.328E+03 -.134E+01   -.256E+03 0.328E+03 0.134E+01   0.123E+00 -.286E+00 -.133E-01   0.941E-03 0.163E-02 0.733E-02
   0.387E+03 -.240E+03 -.184E+01   -.387E+03 0.240E+03 0.182E+01   0.273E+00 -.156E+00 0.617E-02   -.427E-02 -.785E-03 0.717E-02
   0.435E+03 -.179E+03 -.110E+01   -.435E+03 0.179E+03 0.110E+01   0.255E+00 -.178E+00 -.116E-01   -.240E-02 -.353E-02 0.634E-02
   0.484E+03 -.451E+02 -.173E+01   -.485E+03 0.451E+02 0.172E+01   0.316E+00 0.615E-02 0.640E-02   -.146E-02 -.362E-02 0.711E-02
   0.486E+03 0.290E+02 -.107E+01   -.486E+03 -.289E+02 0.107E+01   0.312E+00 -.188E-01 -.156E-01   -.148E-02 -.434E-02 0.166E-02
   0.444E+03 0.164E+03 -.188E+01   -.444E+03 -.164E+03 0.187E+01   0.263E+00 0.169E+00 0.144E-01   -.176E-02 -.418E-02 0.357E-02
   0.400E+03 0.227E+03 -.106E+01   -.400E+03 -.227E+03 0.108E+01   0.275E+00 0.147E+00 -.106E-01   0.223E-02 -.264E-02 -.105E-02
   0.275E+03 0.321E+03 -.195E+01   -.275E+03 -.322E+03 0.195E+01   0.141E+00 0.294E+00 -.329E-02   -.134E-02 -.102E-02 -.441E-03
   0.195E+03 0.355E+03 -.119E+01   -.195E+03 -.355E+03 0.121E+01   0.156E+00 0.270E+00 -.194E-01   -.235E-02 0.438E-03 -.450E-02
   0.177E+02 0.382E+03 -.196E+01   -.176E+02 -.382E+03 0.197E+01   -.403E-01 0.329E+00 0.506E-02   0.935E-04 0.226E-02 -.560E-02
   -.732E+02 0.376E+03 -.150E+01   0.732E+02 -.376E+03 0.152E+01   -.136E-02 0.334E+00 -.193E-01   0.487E-02 0.315E-02 -.333E-02
   -.235E+03 0.331E+03 -.249E+01   0.235E+03 -.331E+03 0.251E+01   -.139E+00 0.198E+00 -.146E-01   -.178E-02 0.160E-02 -.309E-02
   -.295E+03 0.290E+03 -.233E+01   0.295E+03 -.291E+03 0.239E+01   0.182E-01 0.229E+00 -.629E-01   -.375E-02 -.658E-03 0.520E-02
   -.398E+03 0.195E+03 -.730E+01   0.398E+03 -.195E+03 0.782E+01   -.146E+00 0.356E+00 -.525E+00   0.828E-03 0.244E-02 0.529E-02
   -.451E+03 0.146E+03 -.829E-01   0.448E+03 -.149E+03 0.176E+00   0.304E+01 0.235E+01 -.981E-01   0.393E-02 0.426E-02 0.331E-03
   -.480E+03 -.553E+02 0.566E-01   0.477E+03 0.583E+02 -.154E+00   0.237E+01 -.302E+01 0.963E-01   0.286E-02 0.162E-02 0.432E-02
   -.443E+03 -.114E+03 0.727E+01   0.443E+03 0.114E+03 -.780E+01   -.228E+00 -.313E+00 0.527E+00   0.215E-03 0.465E-02 0.541E-02
   -.325E+03 -.289E+03 -.122E+01   0.325E+03 0.289E+03 0.120E+01   -.175E+00 -.262E+00 0.127E-01   0.362E-02 0.618E-04 0.402E-02
   -.251E+03 -.330E+03 -.874E+00   0.251E+03 0.331E+03 0.883E+00   -.197E+00 -.242E+00 -.726E-02   0.234E-02 0.353E-03 -.423E-03
   -.821E+02 -.374E+03 -.148E+01   0.821E+02 0.374E+03 0.148E+01   -.132E-01 -.312E+00 0.648E-02   0.171E-02 -.198E-03 -.698E-03
   0.111E+02 -.379E+03 -.112E+01   -.111E+02 0.379E+03 0.114E+01   -.398E-01 -.310E+00 -.157E-01   0.506E-02 -.550E-03 -.159E-02
   0.188E+03 -.353E+03 -.159E+01   -.188E+03 0.354E+03 0.158E+01   0.156E+00 -.271E+00 0.147E-01   0.285E-02 -.391E-02 -.600E-04
   0.269E+03 -.321E+03 -.107E+01   -.270E+03 0.321E+03 0.108E+01   0.133E+00 -.280E+00 -.105E-01   0.361E-03 -.455E-02 -.127E-02
   0.396E+03 -.229E+03 -.161E+01   -.397E+03 0.229E+03 0.160E+01   0.278E+00 -.147E+00 0.691E-02   0.342E-02 0.202E-02 0.125E-03
   0.442E+03 -.167E+03 -.100E+01   -.442E+03 0.167E+03 0.101E+01   0.259E+00 -.170E+00 -.113E-01   -.230E-02 0.186E-02 0.296E-03
   0.486E+03 -.318E+02 -.165E+01   -.486E+03 0.318E+02 0.164E+01   0.315E+00 0.171E-01 0.119E-01   -.420E-02 -.553E-02 -.477E-02
   0.485E+03 0.424E+02 -.942E+00   -.485E+03 -.424E+02 0.944E+00   0.315E+00 -.105E-01 -.154E-01   -.403E-02 -.128E-02 0.712E-02
   0.436E+03 0.176E+03 -.176E+01   -.437E+03 -.176E+03 0.175E+01   0.258E+00 0.176E+00 0.103E-01   -.483E-02 0.240E-02 0.530E-02
   0.389E+03 0.238E+03 -.124E+01   -.390E+03 -.238E+03 0.125E+01   0.272E+00 0.154E+00 -.936E-02   -.395E-02 -.111E-02 -.286E-02
   0.259E+03 0.327E+03 -.225E+01   -.259E+03 -.327E+03 0.225E+01   0.125E+00 0.288E+00 0.569E-02   -.727E-03 -.181E-02 -.349E-02
   0.178E+03 0.358E+03 -.160E+01   -.178E+03 -.359E+03 0.161E+01   0.149E+00 0.271E+00 -.175E-01   -.350E-02 0.513E-03 0.441E-03
   -.516E+00 0.382E+03 -.282E+01   0.571E+00 -.382E+03 0.281E+01   -.470E-01 0.318E+00 0.960E-02   -.377E-02 0.127E-02 0.283E-02
   -.918E+02 0.375E+03 -.232E+01   0.918E+02 -.376E+03 0.233E+01   -.166E-01 0.316E+00 -.116E-01   0.304E-02 0.212E-02 -.501E-02
   -.258E+03 0.328E+03 -.479E+01   0.258E+03 -.328E+03 0.481E+01   -.192E+00 0.254E+00 -.217E-01   0.469E-02 0.429E-02 0.595E-03
   -.324E+03 0.286E+03 -.811E+01   0.324E+03 -.286E+03 0.814E+01   -.216E+00 0.336E+00 -.269E-01   0.300E-02 0.442E-02 -.381E-02
   -.423E+03 0.175E+03 -.147E+02   0.424E+03 -.175E+03 0.147E+02   -.239E+00 0.809E-01 0.311E-02   0.119E-02 0.999E-03 -.882E-03
   -.450E+03 0.104E+03 -.221E+02   0.451E+03 -.104E+03 0.222E+02   -.626E+00 0.173E+00 -.715E-01   0.200E-05 0.102E-02 0.261E-02
   -.467E+03 -.429E+02 -.220E+02   0.468E+03 0.430E+02 0.220E+02   -.660E+00 -.868E-01 -.410E-01   0.315E-02 -.236E-02 0.883E-03
   -.440E+03 -.127E+03 -.453E+01   0.440E+03 0.127E+03 0.504E+01   -.276E+00 -.424E+00 -.510E+00   0.518E-02 -.189E-02 -.219E-02
   -.312E+03 -.297E+03 -.745E+00   0.312E+03 0.298E+03 0.730E+00   -.165E+00 -.267E+00 0.115E-01   0.412E-02 -.506E-02 0.391E-02
   -.236E+03 -.336E+03 -.323E+00   0.237E+03 0.337E+03 0.332E+00   -.186E+00 -.248E+00 -.733E-02   0.261E-02 -.242E-02 0.524E-03
   -.653E+02 -.376E+03 -.998E+00   0.653E+02 0.376E+03 0.990E+00   -.619E-03 -.313E+00 0.769E-02   0.118E-02 -.250E-02 0.167E-02
   0.280E+02 -.379E+03 -.559E+00   -.280E+02 0.379E+03 0.567E+00   -.259E-01 -.312E+00 -.162E-01   0.150E-02 -.174E-02 0.168E-02
   0.203E+03 -.348E+03 -.115E+01   -.203E+03 0.349E+03 0.114E+01   0.162E+00 -.264E+00 0.150E-01   0.223E-02 -.195E-02 -.601E-03
   0.283E+03 -.314E+03 -.735E+00   -.283E+03 0.314E+03 0.741E+00   0.140E+00 -.277E+00 -.813E-02   0.190E-03 -.591E-02 0.160E-02
   0.405E+03 -.219E+03 -.133E+01   -.406E+03 0.219E+03 0.132E+01   0.280E+00 -.139E+00 0.681E-02   0.253E-02 -.503E-02 -.994E-03
   0.448E+03 -.155E+03 -.759E+00   -.449E+03 0.155E+03 0.761E+00   0.266E+00 -.163E+00 -.159E-01   0.558E-02 0.143E-02 0.777E-02
   0.487E+03 -.184E+02 -.143E+01   -.487E+03 0.183E+02 0.141E+01   0.313E+00 0.294E-01 0.121E-01   0.259E-02 -.107E-02 0.801E-02
   0.482E+03 0.559E+02 -.775E+00   -.483E+03 -.559E+02 0.788E+00   0.315E+00 0.248E-02 -.911E-02   -.142E-02 -.617E-02 -.574E-02
   0.428E+03 0.188E+03 -.164E+01   -.429E+03 -.188E+03 0.164E+01   0.248E+00 0.187E+00 0.866E-02   -.290E-02 -.153E-02 -.972E-03
   0.379E+03 0.248E+03 -.109E+01   -.379E+03 -.248E+03 0.109E+01   0.269E+00 0.162E+00 -.920E-02   -.705E-02 0.176E-02 0.337E-02
   0.244E+03 0.333E+03 -.212E+01   -.244E+03 -.333E+03 0.211E+01   0.117E+00 0.291E+00 0.740E-02   -.650E-02 0.160E-02 0.351E-02
   0.160E+03 0.361E+03 -.152E+01   -.161E+03 -.362E+03 0.153E+01   0.139E+00 0.280E+00 -.165E-01   -.182E-02 0.457E-04 -.531E-02
   -.190E+02 0.380E+03 -.272E+01   0.190E+02 -.380E+03 0.272E+01   -.598E-01 0.312E+00 0.109E-01   0.614E-02 0.520E-03 -.230E-02
   -.111E+03 0.372E+03 -.242E+01   0.111E+03 -.372E+03 0.242E+01   -.329E-01 0.314E+00 -.408E-02   0.397E-03 0.444E-03 0.499E-02
   -.275E+03 0.320E+03 -.447E+01   0.275E+03 -.320E+03 0.446E+01   -.212E+00 0.228E+00 0.444E-02   0.349E-02 0.266E-02 0.210E-02
   -.344E+03 0.275E+03 -.512E+01   0.344E+03 -.276E+03 0.514E+01   -.197E+00 0.274E+00 -.137E-01   0.224E-02 0.433E-02 -.388E-02
   -.440E+03 0.162E+03 -.834E+01   0.440E+03 -.162E+03 0.834E+01   -.282E+00 0.905E-01 0.121E-01   -.350E-02 -.433E-03 -.194E-02
   -.466E+03 0.914E+02 -.111E+02   0.466E+03 -.915E+02 0.112E+02   -.352E+00 0.120E+00 -.436E-01   -.154E-02 -.297E-02 -.444E-02
   -.475E+03 -.521E+02 -.112E+02   0.476E+03 0.522E+02 0.112E+02   -.356E+00 -.862E-01 -.237E-01   -.128E-03 -.119E-02 -.802E-02
   -.450E+03 -.127E+03 -.127E+02   0.450E+03 0.127E+03 0.127E+02   -.244E+00 -.430E-01 -.552E-02   0.982E-03 -.247E-02 0.760E-04
   -.299E+03 -.305E+03 -.298E+00   0.299E+03 0.306E+03 0.290E+00   -.155E+00 -.272E+00 0.897E-02   -.282E-03 -.297E-02 -.221E-02
   -.221E+03 -.342E+03 0.172E+00   0.222E+03 0.342E+03 -.160E+00   -.179E+00 -.255E+00 -.943E-02   0.313E-02 -.357E-02 -.164E-02
   -.483E+02 -.377E+03 -.550E+00   0.483E+02 0.378E+03 0.540E+00   0.899E-02 -.314E+00 0.968E-02   0.482E-02 -.386E-03 0.345E-02
   0.450E+02 -.378E+03 -.736E-01   -.450E+02 0.378E+03 0.858E-01   -.157E-01 -.314E+00 -.131E-01   0.104E-02 -.226E-02 -.357E-02
   0.218E+03 -.343E+03 -.749E+00   -.219E+03 0.343E+03 0.741E+00   0.172E+00 -.258E+00 0.148E-01   0.351E-02 -.527E-03 -.126E-02
   0.296E+03 -.307E+03 -.283E+00   -.297E+03 0.307E+03 0.290E+00   0.150E+00 -.275E+00 -.697E-02   0.384E-02 0.476E-03 0.900E-03
   0.414E+03 -.208E+03 -.967E+00   -.414E+03 0.208E+03 0.965E+00   0.283E+00 -.128E+00 0.724E-02   -.994E-03 -.130E-02 -.440E-02
   0.454E+03 -.142E+03 -.431E+00   -.454E+03 0.143E+03 0.443E+00   0.270E+00 -.153E+00 -.161E-01   0.109E-02 -.227E-02 -.371E-02
   0.487E+03 -.488E+01 -.114E+01   -.487E+03 0.483E+01 0.114E+01   0.311E+00 0.381E-01 0.159E-01   0.306E-02 0.202E-02 -.672E-02
   0.480E+03 0.692E+02 -.555E+00   -.480E+03 -.693E+02 0.558E+00   0.313E+00 0.134E-01 -.859E-02   0.955E-03 0.738E-03 0.317E-02
   0.420E+03 0.200E+03 -.141E+01   -.420E+03 -.200E+03 0.140E+01   0.242E+00 0.197E+00 0.687E-02   -.245E-02 0.245E-03 -.925E-03
   0.367E+03 0.258E+03 -.765E+00   -.368E+03 -.258E+03 0.774E+00   0.263E+00 0.176E+00 -.114E-01   -.321E-03 -.160E-02 0.621E-03
   0.228E+03 0.339E+03 -.177E+01   -.229E+03 -.339E+03 0.176E+01   0.102E+00 0.295E+00 0.715E-02   -.914E-03 -.184E-02 0.206E-02
   0.143E+03 0.365E+03 -.123E+01   -.143E+03 -.365E+03 0.123E+01   0.129E+00 0.284E+00 -.144E-01   -.767E-03 -.167E-02 0.104E-01
   -.369E+02 0.378E+03 -.236E+01   0.370E+02 -.379E+03 0.235E+01   -.697E-01 0.306E+00 0.112E-01   0.541E-02 -.204E-02 0.719E-02
   -.128E+03 0.367E+03 -.184E+01   0.128E+03 -.368E+03 0.185E+01   -.421E-01 0.313E+00 -.555E-02   0.586E-02 0.622E-03 0.174E-02
   -.289E+03 0.311E+03 -.325E+01   0.290E+03 -.312E+03 0.324E+01   -.222E+00 0.220E+00 0.952E-02   0.845E-02 0.537E-02 0.190E-02
   -.357E+03 0.265E+03 -.296E+01   0.357E+03 -.265E+03 0.296E+01   -.202E+00 0.244E+00 -.130E-01   0.498E-02 0.392E-02 0.782E-02
   -.449E+03 0.149E+03 -.454E+01   0.449E+03 -.149E+03 0.453E+01   -.300E+00 0.782E-01 0.129E-01   -.390E-03 0.368E-02 0.563E-02
   -.473E+03 0.778E+02 -.566E+01   0.473E+03 -.779E+02 0.566E+01   -.286E+00 0.956E-01 -.449E-02   -.324E-02 0.136E-02 0.728E-02
   -.477E+03 -.632E+02 -.610E+01   0.477E+03 0.633E+02 0.608E+01   -.290E+00 -.858E-01 0.908E-02   -.425E-02 0.183E-02 0.785E-02
   -.454E+03 -.137E+03 -.702E+01   0.454E+03 0.137E+03 0.702E+01   -.288E+00 -.663E-01 -.118E-01   -.346E-02 0.425E-02 0.401E-02
   0.621E+02 -.376E+03 0.417E+00   -.621E+02 0.377E+03 -.415E+00   -.723E-02 -.314E+00 -.121E-01   0.340E-02 0.208E-02 0.454E-02
   0.233E+03 -.337E+03 -.348E+00   -.234E+03 0.338E+03 0.333E+00   0.178E+00 -.251E+00 0.105E-01   0.640E-02 0.566E-02 0.552E-02
   0.309E+03 -.299E+03 0.195E+00   -.310E+03 0.299E+03 -.180E+00   0.159E+00 -.271E+00 -.675E-02   0.240E-02 0.247E-02 -.611E-02
   0.422E+03 -.197E+03 -.566E+00   -.423E+03 0.197E+03 0.567E+00   0.287E+00 -.119E+00 0.786E-02   0.437E-04 0.701E-03 -.588E-02
   0.460E+03 -.130E+03 -.536E-01   -.460E+03 0.130E+03 0.623E-01   0.276E+00 -.145E+00 -.154E-01   0.742E-03 0.352E-02 -.499E-03
   0.486E+03 0.861E+01 -.807E+00   -.487E+03 -.866E+01 0.801E+00   0.310E+00 0.494E-01 0.154E-01   -.676E-03 0.150E-03 -.243E-02
   0.476E+03 0.825E+02 -.205E+00   -.477E+03 -.825E+02 0.216E+00   0.312E+00 0.229E-01 -.587E-02   0.117E-02 0.152E-03 -.496E-02
   0.411E+03 0.211E+03 -.105E+01   -.411E+03 -.211E+03 0.105E+01   0.234E+00 0.204E+00 0.566E-02   0.662E-03 -.224E-03 -.485E-02
   0.356E+03 0.267E+03 -.434E+00   -.356E+03 -.267E+03 0.444E+00   0.254E+00 0.183E+00 -.132E-01   -.275E-02 0.582E-03 -.182E-02
   0.213E+03 0.344E+03 -.134E+01   -.213E+03 -.345E+03 0.134E+01   0.927E-01 0.298E+00 0.112E-01   0.284E-02 -.116E-02 -.280E-02
   0.126E+03 0.368E+03 -.756E+00   -.126E+03 -.368E+03 0.765E+00   0.116E+00 0.288E+00 -.109E-01   0.135E-02 -.222E-02 -.137E-02
   -.545E+02 0.377E+03 -.173E+01   0.546E+02 -.377E+03 0.172E+01   -.800E-01 0.304E+00 0.102E-01   -.992E-03 -.260E-02 0.150E-02
   -.145E+03 0.363E+03 -.117E+01   0.145E+03 -.364E+03 0.118E+01   -.528E-01 0.307E+00 -.822E-02   0.270E-02 -.174E-02 -.106E-02
   -.303E+03 0.303E+03 -.219E+01   0.304E+03 -.304E+03 0.219E+01   -.228E+00 0.218E+00 0.895E-02   -.783E-03 -.677E-03 -.278E-02
   -.368E+03 0.254E+03 -.182E+01   0.369E+03 -.255E+03 0.183E+01   -.205E+00 0.233E+00 -.110E-01   0.167E-02 0.196E-02 -.536E-02
   -.456E+03 0.136E+03 -.281E+01   0.457E+03 -.136E+03 0.281E+01   -.307E+00 0.666E-01 0.168E-01   -.351E-02 0.289E-03 -.755E-02
   -.478E+03 0.646E+02 -.286E+01   0.479E+03 -.647E+02 0.286E+01   -.294E+00 0.946E-01 -.242E-02   -.421E-02 -.682E-03 -.142E-03
   -.476E+03 -.757E+02 -.347E+01   0.477E+03 0.758E+02 0.345E+01   -.293E+00 -.101E+00 0.952E-02   -.207E-02 -.301E-03 0.319E-02
   -.451E+03 -.147E+03 -.367E+01   0.451E+03 0.147E+03 0.368E+01   -.301E+00 -.753E-01 -.166E-01   -.289E-02 0.145E-02 0.157E-02
   0.465E+03 -.117E+03 0.402E+00   -.465E+03 0.117E+03 -.386E+00   0.281E+00 -.133E+00 -.132E-01   -.959E-04 -.436E-02 -.755E-02
   0.486E+03 0.221E+02 -.373E+00   -.486E+03 -.222E+02 0.368E+00   0.308E+00 0.622E-01 0.143E-01   0.103E-02 -.647E-02 -.394E-02
   0.473E+03 0.956E+02 0.166E+00   -.473E+03 -.957E+02 -.166E+00   0.310E+00 0.359E-01 -.699E-02   0.117E-02 -.408E-02 0.696E-02
   0.402E+03 0.222E+03 -.642E+00   -.402E+03 -.222E+03 0.631E+00   0.227E+00 0.213E+00 0.567E-02   -.261E-02 0.941E-03 0.427E-02
   0.344E+03 0.277E+03 -.680E-01   -.344E+03 -.277E+03 0.772E-01   0.248E+00 0.193E+00 -.143E-01   -.955E-03 0.120E-02 -.660E-04
   0.197E+03 0.350E+03 -.886E+00   -.197E+03 -.350E+03 0.881E+00   0.805E-01 0.302E+00 0.156E-01   0.175E-02 0.124E-02 -.290E-02
   0.109E+03 0.371E+03 -.279E+00   -.109E+03 -.371E+03 0.289E+00   0.107E+00 0.293E+00 -.809E-02   0.193E-02 0.587E-03 -.436E-02
   -.719E+02 0.376E+03 -.114E+01   0.720E+02 -.376E+03 0.114E+01   -.900E-01 0.301E+00 0.836E-02   -.171E-02 0.256E-03 -.521E-02
   -.162E+03 0.359E+03 -.642E+00   0.162E+03 -.360E+03 0.655E+00   -.600E-01 0.306E+00 -.975E-02   -.582E-02 -.336E-02 -.330E-02
   -.317E+03 0.295E+03 -.148E+01   0.317E+03 -.296E+03 0.147E+01   -.236E+00 0.211E+00 0.101E-01   -.377E-03 -.254E-02 -.420E-03
   -.380E+03 0.245E+03 -.102E+01   0.380E+03 -.245E+03 0.103E+01   -.211E+00 0.227E+00 -.116E-01   -.936E-03 -.233E-02 -.758E-02
   -.462E+03 0.124E+03 -.182E+01   0.463E+03 -.124E+03 0.181E+01   -.310E+00 0.556E-01 0.148E-01   0.550E-03 0.182E-02 -.410E-02
   -.482E+03 0.516E+02 -.148E+01   0.482E+03 -.517E+02 0.149E+01   -.301E+00 0.850E-01 -.557E-02   -.236E-02 0.235E-02 -.580E-02
   -.474E+03 -.888E+02 -.216E+01   0.474E+03 0.889E+02 0.216E+01   -.294E+00 -.109E+00 0.937E-02   -.133E-02 0.138E-03 -.565E-02
   -.446E+03 -.159E+03 -.216E+01   0.446E+03 0.159E+03 0.217E+01   -.305E+00 -.837E-01 -.148E-01   0.310E-02 -.599E-02 -.467E-02
   0.332E+03 0.285E+03 0.329E+00   -.332E+03 -.286E+03 -.322E+00   0.239E+00 0.200E+00 -.154E-01   -.424E-02 0.478E-02 0.170E-02
   0.181E+03 0.354E+03 -.419E+00   -.181E+03 -.355E+03 0.409E+00   0.692E-01 0.305E+00 0.142E-01   0.476E-02 0.520E-03 0.132E-02
   0.924E+02 0.373E+03 0.126E+00   -.925E+02 -.374E+03 -.124E+00   0.987E-01 0.297E+00 -.717E-02   0.195E-02 0.224E-02 0.379E-02
   -.890E+02 0.374E+03 -.680E+00   0.891E+02 -.374E+03 0.670E+00   -.997E-01 0.297E+00 0.529E-02   0.202E-02 0.226E-02 0.286E-02
   -.178E+03 0.355E+03 -.162E+00   0.178E+03 -.356E+03 0.172E+00   -.709E-01 0.303E+00 -.129E-01   0.355E-02 0.235E-02 -.699E-03
   -.329E+03 0.287E+03 -.918E+00   0.330E+03 -.287E+03 0.910E+00   -.241E+00 0.200E+00 0.131E-01   0.321E-02 0.236E-02 0.282E-03
   -.390E+03 0.234E+03 -.432E+00   0.390E+03 -.234E+03 0.432E+00   -.220E+00 0.221E+00 -.117E-01   0.185E-02 0.162E-02 0.651E-02
   -.467E+03 0.111E+03 -.116E+01   0.467E+03 -.111E+03 0.115E+01   -.309E+00 0.457E-01 0.106E-01   0.856E-03 0.282E-02 0.574E-02
   -.484E+03 0.383E+02 -.786E+00   0.484E+03 -.384E+02 0.793E+00   -.305E+00 0.738E-01 -.741E-02   0.159E-02 0.548E-02 0.189E-02
   -.470E+03 -.102E+03 -.151E+01   0.470E+03 0.102E+03 0.150E+01   -.285E+00 -.122E+00 0.767E-02   0.157E-02 0.260E-02 0.395E-02
   -.439E+03 -.171E+03 -.119E+01   0.439E+03 0.171E+03 0.120E+01   -.301E+00 -.929E-01 -.136E-01   0.940E-04 0.825E-03 -.937E-03
   -.194E+03 0.351E+03 0.292E+00   0.194E+03 -.351E+03 -.287E+00   -.847E-01 0.302E+00 -.155E-01   0.265E-02 0.113E-02 0.412E-02
   -.342E+03 0.278E+03 -.437E+00   0.342E+03 -.278E+03 0.425E+00   -.250E+00 0.192E+00 0.139E-01   0.269E-02 0.709E-03 0.347E-02
   -.400E+03 0.224E+03 0.581E-01   0.400E+03 -.224E+03 -.513E-01   -.226E+00 0.212E+00 -.851E-02   0.307E-02 0.241E-02 -.883E-04
   -.472E+03 0.981E+02 -.659E+00   0.472E+03 -.981E+02 0.652E+00   -.312E+00 0.360E-01 0.903E-02   -.551E-03 0.360E-02 -.216E-02
   -.485E+03 0.249E+02 -.240E+00   0.486E+03 -.250E+02 0.247E+00   -.307E+00 0.643E-01 -.101E-01   -.767E-03 0.166E-02 0.383E-02
   -.466E+03 -.115E+03 -.961E+00   0.466E+03 0.115E+03 0.950E+00   -.284E+00 -.132E+00 0.101E-01   -.200E-02 0.118E-02 0.482E-02
   -.432E+03 -.183E+03 -.528E+00   0.432E+03 0.183E+03 0.536E+00   -.295E+00 -.106E+00 -.138E-01   0.189E-02 0.244E-02 0.550E-03
   -.486E+03 0.114E+02 0.259E+00   0.486E+03 -.115E+02 -.247E+00   -.310E+00 0.529E-01 -.117E-01   -.432E-02 0.495E-02 -.321E-02
   -.461E+03 -.127E+03 -.463E+00   0.461E+03 0.128E+03 0.461E+00   -.278E+00 -.142E+00 0.140E-01   -.409E-02 0.118E-02 -.563E-02
   -.424E+03 -.194E+03 -.299E-01   0.424E+03 0.194E+03 0.326E-01   -.291E+00 -.115E+00 -.112E-01   -.307E-02 0.344E-03 0.370E-02
   -.100E+04 0.102E+03 0.678E-02   0.101E+04 -.102E+03 -.137E-01   -.330E+01 0.414E+00 0.222E-02   -.101E-02 0.390E-02 0.551E-02
 -----------------------------------------------------------------------------------------------
   -.231E+01 0.271E+00 -.723E-02   0.455E-12 -.446E-11 0.424E-12   0.212E+01 -.283E+00 -.726E-03   0.186E+00 0.156E-01 0.653E-02
 
 
 POSITION                                       TOTAL-FORCE (eV/Angst)
 -----------------------------------------------------------------------------------
     12.00907     10.72449      0.09931        -0.000207      0.001219     -0.003832
     11.93863     10.83455      2.54386        -0.000578      0.001918     -0.001152
     10.94349     11.85379      2.47067        -0.000188     -0.000004     -0.000657
     10.37500     12.18060      1.21048         0.001750      0.001467     -0.002731
      8.99330     12.52647      1.13699        -0.002623     -0.000613      0.003940
     11.86359     10.94242      4.98821        -0.002439      0.001886      0.000246
     10.83384     11.92657      4.91488        -0.001711      0.000531     -0.000358
     10.25469     12.23337      3.65468         0.001774      0.000012     -0.005010
      8.86180     12.53113      3.58087        -0.002314      0.000593      0.006602
      8.20770     12.48828      2.32094         0.002277      0.000335     -0.001963
      6.86582     12.01068      2.24771        -0.003209     -0.000999     -0.001363
      6.33154     11.63057      0.98771        -0.000539     -0.001700     -0.000499
      5.43963     10.51999      0.91457        -0.000150     -0.000473      0.003021
     11.78363     11.04831      7.43229        -0.000760      0.000801      0.000691
     10.72086     11.99661      7.35884         0.000263      0.001734      0.001711
     10.13196     12.28255      6.09865        -0.001455      0.002451     -0.007972
      8.72963     12.53198      6.02472        -0.002022      0.001277      0.007283
      8.07776     12.46606      4.76470         0.000746      0.000934     -0.001545
      6.75328     11.94244      4.69164        -0.005006      0.000789      0.000307
      6.23263     11.54417      3.43161        -0.001008      0.000573     -0.001443
      5.37959     10.40355      3.35833        -0.002273      0.000266      0.005024
      5.14519      9.79100      2.09861         0.000650     -0.001468     -0.005498
      5.01747      8.37237      2.02535         0.000971     -0.002162      0.002717
      5.13940      7.72757      0.76559        -0.000850      0.001064      0.002344
      5.77518      6.45295      0.69270        -0.002391     -0.001566      0.002053
     11.70004     11.15296      9.87622        -0.000937      0.001430      0.000410
     10.60558     12.06489      9.80287         0.002734      0.001575      0.002239
     10.00701     12.32907      8.54244         0.002574      0.002515     -0.007637
      8.59710     12.52963      8.46862        -0.002068      0.001899      0.005859
      7.94806     12.44041      7.20844         0.000834      0.001022     -0.000232
      6.64255     11.87113      7.13566        -0.003255      0.001348     -0.002413
      6.13616     11.45480      5.87567         0.000673     -0.000411     -0.003784
      5.32303     10.28536      5.80233         0.001126     -0.000058      0.005844
      5.11038      9.66490      4.54245        -0.000686      0.000124     -0.003196
      5.03175      8.24276      4.46936         0.000603     -0.002096     -0.000360
      5.17612      7.60255      3.20951        -0.002410      0.003160      0.001177
      5.85542      6.35056      3.13652        -0.000187      0.000456      0.002087
      6.31408      5.88100      1.87690         0.000644      0.000125     -0.005300
      7.54927      5.17162      1.80350         0.001473      0.000617      0.005687
      8.18598      5.01238      0.54365        -0.002755      0.000531      0.000845
      9.60969      5.05688      0.47074         0.001285      0.000700     -0.000488
     12.00016     10.72745     13.57992         0.002833      0.000531     -0.002057
     11.61308     11.25561     12.32005         0.000414     -0.000325      0.000029
     10.48875     12.12995     12.24742         0.001405     -0.002188      0.003475
      9.88115     12.37342     10.98644         0.001166      0.002181     -0.004457
      8.46506     12.52455     10.91293         0.000483      0.001019      0.005387
      7.81933     12.41174      9.65271         0.000853      0.002166      0.003358
      6.53458     11.79677      9.58004        -0.000832      0.000840      0.000694
      6.04308     11.36240      8.32001        -0.000286      0.000380     -0.006497
      5.27143     10.16530      8.24666         0.000239      0.001269      0.008311
      5.07990      9.53788      6.98667        -0.001378      0.001830     -0.001194
      5.05050      8.11381      6.91370        -0.000506      0.000440     -0.000856
      5.21667      7.47900      5.65376        -0.000567     -0.000076     -0.001905
      5.93881      6.25125      5.58050        -0.001070      0.001763      0.004431
      6.41370      5.79785      4.32083        -0.002072     -0.000620     -0.005390
      7.67270      5.13170      4.24763        -0.001858     -0.000869      0.001837
      8.31474      4.99441      2.98788        -0.003435      0.000790      0.001302
      9.73615      5.08808      2.91513        -0.001394     -0.001204      0.001774
     10.35435      5.30798      1.65518         0.001384     -0.000806     -0.007016
     11.51520      6.13344      1.58165         0.000898     -0.000881      0.005589
     11.92607      6.64484      0.32148         0.000862     -0.002619     -0.000657
     12.48167      7.95641      0.24846         0.001039      0.000871     -0.000698
     11.92389     10.82630     16.02334         0.004768     -0.000304     -0.002929
     11.52156     11.34898     14.76379         0.001921     -0.001001     -0.003430
     10.36935     12.18496     14.69257         0.003073     -0.005105      0.004395
      9.75469     12.41277     13.43173        -0.000641     -0.003341     -0.002509
      8.33383     12.51533     13.35842        -0.003240     -0.002654      0.001596
      7.69242     12.37945     12.09765        -0.000504      0.001954      0.003032
      6.43077     11.71868     12.02475        -0.000965      0.000392      0.002707
      5.95412     11.26735     10.76469         0.000285     -0.001261     -0.006145
      5.22510     10.04367     10.69138         0.001218     -0.000188      0.007350
      5.05479      9.41001      9.43137         0.000996      0.001023     -0.000265
      5.07458      7.98577      9.35841         0.000212     -0.000798     -0.000136
      5.26207      7.35710      8.09821        -0.000923     -0.001279     -0.003873
      6.02570      6.15488      8.02458        -0.001481      0.000200      0.005713
      6.51557      5.71806      6.76489        -0.001703     -0.001931     -0.002748
      7.79671      5.09538      6.69188         0.002597     -0.002710     -0.000354
      8.44346      4.98082      5.43216        -0.001216      0.000290      0.001442
      9.86068      5.12339      5.35938         0.001225     -0.001528      0.001734
     10.47151      5.36441      4.09963        -0.000748      0.000320     -0.005177
     11.60340      6.22922      4.02633        -0.000400     -0.000835      0.005510
     11.99662      6.75447      2.76622         0.001061     -0.001332      0.001857
     12.50683      8.08441      2.69336         0.000540      0.002979     -0.001555
     12.56583      8.73774      1.43308        -0.000862     -0.002339     -0.005745
     12.30170     10.13741      1.35944         0.000257      0.001590      0.006762
     11.85132     10.90124     18.46701         0.006738     -0.005064     -0.000405
     11.42106     11.41557     17.20999         0.000485     -0.004751     -0.006233
     10.24588     12.21851     17.13898        -0.001576     -0.007421      0.006818
      9.62623     12.43734     15.87824         0.000784     -0.008217     -0.001266
      8.20361     12.49665     15.80460        -0.002404     -0.006317     -0.000903
      7.56671     12.34250     14.54294         0.003335     -0.001929      0.001184
      6.32929     11.63711     14.46963         0.001050     -0.000611      0.003658
      5.86972     11.16869     13.20960        -0.001625      0.000871     -0.005748
      5.18462      9.91987     13.13633        -0.002158      0.000925      0.002987
      5.03593      9.28086     11.87603         0.001008      0.001439      0.001706
      5.10403      7.85831     11.80297        -0.000130     -0.000663      0.000594
      5.31192      7.23639     10.54271         0.000265     -0.000677     -0.005683
      6.11552      6.06032     10.46887        -0.001330     -0.000045      0.007876
      6.62023      5.64101      9.20908        -0.004154     -0.001959     -0.000894
      7.92148      5.06187      9.13616        -0.000564     -0.001833     -0.001227
      8.57196      4.97033      7.87630        -0.003861     -0.000415     -0.001728
      9.98339      5.16191      7.80344         0.000302     -0.000927      0.003300
     10.58576      5.42462      6.54405         0.001575      0.000352     -0.006141
     11.68720      6.32818      6.47103        -0.001586     -0.000648      0.002730
     12.06270      6.86666      5.21099        -0.001869     -0.002631      0.002473
     12.52653      8.21345      5.13810        -0.000602      0.004288      0.002098
     12.56358      8.86834      3.87785        -0.001055     -0.001938     -0.007342
     12.25123     10.25810      3.80402        -0.001570      0.002666      0.007269
     11.77128     11.00037     20.92252         0.003989     -0.005236      0.002461
     11.32854     11.48697     19.65737         0.002150     -0.004839     -0.006618
     10.12822     12.24249     19.58382         0.001864     -0.009026      0.008135
      9.49768     12.44485     18.32342         0.001783     -0.009983     -0.001808
      8.07515     12.46705     18.25006         0.000881     -0.008569     -0.001028
      7.44271     12.29702     16.98893        -0.000460     -0.005202     -0.002747
      6.22933     11.55089     16.91510        -0.002458     -0.000358      0.005513
      5.78772     11.06681     15.65429        -0.005780      0.000790     -0.003478
      5.14729      9.79503     15.58105        -0.003456     -0.002220      0.000185
      5.02122      9.15108     14.32070        -0.000819      0.001378      0.001998
      5.13684      7.73144     14.24754        -0.000277     -0.000913      0.002083
      5.36610      7.11693     12.98748         0.000103     -0.001410     -0.007724
      6.20797      5.96797     12.91371        -0.001070      0.000970      0.006838
      6.72675      5.56616     11.65339        -0.002318     -0.001122      0.001679
      8.04659      5.03121     11.58050         0.001722      0.000332      0.000560
      8.70001      4.96218     10.32092        -0.001620      0.000256     -0.002905
     10.10426      5.20335     10.24778         0.000295     -0.001703      0.006320
     10.69707      5.48810      8.98840         0.001101      0.000077     -0.003563
     11.76562      6.43015      8.91543        -0.003602     -0.000243     -0.000512
     12.12315      6.98135      7.65562        -0.002252     -0.000733     -0.000825
     12.53997      8.34358      7.58255        -0.003403      0.001340      0.000722
     12.55535      8.99910      6.32249        -0.002616     -0.001842     -0.006955
     12.19505     10.37731      6.24861         0.000310      0.001846      0.005958
     11.69086     11.13874     23.36415         0.004740     -0.003449      0.003812
     11.22777     11.58692     22.10333        -0.000009     -0.004578     -0.007096
     10.00169     12.30887     22.02784        -0.000652     -0.008720      0.006286
      9.36825     12.46546     20.76826         0.001126     -0.009885     -0.000657
      7.94707     12.43938     20.69514        -0.001118     -0.008406     -0.001690
      7.31996     12.24351     19.43420         0.000253     -0.006419     -0.006095
      6.13388     11.46006     19.36043        -0.001510     -0.001705      0.005721
      5.70762     10.96215     18.09914        -0.005876      0.001492     -0.001875
      5.11196      9.66895     18.02616        -0.008128     -0.002374     -0.000530
      5.00906      9.02100     16.76585        -0.004350      0.002175     -0.000317
      5.17245      7.60621     16.69255        -0.005710      0.001127      0.002943
      5.42304      6.99920     15.43215        -0.002017      0.002122     -0.005626
      6.30283      5.87947     15.35857        -0.002006      0.003411      0.005406
      6.83499      5.49460     14.09851        -0.003501      0.001616      0.000975
      8.17339      5.00649     14.02578         0.004828      0.003667     -0.000218
      8.82847      4.95921     12.76618        -0.002324      0.002896     -0.005559
     10.22306      5.24950     12.69238         0.001962      0.001656      0.007185
     10.80540      5.55462     11.43243         0.001523      0.001120     -0.001784
     11.83887      6.53518     11.35890        -0.000772     -0.000394     -0.002123
     12.17734      7.09857     10.09991        -0.002085     -0.001140     -0.000606
     12.54637      8.47483     10.02649        -0.002626      0.001854      0.003316
     12.54035      9.13016      8.76655        -0.003121      0.000942     -0.005536
     12.13369     10.49526      8.69286        -0.000982      0.001843      0.002611
     11.61360     11.25361     25.80803         0.003702     -0.003080      0.004322
     11.13755     11.70237     24.54836         0.002451     -0.004337     -0.003577
      9.88137     12.37120     24.47359         0.001521     -0.004832      0.001558
      9.23985     12.50473     23.21265         0.001189     -0.008607      0.000030
      7.81848     12.41749     23.14012        -0.001184     -0.006096      0.001335
      7.20016     12.19618     21.88062        -0.002125     -0.004990     -0.008080
      6.04129     11.36816     21.80690        -0.002541      0.000463      0.007487
      5.63320     10.85376     20.54652        -0.006243      0.002812     -0.001956
      5.08313      9.54185     20.47322        -0.009504     -0.000761     -0.001550
      5.00195      8.89072     19.21143        -0.007737      0.003782     -0.002006
      5.21294      7.48386     19.13777        -0.005806      0.001333      0.004893
      5.48240      6.88498     17.87752        -0.003473      0.000702     -0.003801
      6.40247      5.79779     17.80421        -0.001622      0.005021      0.002446
      6.94736      5.43114     16.54463        -0.001886      0.005248      0.002206
      8.30362      4.99715     16.47208         0.003102      0.007067      0.003453
      8.95832      4.96858     15.21134         0.000045      0.006620     -0.006589
     10.34021      5.30860     15.13637         0.001931      0.001836      0.007089
     10.91187      5.62632     13.87668         0.003048      0.002262     -0.001966
     11.91041      6.64375     13.80182         0.004593     -0.000524     -0.001975
     12.22607      7.21897     12.54255         0.004607     -0.002242     -0.006067
     12.54716      8.60630     12.46865         0.002214      0.000799      0.001684
     12.51939      9.26145     11.20935         0.001168     -0.003843     -0.003122
     12.06842     10.61262     11.13645        -0.001516      0.002667     -0.000381
     11.52837     11.34861     28.25225        -0.000137      0.000230      0.004277
     11.03854     11.78765     26.99241         0.000563     -0.001314     -0.002775
      9.75793     12.41161     26.91902        -0.001463     -0.001863     -0.001563
      9.11136     12.52703     25.65925        -0.000225     -0.004796      0.001695
      7.69399     12.38300     25.58625        -0.000072     -0.000194      0.002513
      7.08358     12.14098     24.32619        -0.002141     -0.002652     -0.007116
      5.95557     11.27178     24.25245        -0.000405     -0.000349      0.005377
      5.56361     10.74510     22.99187        -0.005629      0.003085      0.001802
      5.05766      9.41387     22.91878        -0.006164     -0.001912      0.000227
      4.99836      8.76058     21.65853        -0.006882      0.001441     -0.006520
      5.25832      7.36072     21.58512        -0.005574      0.000167      0.007112
      5.54949      6.77338     20.32392        -0.001163      0.002311     -0.002526
      6.50713      5.72297     20.25067         0.000929      0.004108     -0.000574
      7.06671      5.37874     18.98970         0.000361      0.007695      0.001979
      8.43776      5.00400     18.91636         0.005556      0.009258      0.004181
      9.09016      5.00006     17.65685         0.002510      0.008471     -0.004528
     10.45581      5.39889     17.58142         0.004096      0.003808      0.006192
     11.01488      5.71942     16.32057         0.004508      0.001313      0.001230
     11.98446      6.76017     16.24375         0.007023      0.000436     -0.001256
     12.27766      7.34056     14.98155         0.006383     -0.003474     -0.005783
     12.55113      8.73637     14.90728         0.007417      0.000421      0.005540
     12.49681      9.39141     13.65136         0.005450     -0.003510     -0.002569
     11.44020     11.43950     30.69622        -0.002123     -0.000722      0.007957
     10.93507     11.86110     29.43696         0.000773      0.002397     -0.000853
      9.63306     12.43978     29.36430        -0.004381      0.001392     -0.001993
      8.98249     12.53365     28.10473         0.002485      0.000157     -0.003466
      7.57165     12.33991     28.03139        -0.001997      0.001147      0.002324
      6.96989     12.07816     26.77106         0.001215     -0.000240     -0.004279
      5.87151     11.17137     26.69741        -0.001533      0.001214      0.002364
      5.49835     10.63221     25.43708        -0.002565      0.002535      0.002509
      5.03729      9.28462     25.36384        -0.001417     -0.001600      0.001057
      5.00146      8.62956     24.10355        -0.003536      0.003009     -0.005923
      5.31016      7.23954     24.02994        -0.003264     -0.000949      0.007524
      5.61962      6.66196     22.76914        -0.002111      0.001181     -0.001331
      6.61292      5.64096     22.69580        -0.001011      0.005375     -0.002175
      7.18430      5.32087     21.43475        -0.001326      0.005553     -0.003901
      8.56838      4.99222     21.36101         0.003903      0.009307      0.004447
      9.22935      5.03329     20.10070        -0.001364      0.008832     -0.006459
     10.57831      5.47094     20.02750         0.006966      0.004195     -0.000309
     11.12673      5.83398     18.76222         0.004439      0.002745      0.000822
     12.11253      6.84486     18.67411         0.007290     -0.001484     -0.000377
     12.36685      7.44859     17.42414         0.008551     -0.001590     -0.007221
     12.59252      8.86848     17.34946         0.008157     -0.000994      0.007089
     12.47456      9.51465     16.09287         0.008310     -0.002177     -0.001877
     11.34825     11.52832     33.14051        -0.001383      0.000127      0.006122
     10.82849     11.93086     31.88116         0.004754      0.001195     -0.000255
      9.50741     12.46336     31.80868        -0.002303      0.002131     -0.000873
      8.85400     12.53442     30.54905         0.001625      0.002417     -0.004937
      7.45027     12.29318     30.47569        -0.000976      0.002354      0.005721
      6.85784     12.01102     29.21592        -0.001607     -0.000534     -0.004467
      5.78987     11.06854     29.14239        -0.000785      0.000375     -0.001538
      5.43524     10.51708     27.88190         0.000253      0.002369     -0.000216
      5.01950      9.15498     27.80845         0.001813     -0.002631      0.001336
      5.00670      8.49912     26.54815         0.000164      0.002328     -0.006334
      5.36472      7.12049     26.47464        -0.000783     -0.001841      0.005751
      5.69550      6.55380     25.21454        -0.001509      0.000327      0.000708
      6.72181      5.56612     25.14153         0.000443      0.002812     -0.001414
      7.30131      5.26020     23.88006        -0.000265      0.004973     -0.005904
      8.69471      4.96745     23.80602         0.003051      0.007562      0.006410
      9.34923      5.02741     22.54537        -0.000981      0.007541     -0.002720
     10.68554      5.51715     22.47483         0.006883      0.002443      0.000098
     11.22906      5.91031     21.21783         0.004894      0.000880     -0.000326
     12.17604      6.96055     21.16220         0.007174     -0.000879      0.003965
     12.62494      7.48525     19.87960         0.007401      0.001335     -0.004261
     12.81788      9.03164     19.80516         0.006775     -0.002440      0.003256
     12.51138      9.65057     18.52247         0.008923     -0.004266     -0.001339
     11.25262     11.61488     35.58504        -0.003301     -0.000839      0.003943
     10.71967     11.99866     34.32522         0.001195      0.000762      0.001224
      9.38092     12.48507     34.25268        -0.004415      0.000741      0.000312
      8.72558     12.53272     32.99320        -0.001573      0.000961     -0.006292
      7.33072     12.24378     32.91981        -0.002244      0.001465      0.006823
      6.74804     11.94089     31.66025         0.000522      0.001349     -0.001367
      5.71226     10.96330     31.58701        -0.000837      0.000571     -0.001103
      5.37580     10.40032     30.32667        -0.001055      0.000917     -0.001251
      5.00630      9.02473     30.25314         0.001714     -0.001287      0.004698
      5.01575      8.36894     28.99301         0.001834     -0.000273     -0.006445
      5.42230      7.00385     28.91967        -0.000048     -0.002731      0.002048
      5.77362      6.44950     27.65945        -0.000404     -0.000732      0.001082
      6.83419      5.49890     27.58657        -0.002988     -0.000496      0.000180
      7.42264      5.20968     26.32600        -0.001075      0.000799     -0.007949
      8.82497      4.95914     26.25245         0.003966      0.003470      0.005336
      9.47703      5.02886     24.99170        -0.000196      0.005154     -0.000810
     10.79924      5.55614     24.92099         0.006849      0.002326     -0.002176
     11.31772      5.96438     23.66157         0.004738      0.001779     -0.001186
     12.17339      7.10088     23.59170         0.007763     -0.001565      0.005625
     12.44668      7.69856     22.33526         0.008048      0.001089     -0.004696
     12.57688      9.13048     22.26091         0.007068      0.000350      0.000266
     12.47879      9.77834     21.01081         0.005931     -0.002153      0.000033
     11.15308     11.69811     38.02959        -0.001592     -0.000154      0.001285
     10.60769     12.06339     36.76957         0.004025      0.000840      0.002344
      9.25295     12.50353     36.69679        -0.002792     -0.000346      0.001459
      8.59672     12.52812     35.43719         0.002426      0.000056     -0.006920
      7.21280     12.19123     35.36379        -0.004631      0.000946      0.006618
      6.64095     11.86829     34.10417        -0.001775      0.000419     -0.001153
      5.63900     10.85587     34.03124        -0.000763      0.000748     -0.001206
      5.32128     10.28158     32.77139        -0.000176      0.000790     -0.005844
      4.99917      8.89411     32.69777        -0.000097     -0.000878      0.004419
      5.03052      8.23901     31.43766         0.001231      0.002532     -0.001895
      5.48448      6.88903     31.36451        -0.001227     -0.002439     -0.000236
      5.85458      6.34765     30.10423         0.000105     -0.001352      0.000513
      6.94864      5.43559     30.03131         0.001203     -0.000654      0.002182
      7.54717      5.16768     28.77125        -0.001302     -0.001692     -0.006602
      8.95688      4.96550     28.69773        -0.000318      0.000285      0.005506
      9.60602      5.05236     27.43682        -0.004085      0.001899     -0.001320
     10.91060      5.62388     27.36460         0.002409      0.000473     -0.001480
     11.41573      6.04098     26.10491         0.003067      0.000934     -0.003392
     12.22496      7.21441     26.03313         0.006750      0.001581      0.007046
     12.43837      7.83642     24.77735         0.009144     -0.002718     -0.000887
     12.51621      9.25666     24.70355         0.008626      0.000589      0.000784
     12.37496      9.89164     23.44132         0.007372     -0.003841     -0.000341
     11.04999     11.77767      0.02617        -0.002543      0.001512     -0.001473
     10.49283     12.12417     39.21409         0.001851      0.000331      0.000519
      9.12379     12.51747     39.14094        -0.003760     -0.001298      0.002870
      8.46745     12.51961     37.88116         0.001733     -0.000535     -0.004444
      7.09595     12.13516     37.80776        -0.003084      0.000070      0.005105
      6.53591     11.79262     36.54809        -0.000983     -0.000563      0.000602
      5.56958     10.74610     36.47527        -0.000736      0.001771      0.000885
      5.27205     10.16111     35.21561        -0.002107      0.001322     -0.007573
      4.99788      8.76351     35.14197        -0.000827     -0.002377      0.006953
      5.05118      8.10974     33.88204        -0.000645      0.003080     -0.002790
      5.55158      6.77624     33.80902        -0.000350     -0.002024     -0.002358
      5.94003      6.24821     32.54887         0.000671     -0.000016     -0.001171
      7.06576      5.37561     32.47565        -0.002707      0.000339      0.003613
      7.67315      5.12976     31.21551        -0.000373     -0.002865     -0.006891
      9.08915      4.97730     31.14190         0.000540     -0.000408      0.003362
      9.73463      5.08633     29.88144        -0.001302     -0.002108      0.001507
     11.01941      5.70174     29.80826         0.001150     -0.001610      0.001528
     11.50956      6.13531     28.54828        -0.000220     -0.000060     -0.005905
     12.27872      7.33436     28.47510        -0.000785     -0.001630      0.007242
     12.46670      7.96287     27.21588         0.001986     -0.002663     -0.000288
     12.49651      9.38662     27.14252         0.003413      0.000087     -0.002172
     12.33157     10.02205     25.88333         0.005532     -0.000953     -0.001214
      8.33782     12.50627     40.32512        -0.000897     -0.001138     -0.005614
      6.98035     12.07483     40.25177        -0.005559      0.000616      0.000752
      6.43286     11.71332     38.99195        -0.000746     -0.000687      0.002465
      5.50322     10.63412     38.91902        -0.000774      0.001011      0.002282
      5.22642     10.03916     37.65941        -0.001168      0.000549     -0.007289
      5.00073      8.63286     37.58585         0.000096     -0.001635      0.007290
      5.07695      7.98137     36.32611        -0.001590      0.001272     -0.000339
      5.62305      6.66592     36.25317        -0.001583     -0.002750     -0.001118
      6.02962      6.15175     34.99311        -0.000142     -0.000862     -0.004362
      7.18485      5.31868     34.91956        -0.000246     -0.001047      0.004579
      7.80062      5.09468     33.65948        -0.003368     -0.002308     -0.003667
      9.22122      4.99156     33.58593         0.000529     -0.000526     -0.000658
      9.86262      5.12404     32.32563        -0.002733     -0.002498      0.001156
     11.12580      5.78216     32.25210        -0.000184      0.000100      0.002800
     11.60120      6.23249     30.99173        -0.000664      0.001183     -0.005262
     12.33079      7.45590     30.91794        -0.001879     -0.000837      0.008244
     12.49799      8.08990     29.65808        -0.001038      0.000340      0.001977
     12.47897      9.51471     29.58510        -0.001755      0.001336     -0.001688
     12.28929     10.14429     28.32625         0.000294      0.000414     -0.003313
      5.18413      9.91572     40.10301        -0.001606      0.001618     -0.005623
      5.00722      8.50236     40.02957         0.000319      0.000360      0.004965
      5.10642      7.85379     38.76988        -0.001728      0.003284      0.000046
      5.69761      6.55796     38.69701        -0.000635     -0.001439     -0.001353
      6.12196      6.05798     37.43711         0.001259      0.000522     -0.005193
      7.30531      5.26513     37.36344        -0.002203      0.000306      0.007392
      7.92878      5.06275     36.10344        -0.002543      0.000082     -0.002065
      9.35212      5.00890     36.03010         0.000448      0.000469     -0.000095
      9.98889      5.16395     34.76978         0.001415      0.000616     -0.000238
     11.22890      5.86490     34.69614        -0.002263      0.001267      0.003077
     11.68931      6.33138     33.43587        -0.000910     -0.000120     -0.005030
     12.37720      7.57889     33.36210        -0.002191      0.001280      0.004816
     12.52377      8.21822     32.10203        -0.002293     -0.000687      0.001599
     12.45536      9.64119     32.02914        -0.004108      0.002223      0.002339
     12.24448     10.26376     30.76959        -0.004389      0.000202     -0.005744
      6.21696      5.96781     39.88106         0.000329     -0.001211     -0.007440
      7.42690      5.21612     39.80747        -0.003968      0.000393      0.005923
      8.05725      5.03511     38.54753         0.000322      0.000576     -0.001335
      9.48167      5.03044     38.47446         0.001055      0.000745     -0.001342
     10.11296      5.20759     37.21421         0.000019     -0.001511     -0.002909
     11.32792      5.95113     37.14053        -0.000399     -0.000736      0.005393
     11.77248      6.43313     35.88034        -0.000621     -0.000873     -0.004556
     12.41685      7.70347     35.80683         0.001676      0.002456      0.000784
     12.54232      8.34740     34.54651        -0.001827     -0.001998      0.001410
     12.42459      9.76701     34.47356         0.000513      0.000246      0.001558
     12.19345     10.38150     33.21370        -0.001332      0.001093     -0.006754
     10.23505      5.25527     39.65875        -0.002722      0.001064     -0.006403
     11.42362      6.04045     39.58510        -0.003371     -0.000329      0.005999
     11.85132      6.53764     38.32490         0.000636     -0.002178     -0.001828
     12.45169      7.82930     38.25166         0.000541      0.003523     -0.000798
     12.55514      8.47714     36.99131        -0.000816     -0.001213     -0.000085
     12.38864      9.89188     36.91816        -0.000230      0.000677      0.003139
     12.13674     10.49797     35.65822        -0.001040     -0.000723     -0.005042
     12.56300      8.60731     39.43621        -0.000566     -0.001374     -0.002636
     12.34757     10.01536     39.36281         0.000702      0.000816      0.006293
     12.07522     10.61236     38.10276        -0.001090      0.001364     -0.004793
     14.61095      8.02238     19.84205         0.006805      0.000386      0.000853
 -----------------------------------------------------------------------------------
    total drift:                               -0.002971      0.003751     -0.001421


--------------------------------------------------------------------------------------------------------



  FREE ENERGIE OF THE ION-ELECTRON SYSTEM (eV)
  ---------------------------------------------------
  free  energy   TOTEN  =     -3324.26068439 eV

  energy  without entropy=    -3324.26068439  energy(sigma->0) =    -3324.26068439
 


--------------------------------------------------------------------------------------------------------


    POTLOK:  cpu time      1.4280: real time      1.4293


--------------------------------------------------------------------------------------------------------


 writing wavefunctions
     LOOP+:  cpu time   4587.5021: real time   4588.9975
    4ORBIT:  cpu time      0.0000: real time      0.0000



 total charge

# of ion       s       p       d       tot
------------------------------------------
    1        0.868   1.790   0.000   2.658
    2        0.868   1.790   0.000   2.658
    3        0.868   1.790   0.000   2.658
    4        0.868   1.790   0.000   2.658
    5        0.868   1.791   0.000   2.659
    6        0.868   1.790   0.000   2.658
    7        0.868   1.790   0.000   2.658
    8        0.868   1.791   0.000   2.658
    9        0.868   1.791   0.000   2.659
   10        0.868   1.791   0.000   2.659
   11        0.868   1.791   0.000   2.659
   12        0.868   1.791   0.000   2.659
   13        0.868   1.791   0.000   2.659
   14        0.868   1.791   0.000   2.659
   15        0.868   1.791   0.000   2.659
   16        0.868   1.791   0.000   2.659
   17        0.868   1.791   0.000   2.659
   18        0.868   1.791   0.000   2.659
   19        0.868   1.791   0.000   2.659
   20        0.868   1.791   0.000   2.659
   21        0.868   1.791   0.000   2.659
   22        0.868   1.791   0.000   2.659
   23        0.868   1.791   0.000   2.659
   24        0.868   1.791   0.000   2.659
   25        0.868   1.791   0.000   2.659
   26        0.868   1.791   0.000   2.659
   27        0.868   1.791   0.000   2.658
   28        0.868   1.791   0.000   2.659
   29        0.868   1.791   0.000   2.659
   30        0.868   1.791   0.000   2.659
   31        0.868   1.791   0.000   2.659
   32        0.868   1.791   0.000   2.659
   33        0.868   1.791   0.000   2.658
   34        0.868   1.791   0.000   2.659
   35        0.868   1.791   0.000   2.659
   36        0.868   1.791   0.000   2.659
   37        0.868   1.791   0.000   2.659
   38        0.868   1.791   0.000   2.659
   39        0.868   1.791   0.000   2.659
   40        0.868   1.791   0.000   2.658
   41        0.868   1.790   0.000   2.658
   42        0.868   1.791   0.000   2.659
   43        0.868   1.791   0.000   2.659
   44        0.868   1.790   0.000   2.658
   45        0.868   1.790   0.000   2.658
   46        0.868   1.790   0.000   2.658
   47        0.868   1.790   0.000   2.658
   48        0.868   1.790   0.000   2.658
   49        0.868   1.790   0.000   2.658
   50        0.868   1.790   0.000   2.658
   51        0.868   1.790   0.000   2.658
   52        0.868   1.790   0.000   2.658
   53        0.868   1.790   0.000   2.658
   54        0.868   1.791   0.000   2.659
   55        0.868   1.791   0.000   2.659
   56        0.868   1.790   0.000   2.658
   57        0.868   1.790   0.000   2.658
   58        0.868   1.790   0.000   2.658
   59        0.868   1.790   0.000   2.658
   60        0.868   1.790   0.000   2.658
   61        0.868   1.790   0.000   2.658
   62        0.868   1.790   0.000   2.658
   63        0.869   1.793   0.000   2.662
   64        0.868   1.791   0.000   2.659
   65        0.868   1.790   0.000   2.658
   66        0.868   1.790   0.000   2.658
   67        0.868   1.790   0.000   2.657
   68        0.868   1.790   0.000   2.658
   69        0.868   1.790   0.000   2.658
   70        0.868   1.790   0.000   2.658
   71        0.868   1.790   0.000   2.658
   72        0.868   1.790   0.000   2.658
   73        0.868   1.790   0.000   2.658
   74        0.868   1.790   0.000   2.658
   75        0.868   1.791   0.000   2.659
   76        0.868   1.791   0.000   2.659
   77        0.868   1.791   0.000   2.659
   78        0.868   1.790   0.000   2.658
   79        0.868   1.791   0.000   2.659
   80        0.868   1.790   0.000   2.658
   81        0.868   1.790   0.000   2.658
   82        0.868   1.790   0.000   2.658
   83        0.868   1.790   0.000   2.658
   84        0.868   1.790   0.000   2.658
   85        0.868   1.790   0.000   2.658
   86        0.868   1.791   0.000   2.659
   87        0.868   1.792   0.000   2.660
   88        0.868   1.792   0.000   2.660
   89        0.868   1.790   0.000   2.657
   90        0.868   1.790   0.000   2.657
   91        0.868   1.790   0.000   2.657
   92        0.868   1.790   0.000   2.658
   93        0.868   1.790   0.000   2.658
   94        0.868   1.790   0.000   2.658
   95        0.868   1.790   0.000   2.658
   96        0.868   1.790   0.000   2.658
   97        0.868   1.790   0.000   2.658
   98        0.868   1.790   0.000   2.658
   99        0.868   1.791   0.000   2.658
  100        0.868   1.790   0.000   2.658
  101        0.868   1.791   0.000   2.658
  102        0.868   1.791   0.000   2.659
  103        0.868   1.790   0.000   2.658
  104        0.868   1.790   0.000   2.658
  105        0.868   1.790   0.000   2.658
  106        0.868   1.790   0.000   2.658
  107        0.868   1.790   0.000   2.658
  108        0.868   1.790   0.000   2.658
  109        0.867   1.791   0.000   2.658
  110        0.867   1.788   0.000   2.655
  111        0.868   1.791   0.000   2.658
  112        0.868   1.791   0.000   2.659
  113        0.868   1.791   0.000   2.659
  114        0.868   1.790   0.000   2.658
  115        0.868   1.790   0.000   2.658
  116        0.868   1.790   0.000   2.658
  117        0.868   1.790   0.000   2.658
  118        0.868   1.790   0.000   2.658
  119        0.868   1.790   0.000   2.658
  120        0.868   1.790   0.000   2.658
  121        0.868   1.790   0.000   2.658
  122        0.868   1.790   0.000   2.658
  123        0.868   1.790   0.000   2.658
  124        0.868   1.790   0.000   2.658
  125        0.868   1.790   0.000   2.658
  126        0.868   1.790   0.000   2.658
  127        0.868   1.790   0.000   2.658
  128        0.868   1.790   0.000   2.658
  129        0.868   1.790   0.000   2.658
  130        0.868   1.790   0.000   2.658
  131        0.868   1.790   0.000   2.658
  132        0.869   1.793   0.000   2.662
  133        0.868   1.792   0.000   2.660
  134        0.868   1.792   0.000   2.661
  135        0.868   1.791   0.000   2.660
  136        0.868   1.791   0.000   2.659
  137        0.868   1.791   0.000   2.659
  138        0.868   1.790   0.000   2.658
  139        0.868   1.790   0.000   2.658
  140        0.868   1.790   0.000   2.658
  141        0.868   1.790   0.000   2.658
  142        0.868   1.790   0.000   2.658
  143        0.868   1.790   0.000   2.658
  144        0.868   1.790   0.000   2.657
  145        0.868   1.790   0.000   2.658
  146        0.868   1.790   0.000   2.657
  147        0.868   1.790   0.000   2.658
  148        0.868   1.790   0.000   2.658
  149        0.868   1.791   0.000   2.658
  150        0.868   1.791   0.000   2.659
  151        0.868   1.791   0.000   2.659
  152        0.868   1.791   0.000   2.659
  153        0.868   1.791   0.000   2.659
  154        0.868   1.791   0.000   2.658
  155        0.868   1.791   0.000   2.659
  156        0.868   1.791   0.000   2.659
  157        0.868   1.790   0.000   2.658
  158        0.868   1.790   0.000   2.658
  159        0.868   1.790   0.000   2.658
  160        0.868   1.790   0.000   2.658
  161        0.868   1.790   0.000   2.658
  162        0.868   1.790   0.000   2.658
  163        0.868   1.790   0.000   2.658
  164        0.868   1.790   0.000   2.658
  165        0.868   1.790   0.000   2.658
  166        0.868   1.790   0.000   2.658
  167        0.868   1.790   0.000   2.658
  168        0.868   1.790   0.000   2.658
  169        0.868   1.790   0.000   2.658
  170        0.868   1.790   0.000   2.658
  171        0.868   1.791   0.000   2.659
  172        0.868   1.791   0.000   2.659
  173        0.868   1.792   0.000   2.660
  174        0.868   1.792   0.000   2.660
  175        0.868   1.792   0.000   2.660
  176        0.868   1.791   0.000   2.660
  177        0.868   1.791   0.000   2.659
  178        0.868   1.790   0.000   2.658
  179        0.868   1.790   0.000   2.658
  180        0.868   1.790   0.000   2.658
  181        0.868   1.789   0.000   2.657
  182        0.868   1.790   0.000   2.658
  183        0.868   1.790   0.000   2.657
  184        0.868   1.790   0.000   2.658
  185        0.868   1.790   0.000   2.658
  186        0.868   1.790   0.000   2.658
  187        0.868   1.790   0.000   2.658
  188        0.868   1.790   0.000   2.658
  189        0.868   1.790   0.000   2.659
  190        0.868   1.791   0.000   2.659
  191        0.868   1.791   0.000   2.659
  192        0.868   1.792   0.000   2.660
  193        0.868   1.793   0.000   2.661
  194        0.868   1.792   0.000   2.660
  195        0.869   1.793   0.000   2.662
  196        0.869   1.794   0.000   2.663
  197        0.869   1.794   0.000   2.663
  198        0.869   1.795   0.000   2.664
  199        0.868   1.792   0.000   2.661
  200        0.868   1.790   0.000   2.658
  201        0.868   1.790   0.000   2.658
  202        0.868   1.790   0.000   2.658
  203        0.868   1.790   0.000   2.658
  204        0.868   1.790   0.000   2.658
  205        0.868   1.790   0.000   2.658
  206        0.868   1.790   0.000   2.658
  207        0.868   1.790   0.000   2.658
  208        0.868   1.790   0.000   2.658
  209        0.868   1.790   0.000   2.658
  210        0.868   1.790   0.000   2.658
  211        0.868   1.790   0.000   2.658
  212        0.868   1.790   0.000   2.658
  213        0.868   1.791   0.000   2.659
  214        0.868   1.791   0.000   2.659
  215        0.868   1.791   0.000   2.659
  216        0.867   1.788   0.000   2.655
  217        0.867   1.791   0.000   2.658
  218        0.866   1.785   0.000   2.651
  219        0.868   1.788   0.000   2.656
  220        0.868   1.788   0.000   2.656
  221        0.869   1.794   0.000   2.664
  222        0.868   1.790   0.000   2.658
  223        0.868   1.791   0.000   2.659
  224        0.868   1.791   0.000   2.659
  225        0.868   1.791   0.000   2.659
  226        0.868   1.791   0.000   2.659
  227        0.868   1.790   0.000   2.658
  228        0.868   1.790   0.000   2.658
  229        0.868   1.790   0.000   2.658
  230        0.868   1.790   0.000   2.658
  231        0.868   1.790   0.000   2.658
  232        0.868   1.790   0.000   2.658
  233        0.868   1.790   0.000   2.658
  234        0.868   1.790   0.000   2.657
  235        0.868   1.790   0.000   2.658
  236        0.868   1.790   0.000   2.657
  237        0.868   1.792   0.000   2.660
  238        0.868   1.792   0.000   2.660
  239        0.868   1.791   0.000   2.659
  240        0.867   1.784   0.000   2.650
  241        0.841   1.702   0.000   2.543
  242        0.841   1.702   0.000   2.542
  243        0.867   1.783   0.000   2.650
  244        0.868   1.790   0.000   2.658
  245        0.868   1.790   0.000   2.658
  246        0.868   1.791   0.000   2.659
  247        0.868   1.791   0.000   2.659
  248        0.868   1.791   0.000   2.659
  249        0.868   1.791   0.000   2.659
  250        0.868   1.790   0.000   2.658
  251        0.868   1.790   0.000   2.658
  252        0.868   1.790   0.000   2.658
  253        0.868   1.790   0.000   2.658
  254        0.868   1.790   0.000   2.658
  255        0.868   1.790   0.000   2.658
  256        0.868   1.790   0.000   2.658
  257        0.868   1.790   0.000   2.658
  258        0.868   1.790   0.000   2.658
  259        0.868   1.790   0.000   2.658
  260        0.868   1.791   0.000   2.659
  261        0.869   1.794   0.000   2.663
  262        0.869   1.794   0.000   2.664
  263        0.868   1.788   0.000   2.656
  264        0.868   1.788   0.000   2.656
  265        0.866   1.785   0.000   2.651
  266        0.868   1.790   0.000   2.658
  267        0.868   1.790   0.000   2.658
  268        0.868   1.791   0.000   2.659
  269        0.868   1.791   0.000   2.659
  270        0.868   1.791   0.000   2.659
  271        0.868   1.791   0.000   2.659
  272        0.868   1.791   0.000   2.658
  273        0.868   1.790   0.000   2.658
  274        0.868   1.791   0.000   2.658
  275        0.868   1.790   0.000   2.658
  276        0.868   1.790   0.000   2.658
  277        0.868   1.790   0.000   2.658
  278        0.868   1.791   0.000   2.659
  279        0.868   1.790   0.000   2.658
  280        0.868   1.790   0.000   2.658
  281        0.868   1.790   0.000   2.658
  282        0.868   1.791   0.000   2.659
  283        0.868   1.791   0.000   2.659
  284        0.868   1.792   0.000   2.661
  285        0.869   1.795   0.000   2.664
  286        0.869   1.794   0.000   2.663
  287        0.869   1.794   0.000   2.663
  288        0.868   1.790   0.000   2.658
  289        0.868   1.790   0.000   2.658
  290        0.868   1.791   0.000   2.659
  291        0.868   1.791   0.000   2.659
  292        0.868   1.791   0.000   2.659
  293        0.868   1.791   0.000   2.659
  294        0.868   1.791   0.000   2.659
  295        0.868   1.791   0.000   2.659
  296        0.868   1.791   0.000   2.659
  297        0.868   1.791   0.000   2.658
  298        0.868   1.791   0.000   2.659
  299        0.868   1.790   0.000   2.658
  300        0.868   1.791   0.000   2.659
  301        0.868   1.791   0.000   2.659
  302        0.868   1.791   0.000   2.659
  303        0.868   1.791   0.000   2.658
  304        0.868   1.791   0.000   2.659
  305        0.868   1.791   0.000   2.659
  306        0.868   1.791   0.000   2.659
  307        0.868   1.792   0.000   2.660
  308        0.868   1.792   0.000   2.660
  309        0.868   1.792   0.000   2.660
  310        0.868   1.791   0.000   2.659
  311        0.868   1.791   0.000   2.659
  312        0.868   1.791   0.000   2.659
  313        0.868   1.791   0.000   2.659
  314        0.868   1.791   0.000   2.659
  315        0.868   1.791   0.000   2.659
  316        0.868   1.791   0.000   2.659
  317        0.868   1.791   0.000   2.659
  318        0.868   1.791   0.000   2.659
  319        0.868   1.791   0.000   2.659
  320        0.868   1.791   0.000   2.659
  321        0.868   1.791   0.000   2.659
  322        0.868   1.791   0.000   2.658
  323        0.868   1.791   0.000   2.659
  324        0.868   1.790   0.000   2.658
  325        0.868   1.791   0.000   2.659
  326        0.868   1.791   0.000   2.659
  327        0.868   1.791   0.000   2.659
  328        0.868   1.791   0.000   2.659
  329        0.868   1.791   0.000   2.659
  330        0.868   1.791   0.000   2.659
  331        0.868   1.791   0.000   2.659
  332        0.868   1.791   0.000   2.659
  333        0.868   1.791   0.000   2.659
  334        0.868   1.791   0.000   2.659
  335        0.868   1.791   0.000   2.659
  336        0.868   1.790   0.000   2.658
  337        0.868   1.790   0.000   2.658
  338        0.868   1.790   0.000   2.658
  339        0.868   1.790   0.000   2.658
  340        0.868   1.790   0.000   2.658
  341        0.868   1.790   0.000   2.658
  342        0.868   1.790   0.000   2.658
  343        0.868   1.790   0.000   2.658
  344        0.868   1.791   0.000   2.659
  345        0.868   1.791   0.000   2.659
  346        0.868   1.791   0.000   2.659
  347        0.868   1.790   0.000   2.658
  348        0.868   1.790   0.000   2.658
  349        0.868   1.790   0.000   2.658
  350        0.868   1.790   0.000   2.658
  351        0.868   1.790   0.000   2.658
  352        0.868   1.790   0.000   2.658
  353        0.868   1.790   0.000   2.658
  354        0.868   1.790   0.000   2.658
  355        0.868   1.790   0.000   2.658
  356        0.868   1.790   0.000   2.658
  357        0.868   1.790   0.000   2.658
  358        0.868   1.790   0.000   2.658
  359        0.868   1.790   0.000   2.658
  360        0.868   1.790   0.000   2.658
  361        0.868   1.790   0.000   2.658
  362        0.868   1.790   0.000   2.658
  363        0.868   1.790   0.000   2.658
  364        0.868   1.790   0.000   2.658
  365        1.485   2.268   0.047   3.800
--------------------------------------------------
tot        317.365 653.834   0.047 971.246



 magnetization (x)

# of ion       s       p       d       tot
------------------------------------------
    1        0.000  -0.000   0.000  -0.000
    2       -0.000  -0.000   0.000  -0.000
    3        0.000  -0.000   0.000  -0.000
    4       -0.000  -0.000   0.000  -0.000
    5       -0.000  -0.000   0.000  -0.000
    6        0.000  -0.000   0.000  -0.000
    7        0.000  -0.000   0.000  -0.000
    8        0.000  -0.000   0.000  -0.000
    9       -0.000  -0.000   0.000  -0.000
   10        0.000  -0.000   0.000  -0.000
   11        0.000  -0.000   0.000  -0.000
   12        0.000  -0.000   0.000  -0.000
   13        0.000  -0.000   0.000  -0.000
   14        0.000  -0.000   0.000  -0.000
   15        0.000  -0.000   0.000  -0.000
   16        0.000  -0.000   0.000  -0.000
   17        0.000  -0.000   0.000  -0.000
   18        0.000  -0.000   0.000  -0.000
   19        0.000  -0.000   0.000  -0.000
   20        0.000  -0.000   0.000  -0.000
   21        0.000  -0.000   0.000  -0.000
   22       -0.000  -0.000   0.000  -0.000
   23        0.000  -0.000   0.000  -0.000
   24        0.000  -0.000   0.000   0.000
   25        0.000  -0.000   0.000  -0.000
   26        0.000  -0.000   0.000  -0.000
   27        0.000  -0.000   0.000  -0.000
   28        0.000  -0.000   0.000  -0.000
   29        0.000  -0.000   0.000  -0.000
   30        0.000  -0.000   0.000  -0.000
   31        0.000  -0.000   0.000  -0.000
   32        0.000  -0.000   0.000  -0.000
   33        0.000  -0.000   0.000  -0.000
   34        0.000  -0.000   0.000  -0.000
   35        0.000  -0.000   0.000  -0.000
   36        0.000  -0.000   0.000  -0.000
   37        0.000  -0.000   0.000  -0.000
   38        0.000  -0.000   0.000  -0.000
   39        0.000  -0.000   0.000  -0.000
   40        0.000  -0.000   0.000  -0.000
   41        0.000  -0.000   0.000  -0.000
   42        0.000   0.000   0.000   0.000
   43        0.000  -0.000   0.000   0.000
   44        0.000   0.000   0.000   0.000
   45        0.000   0.000   0.000   0.000
   46        0.000   0.000   0.000   0.000
   47        0.000  -0.000   0.000  -0.000
   48        0.000   0.000   0.000   0.000
   49        0.000  -0.000   0.000  -0.000
   50        0.000  -0.000   0.000  -0.000
   51       -0.000  -0.000   0.000  -0.000
   52        0.000   0.000   0.000   0.000
   53        0.000  -0.000   0.000  -0.000
   54        0.000  -0.000   0.000  -0.000
   55        0.000  -0.000   0.000   0.000
   56        0.000  -0.000   0.000  -0.000
   57        0.000  -0.000   0.000  -0.000
   58        0.000  -0.000   0.000  -0.000
   59        0.000  -0.000   0.000  -0.000
   60        0.000  -0.000   0.000  -0.000
   61        0.000  -0.000   0.000  -0.000
   62       -0.000  -0.000   0.000  -0.000
   63        0.000   0.000   0.000   0.000
   64        0.000  -0.000   0.000   0.000
   65        0.000   0.000   0.000   0.000
   66        0.000   0.000   0.000   0.000
   67        0.000  -0.000   0.000   0.000
   68        0.000  -0.000   0.000  -0.000
   69        0.000  -0.000   0.000  -0.000
   70        0.000  -0.000   0.000  -0.000
   71        0.000  -0.000   0.000  -0.000
   72        0.000  -0.000   0.000  -0.000
   73        0.000  -0.000   0.000   0.000
   74        0.000  -0.000   0.000  -0.000
   75        0.000  -0.000   0.000  -0.000
   76        0.000  -0.000   0.000  -0.000
   77        0.000  -0.000   0.000  -0.000
   78        0.000   0.000   0.000   0.000
   79        0.000  -0.000   0.000  -0.000
   80        0.000  -0.000   0.000  -0.000
   81        0.000  -0.000   0.000  -0.000
   82        0.000  -0.000   0.000  -0.000
   83        0.000  -0.000   0.000  -0.000
   84        0.000  -0.000   0.000  -0.000
   85        0.000  -0.000   0.000  -0.000
   86        0.000   0.000   0.000   0.000
   87        0.000   0.000   0.000   0.000
   88        0.000   0.000   0.000   0.000
   89        0.000   0.000   0.000   0.000
   90        0.000   0.000   0.000   0.000
   91        0.000   0.000   0.000   0.000
   92        0.000   0.000   0.000   0.000
   93        0.000  -0.000   0.000   0.000
   94       -0.000  -0.000   0.000  -0.000
   95        0.000   0.000   0.000   0.000
   96        0.000  -0.000   0.000  -0.000
   97        0.000  -0.000   0.000  -0.000
   98        0.000  -0.000   0.000  -0.000
   99        0.000   0.000   0.000   0.000
  100        0.000  -0.000   0.000  -0.000
  101        0.000  -0.000   0.000  -0.000
  102        0.000  -0.000   0.000  -0.000
  103        0.000  -0.000   0.000  -0.000
  104        0.000   0.000   0.000   0.000
  105        0.000  -0.000   0.000  -0.000
  106        0.000  -0.000   0.000  -0.000
  107       -0.000  -0.000   0.000  -0.000
  108        0.000  -0.000   0.000  -0.000
  109        0.000  -0.000   0.000  -0.000
  110        0.000  -0.000   0.000  -0.000
  111        0.000   0.000   0.000   0.000
  112        0.000  -0.000   0.000   0.000
  113        0.000   0.000   0.000   0.000
  114        0.000   0.000   0.000   0.000
  115        0.000  -0.000   0.000  -0.000
  116        0.000  -0.000   0.000  -0.000
  117        0.000  -0.000   0.000  -0.000
  118        0.000   0.000   0.000   0.000
  119        0.000  -0.000   0.000  -0.000
  120        0.000  -0.000   0.000  -0.000
  121        0.000   0.000   0.000   0.000
  122        0.000  -0.000   0.000  -0.000
  123        0.000  -0.000   0.000  -0.000
  124        0.000  -0.000   0.000  -0.000
  125        0.000  -0.000   0.000  -0.000
  126        0.000  -0.000   0.000  -0.000
  127        0.000  -0.000   0.000   0.000
  128        0.000  -0.000   0.000  -0.000
  129        0.000  -0.000   0.000  -0.000
  130        0.000   0.000   0.000   0.000
  131        0.000  -0.000   0.000  -0.000
  132        0.000   0.000   0.000   0.000
  133        0.000   0.000   0.000   0.000
  134        0.000   0.000   0.000   0.000
  135        0.000   0.000   0.000   0.000
  136        0.000   0.000   0.000   0.000
  137        0.000  -0.000   0.000  -0.000
  138        0.000   0.000   0.000   0.000
  139        0.000  -0.000   0.000   0.000
  140        0.000   0.000   0.000   0.000
  141        0.000  -0.000   0.000   0.000
  142        0.000  -0.000   0.000  -0.000
  143        0.000  -0.000   0.000  -0.000
  144        0.000  -0.000   0.000  -0.000
  145        0.000  -0.000   0.000  -0.000
  146        0.000  -0.000   0.000  -0.000
  147        0.000   0.000   0.000   0.000
  148        0.000   0.000   0.000   0.000
  149        0.000   0.000   0.000   0.000
  150        0.000  -0.000   0.000   0.000
  151        0.000   0.000   0.000   0.000
  152        0.000  -0.000   0.000  -0.000
  153        0.000   0.000   0.000   0.000
  154        0.000   0.000   0.000   0.000
  155        0.000   0.000   0.000   0.000
  156        0.000   0.000   0.000   0.000
  157        0.000   0.000   0.000   0.000
  158        0.000  -0.000   0.000  -0.000
  159        0.000  -0.000   0.000  -0.000
  160        0.000   0.000   0.000   0.000
  161        0.000  -0.000   0.000  -0.000
  162        0.000  -0.000   0.000  -0.000
  163        0.000  -0.000   0.000  -0.000
  164        0.000  -0.000   0.000  -0.000
  165        0.000   0.000   0.000   0.000
  166        0.000   0.000   0.000   0.000
  167        0.000   0.000   0.000   0.000
  168        0.000  -0.000   0.000  -0.000
  169        0.000   0.000   0.000   0.000
  170        0.000   0.000   0.000   0.000
  171        0.000   0.000   0.000   0.000
  172        0.000   0.000   0.000   0.000
  173        0.000   0.000   0.000   0.000
  174        0.000   0.000   0.000   0.000
  175        0.000   0.000   0.000   0.000
  176        0.000   0.000   0.000   0.000
  177        0.000   0.000   0.000   0.000
  178        0.000   0.000   0.000   0.000
  179        0.000   0.000   0.000   0.000
  180        0.000   0.000   0.000   0.000
  181        0.000   0.000   0.000   0.000
  182        0.000  -0.000   0.000  -0.000
  183        0.000   0.000   0.000   0.000
  184        0.000  -0.000   0.000   0.000
  185        0.000  -0.000   0.000   0.000
  186        0.000  -0.000   0.000  -0.000
  187        0.000  -0.000   0.000  -0.000
  188        0.000  -0.000   0.000  -0.000
  189        0.000  -0.000   0.000  -0.000
  190        0.000   0.000   0.000   0.000
  191        0.000  -0.000   0.000  -0.000
  192        0.000   0.000   0.000   0.000
  193        0.000   0.000   0.000   0.000
  194        0.000   0.000   0.000   0.000
  195        0.000   0.000   0.000   0.000
  196        0.000   0.000   0.000   0.000
  197        0.000   0.000   0.000   0.000
  198        0.000   0.000   0.000   0.000
  199        0.000   0.000   0.000   0.000
  200        0.000   0.000   0.000   0.000
  201        0.000   0.000   0.000   0.000
  202        0.000  -0.000   0.000  -0.000
  203        0.000   0.000   0.000   0.000
  204        0.000  -0.000   0.000  -0.000
  205        0.000  -0.000   0.000   0.000
  206        0.000  -0.000   0.000  -0.000
  207        0.000  -0.000   0.000  -0.000
  208        0.000  -0.000   0.000  -0.000
  209        0.000  -0.000   0.000  -0.000
  210        0.000  -0.000   0.000  -0.000
  211        0.000  -0.000   0.000  -0.000
  212        0.000   0.000   0.000   0.000
  213        0.000  -0.000   0.000  -0.000
  214        0.000   0.000   0.000   0.000
  215        0.000   0.000   0.000   0.000
  216        0.000  -0.000   0.000   0.000
  217        0.000   0.000   0.000   0.000
  218        0.000  -0.000   0.000  -0.000
  219        0.000   0.000   0.000   0.000
  220        0.000   0.000   0.000   0.000
  221        0.000   0.000   0.000   0.000
  222        0.000  -0.000   0.000  -0.000
  223        0.000  -0.000   0.000  -0.000
  224       -0.000  -0.000   0.000  -0.000
  225        0.000  -0.000   0.000  -0.000
  226        0.000   0.000   0.000   0.000
  227        0.000   0.000   0.000   0.000
  228        0.000  -0.000   0.000   0.000
  229        0.000  -0.000   0.000  -0.000
  230        0.000  -0.000   0.000  -0.000
  231        0.000  -0.000   0.000  -0.000
  232        0.000   0.000   0.000   0.000
  233        0.000  -0.000   0.000   0.000
  234        0.000  -0.000   0.000  -0.000
  235        0.000   0.000   0.000   0.000
  236        0.000   0.000   0.000   0.000
  237        0.000   0.000   0.000   0.000
  238        0.000   0.000   0.000   0.000
  239        0.000   0.000   0.000   0.000
  240        0.000   0.000   0.000   0.000
  241       -0.000   0.000   0.000   0.000
  242        0.000  -0.000   0.000  -0.000
  243        0.000  -0.000   0.000  -0.000
  244       -0.000  -0.000   0.000  -0.000
  245        0.000  -0.000   0.000  -0.000
  246       -0.000  -0.000   0.000  -0.000
  247        0.000  -0.000   0.000  -0.000
  248        0.000  -0.000   0.000  -0.000
  249        0.000  -0.000   0.000  -0.000
  250        0.000  -0.000   0.000  -0.000
  251        0.000  -0.000   0.000  -0.000
  252        0.000  -0.000   0.000  -0.000
  253        0.000  -0.000   0.000   0.000
  254        0.000  -0.000   0.000  -0.000
  255        0.000  -0.000   0.000  -0.000
  256        0.000  -0.000   0.000  -0.000
  257        0.000   0.000   0.000   0.000
  258        0.000   0.000   0.000   0.000
  259        0.000  -0.000   0.000  -0.000
  260        0.000   0.000   0.000   0.000
  261        0.000   0.000   0.000   0.000
  262        0.000   0.000   0.000   0.000
  263        0.000   0.000   0.000   0.000
  264        0.000  -0.000   0.000  -0.000
  265        0.000   0.000   0.000   0.000
  266       -0.000  -0.000   0.000  -0.000
  267        0.000  -0.000   0.000  -0.000
  268        0.000  -0.000   0.000  -0.000
  269       -0.000  -0.000   0.000  -0.000
  270        0.000  -0.000   0.000  -0.000
  271        0.000  -0.000   0.000  -0.000
  272        0.000  -0.000   0.000  -0.000
  273        0.000  -0.000   0.000   0.000
  274        0.000  -0.000   0.000  -0.000
  275        0.000  -0.000   0.000  -0.000
  276        0.000  -0.000   0.000   0.000
  277        0.000  -0.000   0.000  -0.000
  278        0.000  -0.000   0.000  -0.000
  279        0.000  -0.000   0.000   0.000
  280        0.000   0.000   0.000   0.000
  281        0.000  -0.000   0.000  -0.000
  282        0.000   0.000   0.000   0.000
  283        0.000   0.000   0.000   0.000
  284        0.000   0.000   0.000   0.000
  285        0.000   0.000   0.000   0.000
  286        0.000   0.000   0.000   0.000
  287        0.000   0.000   0.000   0.000
  288       -0.000  -0.000   0.000  -0.000
  289       -0.000  -0.000   0.000  -0.000
  290        0.000  -0.000   0.000  -0.000
  291       -0.000  -0.000   0.000  -0.000
  292        0.000  -0.000   0.000  -0.000
  293       -0.000  -0.000   0.000  -0.000
  294        0.000  -0.000   0.000   0.000
  295        0.000  -0.000   0.000  -0.000
  296        0.000  -0.000   0.000  -0.000
  297        0.000  -0.000   0.000   0.000
  298        0.000  -0.000   0.000  -0.000
  299        0.000  -0.000   0.000  -0.000
  300       -0.000  -0.000   0.000  -0.000
  301        0.000  -0.000   0.000  -0.000
  302        0.000   0.000   0.000   0.000
  303        0.000  -0.000   0.000  -0.000
  304        0.000   0.000   0.000   0.000
  305        0.000  -0.000   0.000  -0.000
  306        0.000   0.000   0.000   0.000
  307        0.000   0.000   0.000   0.000
  308        0.000   0.000   0.000   0.000
  309        0.000   0.000   0.000   0.000
  310       -0.000  -0.000   0.000  -0.000
  311        0.000  -0.000   0.000  -0.000
  312        0.000  -0.000   0.000  -0.000
  313        0.000  -0.000   0.000  -0.000
  314        0.000  -0.000   0.000  -0.000
  315       -0.000  -0.000   0.000  -0.000
  316        0.000   0.000   0.000   0.000
  317        0.000  -0.000   0.000  -0.000
  318        0.000   0.000   0.000   0.000
  319        0.000  -0.000   0.000  -0.000
  320        0.000  -0.000   0.000  -0.000
  321        0.000  -0.000   0.000  -0.000
  322        0.000  -0.000   0.000  -0.000
  323        0.000  -0.000   0.000  -0.000
  324        0.000  -0.000   0.000  -0.000
  325        0.000  -0.000   0.000   0.000
  326        0.000   0.000   0.000   0.000
  327        0.000  -0.000   0.000  -0.000
  328        0.000   0.000   0.000   0.000
  329        0.000   0.000   0.000   0.000
  330        0.000  -0.000   0.000  -0.000
  331        0.000  -0.000   0.000  -0.000
  332        0.000  -0.000   0.000  -0.000
  333        0.000  -0.000   0.000  -0.000
  334       -0.000  -0.000   0.000  -0.000
  335        0.000  -0.000   0.000  -0.000
  336       -0.000  -0.000   0.000  -0.000
  337        0.000  -0.000   0.000  -0.000
  338        0.000  -0.000   0.000  -0.000
  339        0.000  -0.000   0.000  -0.000
  340        0.000  -0.000   0.000  -0.000
  341        0.000  -0.000   0.000  -0.000
  342        0.000   0.000   0.000   0.000
  343        0.000  -0.000   0.000  -0.000
  344        0.000  -0.000   0.000   0.000
  345        0.000  -0.000   0.000  -0.000
  346       -0.000  -0.000   0.000  -0.000
  347       -0.000  -0.000   0.000  -0.000
  348        0.000  -0.000   0.000  -0.000
  349        0.000  -0.000   0.000  -0.000
  350        0.000  -0.000   0.000  -0.000
  351       -0.000  -0.000   0.000  -0.000
  352        0.000  -0.000   0.000  -0.000
  353        0.000  -0.000   0.000  -0.000
  354        0.000  -0.000   0.000  -0.000
  355        0.000  -0.000   0.000   0.000
  356        0.000  -0.000   0.000  -0.000
  357        0.000  -0.000   0.000  -0.000
  358        0.000  -0.000   0.000  -0.000
  359        0.000  -0.000   0.000  -0.000
  360        0.000  -0.000   0.000  -0.000
  361        0.000  -0.000   0.000  -0.000
  362        0.000  -0.000   0.000  -0.000
  363       -0.000  -0.000   0.000  -0.000
  364       -0.000  -0.000   0.000  -0.000
  365        0.000   0.000   0.000   0.000
--------------------------------------------------
tot          0.000  -0.000   0.000   0.000
 

 total amount of memory used by VASP MPI-rank0  1794888. kBytes
=======================================================================

   base      :      30000. kBytes
   nonl-proj :     469497. kBytes
   fftplans  :      73058. kBytes
   grid      :     152409. kBytes
   one-center:        746. kBytes
   wavefun   :    1069178. kBytes
 
  
  
 General timing and accounting informations for this job:
 ========================================================
  
                  Total CPU time used (sec):     5186.866
                            User time (sec):     5018.303
                          System time (sec):      168.563
                         Elapsed time (sec):     5193.385
  
                   Maximum memory used (kb):     2506100.
                   Average memory used (kb):          N/A
  
                          Minor page faults:       205976
                          Major page faults:         1292
                 Voluntary context switches:          996
 
 PROFILE, used timers:     283
 =============================
 
 index                 routine                    time                            calls level
----------------------------------------------------------------------------------------------
    1    total_time                         5193.385065                                1   1
    2      crpa_reader                           0.000029                              1   2
    3      m_bcast_d                             0.600894                           1086   2
    4      inisym                                0.007009                              1   2
    5        posmap                                0.000126                            2   3
    6      m_bcast_z                           187.986532                          36965   2
    7      stufak                                0.901561                              2   2
    8      fft3d_mpi                             0.196268                              7   2
    9        fftbas_mpi                            0.196259                            7   3
   10          fftbas_plan_mpi                       0.196248                          7   4
   11            dfftw_execute                         0.062067                       21   5
   12            map_forward                           0.080980                       10   5
   13              map_gather                            0.014425                      5   6
   14              m_alltoallv_z                         0.033029                      5   6
   15              map_scatter                           0.033470                      5   6
   16            map_backward                          0.052698                        4   5
   17              map_gather                            0.019634                      2   6
   18              m_alltoallv_z                         0.024447                      2   6
   19              map_scatter                           0.008587                      2   6
   20      m_sumb_d                              2.681374                          19949   2
   21      spher                                 0.164943                              1   2
   22      phase                                 0.000001                              1   2
   23      setdij_                               0.055304                              2   2
   24        m_alltoall_d                          0.020761                            4   3
   25        m_sumb_d                              0.000746                            2   3
   26      vectorpot                             0.000000                              1   2
   27      proall                               47.038966                              1   2
   28        phase                                 1.677837                            5   3
   29        proj                                 45.361102                            5   3
   30          proj1                                45.359353                        560   4
   31            crexp_mul_wave                       15.884833                   204400   5
   32            m_sumb_d                              1.727778                      560   5
   33      orthch                               11.103907                              1   2
   34        overl                                 0.002640                           10   3
   35        redis_proj                            2.184332                           30   3
   36          m_alltoall_d                          2.182952                       1680   4
   37        redis_pw                              1.640043                           20   3
   38          m_alltoall_d                          1.393965                       1120   4
   39        orth1                                 3.207763                          280   3
   40        m_alltoall_d                          0.235664                           40   3
   41        choleski                              0.641417                           10   3
   42        lincom                                3.056376                           10   3
   43      redis_pw_over_bands                   0.000000                              1   2
   44      fewald                                0.975335                              1   2
   45        rsp                                   0.005144                            1   3
   46        rcp                                   0.000295                            1   3
   47        m_sumb_d                              0.948204                            5   3
   48        m_alltoall_d                          0.018601                            2   3
   49      elmin                              3201.545642                              1   2
   50        potlok                                1.472492                            1   3
   51          fft3d_mpi                             0.839628                         26   4
   52            fftbas_mpi                            0.839569                       26   5
   53              fftbas_plan_mpi                       0.839540                     26   6
   54                dfftw_execute                         0.241979                   78   7
   55                map_forward                           0.352268                   28   7
   56                  map_gather                            0.048309                 16   8
   57                  m_alltoallv_z                         0.183658                 16   8
   58                  map_scatter                           0.120007                 16   8
   59                map_backward                          0.244282                   24   7
   60                  map_gather                            0.071606                 12   8
   61                  m_alltoallv_z                         0.122375                 12   8
   62                  map_scatter                           0.050013                 12   8
   63          m_sumb_d                              0.002848                          5   4
   64          pothar                                0.013756                          1   4
   65            m_sumb_d                              0.000948                        1   5
   66          m_bcast_z                             0.061552                          2   4
   67        potlok_metagga                        0.000002                            1   3
   68        vectorpot                             0.000001                            1   3
   69        setdij_                               0.023418                            1   3
   70          m_alltoall_d                          0.007874                          2   4
   71          m_sumb_d                              0.000955                          1   4
   72        set_dd_magatom                        0.000000                            1   3
   73        set_dd_paw                            0.008653                            1   3
   74          set_rsgf_all                          0.000002                          1   4
   75          m_alltoall_d                          0.003657                          6   4
   76          m_sumb_d                              0.001802                          7   4
   77        eddav                              3199.918736                            6   3
   78          m_sumb_d                              8.971751                      43944   4
   79          phase                                19.569206                         60   4
   80          redis_proj                           77.157079                      33960   4
   81            m_alltoall_d                         77.029981                    40560   5
   82          redis_pw                            114.167570                      26340   4
   83            m_alltoall_d                        108.201705                    32940   5
   84          newband                             115.727035                      11040   4
   85            w1_copy                               1.055152                     6720   5
   86            redis_pw                              4.255466                     3360   5
   87              m_alltoall_d                          3.614242                   3360   6
   88            redis_proj                            0.725367                     3360   5
   89              m_alltoall_d                          0.708633                   3360   6
   90            fftwav_mpi                           85.677777                     3360   5
   91              fft3d_mpi                            75.671222                   3360   6
   92                fftbas_mpi                           75.661330                 3360   7
   93                  fftbas_plan_mpi                      75.655854               3360   8
   94                    dfftw_execute                        48.847131            10080   9
   95                    map_forward                          26.675542             6720   9
   96                      map_gather                            5.449026           3360  10
   97                      m_alltoallv_z                         8.950268           3360  10
   98                      map_scatter                           5.828225           3360  10
   99            eccp                                 22.709031                     3360   5
  100              m_sumb_d                              0.126923                   3360   6
  101            truncate_high_frequency_w1            0.001026                     3360   5
  102            setup_precond                         1.237062                     3360   5
  103              m_sumb_d                              0.071219                   3360   6
  104          hamiltmu                           1427.044228                      10980   4
  105            vhamil                              136.560640                    10980   5
  106            overl1                                0.596426                    10980   5
  107            vnlac0                             1063.373146                    10980   5
  108              m_sumb_d                              2.048247                  10980   6
  109              gemm                                722.769863                4007700   6
  110              work_mul_crexp                      334.385952                4007700   6
  111            kinhamil                            224.259533                    10980   5
  112              fftext_mpi                          222.948604                  10980   6
  113                fft3d_mpi                           201.155455                10980   7
  114                  fftbas_mpi                          201.141679              10980   8
  115                    fftbas_plan_mpi                     201.134197            10980   9
  116                      dfftw_execute                       155.509766          32940  10
  117                      map_backward                         45.389112          21960  10
  118                        map_gather                            9.044726        10980  11
  119                        m_alltoallv_z                        24.676728        10980  11
  120                        map_scatter                          11.583399        10980  11
  121          overl                                 0.368543                      18600   4
  122          truncate_high_frequency_w1            0.002296                      10980   4
  123          w1_copy                               3.082104                      26220   4
  124          orth1                               175.149204                      32940   4
  125          lapack                                5.243490                      10980   4
  126          m_bcast_z                             0.708592                      10986   4
  127          m_bcast_d                             0.486774                      21960   4
  128          apply_precond                         0.826080                       7620   4
  129          w1_projall                          618.298698                       7620   4
  130            proj1                               618.267159                     7620   5
  131              crexp_mul_wave                      213.655597                2781300   6
  132              m_sumb_d                             10.546922                   7620   6
  133          m_alltoall_d                         18.856151                      15720   4
  134          ggemm                               166.877589                      14340   4
  135          fftwav_mpi                          197.465340                       7620   4
  136            fft3d_mpi                           172.449383                     7620   5
  137              fftbas_mpi                          172.431812                   7620   6
  138                fftbas_plan_mpi                     172.419404                 7620   7
  139                  dfftw_execute                       109.989690              22860   8
  140                  map_forward                          62.133003              15240   8
  141                    map_gather                           12.826687             7620   9
  142                    m_alltoallv_z                        20.223861             7620   9
  143                    map_scatter                          13.585316             7620   9
  144          pdssyex_zheevx                        8.156128                         60   4
  145            FERMAT_RAZOR                          0.000019                        1   5
  146          lincom                               34.178381                         60   4
  147        m_alltoall_d                          0.012652                           48   3
  148        densta                                0.072997                            6   3
  149          m_sumb_d                              0.068280                         47   4
  150          m_alltoall_d                          0.002762                         36   4
  151        m_sumb_d                              0.001850                           32   3
  152        m_bcast_z                             0.000066                            1   3
  153      rotate_active_occupied_orbital        0.000000                              1   2
  154      sphpro_fast                           9.044367                              2   2
  155        m_sumb_d                              0.001385                            4   3
  156        m_alltoall_d                          1.193402                           58   3
  157      force_and_stress                    851.608333                              1   2
  158        set_charge                           17.144646                            1   3
  159          soft_charge                          16.985939                          1   4
  160            fftwav_mpi                           12.855534                      460   5
  161              fft3d_mpi                            11.223599                    460   6
  162                fftbas_mpi                           11.223068                  460   7
  163                  fftbas_plan_mpi                      11.222440                460   8
  164                    dfftw_execute                         7.650800             1380   9
  165                    map_forward                           3.559052              920   9
  166                      map_gather                            0.769814            460  10
  167                      m_alltoallv_z                         0.755741            460  10
  168                      map_scatter                           0.805698            460  10
  169            pw_charge                             3.947105                      460   5
  170            m_alltoall_d                          0.090348                      576   5
  171            fft_gq                                0.057538                        1   5
  172              fft3d_mpi                             0.053012                      2   6
  173                fftbas_mpi                            0.053008                    2   7
  174                  fftbas_plan_mpi                       0.053006                  2   8
  175                    dfftw_execute                         0.016230                6   9
  176                    map_backward                          0.036671                4   9
  177                      map_gather                            0.010965              4  10
  178                      m_alltoallv_z                         0.024893              4  10
  179                      map_scatter                           0.000775              4  10
  180          depsum                                0.044846                          1   4
  181            m_alltoall_d                          0.041891                        6   5
  182            m_sumb_d                              0.000062                        1   5
  183          augmentation_charge                   0.110314                          1   4
  184            m_alltoall_d                          0.004223                        8   5
  185            m_sumb_d                              0.000038                        1   5
  186            fft3d_mpi                             0.069475                        2   5
  187              fftbas_mpi                            0.069470                      2   6
  188                fftbas_plan_mpi                       0.069467                    2   7
  189                  dfftw_execute                         0.019111                  6   8
  190                  map_backward                          0.050271                  4   8
  191                    map_gather                            0.015590                2   9
  192                    m_alltoallv_z                         0.026125                2   9
  193                    map_scatter                           0.008524                2   9
  194        forloc                                0.603842                            1   3
  195          m_sumb_d                              0.009307                          1   4
  196        fornl                               386.956562                            1   3
  197          phase                                 1.638784                          5   4
  198          m_sumb_d                              0.170969                       2242   4
  199        fordep                                0.144975                            1   3
  200          setdij_                               0.143924                          6   4
  201            m_alltoall_d                          0.036278                       12   5
  202            m_sumb_d                              0.002202                        6   5
  203          m_sumb_d                              0.000359                          1   4
  204        setdij_                               0.446942                           20   3
  205          m_alltoall_d                          0.093521                         40   4
  206          m_sumb_d                              0.007247                         20   4
  207        set_dd_magatom                        0.000000                            1   3
  208        set_dd_paw                            0.007403                            1   3
  209          set_rsgf_all                          0.000001                          1   4
  210          m_alltoall_d                          0.003054                          6   4
  211          m_sumb_d                              0.001009                          7   4
  212        strkin                                0.200289                            1   3
  213          m_sumb_d                              0.000063                          1   4
  214        strelo                                0.035691                            1   3
  215          m_sumb_d                              0.005587                          2   4
  216        strenl                              441.479821                            1   3
  217          spher                                 2.567749                         19   4
  218          phase                                14.748641                         45   4
  219          proj1                               416.689123                       5040   4
  220            crexp_mul_wave                      137.415858                  1839600   5
  221            m_sumb_d                             31.723199                     5040   5
  222          m_sumb_d                              7.259587                          1   4
  223        m_sumb_d                              0.001060                            6   3
  224        fft3d_mpi                             0.681375                           22   3
  225          fftbas_mpi                            0.681337                         22   4
  226            fftbas_plan_mpi                       0.681316                       22   5
  227              dfftw_execute                         0.205660                     66   6
  228              map_forward                           0.237508                     20   6
  229                map_gather                            0.046140                   10   7
  230                m_alltoallv_z                         0.103196                   10   7
  231                map_scatter                           0.087920                   10   7
  232              map_backward                          0.237539                     24   6
  233                map_gather                            0.063685                   12   7
  234                m_alltoallv_z                         0.120832                   12   7
  235                map_scatter                           0.052721                   12   7
  236        forhar                                0.617482                            2   3
  237          m_sumb_d                              0.007186                          2   4
  238        strehar                               0.021442                            1   3
  239          m_sumb_d                              0.002634                          1   4
  240        chggra                                0.148377                            1   3
  241          fft3d_mpi                             0.097308                          3   4
  242            fftbas_mpi                            0.097304                        3   5
  243              fftbas_plan_mpi                       0.097303                      3   6
  244                dfftw_execute                         0.028487                    9   7
  245                map_backward                          0.019636                    2   7
  246                  map_gather                            0.004397                  1   8
  247                  m_alltoallv_z                         0.010880                  1   8
  248                  map_scatter                           0.004334                  1   8
  249                map_forward                           0.049116                    4   7
  250                  map_gather                            0.008045                  2   8
  251                  m_alltoallv_z                         0.022259                  2   8
  252                  map_scatter                           0.018752                  2   8
  253          m_sumb_d                              0.000036                          2   4
  254          pothar                                0.012705                          1   4
  255            m_sumb_d                              0.001123                        1   5
  256        m_bcast_d                             0.000259                            2   3
  257      potlok                                1.344302                              1   2
  258        fft3d_mpi                             0.741116                           26   3
  259          fftbas_mpi                            0.741076                         26   4
  260            fftbas_plan_mpi                       0.741054                       26   5
  261              dfftw_execute                         0.227487                     78   6
  262              map_forward                           0.269902                     28   6
  263                map_gather                            0.037214                   16   7
  264                m_alltoallv_z                         0.123447                   16   7
  265                map_scatter                           0.108928                   16   7
  266              map_backward                          0.242869                     24   6
  267                map_gather                            0.062038                   12   7
  268                m_alltoallv_z                         0.129300                   12   7
  269                map_scatter                           0.051253                   12   7
  270        m_sumb_d                              0.001815                            5   3
  271        pothar                                0.014673                            1   3
  272          m_sumb_d                              0.003021                          1   4
  273        m_bcast_z                             0.049518                            2   3
  274      potlok_metagga                        0.000001                              1   2
  275      set_dd_magatom                        0.000000                              1   2
  276      set_dd_paw                            0.037946                              1   2
  277        set_rsgf_all                          0.000000                            1   3
  278        m_alltoall_d                          0.022786                            6   3
  279        m_sumb_d                              0.012270                            7   3
  280      m_alltoall_d                        328.502894                         324642   2
  281      densta                                0.076228                              1   2
  282        m_sumb_d                              0.001538                            9   3
  283        m_alltoall_d                          0.039016                          286   3
 
 Flat profile
 ============
 
             routine name                   CPU           calls
 ---------------------------------------------------------------
 gemm                                  722.769863     4007700
 proj1                                 669.361447       13220
 total_time                            549.513229           1
 m_alltoall_d                          542.317014      424518
 fornl                                 385.146809           1
 crexp_mul_wave                        366.956288     4825300
 work_mul_crexp                        334.385952     4007700
 dfftw_execute                         322.798409       67524
 eddav                                 207.582495           6
 m_bcast_z                             188.806260       47956
 orth1                                 178.356967       33220
 ggemm                                 166.877589       14340
 vhamil                                136.560640       10980
 m_sumb_d                               66.411545       97234
 m_alltoallv_z                          55.531039       22514
 phase                                  37.634469         116
 lincom                                 37.234758          70
 fftwav_mpi                             36.654447       11440
 map_scatter                            32.347921       22514
 map_gather                             28.492302       22514
 map_forward                            23.173938       22970
 eccp                                   22.582108        3360
 fftext_mpi                             21.793149       10980
 pdssyex_zheevx                          8.156109          60
 sphpro_fast                             7.849580           2
 redis_pw                                6.853168       29720
 lapack                                  5.243490       10980
 vnlac0                                  4.169083       10980
 w1_copy                                 4.137256       32940
 pw_charge                               3.947105         460
 force_and_stress                        3.118167           1
 spher                                   2.732692          20
 hamiltmu                                2.254483       10980
 kinhamil                                1.310929       10980
 setup_precond                           1.165843        3360
 potlok                                  1.091888           2
 m_bcast_d                               1.087926       23048
 stufak                                  0.901561           2
 apply_precond                           0.826080        7620
 fftbas_plan_mpi                         0.680972       22508
 choleski                                0.641417          10
 forhar                                  0.610296           2
 overl1                                  0.596426       10980
 forloc                                  0.594535           1
 setdij_                                 0.500003          29
 overl                                   0.371183       18610
 strenl                                  0.214721           1
 strkin                                  0.200226           1
 redis_proj                              0.145211       37350
 orthch                                  0.135671           1
 map_backward                            0.085249       22046
 newband                                 0.066154       11040
 fft3d_mpi                               0.041927       22508
 chggra                                  0.038327           1
 densta                                  0.037629           7
 augmentation_charge                     0.036577           1
 pothar                                  0.036042           3
 soft_charge                             0.035414           1
 elmin                                   0.034775           1
 w1_projall                              0.031539        7620
 strelo                                  0.030104           1
 fftbas_mpi                              0.026084       22508
 strehar                                 0.018808           1
 set_dd_paw                              0.009421           3
 inisym                                  0.006883           1
 rsp                                     0.005144           1
 fft_gq                                  0.004526           1
 set_charge                              0.003547           1
 truncate_high_frequency_w1              0.003323       14340
 fewald                                  0.003091           1
 depsum                                  0.002893           1
 proj                                    0.001750           5
 fordep                                  0.000692           1
 rcp                                     0.000295           1
 posmap                                  0.000126           2
 crpa_reader                             0.000029           1
 proall                                  0.000026           1
 FERMAT_RAZOR                            0.000019           1
 set_rsgf_all                            0.000003           3
 potlok_metagga                          0.000003           2
 vectorpot                               0.000001           2
 rotate_active_occupied_orbital          0.000000           1
 redis_pw_over_bands                     0.000000           1
 set_dd_magatom                          0.000000           3
 ---------------------------------------------------------------
  summed up times     5193.385065078735     
 
 Accumulative profile
 ====================
 
             routine name                   CPU           calls
 ---------------------------------------------------------------
 total_time                           5193.385065           1
 elmin                                3201.545642           1
 eddav                                3199.918736           6
 hamiltmu                             1427.044228       10980
 proj1                                1080.315634       13220
 vnlac0                               1063.373146       10980
 force_and_stress                      851.608333           1
 gemm                                  722.769863     4007700
 w1_projall                            618.298698        7620
 m_alltoall_d                          542.317014      424518
 fft3d_mpi                             463.177841       22508
 fftbas_mpi                            463.135913       22508
 fftbas_plan_mpi                       463.109830       22508
 strenl                                441.479821           1
 fornl                                 386.956562           1
 crexp_mul_wave                        366.956288     4825300
 work_mul_crexp                        334.385952     4007700
 dfftw_execute                         322.798409       67524
 fftwav_mpi                            295.998651       11440
 kinhamil                              224.259533       10980
 fftext_mpi                            222.948604       10980
 m_bcast_z                             188.806260       47956
 orth1                                 178.356967       33220
 ggemm                                 166.877589       14340
 vhamil                                136.560640       10980
 redis_pw                              120.063080       29720
 newband                               115.727035       11040
 map_forward                            93.357372       22970
 redis_proj                             80.066778       37350
 m_sumb_d                               66.411545       97234
 m_alltoallv_z                          55.531039       22514
 proall                                 47.038966           1
 map_backward                           46.273077       22046
 proj                                   45.361102           5
 phase                                  37.634469         116
 lincom                                 37.234758          70
 map_scatter                            32.347921       22514
 map_gather                             28.492302       22514
 eccp                                   22.709031        3360
 set_charge                             17.144646           1
 soft_charge                            16.985939           1
 orthch                                 11.103907           1
 sphpro_fast                             9.044367           2
 pdssyex_zheevx                          8.156128          60
 lapack                                  5.243490       10980
 w1_copy                                 4.137256       32940
 pw_charge                               3.947105         460
 potlok                                  2.816794           2
 spher                                   2.732692          20
 setup_precond                           1.237062        3360
 m_bcast_d                               1.087926       23048
 fewald                                  0.975335           1
 stufak                                  0.901561           2
 apply_precond                           0.826080        7620
 setdij_                                 0.669587          29
 choleski                                0.641417          10
 forhar                                  0.617482           2
 forloc                                  0.603842           1
 overl1                                  0.596426       10980
 overl                                   0.371183       18610
 strkin                                  0.200289           1
 densta                                  0.149225           7
 chggra                                  0.148377           1
 fordep                                  0.144975           1
 augmentation_charge                     0.110314           1
 fft_gq                                  0.057538           1
 set_dd_paw                              0.054002           3
 depsum                                  0.044846           1
 pothar                                  0.041134           3
 strelo                                  0.035691           1
 strehar                                 0.021442           1
 inisym                                  0.007009           1
 rsp                                     0.005144           1
 truncate_high_frequency_w1              0.003323       14340
 rcp                                     0.000295           1
 posmap                                  0.000126           2
 crpa_reader                             0.000029           1
 FERMAT_RAZOR                            0.000019           1
 set_rsgf_all                            0.000003           3
 potlok_metagga                          0.000003           2
 vectorpot                               0.000001           2
 rotate_active_occupied_orbital          0.000000           1
 redis_pw_over_bands                     0.000000           1
 set_dd_magatom                          0.000000           3
 ---------------------------------------------------------------
 
Profiling took   2.822184  1.208354  0.005448  0.005402 seconds
Profiling took   2.121425 seconds
