&CONTROL
   pseudo_dir       = './'
   verbosity        = 'high'
   prefix           = 'CNT_PBE'
/
&SYSTEM
   nbnd             = 732
   ecutwfc          = 60.0
   ntyp             = 2
   nat              = 365
   ibrav            = 0
/
&ELECTRONS
   electron_maxstep = 100
   conv_thr         = 7.35e-08
   mixing_mode      = 'plain'
   mixing_beta      = 0.7
   mixing_ndim      = 8
   diagonalization  = 'david'
   diago_david_ndim = 4
   diago_full_acc   = .true.
/
&IONS
/
&CELL
/

ATOMIC_SPECIES
C 12.011 C_ONCV_PBE-1.2.upf
Se 78.96 Se_ONCV_PBE-1.2.upf

K_POINTS CRYSTAL
2
0.00000 0.00000 0.00000 1.0
0.00000 0.00000 0.50000 1.0

CELL_PARAMETERS angstrom
32.3722991943000 0.00000000000000 0.00000000000000
0.00000000000000 19.92218961916977 0.00000000000000
0.00000000000000 0.00000000000000 40.44962340753452

ATOMIC_POSITIONS angstrom
C   12.009066316        10.724494341         0.099307607
C    11.938633304        10.834551698         2.543864534
C    10.943489763        11.853793701         2.470668813
C    10.375003078        12.180601842         1.210482183
C     8.993300438        12.526467894         1.136993539
C    11.863594482        10.942414723         4.988211987
C    10.833837898        11.926574734         4.914876886
C    10.254687614        12.233371475         3.654677976
C     8.861799434        12.531126098         3.580866122
C     8.207700051        12.488280828         2.320940697
C     6.865817316        12.010684834         2.247706552
C     6.331543776        11.630567977         0.987705787
C     5.439626251        10.519986928         0.914567476
C    11.783632440        11.048310212         7.432289721
C    10.720863367        11.996609291         7.358837089
C    10.131958296        12.282549197         6.098644809
C     8.729633704        12.531976283         6.024719643
C     8.077762456        12.466054910         4.764700646
C     6.753278378        11.942444452         4.691636770
C     6.232631728        11.544164990         3.431606020
C     5.379593939        10.403554374         3.358325164
C     5.145189634         9.791002843         2.098614460
C     5.017466186         8.372365807         2.025352138
C     5.139401499         7.727574347         0.765590729
C     5.775179423         6.452952777         0.692695089
C    11.700035146        11.152955359         9.876216473
C    10.605583035        12.064893607         9.802873537
C    10.007009043        12.329071872         8.542444990
C     8.597103290        12.529627589         8.468621081
C     7.948061230        12.440409256         7.208441458
C     6.642546453        11.871125119         7.135660260
C     6.136156205        11.454798231         5.875671700
C     5.323031421        10.285357330         5.802332983
C     5.110376402         9.664895282         4.542453516
C     5.031748154         8.242756577         4.469359203
C     5.176122563         7.602550296         3.209514393
C     5.855421730         6.350561331         3.136520734
C     6.314082892         5.880999346         1.876900589
C     7.549266923         5.171615817         1.803499942
C     8.185978261         5.012382520         0.543648539
C     9.609691798         5.056881851         0.470740242
C    12.000164386        10.727450989        13.579919024
C    11.613082382        11.255609222        12.320051009
C    10.488751355        12.129955296        12.247418080
C     9.881151941        12.373421590        10.986441055
C     8.465063945        12.524553791        10.912926946
C     7.819331527        12.411742833         9.652705735
C     6.534581006        11.796768395         9.580043273
C     6.043078119        11.362402392         8.320011317
C     5.271426855        10.165298429         8.246659943
C     5.079900292         9.537878166         6.986666561
C     5.050495559         8.113813484         6.913703341
C     5.216667974         7.479003382         5.653762999
C     5.938809669         6.251250618         5.580498417
C     6.413697775         5.797852234         4.320832615
C     7.672699558         5.131700477         4.247627401
C     8.314741249         4.994414056         2.987875410
C     9.736148986         5.088078048         2.915126457
C    10.354350253         5.307983183         1.655178732
C    11.515198778         6.133438294         1.581652870
C    11.926072967         6.644841003         0.321478370
C    12.481675153         7.956412952         0.248462166
C    11.923885835        10.826300394        16.023339489
C    11.521564329        11.348984673        14.763793328
C    10.369354351        12.184954883        14.692565949
C     9.754688000        12.412768754        13.431727550
C     8.333826323        12.515326437        13.358424394
C     7.692417521        12.379452439        12.097648678
C     6.430772752        11.718677270        12.024748140
C     5.954119117        11.267355070        10.764690870
C     5.225096684        10.043667399        10.691381687
C     5.054789267         9.410010271         9.431369621
C     5.074581517         7.985769853         9.358411825
C     5.262065212         7.357104591         8.098211106
C     6.025704064         6.154881115         8.024581877
C     6.515574078         5.718057177         6.764892268
C     7.796709125         5.095383580         6.691879624
C     8.443458892         4.980824757         5.432157467
C     9.860684352         5.123387428         5.359384707
C    10.471509955         5.364405286         4.099632113
C    11.603402848         6.229216467         4.026329560
C    11.996619822         6.754467330         2.766222264
C    12.506827664         8.084413243         2.693361506
C    12.565828155         8.737740985         1.433080625
C    12.301701225        10.137409760         1.359444615
C    11.851322611        10.901240136        18.467008276
C    11.421056551        11.415574557        17.209992346
C    10.245880231        12.218509867        17.138981947
C     9.626229880        12.437338617        15.878241189
C     8.203615216        12.496654434        15.804595686
C     7.566706100        12.342502653        14.542941200
C     6.329286698        11.637111786        14.469629606
C     5.869719617        11.168686151        13.209603677
C     5.184621219         9.919868161        13.136329451
C     5.035927537         9.280861163        11.876033503
C     5.104028700         7.858313396        11.802973847
C     5.311919686         7.236390241        10.542714062
C     6.115518817         6.060320631        10.468870866
C     6.620231813         5.641005628         9.209078191
C     7.921478931         5.061872530         9.136157161
C     8.571963322         4.970328360         7.876298789
C     9.983386657         5.161908750         7.803439237
C    10.585755089         5.424615222         6.544054605
C    11.687196955         6.328182238         6.471025688
C    12.062698828         6.866661429         5.210993732
C    12.526528261         8.213454891         5.138099222
C    12.563583136         8.868342294         3.877850286
C    12.251228334        10.258097987         3.804023966
C    11.771276634        11.000372145        20.922524184
C    11.328538032        11.486971072        19.657373905
C    10.128222708        12.242493149        19.583817605
C     9.497675282        12.444854914        18.323415578
C     8.075150342        12.467049959        18.250055765
C     7.442711969        12.297018960        16.988928059
C     6.229332698        11.550889286        16.915099329
C     5.787715640        11.066807666        15.654287449
C     5.147289456         9.795025784        15.581053003
C     5.021223482         9.151079759        14.320702810
C     5.136842929         7.731439956        14.247539485
C     5.366097776         7.116926826        12.987478599
C     6.207969320         5.967973476        12.913706524
C     6.726749141         5.566160879        11.653390083
C     8.046591712         5.031211260        11.580500394
C     8.700008521         4.962183923        10.320921686
C    10.104259758         5.203353472        10.247777649
C    10.697074075         5.488098845         8.988404469
C    11.765622119         6.430145623         8.915426180
C    12.123150333         6.981350867         7.655619040
C    12.539968468         8.343582425         7.582555165
C    12.555352685         8.999103310         6.322487045
C    12.195053653        10.377306703         6.248605275
C    11.690859221        11.138743264        23.364154562
C    11.227766872        11.586915268        22.103328217
C    10.001694127        12.308866925        22.027835971
C     9.368247568        12.465460019        20.768256058
C     7.947067517        12.439379772        20.695140951
C     7.319958049        12.243509571        19.434201295
C     6.133885137        11.460057264        19.360430425
C     5.707619495        10.962145894        18.099136368
C     5.111960072         9.668953845        18.026159887
C     5.009064007         9.021000315        16.765849473
C     5.172453544         7.606209890        16.692546317
C     5.423039448         6.999199402        15.432146700
C     6.302832230         5.879472932        15.358566291
C     6.834990512         5.494603470        14.098506610
C     8.173387052         5.006492378        14.025780862
C     8.828467606         4.959206793        12.766176840
C    10.223064393         5.249500333        12.692383067
C    10.805404206         5.554619265        11.432434287
C    11.838866470         6.535175491        11.358898479
C    12.177336623         7.098567705        10.099905618
C    12.546373574         8.474828497        10.026495177
C    12.540348587         9.130159397         8.766549410
C    12.133688512        10.495261516         8.692858703
C    11.613600464        11.253608439        25.808029480
C    11.137545469        11.702368210        24.548362774
C     9.881370944        12.371195199        24.473591385
C     9.239847334        12.504725252        23.212654139
C     7.818480118        12.417494641        23.140124879
C     7.200160666        12.196179458        21.880622114
C     6.041285577        11.368156575        21.806899463
C     5.633203914        10.853758034        20.546523955
C     5.083134683         9.541845892        20.473215976
C     5.001953172         8.890718419        19.211434919
C     5.212936245         7.483861665        19.137768923
C     5.482399798         6.884983740        17.877521193
C     6.402467373         5.797792270        17.804207187
C     6.947364957         5.431140034        16.544630890
C     8.303622278         4.997145690        16.472083548
C     8.958315959         4.968577823        15.211341585
C    10.340206729         5.308603011        15.136374913
C    10.911872330         5.626316788        13.876680482
C    11.910410896         6.643749774        13.801824712
C    12.226066175         7.218967986        12.542546159
C    12.547159861         8.606297802        12.468654745
C    12.519390895         9.261453560        11.209348468
C    12.068422807        10.612620249        11.136451547
C    11.528366920        11.348607077        28.252251567
C    11.038538873        11.787649095        26.992406455
C     9.757927697        12.411614593        26.919016506
C     9.111356412        12.527028351        25.659250954
C     7.693986719        12.383000417        25.586253981
C     7.083577414        12.140981574        24.326187067
C     5.955572061        11.271782917        24.252452361
C     5.563608805        10.745097070        22.991871927
C     5.057660904         9.413871131        22.918778519
C     4.998356028         8.760575449        21.658533199
C     5.258318047         7.360717876        21.585123963
C     5.549492295         6.773383345        20.323921520
C     6.507125590         5.722968893        20.250668992
C     7.066707933         5.378744434        18.989697994
C     8.437762892         5.003995851        18.916361085
C     9.090158492         5.000060779        17.656852293
C    10.455808329         5.398887043        17.581419114
C    11.014880791         5.719419135        16.320567455
C    11.984464689         6.760169267        16.243746808
C    12.277663023         7.340563987        14.981545049
C    12.551133747         8.736374871        14.907276331
C    12.496809495         9.391414263        13.651362178
C    11.440202406        11.439498469        30.696222920
C    10.935074077        11.861096265        29.436956422
C     9.633056590        12.439782304        29.364296974
C     8.982486335        12.533648155        28.104733937
C     7.571650062        12.339908165        28.031389795
C     6.969885576        12.078156963        26.771057683
C     5.871506371        11.171366132        26.697409769
C     5.498346959        10.632206556        25.437075247
C     5.037288344         9.284624061        25.363839595
C     5.001456798         8.629555578        24.103546058
C     5.310160911         7.239537468        24.029936718
C     5.619619957         6.661958094        22.769136893
C     6.612922235         5.640964069        22.695802395
C     7.184302747         5.320867162        21.434754249
C     8.568379202         4.992217944        21.361007488
C     9.229349675         5.033286257        20.100695869
C    10.578308996         5.470936039        20.027503614
C    11.126729436         5.833980333        18.762223147
C    12.112527253         6.844864166        18.674107473
C    12.366846334         7.448586719        17.424144606
C    12.592521403         8.868484190        17.349462420
C    12.474557082         9.514654825        16.092869600
C    11.348250206        11.528323770        33.140510101
C    10.828486321        11.930857718        31.881159222
C     9.507414632        12.463357118        31.808680590
C     8.853995412        12.534418783        30.549050048
C     7.450269974        12.293176505        30.475693852
C     6.857844459        12.011022058        29.215916245
C     5.789867076        11.068536533        29.142386465
C     5.435243302        10.517084901        27.881902467
C     5.019497991         9.154981584        27.808447424
C     5.006697427         8.499120506        26.548151476
C     5.364723944         7.120487271        26.474638572
C     5.695495234         6.553795842        25.214540317
C     6.721809520         5.566118726        25.141528878
C     7.301307121         5.260201854        23.880063647
C     8.694712900         4.967451862        23.806015525
C     9.349231958         5.027414521        22.545372409
C    10.685541218         5.517152956        22.474832134
C    11.229062558         5.910311125        21.217827052
C    12.176039007         6.960546872        21.162195731
C    12.624942488         7.485251527        19.879601447
C    12.817878097         9.031644248        19.805156733
C    12.511380412         9.650574539        18.522473246
C    11.252623199        11.614883494        35.585038370
C    10.719674770        11.998662321        34.325219779
C     9.380915959        12.485068887        34.252680875
C     8.725579741        12.532725538        32.993204629
C     7.330721502        12.243776738        32.919807448
C     6.748037266        11.940887759        31.660254054
C     5.712264379        10.963296494        31.587011170
C     5.375795158        10.400321060        30.326664593
C     5.006302354         9.024731748        30.253139635
C     5.015751308         8.368939539        28.993012449
C     5.422304776         7.003853451        28.919673129
C     5.773620837         6.449495043        27.659447096
C     6.834189753         5.498900702        27.586573079
C     7.422635594         5.209676424        26.326004699
C     8.824965492         4.959142079        26.252450810
C     9.477028246         5.028860191        24.991701614
C    10.799238362         5.556143304        24.920990166
C    11.317717175         5.964378596        23.661569371
C    12.173386855         7.100879590        23.591696914
C    12.446681027         7.698559420        22.335260803
C    12.576875732         9.130483560        22.260911319
C    12.478790492         9.778342691        21.010813442
C    11.153080191        11.698106600        38.029590749
C    10.607689128        12.063389160        36.769569642
C     9.252946012        12.503531906        36.696787238
C     8.596715453        12.528114830        35.437192859
C     7.212801079        12.191225588        35.363793267
C     6.640949277        11.868291962        34.104174779
C     5.639002180        10.855866872        34.031240489
C     5.321277470        10.281582558        32.771390556
C     4.999166917         8.894112033        32.697771573
C     5.030520485         8.239014459        31.437658852
C     5.484476947         6.889028054        31.364509993
C     5.854579486         6.347652180        30.104230921
C     6.948643277         5.435585692        30.031306274
C     7.547165654         5.167678369        28.771251415
C     8.956876523         4.965499762        28.697728867
C     9.606017955         5.052363167        27.436815731
C    10.910595940         5.623875476        27.364595065
C    11.415733917         6.040975367        26.104913893
C    12.224964408         7.214405961        26.033132010
C    12.438371465         7.836422328        24.777346839
C    12.516208120         9.256664147        24.703547039
C    12.374961977         9.891636924        23.441319967
C    11.049987795        11.777672487         0.026167906
C    10.492833295        12.124167865        39.214085857
C     9.123787469        12.517468523        39.140939409
C     8.467451750        12.519605859        37.881161802
C     7.095947208        12.135160896        37.807762210
C     6.535909976        11.792623151        36.548093094
C     5.569576388        10.746102806        36.475264883
C     5.272048649        10.161111626        35.215612642
C     4.997875090         8.763513098        35.141971961
C     5.051175239         8.109740672        33.882042468
C     5.551580056         6.776241438        33.809018975
C     5.940033962         6.248213820        32.548867680
C     7.065762941         5.375609675        32.475651316
C     7.673147693         5.129757877        31.215514486
C     9.089150308         4.977298746        31.141897914
C     9.734632368         5.086333744        29.881442847
C    11.019413279         5.701735650        29.808262646
C    11.509560664         6.135312025        28.548280113
C    12.278718481         7.334356214        28.475097502
C    12.466695174         7.962871862        27.215884043
C    12.496506558         9.386615944        27.142515793
C    12.331565671        10.022054185        25.883331266
C     8.337815646        12.506267696        40.325123512
C     6.980346574        12.074834593        40.251769727
C     6.432863890        11.713320869        38.991946314
C     5.503223869        10.634118285        38.919014435
C     5.226417454        10.039159996        37.659405590
C     5.000731291         8.632856574        37.585844468
C     5.076952438         7.981368722        36.326105436
C     5.623050678         6.665916915        36.253173557
C     6.029620547         6.151745763        34.993106643
C     7.184849771         5.318678768        34.919559987
C     7.800624643         5.094677072        33.659478608
C     9.221215702         4.991563682        33.585931951
C     9.862622575         5.124039316        32.325631181
C    11.125801328         5.782156471        32.252101401
C    11.601198349         6.232485403        30.991725893
C    12.330791926         7.455900563        30.917945380
C    12.497994232         8.089901446        29.658078570
C    12.478970904         9.514706477        29.585096062
C    12.289293322        10.144289606        28.326249060
C     5.184133528         9.915716980        40.103005667
C     5.007217438         8.502363913        40.029565089
C     5.106417952         7.853791743        38.769879097
C     5.697611457         6.557963646        38.697009901
C     6.121961066         6.057983216        37.437104517
C     7.305308504         5.265127820        37.363437316
C     7.928782237         5.062752993        36.103442729
C     9.352124337         5.008901037        36.030098587
C     9.988886809         5.163949312        34.769780941
C    11.228897582         5.864903426        34.696135438
C    11.689311730         6.331379930        33.435873242
C    12.377196383         7.578886427        33.362104783
C    12.523769020         8.218224118        32.102025815
C    12.455358165         9.641192822        32.029144565
C    12.244481699        10.263761927        30.769588760
C     6.216961938         5.967806645        39.881061405
C     7.426899876         5.216124647        39.807473763
C     8.057247111         5.035107149        38.547529805
C     9.481666859         5.030442413        38.474458094
C    10.112957157         5.207585397        37.214212775
C    11.327917685         5.951126520        37.140533519
C    11.772477773         6.433128987        35.880343650
C    12.416848418         7.703473511        35.806833157
C    12.542323470         8.347395194        34.546508278
C    12.424590695         9.767008280        34.473561933
C    12.193445382        10.381499443        33.213704767
C    10.235049727         5.255273514        39.658748277
C    11.423616085         6.040445189        39.585095541
C    11.851316823         6.537639364        38.324896028
C    12.451687217         7.829303812        38.251662788
C    12.555144295         8.477143944        36.991313800
C    12.388639517         9.891880936        36.918157708
C    12.136744902        10.497971182        35.658216161
C    12.563003309         8.607308287        39.436208525
C    12.347565412        10.015361949        39.362808933
C    12.075216715        10.612361394        38.102761306
Se   14.610954677         8.022380634        19.842049401

