
     Program PWSCF v.7.2 starts on 15May2024 at 21:53:38 

     This program is part of the open-source Quantum ESPRESSO suite
     for quantum simulation of materials; please cite
         "P. Giannozzi et al., J. Phys.:Condens. Matter 21 395502 (2009);
         "P. Giannozzi et al., J. Phys.:Condens. Matter 29 465901 (2017);
         "P. Giannozzi et al., J. Chem. Phys. 152 154105 (2020);
          URL http://www.quantum-espresso.org", 
     in publications or presentations arising from this work. More details at
     http://www.quantum-espresso.org/quote

     Parallel version (MPI & OpenMP), running on    1536 processor cores
     Number of MPI processes:               768
     Threads/MPI process:                     2

     MPI processes distributed on    12 nodes
     486393 MiB available memory on the printing compute node when the environment starts

     Reading input from espresso.pwi
Warning: card &CELL ignored
Warning: card / ignored

     Current dimensions of program PWSCF are:
     Max number of different atomic species (ntypx) = 10
     Max number of k-points (npk) =  40000
     Max angular momentum in pseudopotentials (lmaxx) =  4

     K-points division:     npool     =       2
     R & G space division:  proc/nbgrp/npool/nimage =     384
     Subspace diagonalization in iterative solution of the eigenvalue problem:
     one sub-group per band group will be used
     custom distributed-memory algorithm (size of sub-group:  7*  7 procs)


     Parallelization info
     --------------------
     sticks:   dense  smooth     PW     G-vecs:    dense   smooth      PW
     Min         114     114     28                28776    28776    3638
     Max         115     115     29                28795    28795    3665
     Sum       43977   43977  11115             11053081 11053081 1403663

     Using Slab Decomposition



     bravais-lattice index     =            0
     lattice parameter (alat)  =      61.1748  a.u.
     unit-cell volume          =  176044.1909 (a.u.)^3
     number of atoms/cell      =          365
     number of atomic types    =            2
     number of electrons       =      1462.00
     number of Kohn-Sham states=          732
     kinetic-energy cutoff     =      60.0000  Ry
     charge density cutoff     =     240.0000  Ry
     scf convergence threshold =      7.4E-08
     mixing beta               =       0.7000
     number of iterations used =            8  plain     mixing
     Exchange-correlation= PBE
                           (   1   4   3   4   0   0   0)

     celldm(1)=  61.174780  celldm(2)=   0.000000  celldm(3)=   0.000000
     celldm(4)=   0.000000  celldm(5)=   0.000000  celldm(6)=   0.000000

     crystal axes: (cart. coord. in units of alat)
               a(1) = (   1.000000   0.000000   0.000000 )  
               a(2) = (   0.000000   0.615409   0.000000 )  
               a(3) = (   0.000000   0.000000   1.249513 )  

     reciprocal axes: (cart. coord. in units 2 pi/alat)
               b(1) = (  1.000000  0.000000  0.000000 )  
               b(2) = (  0.000000  1.624937  0.000000 )  
               b(3) = (  0.000000  0.000000  0.800312 )  


     PseudoPot. # 1 for C  read from file:
     ./C_ONCV_PBE-1.2.upf
     MD5 check sum: 1a5f83a7b1f58d24996abe00ed223ac6
     Pseudo is Norm-conserving, Zval =  4.0
     Generated using ONCVPSP code by D. R. Hamann
     Using radial grid of  602 points,  4 beta functions with: 
                l(1) =   0
                l(2) =   0
                l(3) =   1
                l(4) =   1

     PseudoPot. # 2 for Se read from file:
     ./Se_ONCV_PBE-1.2.upf
     MD5 check sum: e78e48a4f5d8ce1f8dc76ec1271f249c
     Pseudo is Norm-conserving, Zval =  6.0
     Generated using ONCVPSP code by D. R. Hamann
     Using radial grid of  602 points,  6 beta functions with: 
                l(1) =   0
                l(2) =   0
                l(3) =   1
                l(4) =   1
                l(5) =   2
                l(6) =   2

     atomic species   valence    mass     pseudopotential
        C              4.00    12.01100     C ( 1.00)
        Se             6.00    78.96000     Se( 1.00)

     No symmetry found


                                    s                        frac. trans.

      isym =  1     identity                                     

 cryst.   s( 1) = (     1          0          0      )
                  (     0          1          0      )
                  (     0          0          1      )

 cart.    s( 1) = (  1.0000000  0.0000000  0.0000000 )
                  (  0.0000000  1.0000000  0.0000000 )
                  (  0.0000000  0.0000000  1.0000000 )


   Cartesian axes

     site n.     atom                  positions (alat units)
         1           C   tau(   1) = (   0.3709674   0.3312861   0.0030677  )
         2           C   tau(   2) = (   0.3687916   0.3346859   0.0785815  )
         3           C   tau(   3) = (   0.3380511   0.3661709   0.0763205  )
         4           C   tau(   4) = (   0.3204902   0.3762662   0.0373925  )
         5           C   tau(   5) = (   0.2778085   0.3869502   0.0351224  )
         6           C   tau(   6) = (   0.3664736   0.3380178   0.1540889  )
         7           C   tau(   7) = (   0.3346638   0.3684191   0.1518235  )
         8           C   tau(   8) = (   0.3167735   0.3778963   0.1128952  )
         9           C   tau(   9) = (   0.2737464   0.3870941   0.1106151  )
        10           C   tau(  10) = (   0.2535408   0.3857706   0.0716953  )
        11           C   tau(  11) = (   0.2120893   0.3710174   0.0694330  )
        12           C   tau(  12) = (   0.1955852   0.3592753   0.0305108  )
        13           C   tau(  13) = (   0.1680334   0.3249688   0.0282515  )
        14           C   tau(  14) = (   0.3640036   0.3412890   0.2295879  )
        15           C   tau(  15) = (   0.3311740   0.3705826   0.2273190  )
        16           C   tau(  16) = (   0.3129824   0.3794154   0.1883908  )
        17           C   tau(  17) = (   0.2696637   0.3871204   0.1861073  )
        18           C   tau(  18) = (   0.2495270   0.3850840   0.1471845  )
        19           C   tau(  19) = (   0.2086129   0.3689094   0.1449275  )
        20           C   tau(  20) = (   0.1925298   0.3566063   0.1060044  )
        21           C   tau(  21) = (   0.1661789   0.3213721   0.1037407  )
        22           C   tau(  22) = (   0.1589380   0.3024500   0.0648275  )
        23           C   tau(  23) = (   0.1549926   0.2586275   0.0625644  )
        24           C   tau(  24) = (   0.1587592   0.2387095   0.0236496  )
        25           C   tau(  25) = (   0.1783988   0.1993356   0.0213978  )
        26           C   tau(  26) = (   0.3614212   0.3445216   0.3050823  )
        27           C   tau(  27) = (   0.3276129   0.3726919   0.3028167  )
        28           C   tau(  28) = (   0.3091226   0.3808525   0.2638813  )
        29           C   tau(  29) = (   0.2655697   0.3870478   0.2616009  )
        30           C   tau(  30) = (   0.2455204   0.3842918   0.2226731  )
        31           C   tau(  31) = (   0.2051923   0.3667063   0.2204249  )
        32           C   tau(  32) = (   0.1895496   0.3538457   0.1815031  )
        33           C   tau(  33) = (   0.1644317   0.3177209   0.1792376  )
        34           C   tau(  34) = (   0.1578626   0.2985545   0.1403192  )
        35           C   tau(  35) = (   0.1554338   0.2546238   0.1380612  )
        36           C   tau(  36) = (   0.1598936   0.2348474   0.0991439  )
        37           C   tau(  37) = (   0.1808775   0.1961727   0.0968890  )
        38           C   tau(  38) = (   0.1950459   0.1816676   0.0579786  )
        39           C   tau(  39) = (   0.2332014   0.1597544   0.0557112  )
        40           C   tau(  40) = (   0.2528698   0.1548355   0.0167936  )
        41           C   tau(  41) = (   0.2968492   0.1562102   0.0145415  )
        42           C   tau(  42) = (   0.3706924   0.3313775   0.4194920  )
        43           C   tau(  43) = (   0.3587352   0.3476926   0.3805739  )
        44           C   tau(  44) = (   0.3240039   0.3747017   0.3783302  )
        45           C   tau(  45) = (   0.3052348   0.3822225   0.3393778  )
        46           C   tau(  46) = (   0.2614910   0.3868911   0.3371069  )
        47           C   tau(  47) = (   0.2415439   0.3834063   0.2981779  )
        48           C   tau(  48) = (   0.2018572   0.3644093   0.2959334  )
        49           C   tau(  49) = (   0.1866744   0.3509915   0.2570102  )
        50           C   tau(  50) = (   0.1628376   0.3140122   0.2547443  )
        51           C   tau(  51) = (   0.1569212   0.2946309   0.2158224  )
        52           C   tau(  52) = (   0.1560129   0.2506406   0.2135685  )
        53           C   tau(  53) = (   0.1611460   0.2310310   0.1746482  )
        54           C   tau(  54) = (   0.1834534   0.1931049   0.1723850  )
        55           C   tau(  55) = (   0.1981230   0.1790992   0.1334731  )
        56           C   tau(  56) = (   0.2370144   0.1585213   0.1312118  )
        57           C   tau(  57) = (   0.2568474   0.1542805   0.0922973  )
        58           C   tau(  58) = (   0.3007556   0.1571738   0.0900500  )
        59           C   tau(  59) = (   0.3198522   0.1639668   0.0511295  )
        60           C   tau(  60) = (   0.3557115   0.1894656   0.0488582  )
        61           C   tau(  61) = (   0.3684036   0.2052632   0.0099307  )
        62           C   tau(  62) = (   0.3855665   0.2457784   0.0076751  )
        63           C   tau(  63) = (   0.3683361   0.3344310   0.4949707  )
        64           C   tau(  64) = (   0.3559081   0.3505770   0.4560626  )
        65           C   tau(  65) = (   0.3203157   0.3764007   0.4538623  )
        66           C   tau(  66) = (   0.3013282   0.3834380   0.4149142  )
        67           C   tau(  67) = (   0.2574370   0.3866060   0.4126498  )
        68           C   tau(  68) = (   0.2376235   0.3824088   0.3737037  )
        69           C   tau(  69) = (   0.1986505   0.3619971   0.3714518  )
        70           C   tau(  70) = (   0.1839264   0.3480554   0.3325278  )
        71           C   tau(  71) = (   0.1614064   0.3102550   0.3302633  )
        72           C   tau(  72) = (   0.1561455   0.2906809   0.2913407  )
        73           C   tau(  73) = (   0.1567569   0.2466853   0.2890870  )
        74           C   tau(  74) = (   0.1625484   0.2272654   0.2501587  )
        75           C   tau(  75) = (   0.1861377   0.1901280   0.2478842  )
        76           C   tau(  76) = (   0.2012700   0.1766343   0.2089716  )
        77           C   tau(  77) = (   0.2408451   0.1573995   0.2067162  )
        78           C   tau(  78) = (   0.2608236   0.1538607   0.1678026  )
        79           C   tau(  79) = (   0.3046025   0.1582646   0.1655547  )
        80           C   tau(  80) = (   0.3234713   0.1657097   0.1266401  )
        81           C   tau(  81) = (   0.3584362   0.1924243   0.1243758  )
        82           C   tau(  82) = (   0.3705829   0.2086496   0.0854503  )
        83           C   tau(  83) = (   0.3863435   0.2497324   0.0831996  )
        84           C   tau(  84) = (   0.3881661   0.2699141   0.0442687  )
        85           C   tau(  85) = (   0.3800070   0.3131507   0.0419941  )
        86           C   tau(  86) = (   0.3660946   0.3367459   0.5704571  )
        87           C   tau(  87) = (   0.3528034   0.3526340   0.5316271  )
        88           C   tau(  88) = (   0.3165015   0.3774372   0.5294336  )
        89           C   tau(  89) = (   0.2973601   0.3841970   0.4904885  )
        90           C   tau(  90) = (   0.2534147   0.3860293   0.4882136  )
        91           C   tau(  91) = (   0.2337402   0.3812674   0.4492403  )
        92           C   tau(  92) = (   0.1955155   0.3594775   0.4469757  )
        93           C   tau(  93) = (   0.1813192   0.3450075   0.4080527  )
        94           C   tau(  94) = (   0.1601561   0.3064308   0.4057892  )
        95           C   tau(  95) = (   0.1555629   0.2866914   0.3668579  )
        96           C   tau(  96) = (   0.1576665   0.2427481   0.3646010  )
        97           C   tau(  97) = (   0.1640884   0.2235365   0.3256708  )
        98           C   tau(  98) = (   0.1889121   0.1872070   0.3233898  )
        99           C   tau(  99) = (   0.2045030   0.1742541   0.2844740  )
       100           C   tau( 100) = (   0.2446993   0.1563643   0.2822214  )
       101           C   tau( 101) = (   0.2647932   0.1535365   0.2433037  )
       102           C   tau( 102) = (   0.3083929   0.1594545   0.2410530  )
       103           C   tau( 103) = (   0.3270004   0.1675697   0.2021498  )
       104           C   tau( 104) = (   0.3610246   0.1954814   0.1998939  )
       105           C   tau( 105) = (   0.3726241   0.2121153   0.1609708  )
       106           C   tau( 106) = (   0.3869521   0.2537186   0.1587190  )
       107           C   tau( 107) = (   0.3880967   0.2739485   0.1197892  )
       108           C   tau( 108) = (   0.3784479   0.3168789   0.1175086  )
       109           C   tau( 109) = (   0.3636219   0.3398082   0.6463095  )
       110           C   tau( 110) = (   0.3499454   0.3548395   0.6072282  )
       111           C   tau( 111) = (   0.3128670   0.3781781   0.6049560  )
       112           C   tau( 112) = (   0.2933890   0.3844291   0.5660214  )
       113           C   tau( 113) = (   0.2494463   0.3851148   0.5637553  )
       114           C   tau( 114) = (   0.2299099   0.3798624   0.5247983  )
       115           C   tau( 115) = (   0.1924279   0.3568140   0.5225177  )
       116           C   tau( 116) = (   0.1787861   0.3418604   0.4835705  )
       117           C   tau( 117) = (   0.1590029   0.3025743   0.4813082  )
       118           C   tau( 118) = (   0.1551086   0.2826824   0.4423752  )
       119           C   tau( 119) = (   0.1586802   0.2388289   0.4401152  )
       120           C   tau( 120) = (   0.1657620   0.2198462   0.4011911  )
       121           C   tau( 121) = (   0.1917679   0.1843543   0.3989122  )
       122           C   tau( 122) = (   0.2077934   0.1719421   0.3599803  )
       123           C   tau( 123) = (   0.2485641   0.1554172   0.3577287  )
       124           C   tau( 124) = (   0.2687486   0.1532849   0.3188195  )
       125           C   tau( 125) = (   0.3121267   0.1607348   0.3165601  )
       126           C   tau( 126) = (   0.3304391   0.1695307   0.2776573  )
       127           C   tau( 127) = (   0.3634472   0.1986311   0.2754029  )
       128           C   tau( 128) = (   0.3744915   0.2156582   0.2364867  )
       129           C   tau( 129) = (   0.3873672   0.2577383   0.2342297  )
       130           C   tau( 130) = (   0.3878425   0.2779878   0.1953055  )
       131           C   tau( 131) = (   0.3767126   0.3205613   0.1930232  )
       132           C   tau( 132) = (   0.3611377   0.3440826   0.7217329  )
       133           C   tau( 133) = (   0.3468325   0.3579269   0.6827852  )
       134           C   tau( 134) = (   0.3089584   0.3802284   0.6804532  )
       135           C   tau( 135) = (   0.2893909   0.3850656   0.6415441  )
       136           C   tau( 136) = (   0.2454897   0.3842600   0.6392855  )
       137           C   tau( 137) = (   0.2261180   0.3782095   0.6003343  )
       138           C   tau( 138) = (   0.1894794   0.3540081   0.5980555  )
       139           C   tau( 139) = (   0.1763118   0.3386274   0.5590933  )
       140           C   tau( 140) = (   0.1579116   0.2986799   0.5568390  )
       141           C   tau( 141) = (   0.1547330   0.2786642   0.5179073  )
       142           C   tau( 142) = (   0.1597802   0.2349604   0.5156429  )
       143           C   tau( 143) = (   0.1675210   0.2162095   0.4767084  )
       144           C   tau( 144) = (   0.1946983   0.1816205   0.4744354  )
       145           C   tau( 145) = (   0.2111370   0.1697316   0.4355114  )
       146           C   tau( 146) = (   0.2524809   0.1546536   0.4332649  )
       147           C   tau( 147) = (   0.2727167   0.1531929   0.3943550  )
       148           C   tau( 148) = (   0.3157967   0.1621603   0.3920754  )
       149           C   tau( 149) = (   0.3337855   0.1715856   0.3531548  )
       150           C   tau( 150) = (   0.3657098   0.2018755   0.3508833  )
       151           C   tau( 151) = (   0.3761653   0.2192791   0.3119922  )
       152           C   tau( 152) = (   0.3875651   0.2617926   0.3097245  )
       153           C   tau( 153) = (   0.3873790   0.2820362   0.2708040  )
       154           C   tau( 154) = (   0.3748170   0.3242050   0.2685277  )
       155           C   tau( 155) = (   0.3587512   0.3476308   0.7972257  )
       156           C   tau( 156) = (   0.3440455   0.3614933   0.7583138  )
       157           C   tau( 157) = (   0.3052416   0.3821537   0.7560041  )
       158           C   tau( 158) = (   0.2854245   0.3862786   0.7170530  )
       159           C   tau( 159) = (   0.2415176   0.3835840   0.7148125  )
       160           C   tau( 160) = (   0.2224173   0.3767474   0.6759057  )
       161           C   tau( 161) = (   0.1866190   0.3511693   0.6736284  )
       162           C   tau( 162) = (   0.1740131   0.3352792   0.6346946  )
       163           C   tau( 163) = (   0.1570211   0.2947534   0.6324301  )
       164           C   tau( 164) = (   0.1545134   0.2746397   0.5934529  )
       165           C   tau( 165) = (   0.1610308   0.2311810   0.5911773  )
       166           C   tau( 166) = (   0.1693547   0.2126813   0.5522475  )
       167           C   tau( 167) = (   0.1977761   0.1790973   0.5499828  )
       168           C   tau( 168) = (   0.2146083   0.1677712   0.5110737  )
       169           C   tau( 169) = (   0.2565039   0.1543649   0.5088327  )
       170           C   tau( 170) = (   0.2767278   0.1534824   0.4698876  )
       171           C   tau( 171) = (   0.3194153   0.1639860   0.4675718  )
       172           C   tau( 172) = (   0.3370744   0.1738003   0.4286591  )
       173           C   tau( 173) = (   0.3679198   0.2052295   0.4263468  )
       174           C   tau( 174) = (   0.3776706   0.2229983   0.3874469  )
       175           C   tau( 175) = (   0.3875894   0.2658538   0.3851643  )
       176           C   tau( 176) = (   0.3867316   0.2860919   0.3462636  )
       177           C   tau( 177) = (   0.3728009   0.3278303   0.3440118  )
       178           C   tau( 178) = (   0.3561183   0.3505654   0.8727292  )
       179           C   tau( 179) = (   0.3409872   0.3641276   0.8338118  )
       180           C   tau( 180) = (   0.3014283   0.3834023   0.8315448  )
       181           C   tau( 181) = (   0.2814553   0.3869675   0.7926299  )
       182           C   tau( 182) = (   0.2376719   0.3825184   0.7903749  )
       183           C   tau( 183) = (   0.2188160   0.3750423   0.7514507  )
       184           C   tau( 184) = (   0.1839712   0.3481922   0.7491730  )
       185           C   tau( 185) = (   0.1718633   0.3319226   0.7102329  )
       186           C   tau( 186) = (   0.1562342   0.2908002   0.7079750  )
       187           C   tau( 187) = (   0.1544023   0.2706195   0.6690453  )
       188           C   tau( 188) = (   0.1624326   0.2273770   0.6667776  )
       189           C   tau( 189) = (   0.1714272   0.2092339   0.6278183  )
       190           C   tau( 190) = (   0.2010091   0.1767860   0.6255555  )
       191           C   tau( 191) = (   0.2182949   0.1661527   0.5866033  )
       192           C   tau( 192) = (   0.2606476   0.1545765   0.5843379  )
       193           C   tau( 193) = (   0.2808005   0.1544549   0.5454309  )
       194           C   tau( 194) = (   0.3229863   0.1667749   0.5431007  )
       195           C   tau( 195) = (   0.3402564   0.1766763   0.5041522  )
       196           C   tau( 196) = (   0.3702074   0.2088257   0.5017792  )
       197           C   tau( 197) = (   0.3792645   0.2267545   0.4627890  )
       198           C   tau( 198) = (   0.3877122   0.2698719   0.4604948  )
       199           C   tau( 199) = (   0.3860340   0.2901065   0.4216989  )
       200           C   tau( 200) = (   0.3533948   0.3533731   0.9482250  )
       201           C   tau( 201) = (   0.3377911   0.3663965   0.9093255  )
       202           C   tau( 202) = (   0.2975710   0.3842724   0.9070810  )
       203           C   tau( 203) = (   0.2774745   0.3871720   0.8681723  )
       204           C   tau( 204) = (   0.2338929   0.3811873   0.8659067  )
       205           C   tau( 205) = (   0.2153040   0.3731016   0.8269742  )
       206           C   tau( 206) = (   0.1813744   0.3450903   0.8246992  )
       207           C   tau( 207) = (   0.1698473   0.3284353   0.7857667  )
       208           C   tau( 208) = (   0.1556049   0.2868077   0.7835044  )
       209           C   tau( 209) = (   0.1544980   0.2665722   0.7445732  )
       210           C   tau( 210) = (   0.1640341   0.2236337   0.7422994  )
       211           C   tau( 211) = (   0.1735935   0.2057919   0.7033525  )
       212           C   tau( 212) = (   0.2042772   0.1742528   0.7010871  )
       213           C   tau( 213) = (   0.2219275   0.1643648   0.6621326  )
       214           C   tau( 214) = (   0.2646824   0.1542126   0.6598545  )
       215           C   tau( 215) = (   0.2851002   0.1554813   0.6209227  )
       216           C   tau( 216) = (   0.3267704   0.1690005   0.6186618  )
       217           C   tau( 217) = (   0.3437114   0.1802152   0.5795765  )
       218           C   tau( 218) = (   0.3741633   0.2114420   0.5768545  )
       219           C   tau( 219) = (   0.3820194   0.2300914   0.5382424  )
       220           C   tau( 220) = (   0.3889906   0.2739529   0.5359354  )
       221           C   tau( 221) = (   0.3853467   0.2939135   0.4971185  )
       222           C   tau( 222) = (   0.3505543   0.3561169   1.0237305  )
       223           C   tau( 223) = (   0.3344985   0.3685514   0.9848284  )
       224           C   tau( 224) = (   0.2936898   0.3850007   0.9825895  )
       225           C   tau( 225) = (   0.2735053   0.3871958   0.9436787  )
       226           C   tau( 226) = (   0.2301434   0.3797437   0.9414127  )
       227           C   tau( 227) = (   0.2118430   0.3710278   0.9024974  )
       228           C   tau( 228) = (   0.1788525   0.3419138   0.9002260  )
       229           C   tau( 229) = (   0.1678980   0.3248791   0.8612889  )
       230           C   tau( 230) = (   0.1550553   0.2828029   0.8590198  )
       231           C   tau( 231) = (   0.1546599   0.2625430   0.8200885  )
       232           C   tau( 232) = (   0.1657196   0.2199562   0.8178177  )
       233           C   tau( 233) = (   0.1759373   0.2024507   0.7788925  )
       234           C   tau( 234) = (   0.2076408   0.1719408   0.7766371  )
       235           C   tau( 235) = (   0.2255418   0.1624908   0.7376697  )
       236           C   tau( 236) = (   0.2685850   0.1534476   0.7353823  )
       237           C   tau( 237) = (   0.2888035   0.1552999   0.6964403  )
       238           C   tau( 238) = (   0.3300829   0.1704282   0.6942612  )
       239           C   tau( 239) = (   0.3468726   0.1825731   0.6554316  )
       240           C   tau( 240) = (   0.3761252   0.2150155   0.6537131  )
       241           C   tau( 241) = (   0.3899921   0.2312240   0.6140930  )
       242           C   tau( 242) = (   0.3959520   0.2789930   0.6117933  )
       243           C   tau( 243) = (   0.3864841   0.2981121   0.5721705  )
       244           C   tau( 244) = (   0.3476004   0.3587908   1.0992435  )
       245           C   tau( 245) = (   0.3311373   0.3706460   1.0603269  )
       246           C   tau( 246) = (   0.2897822   0.3856714   1.0580861  )
       247           C   tau( 247) = (   0.2695385   0.3871435   1.0191801  )
       248           C   tau( 248) = (   0.2264504   0.3782177   1.0169129  )
       249           C   tau( 249) = (   0.2084510   0.3688613   0.9780045  )
       250           C   tau( 250) = (   0.1764553   0.3386629   0.9757420  )
       251           C   tau( 251) = (   0.1660616   0.3212722   0.9368091  )
       252           C   tau( 252) = (   0.1546477   0.2787794   0.9345379  )
       253           C   tau( 253) = (   0.1549396   0.2585216   0.8956118  )
       254           C   tau( 254) = (   0.1674983   0.2163533   0.8933463  )
       255           C   tau( 255) = (   0.1783507   0.1992288   0.8544171  )
       256           C   tau( 256) = (   0.2111123   0.1698644   0.8521660  )
       257           C   tau( 257) = (   0.2292897   0.1609301   0.8132263  )
       258           C   tau( 258) = (   0.2726085   0.1531909   0.8109542  )
       259           C   tau( 259) = (   0.2927512   0.1553445   0.7720089  )
       260           C   tau( 260) = (   0.3335950   0.1716326   0.7698245  )
       261           C   tau( 261) = (   0.3496112   0.1842433   0.7309203  )
       262           C   tau( 262) = (   0.3760433   0.2193505   0.7287619  )
       263           C   tau( 263) = (   0.3844855   0.2378132   0.6899498  )
       264           C   tau( 264) = (   0.3885073   0.2820462   0.6876531  )
       265           C   tau( 265) = (   0.3854774   0.3020589   0.6490368  )
       266           C   tau( 266) = (   0.3445254   0.3613616   1.1747572  )
       267           C   tau( 267) = (   0.3276780   0.3726454   1.1358344  )
       268           C   tau( 268) = (   0.2858291   0.3862417   1.1335861  )
       269           C   tau( 269) = (   0.2655578   0.3870011   1.0946764  )
       270           C   tau( 270) = (   0.2228078   0.3765944   1.0924091  )
       271           C   tau( 271) = (   0.2051430   0.3666188   1.0534987  )
       272           C   tau( 272) = (   0.1741922   0.3353443   1.0512457  )
       273           C   tau( 273) = (   0.1643775   0.3176043   1.0123282  )
       274           C   tau( 274) = (   0.1544273   0.2747445   1.0100540  )
       275           C   tau( 275) = (   0.1553958   0.2545082   0.9711284  )
       276           C   tau( 276) = (   0.1694188   0.2128063   0.9688688  )
       277           C   tau( 277) = (   0.1808515   0.1960828   0.9299380  )
       278           C   tau( 278) = (   0.2146478   0.1679085   0.9276853  )
       279           C   tau( 279) = (   0.2331365   0.1596327   0.8887614  )
       280           C   tau( 280) = (   0.2766834   0.1533873   0.8864903  )
       281           C   tau( 281) = (   0.2967357   0.1560706   0.8475399  )
       282           C   tau( 282) = (   0.3370349   0.1737249   0.8453090  )
       283           C   tau( 283) = (   0.3526390   0.1866094   0.8063967  )
       284           C   tau( 284) = (   0.3776366   0.2228574   0.8041793  )
       285           C   tau( 285) = (   0.3842289   0.2420718   0.7653873  )
       286           C   tau( 286) = (   0.3866333   0.2859440   0.7631076  )
       287           C   tau( 287) = (   0.3822701   0.3055587   0.7241166  )
       288           C   tau( 288) = (   0.3413408   0.3638195   0.0008083  )
       289           C   tau( 289) = (   0.3241300   0.3745229   1.2113469  )
       290           C   tau( 290) = (   0.2818393   0.3866722   1.2090874  )
       291           C   tau( 291) = (   0.2615647   0.3867382   1.1701721  )
       292           C   tau( 292) = (   0.2191981   0.3748625   1.1679048  )
       293           C   tau( 293) = (   0.2018982   0.3642813   1.1289928  )
       294           C   tau( 294) = (   0.1720476   0.3319536   1.1267431  )
       295           C   tau( 295) = (   0.1628568   0.3138829   1.0878317  )
       296           C   tau( 296) = (   0.1543874   0.2707102   1.0855569  )
       297           C   tau( 297) = (   0.1560339   0.2505148   1.0466369  )
       298           C   tau( 298) = (   0.1714917   0.2093222   1.0443811  )
       299           C   tau( 299) = (   0.1834913   0.1930111   1.0054543  )
       300           C   tau( 300) = (   0.2182657   0.1660559   1.0031926  )
       301           C   tau( 301) = (   0.2370282   0.1584613   0.9642662  )
       302           C   tau( 302) = (   0.2807694   0.1537518   0.9619922  )
       303           C   tau( 303) = (   0.3007087   0.1571199   0.9230559  )
       304           C   tau( 304) = (   0.3403964   0.1761301   0.9207954  )
       305           C   tau( 305) = (   0.3555373   0.1895235   0.8818737  )
       306           C   tau( 306) = (   0.3792971   0.2265627   0.8796131  )
       307           C   tau( 307) = (   0.3851038   0.2459780   0.8407152  )
       308           C   tau( 308) = (   0.3860247   0.2899583   0.8384488  )
       309           C   tau( 309) = (   0.3809296   0.3095873   0.7995518  )
       310           C   tau( 310) = (   0.2575602   0.3863262   1.2456676  )
       311           C   tau( 311) = (   0.2156271   0.3729990   1.2434016  )
       312           C   tau( 312) = (   0.1987151   0.3618316   1.2044849  )
       313           C   tau( 313) = (   0.1699979   0.3284944   1.2022320  )
       314           C   tau( 314) = (   0.1614472   0.3101158   1.1633219  )
       315           C   tau( 315) = (   0.1544756   0.2666742   1.1610496  )
       316           C   tau( 316) = (   0.1568301   0.2465493   1.1221355  )
       317           C   tau( 317) = (   0.1736995   0.2059142   1.1198826  )
       318           C   tau( 318) = (   0.1862586   0.1900312   1.0809583  )
       319           C   tau( 319) = (   0.2219444   0.1642972   1.0786864  )
       320           C   tau( 320) = (   0.2409660   0.1573777   1.0397618  )
       321           C   tau( 321) = (   0.2848490   0.1541924   1.0374899  )
       322           C   tau( 322) = (   0.3046624   0.1582847   0.9985584  )
       323           C   tau( 323) = (   0.3436828   0.1786143   0.9962870  )
       324           C   tau( 324) = (   0.3583681   0.1925253   0.9573533  )
       325           C   tau( 325) = (   0.3809057   0.2303173   0.9550741  )
       326           C   tau( 326) = (   0.3860706   0.2499020   0.9161561  )
       327           C   tau( 327) = (   0.3854830   0.2939151   0.9139016  )
       328           C   tau( 328) = (   0.3796237   0.3133633   0.8750151  )
       329           C   tau( 329) = (   0.1601410   0.3063025   1.2388062  )
       330           C   tau( 330) = (   0.1546760   0.2626432   1.2365376  )
       331           C   tau( 331) = (   0.1577404   0.2426084   1.1976251  )
       332           C   tau( 332) = (   0.1760027   0.2025795   1.1953742  )
       333           C   tau( 333) = (   0.1891111   0.1871348   1.1564549  )
       334           C   tau( 334) = (   0.2256654   0.1626430   1.1541793  )
       335           C   tau( 335) = (   0.2449249   0.1563915   1.1152573  )
       336           C   tau( 336) = (   0.2888928   0.1547280   1.1129916  )
       337           C   tau( 337) = (   0.3085628   0.1595175   1.0740597  )
       338           C   tau( 338) = (   0.3468675   0.1811704   1.0717847  )
       339           C   tau( 339) = (   0.3610899   0.1955802   1.0328544  )
       340           C   tau( 340) = (   0.3823391   0.2341164   1.0305757  )
       341           C   tau( 341) = (   0.3868668   0.2538659   0.9916511  )
       342           C   tau( 342) = (   0.3847536   0.2978223   0.9893997  )
       343           C   tau( 343) = (   0.3782395   0.3170538   0.9504913  )
       344           C   tau( 344) = (   0.1920457   0.1843492   1.2319502  )
       345           C   tau( 345) = (   0.2294215   0.1611293   1.2296771  )
       346           C   tau( 346) = (   0.2488933   0.1555375   1.1907566  )
       347           C   tau( 347) = (   0.2928945   0.1553934   1.1884994  )
       348           C   tau( 348) = (   0.3123954   0.1608655   1.1495697  )
       349           C   tau( 349) = (   0.3499263   0.1838339   1.1472937  )
       350           C   tau( 350) = (   0.3636590   0.1987233   1.1083656  )
       351           C   tau( 351) = (   0.3835640   0.2379650   1.1060948  )
       352           C   tau( 352) = (   0.3874400   0.2578561   1.0671626  )
       353           C   tau( 353) = (   0.3838032   0.3017088   1.0649093  )
       354           C   tau( 354) = (   0.3766629   0.3206908   1.0259915  )
       355           C   tau( 355) = (   0.3161669   0.1623386   1.2250828  )
       356           C   tau( 356) = (   0.3528824   0.1865930   1.2228077  )
       357           C   tau( 357) = (   0.3660944   0.2019517   1.1838793  )
       358           C   tau( 358) = (   0.3846402   0.2418520   1.1816171  )
       359           C   tau( 359) = (   0.3878360   0.2618641   1.1426842  )
       360           C   tau( 360) = (   0.3826926   0.3055662   1.1404243  )
       361           C   tau( 361) = (   0.3749114   0.3242887   1.1015040  )
       362           C   tau( 362) = (   0.3880788   0.2658850   1.2182085  )
       363           C   tau( 363) = (   0.3814238   0.3093806   1.2159411  )
       364           C   tau( 364) = (   0.3730108   0.3278223   1.1770175  )
       365           Se  tau( 365) = (   0.4513413   0.2478162   0.6129330  )

   Crystallographic axes

     site n.     atom                  positions (cryst. coord.)
         1           C   tau(   1) = (  0.3709674  0.5383191  0.0024551  )
         2           C   tau(   2) = (  0.3687916  0.5438434  0.0628897  )
         3           C   tau(   3) = (  0.3380511  0.5950046  0.0610801  )
         4           C   tau(   4) = (  0.3204902  0.6114088  0.0299257  )
         5           C   tau(   5) = (  0.2778085  0.6287696  0.0281089  )
         6           C   tau(   6) = (  0.3664736  0.5492576  0.1233191  )
         7           C   tau(   7) = (  0.3346638  0.5986578  0.1215061  )
         8           C   tau(   8) = (  0.3167735  0.6140576  0.0903513  )
         9           C   tau(   9) = (  0.2737464  0.6290035  0.0885266  )
        10           C   tau(  10) = (  0.2535408  0.6268528  0.0573785  )
        11           C   tau(  11) = (  0.2120893  0.6028798  0.0555680  )
        12           C   tau(  12) = (  0.1955852  0.5837997  0.0244182  )
        13           C   tau(  13) = (  0.1680334  0.5280537  0.0226100  )
        14           C   tau(  14) = (  0.3640036  0.5545731  0.1837419  )
        15           C   tau(  15) = (  0.3311740  0.6021732  0.1819260  )
        16           C   tau(  16) = (  0.3129824  0.6165261  0.1507714  )
        17           C   tau(  17) = (  0.2696637  0.6290461  0.1489438  )
        18           C   tau(  18) = (  0.2495270  0.6257372  0.1177934  )
        19           C   tau(  19) = (  0.2086129  0.5994544  0.1159872  )
        20           C   tau(  20) = (  0.1925298  0.5794627  0.0848365  )
        21           C   tau(  21) = (  0.1661789  0.5222094  0.0830249  )
        22           C   tau(  22) = (  0.1589380  0.4914622  0.0518822  )
        23           C   tau(  23) = (  0.1549926  0.4202533  0.0500710  )
        24           C   tau(  24) = (  0.1587592  0.3878878  0.0189270  )
        25           C   tau(  25) = (  0.1783988  0.3239078  0.0171249  )
        26           C   tau(  26) = (  0.3614212  0.5598258  0.2441609  )
        27           C   tau(  27) = (  0.3276129  0.6056008  0.2423477  )
        28           C   tau(  28) = (  0.3091226  0.6188613  0.2111873  )
        29           C   tau(  29) = (  0.2655697  0.6289282  0.2093622  )
        30           C   tau(  30) = (  0.2455204  0.6244499  0.1782079  )
        31           C   tau(  31) = (  0.2051923  0.5958745  0.1764086  )
        32           C   tau(  32) = (  0.1895496  0.5749769  0.1452590  )
        33           C   tau(  33) = (  0.1644317  0.5162764  0.1434459  )
        34           C   tau(  34) = (  0.1578626  0.4851322  0.1122990  )
        35           C   tau(  35) = (  0.1554338  0.4137475  0.1104920  )
        36           C   tau(  36) = (  0.1598936  0.3816122  0.0793460  )
        37           C   tau(  37) = (  0.1808775  0.3187682  0.0775414  )
        38           C   tau(  38) = (  0.1950459  0.2951984  0.0464009  )
        39           C   tau(  39) = (  0.2332014  0.2595907  0.0445863  )
        40           C   tau(  40) = (  0.2528698  0.2515980  0.0134401  )
        41           C   tau(  41) = (  0.2968492  0.2538316  0.0116377  )
        42           C   tau(  42) = (  0.3706924  0.5384675  0.3357242  )
        43           C   tau(  43) = (  0.3587352  0.5649785  0.3045776  )
        44           C   tau(  44) = (  0.3240039  0.6088666  0.3027820  )
        45           C   tau(  45) = (  0.3052348  0.6210874  0.2716080  )
        46           C   tau(  46) = (  0.2614910  0.6286736  0.2697906  )
        47           C   tau(  47) = (  0.2415439  0.6230110  0.2386352  )
        48           C   tau(  48) = (  0.2018572  0.5921422  0.2368389  )
        49           C   tau(  49) = (  0.1866744  0.5703390  0.2056882  )
        50           C   tau(  50) = (  0.1628376  0.5102501  0.2038748  )
        51           C   tau(  51) = (  0.1569212  0.4787565  0.1727251  )
        52           C   tau(  52) = (  0.1560129  0.4072752  0.1709213  )
        53           C   tau(  53) = (  0.1611460  0.3754107  0.1397729  )
        54           C   tau(  54) = (  0.1834534  0.3137833  0.1379617  )
        55           C   tau(  55) = (  0.1981230  0.2910248  0.1068201  )
        56           C   tau(  56) = (  0.2370144  0.2575872  0.1050103  )
        57           C   tau(  57) = (  0.2568474  0.2506960  0.0738666  )
        58           C   tau(  58) = (  0.3007556  0.2553975  0.0720681  )
        59           C   tau(  59) = (  0.3198522  0.2664357  0.0409195  )
        60           C   tau(  60) = (  0.3557115  0.3078697  0.0391018  )
        61           C   tau(  61) = (  0.3684036  0.3335397  0.0079476  )
        62           C   tau(  62) = (  0.3855665  0.3993744  0.0061425  )
        63           C   tau(  63) = (  0.3683361  0.5434292  0.3961307  )
        64           C   tau(  64) = (  0.3559081  0.5696655  0.3649921  )
        65           C   tau(  65) = (  0.3203157  0.6116273  0.3632312  )
        66           C   tau(  66) = (  0.3013282  0.6230625  0.3320606  )
        67           C   tau(  67) = (  0.2574370  0.6282104  0.3302484  )
        68           C   tau(  68) = (  0.2376235  0.6213902  0.2990794  )
        69           C   tau(  69) = (  0.1986505  0.5882224  0.2972771  )
        70           C   tau(  70) = (  0.1839264  0.5655681  0.2661259  )
        71           C   tau(  71) = (  0.1614064  0.5041448  0.2643135  )
        72           C   tau(  72) = (  0.1561455  0.4723382  0.2331633  )
        73           C   tau(  73) = (  0.1567569  0.4008480  0.2313597  )
        74           C   tau(  74) = (  0.1625484  0.3692920  0.2002049  )
        75           C   tau(  75) = (  0.1861377  0.3089460  0.1983846  )
        76           C   tau(  76) = (  0.2012700  0.2870195  0.1672424  )
        77           C   tau(  77) = (  0.2408451  0.2557642  0.1654374  )
        78           C   tau(  78) = (  0.2608236  0.2500139  0.1342944  )
        79           C   tau(  79) = (  0.3046025  0.2571699  0.1324953  )
        80           C   tau(  80) = (  0.3234713  0.2692679  0.1013516  )
        81           C   tau(  81) = (  0.3584362  0.3126773  0.0995394  )
        82           C   tau(  82) = (  0.3705829  0.3390424  0.0683868  )
        83           C   tau(  83) = (  0.3863435  0.4057994  0.0665856  )
        84           C   tau(  84) = (  0.3881661  0.4385934  0.0354288  )
        85           C   tau(  85) = (  0.3800070  0.5088502  0.0336083  )
        86           C   tau(  86) = (  0.3660946  0.5471909  0.4565434  )
        87           C   tau(  87) = (  0.3528034  0.5730080  0.4254673  )
        88           C   tau(  88) = (  0.3165015  0.6133116  0.4237118  )
        89           C   tau(  89) = (  0.2973601  0.6242958  0.3925436  )
        90           C   tau(  90) = (  0.2534147  0.6272731  0.3907229  )
        91           C   tau(  91) = (  0.2337402  0.6195354  0.3595322  )
        92           C   tau(  92) = (  0.1955155  0.5841282  0.3577198  )
        93           C   tau(  93) = (  0.1813192  0.5606154  0.3265693  )
        94           C   tau(  94) = (  0.1601561  0.4979306  0.3247578  )
        95           C   tau(  95) = (  0.1555629  0.4658555  0.2936006  )
        96           C   tau(  96) = (  0.1576665  0.3944503  0.2917944  )
        97           C   tau(  97) = (  0.1640884  0.3632327  0.2606381  )
        98           C   tau(  98) = (  0.1889121  0.3041995  0.2588126  )
        99           C   tau(  99) = (  0.2045030  0.2831519  0.2276678  )
       100           C   tau( 100) = (  0.2446993  0.2540821  0.2258651  )
       101           C   tau( 101) = (  0.2647932  0.2494871  0.1947187  )
       102           C   tau( 102) = (  0.3083929  0.2591035  0.1929175  )
       103           C   tau( 103) = (  0.3270004  0.2722901  0.1617828  )
       104           C   tau( 104) = (  0.3610246  0.3176449  0.1599774  )
       105           C   tau( 105) = (  0.3726241  0.3446740  0.1288268  )
       106           C   tau( 106) = (  0.3869521  0.4122767  0.1270246  )
       107           C   tau( 107) = (  0.3880967  0.4451490  0.0958686  )
       108           C   tau( 108) = (  0.3784479  0.5149082  0.0940435  )
       109           C   tau( 109) = (  0.3636219  0.5521668  0.5172489  )
       110           C   tau( 110) = (  0.3499454  0.5765918  0.4859717  )
       111           C   tau( 111) = (  0.3128670  0.6145154  0.4841533  )
       112           C   tau( 112) = (  0.2933890  0.6246730  0.4529935  )
       113           C   tau( 113) = (  0.2494463  0.6257871  0.4511799  )
       114           C   tau( 114) = (  0.2299099  0.6172524  0.4200021  )
       115           C   tau( 115) = (  0.1924279  0.5798002  0.4181769  )
       116           C   tau( 116) = (  0.1787861  0.5555016  0.3870070  )
       117           C   tau( 117) = (  0.1590029  0.4916641  0.3851965  )
       118           C   tau( 118) = (  0.1551086  0.4593411  0.3540380  )
       119           C   tau( 119) = (  0.1586802  0.3880818  0.3522292  )
       120           C   tau( 120) = (  0.1657620  0.3572362  0.3210779  )
       121           C   tau( 121) = (  0.1917679  0.2995641  0.3192541  )
       122           C   tau( 122) = (  0.2077934  0.2793950  0.2880964  )
       123           C   tau( 123) = (  0.2485641  0.2525431  0.2862944  )
       124           C   tau( 124) = (  0.2687486  0.2490782  0.2551550  )
       125           C   tau( 125) = (  0.3121267  0.2611838  0.2533467  )
       126           C   tau( 126) = (  0.3304391  0.2754767  0.2222123  )
       127           C   tau( 127) = (  0.3634472  0.3227630  0.2204081  )
       128           C   tau( 128) = (  0.3744915  0.3504309  0.1892630  )
       129           C   tau( 129) = (  0.3873672  0.4188085  0.1874568  )
       130           C   tau( 130) = (  0.3878425  0.4517126  0.1563052  )
       131           C   tau( 131) = (  0.3767126  0.5208919  0.1544787  )
       132           C   tau( 132) = (  0.3611377  0.5591124  0.5776112  )
       133           C   tau( 133) = (  0.3468325  0.5816085  0.5464409  )
       134           C   tau( 134) = (  0.3089584  0.6178471  0.5445746  )
       135           C   tau( 135) = (  0.2893909  0.6257073  0.5134351  )
       136           C   tau( 136) = (  0.2454897  0.6243982  0.5116275  )
       137           C   tau( 137) = (  0.2261180  0.6145665  0.4804544  )
       138           C   tau( 138) = (  0.1894794  0.5752408  0.4786307  )
       139           C   tau( 139) = (  0.1763118  0.5502480  0.4474488  )
       140           C   tau( 140) = (  0.1579116  0.4853359  0.4456447  )
       141           C   tau( 141) = (  0.1547330  0.4528117  0.4144872  )
       142           C   tau( 142) = (  0.1597802  0.3817959  0.4126749  )
       143           C   tau( 143) = (  0.1675210  0.3513268  0.3815152  )
       144           C   tau( 144) = (  0.1946983  0.2951218  0.3796962  )
       145           C   tau( 145) = (  0.2111370  0.2758032  0.3485448  )
       146           C   tau( 146) = (  0.2524809  0.2513023  0.3467469  )
       147           C   tau( 147) = (  0.2727167  0.2489288  0.3156068  )
       148           C   tau( 148) = (  0.3157967  0.2635002  0.3137825  )
       149           C   tau( 149) = (  0.3337855  0.2788157  0.2826339  )
       150           C   tau( 150) = (  0.3657098  0.3280350  0.2808159  )
       151           C   tau( 151) = (  0.3761653  0.3563146  0.2496910  )
       152           C   tau( 152) = (  0.3875651  0.4253964  0.2478761  )
       153           C   tau( 153) = (  0.3873790  0.4582910  0.2167276  )
       154           C   tau( 154) = (  0.3748170  0.5268127  0.2149058  )
       155           C   tau( 155) = (  0.3587512  0.5648781  0.6380289  )
       156           C   tau( 156) = (  0.3440455  0.5874037  0.6068873  )
       157           C   tau( 157) = (  0.3052416  0.6209757  0.6050388  )
       158           C   tau( 158) = (  0.2854245  0.6276783  0.5738658  )
       159           C   tau( 159) = (  0.2415176  0.6232997  0.5720727  )
       160           C   tau( 160) = (  0.2224173  0.6121907  0.5409351  )
       161           C   tau( 161) = (  0.1866190  0.5706279  0.5391125  )
       162           C   tau( 162) = (  0.1740131  0.5448075  0.5079534  )
       163           C   tau( 163) = (  0.1570211  0.4789557  0.5061411  )
       164           C   tau( 164) = (  0.1545134  0.4462722  0.4749472  )
       165           C   tau( 165) = (  0.1610308  0.3756546  0.4731260  )
       166           C   tau( 166) = (  0.1693547  0.3455937  0.4419700  )
       167           C   tau( 167) = (  0.1977761  0.2910218  0.4401576  )
       168           C   tau( 168) = (  0.2146083  0.2726176  0.4090182  )
       169           C   tau( 169) = (  0.2565039  0.2508332  0.4072246  )
       170           C   tau( 170) = (  0.2767278  0.2493992  0.3760564  )
       171           C   tau( 171) = (  0.3194153  0.2664668  0.3742031  )
       172           C   tau( 172) = (  0.3370744  0.2824146  0.3430608  )
       173           C   tau( 173) = (  0.3679198  0.3334849  0.3412102  )
       174           C   tau( 174) = (  0.3776706  0.3623582  0.3100782  )
       175           C   tau( 175) = (  0.3875894  0.4319956  0.3082514  )
       176           C   tau( 176) = (  0.3867316  0.4648813  0.2771187  )
       177           C   tau( 177) = (  0.3728009  0.5327035  0.2753166  )
       178           C   tau( 178) = (  0.3561183  0.5696466  0.6984552  )
       179           C   tau( 179) = (  0.3409872  0.5916844  0.6673092  )
       180           C   tau( 180) = (  0.3014283  0.6230045  0.6654949  )
       181           C   tau( 181) = (  0.2814553  0.6287978  0.6343508  )
       182           C   tau( 182) = (  0.2376719  0.6215682  0.6325462  )
       183           C   tau( 183) = (  0.2188160  0.6094200  0.6013946  )
       184           C   tau( 184) = (  0.1839712  0.5657904  0.5995718  )
       185           C   tau( 185) = (  0.1718633  0.5393532  0.5684076  )
       186           C   tau( 186) = (  0.1562342  0.4725320  0.5666005  )
       187           C   tau( 187) = (  0.1544023  0.4397396  0.5354446  )
       188           C   tau( 188) = (  0.1624326  0.3694733  0.5336298  )
       189           C   tau( 189) = (  0.1714272  0.3399919  0.5024502  )
       190           C   tau( 190) = (  0.2010091  0.2872661  0.5006392  )
       191           C   tau( 191) = (  0.2182949  0.2699876  0.4694654  )
       192           C   tau( 192) = (  0.2606476  0.2511770  0.4676523  )
       193           C   tau( 193) = (  0.2808005  0.2509795  0.4365146  )
       194           C   tau( 194) = (  0.3229863  0.2709987  0.4346498  )
       195           C   tau( 195) = (  0.3402564  0.2870879  0.4034788  )
       196           C   tau( 196) = (  0.3702074  0.3393286  0.4015797  )
       197           C   tau( 197) = (  0.3792645  0.3684617  0.3703754  )
       198           C   tau( 198) = (  0.3877122  0.4385248  0.3685393  )
       199           C   tau( 199) = (  0.3860340  0.4714047  0.3374905  )
       200           C   tau( 200) = (  0.3533948  0.5742089  0.7588754  )
       201           C   tau( 201) = (  0.3377911  0.5953711  0.7277436  )
       202           C   tau( 202) = (  0.2975710  0.6244184  0.7259474  )
       203           C   tau( 203) = (  0.2774745  0.6291301  0.6948083  )
       204           C   tau( 204) = (  0.2338929  0.6194052  0.6929951  )
       205           C   tau( 205) = (  0.2153040  0.6062665  0.6618370  )
       206           C   tau( 206) = (  0.1813744  0.5607499  0.6600163  )
       207           C   tau( 207) = (  0.1698473  0.5336866  0.6288581  )
       208           C   tau( 208) = (  0.1556049  0.4660444  0.6270476  )
       209           C   tau( 209) = (  0.1544980  0.4331630  0.5958905  )
       210           C   tau( 210) = (  0.1640341  0.3633907  0.5940707  )
       211           C   tau( 211) = (  0.1735935  0.3343989  0.5629011  )
       212           C   tau( 212) = (  0.2042772  0.2831498  0.5610881  )
       213           C   tau( 213) = (  0.2219275  0.2670824  0.5299123  )
       214           C   tau( 214) = (  0.2646824  0.2505858  0.5280892  )
       215           C   tau( 215) = (  0.2851002  0.2526472  0.4969316  )
       216           C   tau( 216) = (  0.3267704  0.2746152  0.4951221  )
       217           C   tau( 217) = (  0.3437114  0.2928383  0.4638417  )
       218           C   tau( 218) = (  0.3741633  0.3435799  0.4616633  )
       219           C   tau( 219) = (  0.3820194  0.3738839  0.4307616  )
       220           C   tau( 220) = (  0.3889906  0.4451561  0.4289153  )
       221           C   tau( 221) = (  0.3853467  0.4775908  0.3978497  )
       222           C   tau( 222) = (  0.3505543  0.5786675  0.8193033  )
       223           C   tau( 223) = (  0.3344985  0.5988728  0.7881695  )
       224           C   tau( 224) = (  0.2936898  0.6256018  0.7863777  )
       225           C   tau( 225) = (  0.2735053  0.6291687  0.7552369  )
       226           C   tau( 226) = (  0.2301434  0.6170595  0.7534234  )
       227           C   tau( 227) = (  0.2118430  0.6028967  0.7222791  )
       228           C   tau( 228) = (  0.1788525  0.5555884  0.7204613  )
       229           C   tau( 229) = (  0.1678980  0.5279081  0.6892994  )
       230           C   tau( 230) = (  0.1550553  0.4595369  0.6874835  )
       231           C   tau( 231) = (  0.1546599  0.4266158  0.6563263  )
       232           C   tau( 232) = (  0.1657196  0.3574149  0.6545089  )
       233           C   tau( 233) = (  0.1759373  0.3289697  0.6233566  )
       234           C   tau( 234) = (  0.2076408  0.2793929  0.6215516  )
       235           C   tau( 235) = (  0.2255418  0.2640373  0.5903655  )
       236           C   tau( 236) = (  0.2685850  0.2493427  0.5885349  )
       237           C   tau( 237) = (  0.2888035  0.2523525  0.5573692  )
       238           C   tau( 238) = (  0.3300829  0.2769351  0.5556253  )
       239           C   tau( 239) = (  0.3468726  0.2966698  0.5245494  )
       240           C   tau( 240) = (  0.3761252  0.3493866  0.5231741  )
       241           C   tau( 241) = (  0.3899921  0.3757243  0.4914657  )
       242           C   tau( 242) = (  0.3959520  0.4533460  0.4896252  )
       243           C   tau( 243) = (  0.3864841  0.4844133  0.4579146  )
       244           C   tau( 244) = (  0.3476004  0.5830124  0.8797372  )
       245           C   tau( 245) = (  0.3311373  0.6022763  0.8485918  )
       246           C   tau( 246) = (  0.2897822  0.6266916  0.8467985  )
       247           C   tau( 247) = (  0.2695385  0.6290837  0.8156616  )
       248           C   tau( 248) = (  0.2264504  0.6145799  0.8138471  )
       249           C   tau( 249) = (  0.2084510  0.5993763  0.7827083  )
       250           C   tau( 250) = (  0.1764553  0.5503058  0.7808975  )
       251           C   tau( 251) = (  0.1660616  0.5220471  0.7497391  )
       252           C   tau( 252) = (  0.1546477  0.4529990  0.7479214  )
       253           C   tau( 253) = (  0.1549396  0.4200813  0.7167684  )
       254           C   tau( 254) = (  0.1674983  0.3515604  0.7149553  )
       255           C   tau( 255) = (  0.1783507  0.3237342  0.6837999  )
       256           C   tau( 256) = (  0.2111123  0.2760189  0.6819983  )
       257           C   tau( 257) = (  0.2292897  0.2615012  0.6508344  )
       258           C   tau( 258) = (  0.2726085  0.2489256  0.6490160  )
       259           C   tau( 259) = (  0.2927512  0.2524251  0.6178476  )
       260           C   tau( 260) = (  0.3335950  0.2788922  0.6160994  )
       261           C   tau( 261) = (  0.3496112  0.2993837  0.5849639  )
       262           C   tau( 262) = (  0.3760433  0.3564307  0.5832365  )
       263           C   tau( 263) = (  0.3844855  0.3864314  0.5521748  )
       264           C   tau( 264) = (  0.3885073  0.4583072  0.5503367  )
       265           C   tau( 265) = (  0.3854774  0.4908267  0.5194316  )
       266           C   tau( 266) = (  0.3445254  0.5871898  0.9401717  )
       267           C   tau( 267) = (  0.3276780  0.6055253  0.9090213  )
       268           C   tau( 268) = (  0.2858291  0.6276184  0.9072220  )
       269           C   tau( 269) = (  0.2655578  0.6288523  0.8760821  )
       270           C   tau( 270) = (  0.2228078  0.6119421  0.8742676  )
       271           C   tau( 271) = (  0.2051430  0.5957323  0.8431271  )
       272           C   tau( 272) = (  0.1741922  0.5449133  0.8413240  )
       273           C   tau( 273) = (  0.1643775  0.5160870  0.8101779  )
       274           C   tau( 274) = (  0.1544273  0.4464425  0.8083579  )
       275           C   tau( 275) = (  0.1553958  0.4135597  0.7772052  )
       276           C   tau( 276) = (  0.1694188  0.3457967  0.7753968  )
       277           C   tau( 277) = (  0.1808515  0.3186222  0.7442401  )
       278           C   tau( 278) = (  0.2146478  0.2728408  0.7424372  )
       279           C   tau( 279) = (  0.2331365  0.2593931  0.7112860  )
       280           C   tau( 280) = (  0.2766834  0.2492447  0.7094684  )
       281           C   tau( 281) = (  0.2967357  0.2536048  0.6782959  )
       282           C   tau( 282) = (  0.3370349  0.2822920  0.6765105  )
       283           C   tau( 283) = (  0.3526390  0.3032285  0.6453685  )
       284           C   tau( 284) = (  0.3776366  0.3621292  0.6435939  )
       285           C   tau( 285) = (  0.3842289  0.3933515  0.6125483  )
       286           C   tau( 286) = (  0.3866333  0.4646409  0.6107238  )
       287           C   tau( 287) = (  0.3822701  0.4965135  0.5795189  )
       288           C   tau( 288) = (  0.3413408  0.5911836  0.0006469  )
       289           C   tau( 289) = (  0.3241300  0.6085761  0.9694549  )
       290           C   tau( 290) = (  0.2818393  0.6283179  0.9676466  )
       291           C   tau( 291) = (  0.2615647  0.6284252  0.9365022  )
       292           C   tau( 292) = (  0.2191981  0.6091279  0.9346876  )
       293           C   tau( 293) = (  0.2018982  0.5919341  0.9035459  )
       294           C   tau( 294) = (  0.1720476  0.5394037  0.9017455  )
       295           C   tau( 295) = (  0.1628568  0.5100399  0.8706042  )
       296           C   tau( 296) = (  0.1543874  0.4398870  0.8687837  )
       297           C   tau( 297) = (  0.1560339  0.4070708  0.8376355  )
       298           C   tau( 298) = (  0.1714917  0.3401354  0.8358303  )
       299           C   tau( 299) = (  0.1834913  0.3136309  0.8046767  )
       300           C   tau( 300) = (  0.2182657  0.2698303  0.8028666  )
       301           C   tau( 301) = (  0.2370282  0.2574897  0.7717134  )
       302           C   tau( 302) = (  0.2807694  0.2498369  0.7698934  )
       303           C   tau( 303) = (  0.3007087  0.2553100  0.7387323  )
       304           C   tau( 304) = (  0.3403964  0.2862003  0.7369231  )
       305           C   tau( 305) = (  0.3555373  0.3079637  0.7057737  )
       306           C   tau( 306) = (  0.3792971  0.3681501  0.7039645  )
       307           C   tau( 307) = (  0.3851038  0.3996986  0.6728341  )
       308           C   tau( 308) = (  0.3860247  0.4711639  0.6710202  )
       309           C   tau( 309) = (  0.3809296  0.5030599  0.6398905  )
       310           C   tau( 310) = (  0.2575602  0.6277557  0.9969221  )
       311           C   tau( 311) = (  0.2156271  0.6060998  0.9951086  )
       312           C   tau( 312) = (  0.1987151  0.5879535  0.9639631  )
       313           C   tau( 313) = (  0.1699979  0.5337826  0.9621601  )
       314           C   tau( 314) = (  0.1614472  0.5039185  0.9310199  )
       315           C   tau( 315) = (  0.1544756  0.4333287  0.9292013  )
       316           C   tau( 316) = (  0.1568301  0.4006271  0.8980579  )
       317           C   tau( 317) = (  0.1736995  0.3345976  0.8962549  )
       318           C   tau( 318) = (  0.1862586  0.3087886  0.8651034  )
       319           C   tau( 319) = (  0.2219444  0.2669726  0.8632852  )
       320           C   tau( 320) = (  0.2409660  0.2557288  0.8321333  )
       321           C   tau( 321) = (  0.2848490  0.2505530  0.8303151  )
       322           C   tau( 322) = (  0.3046624  0.2572026  0.7991578  )
       323           C   tau( 323) = (  0.3436828  0.2902370  0.7973400  )
       324           C   tau( 324) = (  0.3583681  0.3128414  0.7661808  )
       325           C   tau( 325) = (  0.3809057  0.3742511  0.7643568  )
       326           C   tau( 326) = (  0.3860706  0.4060749  0.7332103  )
       327           C   tau( 327) = (  0.3854830  0.4775934  0.7314060  )
       328           C   tau( 328) = (  0.3796237  0.5091955  0.7002846  )
       329           C   tau( 329) = (  0.1601410  0.4977222  0.9914309  )
       330           C   tau( 330) = (  0.1546760  0.4267786  0.9896153  )
       331           C   tau( 331) = (  0.1577404  0.3942233  0.9584732  )
       332           C   tau( 332) = (  0.1760027  0.3291789  0.9566717  )
       333           C   tau( 333) = (  0.1891111  0.3040822  0.9255242  )
       334           C   tau( 334) = (  0.2256654  0.2642846  0.9237030  )
       335           C   tau( 335) = (  0.2449249  0.2541263  0.8925532  )
       336           C   tau( 336) = (  0.2888928  0.2514232  0.8907400  )
       337           C   tau( 337) = (  0.3085628  0.2592059  0.8595823  )
       338           C   tau( 338) = (  0.3468675  0.2943905  0.8577616  )
       339           C   tau( 339) = (  0.3610899  0.3178054  0.8266053  )
       340           C   tau( 340) = (  0.3823391  0.3804244  0.8247816  )
       341           C   tau( 341) = (  0.3868668  0.4125161  0.7936298  )
       342           C   tau( 342) = (  0.3847536  0.4839424  0.7918280  )
       343           C   tau( 343) = (  0.3782395  0.5151925  0.7606891  )
       344           C   tau( 344) = (  0.1920457  0.2995558  0.9859439  )
       345           C   tau( 345) = (  0.2294215  0.2618249  0.9841247  )
       346           C   tau( 346) = (  0.2488933  0.2527386  0.9529762  )
       347           C   tau( 347) = (  0.2928945  0.2525045  0.9511697  )
       348           C   tau( 348) = (  0.3123954  0.2613962  0.9200138  )
       349           C   tau( 349) = (  0.3499263  0.2987185  0.9181923  )
       350           C   tau( 350) = (  0.3636590  0.3229127  0.8870378  )
       351           C   tau( 351) = (  0.3835640  0.3866781  0.8852204  )
       352           C   tau( 352) = (  0.3874400  0.4189999  0.8540625  )
       353           C   tau( 353) = (  0.3838032  0.4902578  0.8522592  )
       354           C   tau( 354) = (  0.3766629  0.5211023  0.8211128  )
       355           C   tau( 355) = (  0.3161669  0.2637900  0.9804479  )
       356           C   tau( 356) = (  0.3528824  0.3032019  0.9786270  )
       357           C   tau( 357) = (  0.3660944  0.3281587  0.9474723  )
       358           C   tau( 358) = (  0.3846402  0.3929941  0.9456618  )
       359           C   tau( 359) = (  0.3878360  0.4255127  0.9145033  )
       360           C   tau( 360) = (  0.3826926  0.4965258  0.9126947  )
       361           C   tau( 361) = (  0.3749114  0.5269487  0.8815463  )
       362           C   tau( 362) = (  0.3880788  0.4320463  0.9749462  )
       363           C   tau( 363) = (  0.3814238  0.5027240  0.9731317  )
       364           C   tau( 364) = (  0.3730108  0.5326905  0.9419806  )
       365           Se  tau( 365) = (  0.4513413  0.4026857  0.4905373  )

     number of k points=     2
                       cart. coord. in units 2pi/alat
        k(    1) = (   0.0000000   0.0000000   0.0000000), wk =   1.0000000
        k(    2) = (   0.0000000   0.0000000   0.4001558), wk =   1.0000000

                       cryst. coord.
        k(    1) = (   0.0000000   0.0000000   0.0000000), wk =   1.0000000
        k(    2) = (   0.0000000   0.0000000   0.5000000), wk =   1.0000000

     Dense  grid: 11053081 G-vectors     FFT dimensions: ( 320, 192, 384)

     Dynamical RAM for                 wfc:      40.19 MB

     Dynamical RAM for     wfc (w. buffer):      40.19 MB

     Dynamical RAM for           str. fact:       0.88 MB

     Dynamical RAM for           local pot:       0.00 MB

     Dynamical RAM for          nlocal pot:     160.86 MB

     Dynamical RAM for                qrad:       2.49 MB

     Dynamical RAM for          rho,v,vnew:       2.72 MB

     Dynamical RAM for               rhoin:       0.91 MB

     Dynamical RAM for            rho*nmix:       7.03 MB

     Dynamical RAM for           G-vectors:       1.87 MB

     Dynamical RAM for          h,s,v(r/c):       8.00 MB

     Dynamical RAM for          <psi|beta>:      32.73 MB

     Dynamical RAM for                 psi:     160.75 MB

     Dynamical RAM for                hpsi:     160.75 MB

     Dynamical RAM for      wfcinit/wfcrot:      92.64 MB

     Estimated static dynamical RAM per process >     213.57 MB

     Estimated max dynamical RAM per process >     582.83 MB

     Estimated total dynamical RAM >     434.48 GB

     Initial potential from superposition of free atoms

     starting charge    1459.4463, renormalised to    1462.0000

     negative rho (up, down):  1.529E-02 0.000E+00
     Starting wfcs are random

     total cpu time spent up to now is       67.6 secs

     Self-consistent Calculation

     iteration #  1     ecut=    60.00 Ry     beta= 0.70
     Davidson diagonalization with overlap

---- Real-time Memory Report at c_bands before calling an iterative solver
           540 MiB given to the printing process from OS
             0 MiB allocation reported by mallinfo(arena+hblkhd)
        470563 MiB available memory on the node where the printing process lives
------------------
     ethr =  1.00E-02,  avg # of iterations = 11.5

     negative rho (up, down):  4.834E-06 0.000E+00

     total cpu time spent up to now is     1013.9 secs

     total energy              =   -4156.17746888 Ry
     estimated scf accuracy    <      38.93719951 Ry

     iteration #  2     ecut=    60.00 Ry     beta= 0.70
     Davidson diagonalization with overlap

---- Real-time Memory Report at c_bands before calling an iterative solver
           836 MiB given to the printing process from OS
             0 MiB allocation reported by mallinfo(arena+hblkhd)
        468185 MiB available memory on the node where the printing process lives
------------------
     ethr =  2.66E-03,  avg # of iterations =  7.0

     negative rho (up, down):  9.130E-07 0.000E+00

     total cpu time spent up to now is     1312.1 secs

     total energy              =   -4133.32890578 Ry
     estimated scf accuracy    <     104.28768718 Ry

     iteration #  3     ecut=    60.00 Ry     beta= 0.70
     Davidson diagonalization with overlap

---- Real-time Memory Report at c_bands before calling an iterative solver
           836 MiB given to the printing process from OS
             0 MiB allocation reported by mallinfo(arena+hblkhd)
        468087 MiB available memory on the node where the printing process lives
------------------
     ethr =  2.66E-03,  avg # of iterations = 15.5

     negative rho (up, down):  2.014E-07 0.000E+00

     total cpu time spent up to now is     1690.9 secs

     total energy              =   -4088.77372130 Ry
     estimated scf accuracy    <    1587.27025137 Ry

     iteration #  4     ecut=    60.00 Ry     beta= 0.70
     Davidson diagonalization with overlap

---- Real-time Memory Report at c_bands before calling an iterative solver
           836 MiB given to the printing process from OS
             0 MiB allocation reported by mallinfo(arena+hblkhd)
        468130 MiB available memory on the node where the printing process lives
------------------
     ethr =  2.66E-03,  avg # of iterations = 12.0

     negative rho (up, down):  2.429E-08 0.000E+00

     total cpu time spent up to now is     2186.1 secs

     total energy              =   -4141.30982231 Ry
     estimated scf accuracy    <     342.23000405 Ry

     iteration #  5     ecut=    60.00 Ry     beta= 0.70
     Davidson diagonalization with overlap

---- Real-time Memory Report at c_bands before calling an iterative solver
           836 MiB given to the printing process from OS
             0 MiB allocation reported by mallinfo(arena+hblkhd)
        468020 MiB available memory on the node where the printing process lives
------------------
     ethr =  2.66E-03,  avg # of iterations = 10.0

     total cpu time spent up to now is     2485.6 secs

     total energy              =   -4153.19845188 Ry
     estimated scf accuracy    <     154.80991968 Ry

     iteration #  6     ecut=    60.00 Ry     beta= 0.70
     Davidson diagonalization with overlap

---- Real-time Memory Report at c_bands before calling an iterative solver
           836 MiB given to the printing process from OS
             0 MiB allocation reported by mallinfo(arena+hblkhd)
        468001 MiB available memory on the node where the printing process lives
------------------
     ethr =  2.66E-03,  avg # of iterations =  7.0

     total cpu time spent up to now is     2704.7 secs

     total energy              =   -4164.70604254 Ry
     estimated scf accuracy    <       7.54215860 Ry

     iteration #  7     ecut=    60.00 Ry     beta= 0.70
     Davidson diagonalization with overlap

---- Real-time Memory Report at c_bands before calling an iterative solver
           836 MiB given to the printing process from OS
             0 MiB allocation reported by mallinfo(arena+hblkhd)
        467943 MiB available memory on the node where the printing process lives
------------------
     ethr =  5.16E-04,  avg # of iterations =  6.0

     total cpu time spent up to now is     2882.6 secs

     total energy              =   -4165.43517575 Ry
     estimated scf accuracy    <       0.94305544 Ry

     iteration #  8     ecut=    60.00 Ry     beta= 0.70
     Davidson diagonalization with overlap

---- Real-time Memory Report at c_bands before calling an iterative solver
           836 MiB given to the printing process from OS
             0 MiB allocation reported by mallinfo(arena+hblkhd)
        467853 MiB available memory on the node where the printing process lives
------------------
     ethr =  6.45E-05,  avg # of iterations =  6.0

     total cpu time spent up to now is     3051.8 secs

     total energy              =   -4165.43389554 Ry
     estimated scf accuracy    <       0.59270990 Ry

     iteration #  9     ecut=    60.00 Ry     beta= 0.70
     Davidson diagonalization with overlap

---- Real-time Memory Report at c_bands before calling an iterative solver
           836 MiB given to the printing process from OS
             0 MiB allocation reported by mallinfo(arena+hblkhd)
        467772 MiB available memory on the node where the printing process lives
------------------
     ethr =  4.05E-05,  avg # of iterations =  5.5

     total cpu time spent up to now is     3205.7 secs

     total energy              =   -4165.38028046 Ry
     estimated scf accuracy    <       0.36208768 Ry

     iteration # 10     ecut=    60.00 Ry     beta= 0.70
     Davidson diagonalization with overlap

---- Real-time Memory Report at c_bands before calling an iterative solver
           836 MiB given to the printing process from OS
             0 MiB allocation reported by mallinfo(arena+hblkhd)
        467719 MiB available memory on the node where the printing process lives
------------------
     ethr =  2.48E-05,  avg # of iterations =  6.0

     negative rho (up, down):  6.074E-06 0.000E+00

     total cpu time spent up to now is     3370.9 secs

     total energy              =   -4165.39273771 Ry
     estimated scf accuracy    <       0.10890075 Ry

     iteration # 11     ecut=    60.00 Ry     beta= 0.70
     Davidson diagonalization with overlap

---- Real-time Memory Report at c_bands before calling an iterative solver
           836 MiB given to the printing process from OS
             0 MiB allocation reported by mallinfo(arena+hblkhd)
        467703 MiB available memory on the node where the printing process lives
------------------
     ethr =  7.45E-06,  avg # of iterations =  5.5

     negative rho (up, down):  1.784E-04 0.000E+00

     total cpu time spent up to now is     3535.5 secs

     total energy              =   -4165.39475106 Ry
     estimated scf accuracy    <       0.06137866 Ry

     iteration # 12     ecut=    60.00 Ry     beta= 0.70
     Davidson diagonalization with overlap

---- Real-time Memory Report at c_bands before calling an iterative solver
           836 MiB given to the printing process from OS
             0 MiB allocation reported by mallinfo(arena+hblkhd)
        467673 MiB available memory on the node where the printing process lives
------------------
     ethr =  4.20E-06,  avg # of iterations =  7.5

     negative rho (up, down):  4.492E-04 0.000E+00

     total cpu time spent up to now is     3693.7 secs

     total energy              =   -4165.38625162 Ry
     estimated scf accuracy    <       0.03665959 Ry

     iteration # 13     ecut=    60.00 Ry     beta= 0.70
     Davidson diagonalization with overlap

---- Real-time Memory Report at c_bands before calling an iterative solver
           836 MiB given to the printing process from OS
             0 MiB allocation reported by mallinfo(arena+hblkhd)
        467485 MiB available memory on the node where the printing process lives
------------------
     ethr =  2.51E-06,  avg # of iterations = 13.0

     negative rho (up, down):  2.655E-04 0.000E+00

     total cpu time spent up to now is     3919.6 secs

     total energy              =   -4165.38596480 Ry
     estimated scf accuracy    <       0.04283001 Ry

     iteration # 14     ecut=    60.00 Ry     beta= 0.70
     Davidson diagonalization with overlap

---- Real-time Memory Report at c_bands before calling an iterative solver
           836 MiB given to the printing process from OS
             0 MiB allocation reported by mallinfo(arena+hblkhd)
        467576 MiB available memory on the node where the printing process lives
------------------
     ethr =  2.51E-06,  avg # of iterations = 10.0

     total cpu time spent up to now is     4110.7 secs

     total energy              =   -4165.38860346 Ry
     estimated scf accuracy    <       0.00720795 Ry

     iteration # 15     ecut=    60.00 Ry     beta= 0.70
     Davidson diagonalization with overlap

---- Real-time Memory Report at c_bands before calling an iterative solver
           836 MiB given to the printing process from OS
             0 MiB allocation reported by mallinfo(arena+hblkhd)
        467527 MiB available memory on the node where the printing process lives
------------------
     ethr =  4.93E-07,  avg # of iterations = 10.5

     total cpu time spent up to now is     4390.6 secs

     total energy              =   -4165.38905307 Ry
     estimated scf accuracy    <       0.01940605 Ry

     iteration # 16     ecut=    60.00 Ry     beta= 0.70
     Davidson diagonalization with overlap

---- Real-time Memory Report at c_bands before calling an iterative solver
           836 MiB given to the printing process from OS
             0 MiB allocation reported by mallinfo(arena+hblkhd)
        467433 MiB available memory on the node where the printing process lives
------------------
     ethr =  4.93E-07,  avg # of iterations = 11.0

     total cpu time spent up to now is     4633.0 secs

     total energy              =   -4165.39189336 Ry
     estimated scf accuracy    <       0.00029300 Ry

     iteration # 17     ecut=    60.00 Ry     beta= 0.70
     Davidson diagonalization with overlap

---- Real-time Memory Report at c_bands before calling an iterative solver
           836 MiB given to the printing process from OS
             0 MiB allocation reported by mallinfo(arena+hblkhd)
        467370 MiB available memory on the node where the printing process lives
------------------
     ethr =  2.00E-08,  avg # of iterations =  9.0

     total cpu time spent up to now is     4900.5 secs

     total energy              =   -4165.39197973 Ry
     estimated scf accuracy    <       0.00004106 Ry

     iteration # 18     ecut=    60.00 Ry     beta= 0.70
     Davidson diagonalization with overlap

---- Real-time Memory Report at c_bands before calling an iterative solver
           836 MiB given to the printing process from OS
             0 MiB allocation reported by mallinfo(arena+hblkhd)
        467276 MiB available memory on the node where the printing process lives
------------------
     ethr =  2.81E-09,  avg # of iterations =  8.0

     total cpu time spent up to now is     5136.3 secs

     total energy              =   -4165.39198719 Ry
     estimated scf accuracy    <       0.00001381 Ry

     iteration # 19     ecut=    60.00 Ry     beta= 0.70
     Davidson diagonalization with overlap

---- Real-time Memory Report at c_bands before calling an iterative solver
           836 MiB given to the printing process from OS
             0 MiB allocation reported by mallinfo(arena+hblkhd)
        467226 MiB available memory on the node where the printing process lives
------------------
     ethr =  9.45E-10,  avg # of iterations =  7.0

     total cpu time spent up to now is     5363.3 secs

     total energy              =   -4165.39198968 Ry
     estimated scf accuracy    <       0.00000489 Ry

     iteration # 20     ecut=    60.00 Ry     beta= 0.70
     Davidson diagonalization with overlap

---- Real-time Memory Report at c_bands before calling an iterative solver
           836 MiB given to the printing process from OS
             0 MiB allocation reported by mallinfo(arena+hblkhd)
        467182 MiB available memory on the node where the printing process lives
------------------
     ethr =  3.34E-10,  avg # of iterations =  7.0

     total cpu time spent up to now is     5578.2 secs

     total energy              =   -4165.39199053 Ry
     estimated scf accuracy    <       0.00000062 Ry

     iteration # 21     ecut=    60.00 Ry     beta= 0.70
     Davidson diagonalization with overlap

---- Real-time Memory Report at c_bands before calling an iterative solver
           836 MiB given to the printing process from OS
             0 MiB allocation reported by mallinfo(arena+hblkhd)
        467202 MiB available memory on the node where the printing process lives
------------------
     ethr =  4.26E-11,  avg # of iterations =  8.0

     total cpu time spent up to now is     5829.6 secs

     total energy              =   -4165.39199066 Ry
     estimated scf accuracy    <       0.00000016 Ry

     iteration # 22     ecut=    60.00 Ry     beta= 0.70
     Davidson diagonalization with overlap

---- Real-time Memory Report at c_bands before calling an iterative solver
           836 MiB given to the printing process from OS
             0 MiB allocation reported by mallinfo(arena+hblkhd)
        467138 MiB available memory on the node where the printing process lives
------------------
     ethr =  1.12E-11,  avg # of iterations =  8.5

     total cpu time spent up to now is     6087.1 secs

     total energy              =   -4165.39199069 Ry
     estimated scf accuracy    <       0.00000011 Ry

     iteration # 23     ecut=    60.00 Ry     beta= 0.70
     Davidson diagonalization with overlap

---- Real-time Memory Report at c_bands before calling an iterative solver
           836 MiB given to the printing process from OS
             0 MiB allocation reported by mallinfo(arena+hblkhd)
        467193 MiB available memory on the node where the printing process lives
------------------
     ethr =  7.39E-12,  avg # of iterations = 10.5

     total cpu time spent up to now is     6301.3 secs

     End of self-consistent calculation

          k = 0.0000 0.0000 0.0000 (****** PWs)   bands (ev):

   -22.6786 -22.6155 -22.6061 -22.4733 -22.4607 -22.4206 -22.4098 -22.4013
   -22.3953 -22.3939 -22.3932 -22.2113 -22.1978 -22.1977 -22.1968 -22.0856
   -22.0813 -21.8909 -21.8706 -21.8704 -21.8680 -21.8397 -21.8326 -21.7808
   -21.7681 -21.7661 -21.7660 -21.6292 -21.6228 -21.5849 -21.5723 -21.5720
   -21.5707 -21.4253 -21.4136 -21.4133 -21.4107 -21.2627 -21.2487 -21.2473
   -21.2448 -21.0434 -21.0372 -20.8718 -20.8300 -20.8298 -20.8268 -20.8192
   -20.8180 -20.8020 -20.7966 -20.7948 -20.7917 -20.7608 -20.7568 -20.7515
   -20.7512 -20.5768 -20.5630 -20.5616 -20.5594 -20.3381 -20.3271 -20.2699
   -20.2458 -20.2424 -20.2393 -20.2232 -20.2184 -20.2178 -20.2139 -20.1324
   -20.1225 -20.1222 -20.1207 -19.8214 -19.8026 -19.7977 -19.7946 -19.5660
   -19.5206 -19.5200 -19.5168 -19.5042 -19.4991 -19.4652 -19.4631 -19.4135
   -19.4032 -19.3949 -19.3942 -19.3177 -19.2990 -19.2987 -19.2975 -19.2519
   -19.2390 -19.2328 -19.2291 -19.2150 -19.2144 -19.2101 -19.2082 -18.9256
   -18.9058 -18.9041 -18.8993 -18.7381 -18.7120 -18.7113 -18.7080 -18.5998
   -18.5644 -18.5613 -18.5592 -18.5545 -18.5506 -18.4895 -18.4771 -18.4768
   -18.4707 -18.3879 -18.3725 -18.3716 -18.3691 -18.0039 -17.9402 -17.9372
   -17.9310 -17.8891 -17.8751 -17.8517 -17.8270 -17.8247 -17.8217 -17.8153
   -17.8121 -17.8056 -17.8045 -17.7981 -17.7962 -17.7907 -17.7895 -17.6543
   -17.6515 -17.6301 -17.6254 -17.5554 -17.5418 -17.4358 -17.3859 -17.3782
   -17.3693 -17.3634 -17.3626 -17.3426 -17.3311 -17.3218 -17.3159 -17.3122
   -17.3024 -17.2491 -17.2197 -17.2082 -17.0652 -17.0382 -16.9784 -16.9755
   -16.9357 -16.9271 -16.7996 -16.7712 -16.5593 -16.4889 -16.4810 -16.4796
   -16.4698 -16.4543 -16.4324 -16.4226 -16.2484 -16.2131 -16.2110 -16.0622
   -16.0189 -16.0153 -15.9579 -15.8921 -15.7835 -15.7780 -15.6101 -15.6054
   -15.5962 -15.5927 -15.5740 -15.5508 -15.5238 -15.5138 -15.5134 -15.4589
   -15.4555 -15.4506 -15.4198 -15.4181 -15.4150 -15.4096 -15.4031 -15.3988
   -15.3762 -15.3717 -15.3661 -15.3601 -15.3593 -15.3251 -15.3221 -15.2300
   -15.1424 -15.1255 -15.1126 -15.0658 -15.0647 -15.0536 -15.0372 -15.0181
   -14.9876 -14.9117 -14.8728 -14.8566 -14.8438 -14.8361 -14.8027 -14.7228
   -14.6003 -14.5697 -14.5417 -14.5392 -14.5359 -14.5061 -14.4684 -14.4555
   -14.4128 -14.3945 -14.3368 -14.3236 -14.2788 -14.2742 -14.2615 -14.2516
   -14.0032 -13.9963 -13.8672 -13.8553 -13.5598 -13.5195 -13.5132 -13.4999
   -13.4765 -13.4570 -13.4393 -13.4264 -13.4128 -13.4080 -13.4064 -13.4028
   -13.4005 -13.3958 -13.3876 -13.3823 -13.3742 -13.3700 -13.3585 -13.3563
   -13.3462 -13.3384 -13.3347 -13.3321 -13.3293 -13.3034 -13.1414 -13.1278
   -13.0760 -13.0728 -13.0693 -13.0663 -13.0534 -13.0494 -13.0444 -13.0380
   -13.0200 -13.0099 -12.9937 -12.9777 -12.8676 -12.8642 -12.5714 -12.5644
   -12.3812 -12.3805 -12.3665 -12.3570 -12.2520 -12.2486 -12.2450 -12.2423
   -12.1882 -12.1841 -12.1472 -12.1449 -12.1324 -12.1281 -12.0614 -12.0605
   -12.0208 -12.0147 -11.9962 -11.9947 -11.9723 -11.9714 -11.9005 -11.8993
   -11.8813 -11.8762 -11.6938 -11.6919 -11.6467 -11.6453 -11.5858 -11.5793
   -11.5504 -11.5475 -11.5087 -11.4909 -11.4677 -11.4669 -11.4069 -11.3820
   -11.3633 -11.3617 -11.3468 -11.3415 -11.3118 -11.3113 -11.2867 -11.2776
   -11.2139 -11.2134 -11.1933 -11.1833 -11.1218 -11.1168 -11.1043 -11.1021
   -11.0488 -11.0468 -11.0274 -11.0256 -11.0193 -11.0154 -11.0095 -11.0080
   -10.9436 -10.9406 -10.9339 -10.9334 -10.8834 -10.8833 -10.8028 -10.8019
   -10.7972 -10.7327 -10.7298 -10.7264 -10.7189 -10.6347 -10.6329 -10.5651
   -10.5558 -10.5043 -10.5018 -10.4984 -10.4958 -10.4913 -10.4883 -10.4859
   -10.4734 -10.4640 -10.4615 -10.4251 -10.4233 -10.4110 -10.4094 -10.3024
   -10.2981 -10.2946 -10.2942 -10.2774 -10.2691 -10.2641 -10.2555 -10.2490
   -10.2415 -10.1958 -10.1910 -10.1303 -10.1172 -10.0907 -10.0758 -10.0639
   -10.0622 -10.0507 -10.0481 -10.0394 -10.0388 -10.0261 -10.0193 -10.0159
   -10.0098  -9.9866  -9.9813  -9.9745  -9.9705  -9.9683  -9.9666  -9.9655
    -9.9609  -9.9477  -9.9359  -9.9319  -9.9294  -9.9279  -9.9196  -9.9036
    -9.8869  -9.8783  -9.8731  -9.8704  -9.8694  -9.8670  -9.8642  -9.8542
    -9.8534  -9.8237  -9.8216  -9.8117  -9.8037  -9.7872  -9.7868  -9.7769
    -9.7760  -9.6896  -9.6760  -9.6695  -9.6628  -9.6402  -9.6293  -9.5757
    -9.5621  -9.5564  -9.5342  -9.5142  -9.5108  -9.5049  -9.5017  -9.4854
    -9.3997  -9.3939  -9.3806  -9.3775  -9.3709  -9.3509  -9.3477  -9.3430
    -9.3364  -9.3287  -9.3224  -9.3184  -9.2442  -9.2367  -9.2151  -9.2144
    -9.2040  -9.1944  -9.1854  -9.1847  -9.1589  -9.1512  -9.1425  -9.1279
    -9.1105  -9.1058  -9.0869  -9.0850  -9.0362  -9.0331  -9.0200  -9.0149
    -9.0128  -9.0076  -8.9934  -8.9895  -8.9844  -8.9833  -8.9805  -8.9760
    -8.9316  -8.9305  -8.9293  -8.9240  -8.8818  -8.8813  -8.7993  -8.7677
    -8.6980  -8.6586  -8.6207  -8.5895  -8.5891  -8.5789  -8.5738  -8.5630
    -8.5394  -8.5266  -8.5253  -8.5188  -8.5078  -8.5075  -8.4796  -8.4654
    -8.3590  -8.3560  -8.3358  -8.3227  -8.3049  -8.2961  -8.2569  -8.2329
    -8.2092  -8.2066  -8.2048  -8.2039  -8.1757  -8.1662  -8.1609  -8.1512
    -8.1374  -8.1304  -8.0952  -8.0844  -8.0408  -8.0311  -8.0145  -8.0100
    -8.0069  -8.0037  -7.9919  -7.9913  -7.9724  -7.9615  -7.9536  -7.9441
    -7.9339  -7.9219  -7.9081  -7.9044  -7.8567  -7.8337  -7.8261  -7.8190
    -7.7355  -7.7087  -7.6979  -7.6972  -7.6877  -7.6814  -7.6719  -7.6690
    -7.6680  -7.6668  -7.6557  -7.6533  -7.6195  -7.6142  -7.5887  -7.5786
    -7.5186  -7.5133  -7.4282  -7.4217  -7.4024  -7.3800  -7.3431  -7.3239
    -7.2608  -7.2468  -7.2332  -7.2300  -7.2201  -7.2131  -7.1989  -7.1944
    -7.1129  -7.0876  -7.0641  -7.0582  -7.0480  -7.0451  -7.0255  -7.0210
    -7.0107  -7.0089  -6.9768  -6.9722  -6.9536  -6.9372  -6.9198  -6.9168
    -6.9134  -6.9134  -6.8931  -6.8641  -6.8514  -6.8429  -6.8395  -6.8240
    -6.7942  -6.7631  -6.7510  -6.7498  -6.6806  -6.6571  -6.6521  -6.6457
    -6.6309  -6.6291  -6.5855  -6.5608  -6.5529  -6.5439  -6.5414  -6.5407
    -6.5320  -6.5291  -6.3370  -6.3346  -6.3254  -6.3155  -6.2881  -6.2669
    -6.2444  -6.2427  -6.2367  -6.2112  -6.2090  -6.2033  -6.1953  -6.1874
    -6.1731  -6.0784  -6.0678  -6.0444  -6.0343  -6.0008  -5.9895  -5.9361
    -5.9291  -5.9279  -5.9044  -5.8843  -5.8784  -5.7747  -5.7570  -5.7459
    -5.6421  -5.5671  -5.5330  -5.4976  -5.4711  -5.4671  -5.4602  -5.4109
    -5.3921  -5.3136  -5.2957  -5.2950  -5.2758  -5.2681  -5.2378  -5.2328
    -5.2101  -5.2055  -5.2037  -5.1735  -5.1672  -5.1262  -5.0856  -5.0698
    -5.0590  -5.0282  -5.0215  -5.0096  -4.9702  -4.9493  -4.9305  -4.9137
    -4.9080  -4.9029  -4.9008  -4.8342  -4.7496  -4.7124  -4.7092  -4.6490
    -4.5966  -4.5645  -4.5516  -4.4227  -4.2837  -4.2268  -4.1619  -4.0993
    -4.0850  -4.0475  -4.0235  -4.0027  -3.9913  -3.8238  -3.7770  -3.7164
    -3.6031  -3.3633  -3.3147  -2.4606

     occupation numbers 
     1.0000   1.0000   1.0000   1.0000   1.0000   1.0000   1.0000   1.0000
     1.0000   1.0000   1.0000   1.0000   1.0000   1.0000   1.0000   1.0000
     1.0000   1.0000   1.0000   1.0000   1.0000   1.0000   1.0000   1.0000
     1.0000   1.0000   1.0000   1.0000   1.0000   1.0000   1.0000   1.0000
     1.0000   1.0000   1.0000   1.0000   1.0000   1.0000   1.0000   1.0000
     1.0000   1.0000   1.0000   1.0000   1.0000   1.0000   1.0000   1.0000
     1.0000   1.0000   1.0000   1.0000   1.0000   1.0000   1.0000   1.0000
     1.0000   1.0000   1.0000   1.0000   1.0000   1.0000   1.0000   1.0000
     1.0000   1.0000   1.0000   1.0000   1.0000   1.0000   1.0000   1.0000
     1.0000   1.0000   1.0000   1.0000   1.0000   1.0000   1.0000   1.0000
     1.0000   1.0000   1.0000   1.0000   1.0000   1.0000   1.0000   1.0000
     1.0000   1.0000   1.0000   1.0000   1.0000   1.0000   1.0000   1.0000
     1.0000   1.0000   1.0000   1.0000   1.0000   1.0000   1.0000   1.0000
     1.0000   1.0000   1.0000   1.0000   1.0000   1.0000   1.0000   1.0000
     1.0000   1.0000   1.0000   1.0000   1.0000   1.0000   1.0000   1.0000
     1.0000   1.0000   1.0000   1.0000   1.0000   1.0000   1.0000   1.0000
     1.0000   1.0000   1.0000   1.0000   1.0000   1.0000   1.0000   1.0000
     1.0000   1.0000   1.0000   1.0000   1.0000   1.0000   1.0000   1.0000
     1.0000   1.0000   1.0000   1.0000   1.0000   1.0000   1.0000   1.0000
     1.0000   1.0000   1.0000   1.0000   1.0000   1.0000   1.0000   1.0000
     1.0000   1.0000   1.0000   1.0000   1.0000   1.0000   1.0000   1.0000
     1.0000   1.0000   1.0000   1.0000   1.0000   1.0000   1.0000   1.0000
     1.0000   1.0000   1.0000   1.0000   1.0000   1.0000   1.0000   1.0000
     1.0000   1.0000   1.0000   1.0000   1.0000   1.0000   1.0000   1.0000
     1.0000   1.0000   1.0000   1.0000   1.0000   1.0000   1.0000   1.0000
     1.0000   1.0000   1.0000   1.0000   1.0000   1.0000   1.0000   1.0000
     1.0000   1.0000   1.0000   1.0000   1.0000   1.0000   1.0000   1.0000
     1.0000   1.0000   1.0000   1.0000   1.0000   1.0000   1.0000   1.0000
     1.0000   1.0000   1.0000   1.0000   1.0000   1.0000   1.0000   1.0000
     1.0000   1.0000   1.0000   1.0000   1.0000   1.0000   1.0000   1.0000
     1.0000   1.0000   1.0000   1.0000   1.0000   1.0000   1.0000   1.0000
     1.0000   1.0000   1.0000   1.0000   1.0000   1.0000   1.0000   1.0000
     1.0000   1.0000   1.0000   1.0000   1.0000   1.0000   1.0000   1.0000
     1.0000   1.0000   1.0000   1.0000   1.0000   1.0000   1.0000   1.0000
     1.0000   1.0000   1.0000   1.0000   1.0000   1.0000   1.0000   1.0000
     1.0000   1.0000   1.0000   1.0000   1.0000   1.0000   1.0000   1.0000
     1.0000   1.0000   1.0000   1.0000   1.0000   1.0000   1.0000   1.0000
     1.0000   1.0000   1.0000   1.0000   1.0000   1.0000   1.0000   1.0000
     1.0000   1.0000   1.0000   1.0000   1.0000   1.0000   1.0000   1.0000
     1.0000   1.0000   1.0000   1.0000   1.0000   1.0000   1.0000   1.0000
     1.0000   1.0000   1.0000   1.0000   1.0000   1.0000   1.0000   1.0000
     1.0000   1.0000   1.0000   1.0000   1.0000   1.0000   1.0000   1.0000
     1.0000   1.0000   1.0000   1.0000   1.0000   1.0000   1.0000   1.0000
     1.0000   1.0000   1.0000   1.0000   1.0000   1.0000   1.0000   1.0000
     1.0000   1.0000   1.0000   1.0000   1.0000   1.0000   1.0000   1.0000
     1.0000   1.0000   1.0000   1.0000   1.0000   1.0000   1.0000   1.0000
     1.0000   1.0000   1.0000   1.0000   1.0000   1.0000   1.0000   1.0000
     1.0000   1.0000   1.0000   1.0000   1.0000   1.0000   1.0000   1.0000
     1.0000   1.0000   1.0000   1.0000   1.0000   1.0000   1.0000   1.0000
     1.0000   1.0000   1.0000   1.0000   1.0000   1.0000   1.0000   1.0000
     1.0000   1.0000   1.0000   1.0000   1.0000   1.0000   1.0000   1.0000
     1.0000   1.0000   1.0000   1.0000   1.0000   1.0000   1.0000   1.0000
     1.0000   1.0000   1.0000   1.0000   1.0000   1.0000   1.0000   1.0000
     1.0000   1.0000   1.0000   1.0000   1.0000   1.0000   1.0000   1.0000
     1.0000   1.0000   1.0000   1.0000   1.0000   1.0000   1.0000   1.0000
     1.0000   1.0000   1.0000   1.0000   1.0000   1.0000   1.0000   1.0000
     1.0000   1.0000   1.0000   1.0000   1.0000   1.0000   1.0000   1.0000
     1.0000   1.0000   1.0000   1.0000   1.0000   1.0000   1.0000   1.0000
     1.0000   1.0000   1.0000   1.0000   1.0000   1.0000   1.0000   1.0000
     1.0000   1.0000   1.0000   1.0000   1.0000   1.0000   1.0000   1.0000
     1.0000   1.0000   1.0000   1.0000   1.0000   1.0000   1.0000   1.0000
     1.0000   1.0000   1.0000   1.0000   1.0000   1.0000   1.0000   1.0000
     1.0000   1.0000   1.0000   1.0000   1.0000   1.0000   1.0000   1.0000
     1.0000   1.0000   1.0000   1.0000   1.0000   1.0000   1.0000   1.0000
     1.0000   1.0000   1.0000   1.0000   1.0000   1.0000   1.0000   1.0000
     1.0000   1.0000   1.0000   1.0000   1.0000   1.0000   1.0000   1.0000
     1.0000   1.0000   1.0000   1.0000   1.0000   1.0000   1.0000   1.0000
     1.0000   1.0000   1.0000   1.0000   1.0000   1.0000   1.0000   1.0000
     1.0000   1.0000   1.0000   1.0000   1.0000   1.0000   1.0000   1.0000
     1.0000   1.0000   1.0000   1.0000   1.0000   1.0000   1.0000   1.0000
     1.0000   1.0000   1.0000   1.0000   1.0000   1.0000   1.0000   1.0000
     1.0000   1.0000   1.0000   1.0000   1.0000   1.0000   1.0000   1.0000
     1.0000   1.0000   1.0000   1.0000   1.0000   1.0000   1.0000   1.0000
     1.0000   1.0000   1.0000   1.0000   1.0000   1.0000   1.0000   1.0000
     1.0000   1.0000   1.0000   1.0000   1.0000   1.0000   1.0000   1.0000
     1.0000   1.0000   1.0000   1.0000   1.0000   1.0000   1.0000   1.0000
     1.0000   1.0000   1.0000   1.0000   1.0000   1.0000   1.0000   1.0000
     1.0000   1.0000   1.0000   1.0000   1.0000   1.0000   1.0000   1.0000
     1.0000   1.0000   1.0000   1.0000   1.0000   1.0000   1.0000   1.0000
     1.0000   1.0000   1.0000   1.0000   1.0000   1.0000   1.0000   1.0000
     1.0000   1.0000   1.0000   1.0000   1.0000   1.0000   1.0000   1.0000
     1.0000   1.0000   1.0000   1.0000   1.0000   1.0000   1.0000   1.0000
     1.0000   1.0000   1.0000   1.0000   1.0000   1.0000   1.0000   1.0000
     1.0000   1.0000   1.0000   1.0000   1.0000   1.0000   1.0000   1.0000
     1.0000   1.0000   1.0000   1.0000   1.0000   1.0000   1.0000   1.0000
     1.0000   1.0000   1.0000   1.0000   1.0000   1.0000   1.0000   1.0000
     1.0000   1.0000   1.0000   1.0000   1.0000   1.0000   1.0000   1.0000
     1.0000   1.0000   1.0000   1.0000   1.0000   1.0000   1.0000   1.0000
     1.0000   1.0000   1.0000   1.0000   1.0000   1.0000   1.0000   1.0000
     1.0000   1.0000   1.0000   1.0000   1.0000   1.0000   1.0000   1.0000
     1.0000   1.0000   1.0000   1.0000   1.0000   1.0000   1.0000   1.0000
     1.0000   1.0000   1.0000   0.0000

          k = 0.0000 0.0000 0.4002 (****** PWs)   bands (ev):

   -22.6682 -22.6540 -22.5347 -22.5234 -22.4627 -22.4465 -22.4417 -22.4411
   -22.3280 -22.3135 -22.3112 -22.3111 -22.2659 -22.2610 -22.0653 -22.0498
   -22.0496 -22.0492 -21.8779 -21.8674 -21.8351 -21.8189 -21.8135 -21.8134
   -21.7072 -21.6869 -21.6845 -21.6843 -21.6637 -21.6573 -21.6571 -21.6560
   -21.4432 -21.4258 -21.4253 -21.4243 -21.3497 -21.3450 -21.1540 -21.1367
   -21.1365 -21.1349 -21.0526 -21.0377 -21.0362 -21.0348 -20.8272 -20.8073
   -20.7980 -20.7979 -20.7117 -20.6970 -20.6824 -20.6768 -20.6715 -20.6705
   -20.5451 -20.5227 -20.5212 -20.5189 -20.4978 -20.4909 -20.4906 -20.4890
   -20.4286 -20.4192 -20.4181 -20.4144 -20.0618 -20.0386 -20.0358 -20.0319
   -19.9387 -19.9268 -19.8978 -19.8839 -19.8832 -19.8803 -19.7436 -19.7246
   -19.7239 -19.7232 -19.5587 -19.5347 -19.5303 -19.5264 -19.4629 -19.4531
   -19.4398 -19.4396 -19.3396 -19.3258 -19.3172 -19.3157 -19.1597 -19.1286
   -19.1283 -19.1258 -19.0881 -19.0768 -19.0714 -19.0680 -19.0480 -19.0439
   -18.9307 -18.9120 -18.9068 -18.9030 -18.8600 -18.8474 -18.8466 -18.8450
   -18.7197 -18.7067 -18.7044 -18.6989 -18.3333 -18.2743 -18.2737 -18.2686
   -18.2378 -18.2214 -18.2204 -18.2133 -18.1924 -18.1832 -18.1798 -18.1760
   -18.0743 -18.0616 -17.9257 -17.8808 -17.8780 -17.8735 -17.8684 -17.8560
   -17.8495 -17.8485 -17.7566 -17.7516 -17.7330 -17.7290 -17.6593 -17.6341
   -17.6291 -17.6257 -17.5349 -17.5243 -17.5028 -17.4916 -17.4604 -17.4335
   -17.4275 -17.4197 -17.4132 -17.4105 -17.3821 -17.3724 -17.1928 -17.1858
   -17.1553 -17.1411 -17.0855 -17.0525 -17.0314 -17.0113 -16.9971 -16.9837
   -16.9531 -16.9421 -16.8748 -16.8591 -16.7442 -16.7399 -16.7047 -16.6926
   -16.3490 -16.2818 -16.2269 -16.2065 -16.1197 -16.0436 -16.0391 -16.0350
   -16.0343 -16.0324 -15.9377 -15.9178 -15.8869 -15.8642 -15.8465 -15.7777
   -15.7664 -15.7514 -15.7449 -15.5671 -15.5523 -15.5522 -15.5105 -15.4589
   -15.4485 -15.4475 -15.3987 -15.3980 -15.3942 -15.3907 -15.3639 -15.3632
   -15.3471 -15.2594 -15.2493 -15.2465 -15.2029 -15.2011 -15.1638 -15.0951
   -15.0906 -15.0846 -15.0816 -15.0767 -15.0538 -15.0364 -14.9963 -14.9643
   -14.9560 -14.9557 -14.9203 -14.9123 -14.8932 -14.8865 -14.8639 -14.8528
   -14.7970 -14.7179 -14.6925 -14.6887 -14.6839 -14.6618 -14.5737 -14.4408
   -14.4285 -14.3394 -14.3224 -13.9711 -13.9669 -13.9606 -13.9531 -13.9459
   -13.9382 -13.8861 -13.8763 -13.8389 -13.8356 -13.8032 -13.7966 -13.6640
   -13.6595 -13.5688 -13.5352 -13.5347 -13.5327 -13.5323 -13.5188 -13.5120
   -13.4950 -13.4792 -13.4627 -13.4166 -13.4022 -13.3979 -13.3832 -13.3643
   -13.3544 -13.2666 -13.2584 -13.2420 -13.2210 -13.0904 -13.0848 -13.0678
   -13.0557 -13.0441 -13.0328 -12.8886 -12.8877 -12.8542 -12.8471 -12.8319
   -12.8281 -12.8086 -12.8053 -12.7680 -12.7624 -12.7480 -12.7433 -12.7139
   -12.7019 -12.6089 -12.6072 -12.5307 -12.5281 -12.5045 -12.5011 -12.4322
   -12.4303 -12.2416 -12.2358 -12.1116 -12.1084 -12.0037 -12.0017 -11.9871
   -11.9800 -11.8557 -11.8552 -11.7812 -11.7779 -11.7458 -11.7421 -11.6819
   -11.6712 -11.6503 -11.6477 -11.6307 -11.6296 -11.6038 -11.6010 -11.5637
   -11.5622 -11.5255 -11.5207 -11.4990 -11.4964 -11.4911 -11.4910 -11.4497
   -11.4450 -11.4313 -11.4147 -11.3760 -11.3624 -11.3439 -11.3427 -11.3250
   -11.3142 -11.2905 -11.2891 -11.2568 -11.2549 -11.2411 -11.2324 -11.1700
   -11.1653 -11.1636 -11.1602 -11.1594 -11.1581 -11.1414 -11.1367 -10.7834
   -10.7790 -10.7692 -10.7650 -10.7541 -10.7516 -10.7457 -10.7434 -10.7190
   -10.7166 -10.6990 -10.6978 -10.6316 -10.6255 -10.5503 -10.5434 -10.5426
   -10.5313 -10.4908 -10.4903 -10.4792 -10.4771 -10.4632 -10.4557 -10.4350
   -10.4291 -10.4194 -10.4165 -10.4007 -10.3984 -10.3951 -10.3922 -10.3908
   -10.3781 -10.3335 -10.3245 -10.3177 -10.3136 -10.3011 -10.2986 -10.2937
   -10.2920 -10.2430 -10.2336 -10.2172 -10.2163 -10.1897 -10.1838 -10.1309
   -10.1222 -10.1151 -10.1092 -10.1021 -10.1004 -10.0910 -10.0828 -10.0678
   -10.0660 -10.0472 -10.0353 -10.0216 -10.0131  -9.9803  -9.9747  -9.9660
    -9.9640  -9.9444  -9.9356  -9.9327  -9.9239  -9.9034  -9.8966  -9.8951
    -9.8919  -9.8875  -9.8771  -9.8107  -9.7997  -9.7964  -9.7883  -9.7818
    -9.7813  -9.7724  -9.7689  -9.7377  -9.7296  -9.7092  -9.7090  -9.6947
    -9.6932  -9.6803  -9.6784  -9.6459  -9.6426  -9.6126  -9.6095  -9.6071
    -9.5948  -9.5480  -9.5430  -9.5090  -9.4962  -9.4943  -9.4783  -9.4694
    -9.4683  -9.4574  -9.4503  -9.4212  -9.4200  -9.3336  -9.3224  -9.3115
    -9.2980  -9.2909  -9.2904  -9.2856  -9.2847  -9.2807  -9.2648  -9.1857
    -9.1840  -9.1573  -9.1412  -9.1281  -9.1279  -9.1135  -9.1045  -9.0997
    -9.0976  -9.0909  -9.0893  -9.0863  -9.0830  -9.0755  -9.0710  -9.0459
    -9.0443  -9.0414  -9.0285  -9.0275  -9.0117  -9.0065  -8.9991  -8.9517
    -8.9499  -8.9339  -8.9299  -8.9188  -8.9171  -8.9062  -8.9058  -8.8170
    -8.7957  -8.6597  -8.6192  -8.6189  -8.6027  -8.5898  -8.5831  -8.5458
    -8.5341  -8.5071  -8.5017  -8.4586  -8.4561  -8.3873  -8.3669  -8.3544
    -8.3079  -8.3002  -8.2983  -8.2878  -8.2718  -8.2604  -8.2559  -8.2382
    -8.2302  -8.2237  -8.2225  -8.1789  -8.1737  -8.1625  -8.1488  -8.1290
    -8.1259  -8.1124  -8.0865  -8.0783  -8.0754  -8.0716  -8.0669  -8.0598
    -8.0553  -8.0486  -8.0410  -8.0388  -8.0309  -8.0282  -8.0261  -8.0173
    -8.0101  -7.9410  -7.9322  -7.8886  -7.8802  -7.8684  -7.8626  -7.8522
    -7.8519  -7.7639  -7.7602  -7.6911  -7.6859  -7.6497  -7.5962  -7.5857
    -7.5678  -7.5659  -7.5611  -7.5295  -7.5242  -7.4830  -7.4703  -7.4539
    -7.4474  -7.3967  -7.3874  -7.3870  -7.3651  -7.3614  -7.3551  -7.3211
    -7.3199  -7.3144  -7.2945  -7.2898  -7.2894  -7.2722  -7.2680  -7.2615
    -7.2577  -7.2566  -7.2446  -7.1833  -7.1747  -7.1215  -7.1090  -7.0481
    -7.0067  -6.9520  -6.9461  -6.9363  -6.9332  -6.9296  -6.9263  -6.9203
    -6.9077  -6.8743  -6.8206  -6.8033  -6.8030  -6.7632  -6.7515  -6.7475
    -6.7328  -6.7222  -6.6907  -6.6626  -6.6611  -6.6432  -6.6372  -6.6324
    -6.6314  -6.5821  -6.5758  -6.5197  -6.5100  -6.4763  -6.4758  -6.4411
    -6.4202  -6.4121  -6.4005  -6.3878  -6.3873  -6.3866  -6.3817  -6.3764
    -6.3718  -6.3669  -6.3614  -6.3368  -6.3343  -6.3087  -6.3027  -6.2148
    -6.1948  -6.1161  -6.0164  -6.0152  -5.9955  -5.9911  -5.9767  -5.8908
    -5.8774  -5.8494  -5.8479  -5.8077  -5.7462  -5.7133  -5.6806  -5.6500
    -5.5709  -5.5466  -5.5281  -5.5098  -5.4934  -5.4730  -5.4712  -5.4448
    -5.3981  -5.3863  -5.3237  -5.3032  -5.2928  -5.2831  -5.2818  -5.2788
    -5.2743  -5.2351  -5.2267  -5.2098  -5.1922  -5.1644  -5.1520  -5.1420
    -5.1007  -5.0708  -5.0658  -5.0082  -4.9493  -4.9332  -4.9304  -4.8666
    -4.8565  -4.8302  -4.7923  -4.7460  -4.7308  -4.6466  -4.5744  -4.5460
    -4.5310  -4.5120  -4.5045  -4.4634  -4.4547  -4.4416  -4.3766  -4.2145
    -4.0725  -4.0094  -3.9544  -3.9369  -3.8630  -3.8623  -3.7629  -3.6081
    -3.5762  -3.4492  -3.3810  -2.3997

     occupation numbers 
     1.0000   1.0000   1.0000   1.0000   1.0000   1.0000   1.0000   1.0000
     1.0000   1.0000   1.0000   1.0000   1.0000   1.0000   1.0000   1.0000
     1.0000   1.0000   1.0000   1.0000   1.0000   1.0000   1.0000   1.0000
     1.0000   1.0000   1.0000   1.0000   1.0000   1.0000   1.0000   1.0000
     1.0000   1.0000   1.0000   1.0000   1.0000   1.0000   1.0000   1.0000
     1.0000   1.0000   1.0000   1.0000   1.0000   1.0000   1.0000   1.0000
     1.0000   1.0000   1.0000   1.0000   1.0000   1.0000   1.0000   1.0000
     1.0000   1.0000   1.0000   1.0000   1.0000   1.0000   1.0000   1.0000
     1.0000   1.0000   1.0000   1.0000   1.0000   1.0000   1.0000   1.0000
     1.0000   1.0000   1.0000   1.0000   1.0000   1.0000   1.0000   1.0000
     1.0000   1.0000   1.0000   1.0000   1.0000   1.0000   1.0000   1.0000
     1.0000   1.0000   1.0000   1.0000   1.0000   1.0000   1.0000   1.0000
     1.0000   1.0000   1.0000   1.0000   1.0000   1.0000   1.0000   1.0000
     1.0000   1.0000   1.0000   1.0000   1.0000   1.0000   1.0000   1.0000
     1.0000   1.0000   1.0000   1.0000   1.0000   1.0000   1.0000   1.0000
     1.0000   1.0000   1.0000   1.0000   1.0000   1.0000   1.0000   1.0000
     1.0000   1.0000   1.0000   1.0000   1.0000   1.0000   1.0000   1.0000
     1.0000   1.0000   1.0000   1.0000   1.0000   1.0000   1.0000   1.0000
     1.0000   1.0000   1.0000   1.0000   1.0000   1.0000   1.0000   1.0000
     1.0000   1.0000   1.0000   1.0000   1.0000   1.0000   1.0000   1.0000
     1.0000   1.0000   1.0000   1.0000   1.0000   1.0000   1.0000   1.0000
     1.0000   1.0000   1.0000   1.0000   1.0000   1.0000   1.0000   1.0000
     1.0000   1.0000   1.0000   1.0000   1.0000   1.0000   1.0000   1.0000
     1.0000   1.0000   1.0000   1.0000   1.0000   1.0000   1.0000   1.0000
     1.0000   1.0000   1.0000   1.0000   1.0000   1.0000   1.0000   1.0000
     1.0000   1.0000   1.0000   1.0000   1.0000   1.0000   1.0000   1.0000
     1.0000   1.0000   1.0000   1.0000   1.0000   1.0000   1.0000   1.0000
     1.0000   1.0000   1.0000   1.0000   1.0000   1.0000   1.0000   1.0000
     1.0000   1.0000   1.0000   1.0000   1.0000   1.0000   1.0000   1.0000
     1.0000   1.0000   1.0000   1.0000   1.0000   1.0000   1.0000   1.0000
     1.0000   1.0000   1.0000   1.0000   1.0000   1.0000   1.0000   1.0000
     1.0000   1.0000   1.0000   1.0000   1.0000   1.0000   1.0000   1.0000
     1.0000   1.0000   1.0000   1.0000   1.0000   1.0000   1.0000   1.0000
     1.0000   1.0000   1.0000   1.0000   1.0000   1.0000   1.0000   1.0000
     1.0000   1.0000   1.0000   1.0000   1.0000   1.0000   1.0000   1.0000
     1.0000   1.0000   1.0000   1.0000   1.0000   1.0000   1.0000   1.0000
     1.0000   1.0000   1.0000   1.0000   1.0000   1.0000   1.0000   1.0000
     1.0000   1.0000   1.0000   1.0000   1.0000   1.0000   1.0000   1.0000
     1.0000   1.0000   1.0000   1.0000   1.0000   1.0000   1.0000   1.0000
     1.0000   1.0000   1.0000   1.0000   1.0000   1.0000   1.0000   1.0000
     1.0000   1.0000   1.0000   1.0000   1.0000   1.0000   1.0000   1.0000
     1.0000   1.0000   1.0000   1.0000   1.0000   1.0000   1.0000   1.0000
     1.0000   1.0000   1.0000   1.0000   1.0000   1.0000   1.0000   1.0000
     1.0000   1.0000   1.0000   1.0000   1.0000   1.0000   1.0000   1.0000
     1.0000   1.0000   1.0000   1.0000   1.0000   1.0000   1.0000   1.0000
     1.0000   1.0000   1.0000   1.0000   1.0000   1.0000   1.0000   1.0000
     1.0000   1.0000   1.0000   1.0000   1.0000   1.0000   1.0000   1.0000
     1.0000   1.0000   1.0000   1.0000   1.0000   1.0000   1.0000   1.0000
     1.0000   1.0000   1.0000   1.0000   1.0000   1.0000   1.0000   1.0000
     1.0000   1.0000   1.0000   1.0000   1.0000   1.0000   1.0000   1.0000
     1.0000   1.0000   1.0000   1.0000   1.0000   1.0000   1.0000   1.0000
     1.0000   1.0000   1.0000   1.0000   1.0000   1.0000   1.0000   1.0000
     1.0000   1.0000   1.0000   1.0000   1.0000   1.0000   1.0000   1.0000
     1.0000   1.0000   1.0000   1.0000   1.0000   1.0000   1.0000   1.0000
     1.0000   1.0000   1.0000   1.0000   1.0000   1.0000   1.0000   1.0000
     1.0000   1.0000   1.0000   1.0000   1.0000   1.0000   1.0000   1.0000
     1.0000   1.0000   1.0000   1.0000   1.0000   1.0000   1.0000   1.0000
     1.0000   1.0000   1.0000   1.0000   1.0000   1.0000   1.0000   1.0000
     1.0000   1.0000   1.0000   1.0000   1.0000   1.0000   1.0000   1.0000
     1.0000   1.0000   1.0000   1.0000   1.0000   1.0000   1.0000   1.0000
     1.0000   1.0000   1.0000   1.0000   1.0000   1.0000   1.0000   1.0000
     1.0000   1.0000   1.0000   1.0000   1.0000   1.0000   1.0000   1.0000
     1.0000   1.0000   1.0000   1.0000   1.0000   1.0000   1.0000   1.0000
     1.0000   1.0000   1.0000   1.0000   1.0000   1.0000   1.0000   1.0000
     1.0000   1.0000   1.0000   1.0000   1.0000   1.0000   1.0000   1.0000
     1.0000   1.0000   1.0000   1.0000   1.0000   1.0000   1.0000   1.0000
     1.0000   1.0000   1.0000   1.0000   1.0000   1.0000   1.0000   1.0000
     1.0000   1.0000   1.0000   1.0000   1.0000   1.0000   1.0000   1.0000
     1.0000   1.0000   1.0000   1.0000   1.0000   1.0000   1.0000   1.0000
     1.0000   1.0000   1.0000   1.0000   1.0000   1.0000   1.0000   1.0000
     1.0000   1.0000   1.0000   1.0000   1.0000   1.0000   1.0000   1.0000
     1.0000   1.0000   1.0000   1.0000   1.0000   1.0000   1.0000   1.0000
     1.0000   1.0000   1.0000   1.0000   1.0000   1.0000   1.0000   1.0000
     1.0000   1.0000   1.0000   1.0000   1.0000   1.0000   1.0000   1.0000
     1.0000   1.0000   1.0000   1.0000   1.0000   1.0000   1.0000   1.0000
     1.0000   1.0000   1.0000   1.0000   1.0000   1.0000   1.0000   1.0000
     1.0000   1.0000   1.0000   1.0000   1.0000   1.0000   1.0000   1.0000
     1.0000   1.0000   1.0000   1.0000   1.0000   1.0000   1.0000   1.0000
     1.0000   1.0000   1.0000   1.0000   1.0000   1.0000   1.0000   1.0000
     1.0000   1.0000   1.0000   1.0000   1.0000   1.0000   1.0000   1.0000
     1.0000   1.0000   1.0000   1.0000   1.0000   1.0000   1.0000   1.0000
     1.0000   1.0000   1.0000   1.0000   1.0000   1.0000   1.0000   1.0000
     1.0000   1.0000   1.0000   1.0000   1.0000   1.0000   1.0000   1.0000
     1.0000   1.0000   1.0000   1.0000   1.0000   1.0000   1.0000   1.0000
     1.0000   1.0000   1.0000   1.0000   1.0000   1.0000   1.0000   1.0000
     1.0000   1.0000   1.0000   1.0000   1.0000   1.0000   1.0000   1.0000
     1.0000   1.0000   1.0000   1.0000   1.0000   1.0000   1.0000   1.0000
     1.0000   1.0000   1.0000   1.0000   1.0000   1.0000   1.0000   1.0000
     1.0000   1.0000   1.0000   1.0000   1.0000   1.0000   1.0000   1.0000
     1.0000   1.0000   1.0000   1.0000   1.0000   1.0000   1.0000   1.0000
     1.0000   1.0000   1.0000   1.0000   1.0000   1.0000   1.0000   1.0000
     1.0000   1.0000   1.0000   0.0000

     highest occupied, lowest unoccupied level (ev):    -3.3147   -2.4606

!    total energy              =   -4165.39199069 Ry
     estimated scf accuracy    <       0.00000002 Ry

     The total energy is the sum of the following terms:
     one-electron contribution =  -74553.64427193 Ry
     hartree contribution      =   37458.89475390 Ry
     xc contribution           =   -1280.47418144 Ry
     ewald contribution        =   34209.83170879 Ry

     convergence has been achieved in  23 iterations

     Writing all to output data dir ./CNT_PBE.save/

     init_run     :     66.76s CPU     67.37s WALL (       1 calls)
     electrons    :   6037.92s CPU   6234.49s WALL (       1 calls)

     Called by init_run:
     wfcinit      :     59.14s CPU     58.55s WALL (       1 calls)
     wfcinit:wfcr :     58.83s CPU     58.21s WALL (       1 calls)
     potinit      :      0.50s CPU      1.15s WALL (       1 calls)
     hinit0       :      1.71s CPU      2.14s WALL (       1 calls)

     Called by electrons:
     c_bands      :   5970.68s CPU   6188.04s WALL (      23 calls)
     sum_band     :     64.91s CPU     42.58s WALL (      23 calls)
     v_of_rho     :      1.60s CPU      2.94s WALL (      24 calls)
     v_h          :      0.23s CPU      0.45s WALL (      24 calls)
     v_xc         :      1.36s CPU      2.49s WALL (      24 calls)
     mix_rho      :      0.47s CPU      0.45s WALL (      23 calls)

     Called by c_bands:
     init_us_2    :      9.03s CPU      4.70s WALL (      47 calls)
     init_us_2:cp :      9.03s CPU      4.70s WALL (      47 calls)
     cegterg      :   5952.38s CPU   6129.32s WALL (      23 calls)

     Called by sum_band:
     sum_band:wei :      0.00s CPU      0.00s WALL (      23 calls)
     sum_band:loo :     64.43s CPU     41.80s WALL (      23 calls)
     sum_band:buf :      0.00s CPU      0.00s WALL (      23 calls)
     sum_band:ini :      4.45s CPU      2.27s WALL (      23 calls)

     Called by *egterg:
     cdiaghg      :    323.79s CPU    520.51s WALL (     223 calls)
     cegterg:over :    904.21s CPU    946.31s WALL (     200 calls)
     cegterg:upda :    587.18s CPU    606.17s WALL (     200 calls)
     cegterg:last :    416.11s CPU    426.23s WALL (      26 calls)
     cdiaghg:chol :     10.42s CPU     52.27s WALL (     223 calls)
     cdiaghg:inve :      1.55s CPU      4.28s WALL (     223 calls)
     cdiaghg:para :    132.40s CPU    194.31s WALL (     446 calls)
     h_psi        :   3698.32s CPU   3597.92s WALL (     224 calls)
     g_psi        :      0.66s CPU      0.37s WALL (     200 calls)

     Called by h_psi:
     h_psi:calbec :   1668.56s CPU   1690.03s WALL (     224 calls)
     vloc_psi     :    370.06s CPU    247.33s WALL (     224 calls)
     add_vuspsi   :   1657.15s CPU   1658.04s WALL (     224 calls)

     General routines
     calbec       :   1668.56s CPU   1690.03s WALL (     224 calls)
     fft          :      2.44s CPU      4.34s WALL (     239 calls)
     ffts         :      0.17s CPU      0.17s WALL (      23 calls)
     fftw         :    416.35s CPU    279.73s WALL (  119888 calls)

     Parallel routines

     PWSCF        :      1h41m CPU      1h45m WALL


   This run was terminated on:  23:39:14  15May2024            

=------------------------------------------------------------------------------=
   JOB DONE.
=------------------------------------------------------------------------------=
Note: The following floating-point exceptions are signalling: IEEE_DENORMAL
Note: The following floating-point exceptions are signalling: IEEE_DENORMAL
Note: The following floating-point exceptions are signalling: IEEE_DENORMAL
Note: The following floating-point exceptions are signalling: IEEE_DENORMAL
Note: The following floating-point exceptions are signalling: IEEE_UNDERFLOW_FLAG IEEE_DENORMAL
Note: The following floating-point exceptions are signalling: IEEE_UNDERFLOW_FLAG IEEE_DENORMAL
Note: The following floating-point exceptions are signalling: IEEE_DENORMAL
Note: The following floating-point exceptions are signalling: IEEE_DENORMAL
Note: The following floating-point exceptions are signalling: IEEE_DENORMAL
Note: The following floating-point exceptions are signalling: IEEE_DENORMAL
Note: The following floating-point exceptions are signalling: IEEE_DENORMAL
Note: The following floating-point exceptions are signalling: IEEE_DENORMAL
Note: The following floating-point exceptions are signalling: IEEE_DENORMAL
Note: The following floating-point exceptions are signalling: IEEE_DENORMAL
Note: The following floating-point exceptions are signalling: IEEE_DENORMAL
Note: The following floating-point exceptions are signalling: IEEE_DENORMAL
Note: The following floating-point exceptions are signalling: IEEE_DENORMAL
Note: The following floating-point exceptions are signalling: IEEE_DENORMAL
Note: The following floating-point exceptions are signalling: IEEE_DENORMAL
Note: The following floating-point exceptions are signalling: IEEE_DENORMAL
Note: The following floating-point exceptions are signalling: IEEE_DENORMAL
Note: The following floating-point exceptions are signalling: IEEE_DENORMAL
Note: The following floating-point exceptions are signalling: IEEE_DENORMAL
Note: The following floating-point exceptions are signalling: IEEE_DENORMAL
Note: The following floating-point exceptions are signalling: IEEE_DENORMAL
Note: The following floating-point exceptions are signalling: IEEE_DENORMAL
Note: The following floating-point exceptions are signalling: IEEE_DENORMAL
Note: The following floating-point exceptions are signalling: IEEE_DENORMAL
Note: The following floating-point exceptions are signalling: IEEE_INVALID_FLAG IEEE_DENORMAL
Note: The following floating-point exceptions are signalling: IEEE_DENORMAL
Note: The following floating-point exceptions are signalling: IEEE_DENORMAL
Note: The following floating-point exceptions are signalling: IEEE_DENORMAL
Note: The following floating-point exceptions are signalling: IEEE_DENORMAL
Note: The following floating-point exceptions are signalling: IEEE_DENORMAL
Note: The following floating-point exceptions are signalling: IEEE_DENORMAL
Note: The following floating-point exceptions are signalling: IEEE_DENORMAL
Note: The following floating-point exceptions are signalling: IEEE_DENORMAL
Note: The following floating-point exceptions are signalling: IEEE_DENORMAL
Note: The following floating-point exceptions are signalling: IEEE_DENORMAL
Note: The following floating-point exceptions are signalling: IEEE_DENORMAL
Note: The following floating-point exceptions are signalling: IEEE_INVALID_FLAG IEEE_DENORMAL
Note: The following floating-point exceptions are signalling: IEEE_DENORMAL
Note: The following floating-point exceptions are signalling: IEEE_DENORMAL
Note: The following floating-point exceptions are signalling: IEEE_DENORMAL
Note: The following floating-point exceptions are signalling: IEEE_DENORMAL
Note: The following floating-point exceptions are signalling: IEEE_DENORMAL
Note: The following floating-point exceptions are signalling: IEEE_DENORMAL
Note: The following floating-point exceptions are signalling: IEEE_DENORMAL
Note: The following floating-point exceptions are signalling: IEEE_DENORMAL
