Ge Se                                   
    1.000000000000000     
     3.8581001759000002    0.0000000000000000    0.0000000000000000
     0.0000000000000000    4.5265750884999996    0.0000000000000000
     0.0000000000000000    0.0000000000000000   17.0851764678999984
   Ge   Se
     2     2
Direct
  0.2500000000064801  0.1156418993976018  0.0801552005958470
  0.7500000000194404  0.6156418920520892  0.2442539830853079
  0.7500000000194404  0.4950509668320962  0.0956162937543681
  0.2500000000064801  0.9950510264246120  0.2287928947848030
 
  0.00000000E+00  0.00000000E+00  0.00000000E+00
  0.00000000E+00  0.00000000E+00  0.00000000E+00
  0.00000000E+00  0.00000000E+00  0.00000000E+00
  0.00000000E+00  0.00000000E+00  0.00000000E+00
