Ge Se
 1.0000000000000000
     4.7500000000000000    0.0000000000000000    0.0000000000000000
     0.0000000000000000    4.1500000000000004    0.0000000000000000
     0.0000000000000000    0.0000000000000000   11.1422210000000010
 Ge  Se 
   4   4
Selective dynamics
Cartesian
  0.5479602376093491  1.0375000000000001  1.4301482770966074   T   T   T
  2.9229602376093502  3.1125000000000003  4.1409622229033953   T   T   T
  4.2020397623906520  3.1125000000000003  9.7120727229033985   T   T   T
  1.8270397623906525  1.0375000000000001  7.0012587770966084   T   T   T
 -0.1697321960964965  1.0375000000000001  3.9000284886688084   T   T   T
  2.2052678039035047  3.1125000000000003  1.6710820113311959   T   T   T
  4.9197321960964988  3.1125000000000003  7.2421925113311945   T   T   T
  2.5447321960964970  1.0375000000000001  9.4711389886688124   T   T   T
