Ge Se 
 1.0000000000000000
    12.3826059027216839    0.0000002468525387    0.0000012048451516
     0.0000002496954885   12.5252246766202457    0.0000057747659272
     0.0000013890561387    0.0000065818783552   11.0899939247379944
 Ge  Se 
  36  36
Cartesian
  0.9080879152717493  0.6485781333580146  1.2335721419117447
  2.9659271646998739 11.0158074210120933  4.0728909250337857
  7.1906453117715392  2.8167507662879245  3.9707202105745023
  6.9775759841859921  6.7621580587106571  4.3121069019154392
  7.2018545266058931 10.6965170125120554  4.1079968215322804
 11.0341156406569851  2.7382270219813116  4.1815035911671501
 11.2784336334524689  6.9859774472700300  4.0329002661836286
 11.1299467581735048 10.9298718829744281  4.4799917836827916
  0.7659314836565170  1.9234698583916678  6.8671763651564675
  0.9201720436933329  5.9611467409047707  7.1467443280132894
  0.9589791639622361 10.0771493989752141  7.0069355632951682
  5.1082494753577219  1.8505349515204330  6.9097610643813701
  5.1940650845229674  6.1218835127788376  6.9827540607846998
  4.7458486113808940 10.2795216394846634  7.0482946244174070
  9.0624071067381173  1.8954400931538828  6.9311286357720814
  9.2023117013343771  6.2106286205664452  6.8639677686157299
  3.1121503913866393  6.6533684247525864  3.9508317586219941
  2.8941606002431497  2.3818529368920722  4.2859607420212864
  9.1949865784526796 10.0094042384875106  7.1394365779351343
 11.2016933504178358  8.1610216274788510  9.6429955698866898
 11.2460530612926810 12.3460164823779142  9.7037647694213263
  1.0141811739475339  4.6189744503805192  1.3475115030088811
  0.8995006045863179  8.8902235920099617  1.4209768190718464
  5.2206146541374050  0.3541059491490074  1.5490283820885080
  4.8537709439974410  4.4939215770781518  1.3500979319899635
  9.3130575874633870  0.4901000942451779  1.5098259066350102
  9.0334018235063933  4.8780480871808702  1.1681964153685611
  4.8426474987834780  8.9071996732031931  1.3573751832304726
  3.0328108397100451  3.8144542270269355  9.3507887053757806
  2.7521616883670941  8.0140002374135157  9.7353063424646979
  2.9916040227000176 12.2558464781117298  9.5904106094174928
  6.8931906028848537  4.0016562241466840  9.8027117843995484
  6.8434580571434704  8.0575303655837285  9.8638254915401884
  7.1232989753929603 12.2468523895507442  9.5319806256475221
 11.1024008680007160  3.8550425580999481  9.6065918442917226
  9.5437515040037493  8.8267786105171560  1.4648090948734886
 11.2023651883757100  0.2120503399397511  7.1429379928966448
  3.0063992388241769  4.3427495775233265  6.9181676016516924
  2.7623962810600706  8.2814091350582011  7.1758884512452799
  7.1517144286913394  0.0331984469488287  7.0524369086337551
  7.0782314315670121  4.2911810789714826  7.3613225592294889
  7.0127241418422495  8.5066746576059682  7.2686651024325899
 11.1458450523559804  4.3535507412204888  7.2053402249118408
  9.2119259029100871  0.1058503242837381  3.9264948555107613
  0.8317596163951045  0.1366230533027000  3.7847052135514763
  0.6856967773345031  4.5037539573061327  3.9608700999630306
  1.1091409105486398  8.4281322975020032  3.8927593083451995
  4.7429994285398269  0.2532295437760083  4.1915191957822042
  4.9390398125717576  4.0859732477426451  3.9814179066182831
  5.0115440513413958  8.6776192373462013  3.9566063203452440
  2.8947838897997933  0.2410090439860529  7.1574683011029432
 11.1467243211615639  8.4473107798794107  7.0970189049385883
 11.3288770771346119 10.5425920456404469  1.7742128802112749
  2.8550762971627450  2.2918434329207140  1.7690110100872252
 11.3034806160402113  2.2329367933010262  1.7297309241644145
  9.0570408353809437  4.5197568964319901  3.6971471898422510
  0.9029027832910806  2.3043362603245114  9.3887835510903184
  0.6406976334195498  6.2948944323178342  9.6501543614640202
  0.9857761946922743 10.6771794955733128  9.4930842374304252
  5.0552517141860172  2.2853278337161309  9.4399683579574081
  4.8153158575679598  6.3611748110931297  9.4536553527710900
  4.8242433778385836 10.4658348787422408  9.5511676240996657
  9.0897669143230324  2.0627223253799682  9.5561490860061618
  9.0502816802694532  6.5119194076259879  9.5317291849675776
  9.1530402445304642 10.6067489967838835  9.6180374153253378
  2.9610999107212499  6.2962996443959236  1.4557395534504232
  2.8491642032477449 10.7420963245855337  1.6585803693566545
  7.2158212879473718  2.0953447641272920  1.5426105812483220
  6.8314578809569459  6.3997407547753298  1.7744102911214110
  6.8837563670676563 10.6919485954654299  1.5000820805965533
 11.2054538373783110  6.5384159648871227  1.5792450581586537
  8.9106852286981351  8.4580600112250934  3.9703010269601400
