 C  S 
 1.0000000000000000
    32.3722991942999982    0.0000000000000000    0.0000000000000000
     0.0000000000000000   19.9214134216000005    0.0000000000000000
     0.0000000000000000    0.0000000000000000   40.4480476378999967
 C   S  
 364   1
Cartesian
 12.0085557173992736 10.7243755899421096  0.0994216112453000
 11.9383843100233982 10.8341224691486850  2.5437201946247847
 10.9436543224880278 11.8537254154946456  2.4710558438257593
 10.3749723629648312 12.1808081396250998  1.2110152224440303
  8.9932264663920432 12.5268582163032249  1.1377545330955274
 11.8641438565935093 10.9412459110886466  4.9879160704366790
 10.8349391986890442 11.9262854962941862  4.9154395875687493
 10.2554179348260153 12.2334630487383844  3.6555528649598354
  8.8624530590689812 12.5314852881346006  3.5821438648399995
  8.2079852925012471 12.4886076698873545  2.3220973734606489
  6.8660927030375483 12.0110609104295705  2.2488904949695363
  6.3315443051059672 11.6311502755596798  0.9886104731895974
  5.4394726099116388 10.5206073149294408  0.9152189548995688
 11.7849877961140521 11.0453549208394293  7.4321485425652076
 10.7231512356243801 11.9951490750359575  7.3599873432135539
 10.1337789168801198 12.2820774434188937  6.0998970091549722
  8.7316126634100044 12.5320993946727963  6.0265541164297929
  8.0791043660940858 12.4664777551533987  4.7665002433903227
  6.7544726579452874 11.9426354696077528  4.6934810444855373
  6.2333964262200521 11.5445042697857367  3.4332710619035245
  5.3802031137935504 10.4038559174232788  3.3597261064835235
  5.1452605994451552  9.7916629828872797  2.0994884345041811
  5.0170883025004729  8.3730751421932741  2.0257978058658059
  5.1386287840317886  7.7284792032978187  0.7655894357079835
  5.7739856074917935  6.4536491812856225  0.6922538686725731
 11.7018726190682667 11.1468004995245167  9.8755992850923384
 10.6095759940923386 12.0604019438359895  9.8042289622364471
 10.0106833218791014 12.3274473336802952  8.5443867013420238
  8.6003860531025502 12.5292013506850299  8.4712009497975043
  7.9508143079260050 12.4406060923583652  7.2112268906536539
  6.6450433103154358 11.8707796462644488  7.1381945115858434
  6.1382023591999628 11.4546037528761335  5.8779177863547973
  5.3249909786873557 10.2851710060148100  5.8042132471895931
  5.1113557738351760  9.6651587469786602  4.5439970022157752
  5.0320456759886740  8.2429286135874964  4.4705124484020899
  5.1757376869730587  7.6030769091379273  3.2100791530990551
  5.8544312863538837  6.3509035189436256  3.1364932412871847
  6.3126391350496291  5.8814044436583011  1.8764426545936923
  7.5475684104541241  5.1716542438672626  1.8025547196763447
  8.1842540121752219  5.0124927544636444  0.5426829891698753
  9.6079741351784911  5.0567286915930394  0.4696269142678298
 12.0113470790026824 10.7189652210488990 13.5763565276607814
 11.6204395275836951 11.2479810640032536 12.3191340813194099
 10.4955529188457888 12.1237760289690044 12.2485673388767786
  9.8871399577705930 12.3689818183264340 10.9902096195460643
  8.4696282353884733 12.5209161433794200 10.9167913732952080
  7.8235770885300022 12.4098817276822633  9.6562502151037020
  6.5385707131367568 11.7953236654108604  9.5828922565285595
  6.0463668673094153 11.3617120393556714  8.3225157602486757
  5.2744052943821274 10.1645385435313180  8.2487281205112968
  5.0823303564380824  9.5374390049252327  6.9886045679507758
  5.0522757246708920  8.1132920292423076  6.9153617725943937
  5.2171995499102239  7.4788240026340391  5.6547360213734166
  5.9385075554732873  6.2506512043402491  5.5808846153405902
  6.4125583928388457  5.7974884527552302  4.3207726617559272
  7.6712381131875960  5.1308189562657143  4.2468651846900833
  8.3130499062964223  4.9939656436518707  2.9868132555036437
  9.7342781763224639  5.0874468169124683  2.9136167359471146
 10.3526325370907273  5.3075289365464426  1.6538716640892812
 11.5135972176598358  6.1328662856389640  1.5803346771442099
 11.9246978891857811  6.6444608588150258  0.3206382435900749
 12.4805734542354259  7.9559777407377217  0.2479109441222199
 11.9670104682290415 10.8397947094778750 16.0169890587634143
 11.5452742195909828 11.3474581391851146 14.7679979995071236
 10.3790922621119890 12.1743416319949791 14.6956733708903826
  9.7622839052238888 12.4000422624808575 13.4366159600917854
  8.3412451872450859 12.5027664592735306 13.3626357559561590
  7.6984155839259625 12.3731949836322244 12.1012272035530035
  6.4344175940576678 11.7159897759572438 12.0274620968951016
  5.9574729850555883 11.2661466669576562 10.7672534211929154
  5.2275623880394786 10.0425284804133863 10.6933770866532285
  5.0579104832707076  9.4089472685254609  9.4331136022916571
  5.0776795858829455  7.9847381117547993  9.3600232299092720
  5.2640566472504364  7.3562124689834016  8.0996476464119134
  6.0271130349574431  6.1533466744861558  8.0257600217947243
  6.5157923047676221  5.7168239455060093  6.7651837366257279
  7.7962461647811390  5.0936138781451961  6.6913109803518083
  8.4421982677149998  4.9790589809691035  5.4310359282538965
  9.8593691863242512  5.1213946920550537  5.3575183370369714
 10.4698912661534873  5.3631365102711861  4.0979880945641174
 11.6017431880485358  6.2279314924249274  4.0244064294606812
 11.9950074599162591  6.7537501894398213  2.7647467351986927
 12.5054946368616928  8.0834758139287253  2.6921381162709999
 12.5648876234067153  8.7371897720181835  1.4323684883585601
 12.3011825878141643 10.1370385361044395  1.3591841527138404
 11.9132952355970581 10.9546803932146180 18.4709256316607338
 11.4520507187386720 11.4176543739418914 17.2175137285208351
 10.2554994227169427 12.1907448320415241 17.1413846842931079
  9.6345218723297705 12.4115868583702280 15.8802047853135573
  8.2115641174548308 12.4770861342290935 15.8067037028923707
  7.5735008645021908 12.3310631584144357 14.5462755485374089
  6.3303001190476937 11.6332604147524812 14.4720972596161772
  5.8709736729956097 11.1667621306090794 13.2114903939289654
  5.1844184848976065  9.9188609879830612 13.1376511942133938
  5.0373460535886609  9.2798078351048723 11.8773854599377966
  5.1072000693118174  7.8569660417312539 11.8044939270713183
  5.3158960330855676  7.2353259833703536 10.5443617884214689
  6.1199079614568612  6.0595666504281391 10.4706284974195167
  6.6226849171609965  5.6394907212519616  9.2097108390337361
  7.9233450256286782  5.0594973090371607  9.1360028414887697
  8.5722737548451438  4.9673992194587964  7.8756341121364475
  9.9837237369162946  5.1581946774668515  7.8017501964240150
 10.5850349908849122  5.4219581288479919  6.5418994698029689
 11.6860227611442227  6.3253774276015564  6.4682487746531585
 12.0612973907410002  6.8647759733071441  5.2087686806020699
 12.5253786281836561  8.2115358212561844  5.1360621163933331
 12.5626070791806246  8.8671299535350059  3.8766784179325517
 12.2510296780466117 10.2571646818136539  3.8035153455258413
 11.7879375972312417 10.9923154450218110 20.9256352225031783
 11.3537170986640135 11.4791778330373955 19.6434748000602717
 10.1352652023295402 12.2266335991764450 19.5780863221878825
  9.5069365782298672 12.4224099647765041 18.3231354321224096
  8.0792755308985118 12.4525649037348050 18.2501933674952106
  7.4479699713501324 12.2826335408885345 16.9902189332416427
  6.2292607755575062 11.5462103393985931 16.9161848770872574
  5.7856648840393810 11.0650794785244191 15.6552267391734219
  5.1427168018746050  9.7936977462864707 15.5820011359993842
  5.0195987933668915  9.1499610933234852 14.3218660857303934
  5.1393247624414844  7.7303694603139661 14.2490016424619217
  5.3709838179593898  7.1164632393408978 12.9886816730475232
  6.2149576751645998  5.9692227610412374 12.9151602550883950
  6.7321155950694305  5.5661169876798748 11.6548529383337875
  8.0520775401873266  5.0299845750846437 11.5818673239855752
  8.7036277508718705  4.9600766485667229 10.3206141786145338
 10.1071298265093255  5.1988147155399576 10.2462429900252250
 10.6988773444886132  5.4827989701122437  8.9860206918066723
 11.7676363561188335  6.4246033654484727  8.9120665803352637
 12.1232258570475739  6.9774296745673388  7.6528929708682476
 12.5398057743768359  8.3396874171539714  7.5797218721970818
 12.5544776357175643  8.9965409027515211  6.3205305680075465
 12.1952929445450042 10.3748478974555418  6.2476389314583827
 11.7048422414466806 11.1361531919676402 23.3670295312191740
 11.2448005298829443 11.5846712288587170 22.1043972154853670
 10.0145914665886426 12.2966693259916848 22.0267441055993913
  9.3793629099132492 12.4422448396660208 20.7622719434048868
  7.9579635247719445 12.4203917795411751 20.6917214261597309
  7.3271363587122300 12.2329871889600561 19.4320841012595658
  6.1310889346898847 11.4566914611209363 19.3598144494066382
  5.7033303800878201 10.9610745367494715 18.1002407047975851
  5.1053005025141394  9.6672393029809722 18.0274081526336651
  5.0053058958760976  9.0194620667966277 16.7664238422022187
  5.1739587056239369  7.6054398602465652 16.6933513159988287
  5.4264753431861266  6.9994313901180991 15.4332849175743245
  6.3098927933625504  5.8813800794411888 15.3601881197626842
  6.8434827391637718  5.4976388230854134 14.1002027112905086
  8.1811780296803800  5.0086501125046121 14.0280000520026888
  8.8350228974834479  4.9583697640148703 12.7661168774656186
 10.2298840946534799  5.2448848748440158 12.6916186848645456
 10.8112378286904676  5.5478421080897578 11.4313897807623377
 11.8459533754902946  6.5269020652003382 11.3564732622612183
 12.1810283936677539  7.0921312007591677 10.0964825673706802
 12.5487583134099516  8.4678212476765200 10.0221704861478980
 12.5413976437223820  9.1249839392436378  8.7636794687923132
 12.1350521436089238 10.4905693700175302  8.6913612975276173
 11.6209691448231460 11.2458657269451088 25.8105688295812676
 11.1465603242590525 11.6964887087562772 24.5503066106374028
  9.8911036114589770 12.3630764965418098 24.4726992610456620
  9.2517160903325788 12.4937622338993570 23.2088026865964601
  7.8290394260050924 12.4059222009629426 23.1368604588213671
  7.2102370907255624 12.1835582383418117 21.8780068309826206
  6.0459014675730147 11.3639094661621254 21.8052801909661582
  5.6319216438742936 10.8526000047987310 20.5448102518781823
  5.0777242770764719  9.5406821332271630 20.4722939195053044
  4.9957384172849242  8.8901788148214642 19.2117500839380426
  5.2120419025388465  7.4805761352551201 19.1388857543765205
  5.4854523038887555  6.8845380069694579 17.8785395845133124
  6.4060256983005610  5.7978079760681789 17.8057547458792271
  6.9532139364124612  5.4327303925896278 16.5450464630876688
  8.3084014451928088  4.9958365035445329 16.4727989434369206
  8.9650287984533996  4.9675524706522705 15.2135709022228962
 10.3492310835029198  5.3077938184745612 15.1407925382747699
 10.9200159589531403  5.6242260054475981 13.8767791631091839
 11.9185695208783198  6.6359057002173003 13.7996965507775631
 12.2361758437780281  7.2090327654782218 12.5396623686725945
 12.5545660661228826  8.5978472436692002 12.4629928499409743
 12.5234120221401426  9.2535893738432353 11.2058795896749981
 12.0716419577133838 10.6046635637153166 11.1349272739770235
 11.5329002237374354 11.3432856574775851 28.2536500185661517
 11.0444099102241591 11.7811958899224667 26.9933358636559078
  9.7644124738008244 12.4062296044448193 26.9181645566133163
  9.1192583163628047 12.5201653722157094 25.6576873536386465
  7.7024188382615444 12.3772263877836295 25.5839053397339349
  7.0931246147304146 12.1340248859792830 24.3223987000174162
  5.9609758648610223 11.2696872492781726 24.2498326629057601
  5.5655628048446850 10.7442349755940789 22.9901142831591265
  5.0558446661289489  9.4136755533702008 22.9176486741762524
  4.9960962849449615  8.7597201064126438 21.6575353893185358
  5.2591722919761201  7.3602402650432364 21.5841521730900752
  5.5488321915283754  6.7720704017159310 20.3233772769324652
  6.5063022782172304  5.7160784101025586 20.2506977942500122
  7.0624420205450189  5.3701493426196025 18.9910016007003968
  8.4351604240824418  4.9844561144630006 18.9191786793077306
  9.0929194497690915  4.9923433615280155 17.6592800814180997
 10.4564197582352065  5.3946817747404063 17.5880636507552914
 11.0187090518728379  5.7231175776666419 16.3230583516332750
 11.9799073532103577  6.7702272699328176 16.2460062223998705
 12.2840568496140623  7.3365980557905637 14.9832959978843636
 12.5580911541512545  8.7306540407289202 14.9016917080868581
 12.5027160652627014  9.3844794367413229 13.6438109844968203
 11.4429628269419723 11.4377154713729308 30.6971840242250984
 10.9386861404081301 11.8579111202628749 29.4377138803068163
  9.6374233798734323 12.4374233936950169 29.3637881298086114
  8.9879929505904119 12.5302286296745393 28.1032411653095906
  7.5772881714941267 12.3384920418673953 28.0292173709052719
  6.9763659579494286 12.0764440217771405 26.7682665854884831
  5.8758849782532252 11.1716399049360984 26.6951694247422218
  5.5017737737726602 10.6325677586736589 25.4350398471425230
  5.0381437407734753  9.2859963405835337 25.3623175441993851
  5.0005609689939474  8.6305965030308904 24.1020513299421246
  5.3114997033888924  7.2403835698208354 24.0286623693983508
  5.6219228627104236  6.6629113482249380 22.7687058491513170
  6.6156152400138213  5.6418696164500464 22.6960415787319683
  7.1827540127914808  5.3147953770523282 21.4350085267251949
  8.5654146548219803  4.9744529874629286 21.3612599110863712
  9.2186865598808403  4.9992221108502548 20.1012251592411033
 10.5726778964265158  5.4527110069784417 20.0278541079350987
 11.1140045024008796  5.8259944133663222 18.7723063692965830
 12.0541417024838182  6.9028917841051136 18.7074526887610659
 12.3218659677600186  7.4973733648327467 17.4249857215008852
 12.6011234579645794  8.8665199306752527 17.3274629443072605
 12.5067027840128393  9.5155093746257826 16.0802771465257841
 11.3493609911528868 11.5279525702344792 33.1413521038893464
 10.8304809103090847 11.9301193489673256 31.8815995772782372
  9.5099514533689629 12.4633968892792630 31.8083031247101466
  8.8575727972014988 12.5343022267637849 30.5480737134724727
  7.4536162875218936 12.2940099406755863 30.4741797134408614
  6.8621026468880242 12.0115090287015374 29.2140161690170643
  5.7937275679904978 11.0697590986188210 29.1405139031902358
  5.4388151902968973 10.5185519290452181 27.8796626885331307
  5.0217527684239487  9.1566464377024221 27.8066414856515678
  5.0078940311321842  8.5007683849312805 26.5466263052694096
  5.3670525070283492  7.1222854119573116 26.4731386338578183
  5.6986270448829899  6.5562476992489565 25.2130001361199447
  6.7269959390468550  5.5707378691738896 25.1399525061869760
  7.3049683818961357  5.2625917783291341 23.8793881340499681
  8.6996239108880999  4.9671894370918199 23.8052336117143639
  9.3522532307746449  5.0169047352758067 22.5449600256989875
 10.6912253650594327  5.5029848252311124 22.4714326594036429
 11.2182523330381620  5.8974512864235873 21.2096714959791761
 12.1303093970362710  6.9918167589183957 21.1337610642606855
 12.4320198550443877  7.5706948669570604 19.8800190755666115
 12.8478246796461057  8.9951665279508770 19.8316780836832187
 12.7361231753270978  9.7199035325739800 18.5186783790190610
 11.2527211092181290 11.6149216277904941 35.5856091143468376
 10.7204836521387943 11.9989279734659178 34.3256713289189079
  9.3818994468955932 12.4858648817278901 34.2526529598342151
  8.7273478624252956 12.5335542148936625 32.9928000658951817
  7.3325421316869184 12.2448616962780132 32.9189305659305091
  6.7506689324655582 11.9420390444934856 31.6587386590470032
  5.7148801594859124 10.9645726321926933 31.5853362093444581
  5.3788147079492648 10.4018523641737470 30.3247140709775387
  5.0089517653913269  9.0262117425259092 30.2512884609761805
  5.0183104990283702  8.3705342108581622 28.9910991013410744
  5.4249974102466663  7.0055049419958344 28.9175860973059216
  5.7765732425546377  6.4516491523950750 27.6572980444418199
  6.8389450147675648  5.5022742721786946 27.5842261401789806
  7.4285970806501682  5.2151754350887760 26.3241554116382801
  8.8310410531381578  4.9650524427215075 26.2501684596657796
  9.4834244547291000  5.0326331444554961 24.9890033913427416
 10.8092913252174530  5.5540831748924244 24.9154222131315812
 11.3314198418890992  5.9519552150080743 23.6560405739000039
 12.1988438180972452  7.0883644007203470 23.5835549909341644
 12.4500102664260321  7.6976106447342607 22.3342480267836727
 12.5693598912340594  9.1227955136087662 22.2704662475557491
 12.4643944311422139  9.7695796475670225 21.0229488943713037
 11.1527504702483444 11.6982711383204965 38.0300301835276784
 10.6076033460759813 12.0636714166568186 36.7700671741507534
  9.2529966470633926 12.5040896702521547 36.6970578357271435
  8.5972230196112758 12.5288362204620061 35.4371010914542239
  7.2133728354897269 12.1920900355675776 35.3633144647258177
  6.6421222344467283 11.8694116983864539 34.1032021034062893
  5.6401944464128873 10.8569147314552641 34.0299782163842650
  5.3232179084273241 10.2827769161823976 32.7697648326110240
  5.0010686632203027  8.8953472677065051 32.6959805667047618
  5.0327708651527576  8.2404020832740823 31.4355869063078153
  5.4864832617784591  6.8901226746971895 31.3622682852261221
  5.8571458446162818  6.3490159607560184 30.1020098301014158
  6.9515138385153739  5.4370802053584226 30.0289037939092651
  7.5512089694868489  5.1706252468251410 28.7687078180210953
  8.9610714012858370  4.9680508501712559 28.6949250721484006
  9.6111647934472035  5.0546313924746080 27.4346433016082507
 10.9187372633584836  5.6225730902666120 27.3619467137439010
 11.4268975914697997  6.0370299799227398 26.1034313849777604
 12.2401466718039664  7.2078916719050063 26.0324963586320912
 12.4563141660243026  7.8282980541279406 24.7750623668848462
 12.5264628802533498  9.2487359379331426 24.7072321757893576
 12.3837932633794416  9.8880921400489523 23.4488063295135767
 11.0496688068797155 11.7777885738593469  0.0265711532224092
 10.4924634817333615 12.1243599035114240 39.2145375868162702
  9.1235261363682660 12.5178471282979942 39.1414012363564154
  8.4673435720736308 12.5201769056926526 37.8814246958963636
  7.0957958750187728 12.1358200388172097 37.8077854978111176
  6.5361266555232165 11.7934169859519535 36.5477174083068519
  5.5698224920795161 10.7469243724883583 36.4745504548800099
  5.2727854634823190 10.1620969143630617 35.2143874680544542
  4.9984840996201116  8.7645038819933845 35.1404969704855290
  5.0522388397562992  8.1108554342407206 33.8802867736994173
  5.5523308127916984  6.7771243727831054 33.8070932491853497
  5.9412984869184129  6.2491018003993561 32.5467697875659354
  7.0667546001540078  5.3759959256618828 32.4734879679849371
  7.6747402530238933  5.1301940041521181 31.2133582324502044
  9.0911661483183739  4.9770299380683305 31.1399610060846292
  9.7376869447952021  5.0865459849409334 29.8801117643527370
 11.0232679042933128  5.7004526791045596 29.8076705576786942
 11.5157924762480981  6.1332966695926139 28.5479037189839957
 12.2860373705160058  7.3309145178491812 28.4759211775676846
 12.4781606005718473  7.9576143907940535 27.2164348724889038
 12.5059699369606587  9.3819588743202385 27.1454465977931747
 12.3402671845887149 10.0158860226692177 25.8876706120904245
  8.3376379675777041 12.5066904222346693 40.3258144341286950
  6.9801277844287037 12.0753335418072538 40.2523823282444440
  6.4327090277206240 11.7139418810230715 38.9921549988303653
  5.5029987804004561 10.6348426357642811 38.9189194322411467
  5.2263268264923761 10.0400652193746662 37.6588545993750472
  5.0004776846860342  8.6337597764458849 37.5849705383321435
  5.0769489635137264  7.9823708677545158 36.3248523679439401
  5.6227516023299824  6.6667994677969418 36.2517226850422105
  6.0295078596207921  6.1524953608983148 34.9914217743529434
  7.1845150094380879  5.3188460739981762 34.9179395064846574
  7.8007111119332793  5.0945721775975725 33.6579377141219069
  9.2213683301925329  4.9908990343243618 33.5847991287914596
  9.8635451444906490  5.1232766556978477 32.3246589229506895
 11.1267895875532670  5.7810558988918563 32.2519525297760552
 11.6037539839458130  6.2306743604152288 30.9920154109708434
 12.3336321040069485  7.4540856405966913 30.9191514755893415
 12.5029329138592296  8.0873275271059377 29.6599015590846555
 12.4833574121031337  9.5119065930502167 29.5877632001611062
 12.2947738621849236 10.1402883200906437 28.3287272266712797
  5.1838653357466002  9.9165421710776354 40.1031914728283212
  5.0067240221546063  8.5032624768435046 40.0293550834453100
  5.1058093842631571  7.8547893925979508 38.7692220258205822
  5.6966617099446299  6.5587969957367198 38.6960533260729420
  6.1210520371061516  6.0587403715086703 37.4359392380030158
  7.3041765475554046  5.2654944922266127 37.3622555721388210
  7.9278832824971426  5.0628476738030006 36.1022458458552293
  9.3511807979503967  5.0086216399935388 36.0292041647703059
  9.9883971676431678  5.1632057454716067 34.7690666899196970
 11.2285062491240293  5.8642056679910803 34.6960425148481590
 11.6894773080701349  6.3304741919580385 33.4362610855585984
 12.3772171119922589  7.5779991685788177 33.3631698054196946
 12.5246787297537896  8.2170559381430763 32.1034006338013143
 12.4563714769423548  9.6397609559891269 32.0308287959242790
 12.2470888800899278 10.2618144764991364 30.7713399140158330
  6.2156560103182272  5.9685319837481945 39.8802936227338449
  7.4253474319443722  5.2165805164079924 39.8064659921671335
  8.0557671943952993  5.0353330435388992 38.5464804807982873
  9.4802284549459195  5.0303725676144886 38.4735289436916261
 10.1117770892501362  5.2073221356927100 37.2135343832778531
 11.3268301477979136  5.9507672354668060 37.1402561347742193
 11.7716439142530582  6.4327274570563118 35.8803532894108059
 12.4159805414955304  7.7030195753868513 35.8072990013811392
 12.5418731896367461  8.3467983573201874 34.5473310100889606
 12.4243710779471783  9.7664714998149655 34.4745682301725722
 12.1938538007178892 10.3807542785222093 33.2149990917319613
 10.2335203652092268  5.2551655405855131 39.6578052127758767
 11.4221500085656231  6.0401563443819590 39.5843471866269141
 11.8501657769193418  6.5373131758449325 38.3244830928247566
 12.4506961954437809  7.8289889015788301 38.2515952668332986
 12.5542727281149347  8.4768730588900567 36.9916549412287381
 12.3880138937698732  9.8916481854862948 36.9187217676339188
 12.1363253920713756 10.4977414258857831 35.6589587608416920
 12.5620166992277600  8.6070697130450320 39.4360069098802981
 12.3468619837616043 10.0151391277401789 39.3629152447794866
 12.0746948008020691 10.6122978817519353 38.1031248317741671
 14.4953893952871820  9.6185705709118370 19.1745255550452214
