Ge Se                                   
    1.000000000000000     
     4.7500000000000000    0.0000000000000000    0.0000000000000000
     0.0000000000000000    4.2499999999999991    0.0000000000000000
     0.0000000000000000    0.0000000000000000   11.1422209999999993
   Ge   Se
     4     4
Selective dynamics
Direct
  0.1147150773901942  0.2500000000000000  0.1298991044362978   T   T   T
  0.6147150773901942  0.7500000000000000  0.3701008955637022   T   T   T
  0.8852849226098058  0.7500000000000000  0.8701008955637093   T   T   T
  0.3852849226098058  0.2500000000000000  0.6298991044362978   T   T   T
  0.9595060117520617  0.2500000000000000  0.3501961259404780   T   T   T
  0.4595060117520617  0.7500000000000000  0.1498038740595291   T   T   T
  0.0404939882479383  0.7500000000000000  0.6498038740595291   T   T   T
  0.5404939882479383  0.2500000000000000  0.8501961259404780   T   T   T
 
  0.00000000E+00  0.00000000E+00  0.00000000E+00
  0.00000000E+00  0.00000000E+00  0.00000000E+00
  0.00000000E+00  0.00000000E+00  0.00000000E+00
  0.00000000E+00  0.00000000E+00  0.00000000E+00
  0.00000000E+00  0.00000000E+00  0.00000000E+00
  0.00000000E+00  0.00000000E+00  0.00000000E+00
  0.00000000E+00  0.00000000E+00  0.00000000E+00
  0.00000000E+00  0.00000000E+00  0.00000000E+00
