Ge Se                                   
    1.000000000000000     
     4.6999999999999993    0.0000000000000000    0.0000000000000000
     0.0000000000000000    4.0499999999999998    0.0000000000000000
     0.0000000000000000    0.0000000000000000   11.1422209999999993
   Ge   Se
     4     4
Selective dynamics
Direct
  0.1146373804445346  0.2500000000000000  0.1269931731457845   T   T   T
  0.6146373804445346  0.7500000000000000  0.3730068268542155   T   T   T
  0.8853626195554654  0.7500000000000000  0.8730068268542155   T   T   T
  0.3853626195554654  0.2500000000000000  0.6269931731457845   T   T   T
  0.9715241256339979  0.2500000000000000  0.3505389033485216   T   T   T
  0.4715241256339979  0.7500000000000000  0.1494610966514784   T   T   T
  0.0284758743660021  0.7500000000000000  0.6494610966514784   T   T   T
  0.5284758743660021  0.2500000000000000  0.8505389033485216   T   T   T
 
  0.00000000E+00  0.00000000E+00  0.00000000E+00
  0.00000000E+00  0.00000000E+00  0.00000000E+00
  0.00000000E+00  0.00000000E+00  0.00000000E+00
  0.00000000E+00  0.00000000E+00  0.00000000E+00
  0.00000000E+00  0.00000000E+00  0.00000000E+00
  0.00000000E+00  0.00000000E+00  0.00000000E+00
  0.00000000E+00  0.00000000E+00  0.00000000E+00
  0.00000000E+00  0.00000000E+00  0.00000000E+00
