 C  S  O 
 1.0000000000000000
    32.3722991942999982    0.0000000000000000    0.0000000000000000
     0.0000000000000000   19.9214134216000005    0.0000000000000000
     0.0000000000000000    0.0000000000000000   40.4480476378999967
 C   S   O  
 364   1   1
Cartesian
 12.0044860180757507 10.7200690437464043  0.0956712626646980
 11.9336200310218157 10.8302638718424156  2.5397554155643927
 10.9408350074443099 11.8517879074644519  2.4665969896266726
 10.3730540435382661 12.1795401036030526  1.2063988299058781
  8.9919570228838488 12.5278049386991928  1.1328059445162801
 11.8589824697898099 10.9380371730794383  4.9836573568490090
 10.8319212648011227 11.9250504906856811  4.9109286245087507
 10.2530494261899232 12.2330836122273023  3.6508019754964072
  8.8607485774241272 12.5334586544933657  3.5772647193012901
  8.2064543546226361 12.4910730485226704  2.3170660632660356
  6.8641861949522225 12.0144128949372728  2.2437438319294181
  6.3298945108533058 11.6340550668376288  0.9834031195592560
  5.4377350850779189 10.5236188371730233  0.9102415144493959
 11.7807828800100722 11.0430555869836144  7.4272175870661039
 10.7207489319636693 11.9943185647732413  7.3550794700907147
 10.1316344613380647 12.2825695451169228  6.0951874930961703
  8.7297318655110416 12.5348856353137155  6.0220166765497014
  8.0771852143017515 12.4697481557746706  4.7618616611063409
  6.7523030032581515 11.9468723592095127  4.6888451348501858
  6.2312847778304512 11.5484587744312410  3.4283752829095500
  5.3781403062464523 10.4078795592393547  3.3549469745371177
  5.1431781277982020  9.7952706433781653  2.0948695885192961
  5.0143322674361173  8.3766130790462157  2.0214971903573673
  5.1354015378282236  7.7314654080775620  0.7614474232563825
  5.7690106967952310  6.4557335683777568  0.6886164961760950
 11.7010154510641975 11.1455509598296256  9.8705864386444500
 10.6085547012820580 12.0598019406274339  9.7993276187670677
 10.0089949527473827 12.3274627996430084  8.5398784860266623
  8.5993204830040515 12.5310489333464403  8.4672659199271489
  7.9491075499160111 12.4437610103655629  7.2068215469326251
  6.6432634182818431 11.8751766330515878  7.1340239005073247
  6.1359270879233732 11.4594493483285369  5.8735698756740593
  5.3226692272977560 10.2899188940133204  5.7998182033103305
  5.1091634666253531  9.6696092116451808  4.5396899147429526
  5.0291444845372473  8.2474142274926674  4.4662854075991332
  5.1721131509672977  7.6069273706375267  3.2060362607050958
  5.8488738959239761  6.3535443861170435  3.1329532347005817
  6.3064473737237714  5.8828984255622325  1.8731153007529460
  7.5401102549772840  5.1708306176537890  1.7996793397173991
  8.1768209176177944  5.0104455405632748  0.5398573593617092
  9.6005183292711180  5.0529550854392458  0.4670301783668615
 12.0117487143589727 10.7163089674599643 13.5721548321993932
 11.6200495691043155 11.2453656900105781 12.3141203440134390
 10.4960452710501926 12.1201134493159408 12.2442134311246562
  9.8862122271090129 12.3668648997986352 10.9845985604601388
  8.4705577993311074 12.5204545393883890 10.9127339259581895
  7.8229898103813884 12.4122330111892563  9.6524511358839025
  6.5372746302102538 11.7987650694401136  9.5795129167415887
  6.0445140372191650 11.3661883931146139  8.3190607524986291
  5.2720190759243302 10.1694082018343188  8.2448149290924224
  5.0797932752178090  9.5424591531925689  6.9843713610618501
  5.0485093557198191  8.1184545812258584  6.9109043780679187
  5.2130210835559732  7.4834228418219046  5.6507455263535524
  5.9322495446382959  6.2537468600660224  5.5774488978295578
  6.4057991951466224  5.7994124083970178  4.3174929213200386
  7.6631065396934845  5.1301453963319448  4.2441291000816985
  8.3049214428464371  4.9918923338061560  2.9841673506315169
  9.7263843620683446  5.0835391691530258  2.9112306691059588
 10.3451026063535174  5.3032171699888355  1.6514959332189572
 11.5062348789403917  6.1282409486989442  1.5778845338337577
 11.9176226463387049  6.6397491035955785  0.3180557041335006
 12.4737599660337004  7.9510505083187768  0.2450337553399035
 11.9497533483089668 10.8229413882598013 16.0157558079671283
 11.5379769957319471 11.3405975232527432 14.7568398074101204
 10.3834079047120493 12.1712611131252597 14.6889827464275236
  9.7644938991891728 12.3998511380906873 13.4304331308974163
  8.3435072300543389 12.5022235083681093 13.3589011859169542
  7.6996941836192718 12.3729785118026960 12.0990381486060148
  6.4356410670518613 11.7159807146291080 12.0253694279727377
  5.9570722884263994 11.2684420522524160 10.7643581991574635
  5.2252176094900227 10.0466447405885067 10.6895711390890238
  5.0541422964303777  9.4140388777265720  9.4290200655974701
  5.0712920093071796  7.9896110204051585  9.3554197327413675
  5.2582863386301097  7.3609539527760086  8.0954046632496475
  6.0191196684640182  6.1566873888850076  8.0219916591519151
  6.5077407833163088  5.7188913680512830  6.7618658206505993
  7.7872455887054990  5.0929464260203146  6.6888413997524543
  8.4334522875034157  4.9771736221839085  5.4287677479605341
  9.8508821258567441  5.1179231475785656  5.3556326789896005
 10.4618227920219393  5.3589689509429235  4.0957969160166190
 11.5937069610017414  6.2235799822754494  4.0220215864991395
 11.9873923989705293  6.7491160357467264  2.7622401085652242
 12.4979816199314762  8.0788588102095940  2.6892017811883595
 12.5580807091615956  8.7323839427850096  1.4293705297074175
 12.2957904739181405 10.1324282904912391  1.3556747688575259
 11.8925461527445631 10.9063462040875550 18.4601356957438902
 11.4559372336792240 11.4189051155668189 17.2049333626216310
 10.2681430642330955 12.2047007526231539 17.1360757207681189
  9.6428886137449243 12.4178215122934485 15.8793645205312153
  8.2187577734596982 12.4712734276026271 15.8060869476976915
  7.5791116400147738 12.3242928430691219 14.5450549028288361
  6.3374636881532194 11.6271928992481417 14.4703965076026559
  5.8732551323807218 11.1658407465825462 13.2093030029673422
  5.1808269274540137  9.9208701813491427 13.1341981358865976
  5.0318127667494599  9.2836467992167186 11.8736040903450757
  5.0965028943596247  7.8606330548843841 11.7998033248145209
  5.3061033844245040  7.2392553960319370 10.5395767633548267
  6.1083040378130136  6.0622935854380886 10.4661464755997020
  6.6122952535304540  5.6416358015041510  9.2065243120250280
  7.9129976581670887  5.0600394688735246  9.1340751442311028
  8.5625704315230760  4.9667233693610271  7.8735579805760088
  9.9741241088470911  5.1565336749269592  7.8001681047912346
 10.5762336193650892  5.4184923918085230  6.5401070783228805
 11.6776242881026349  6.3218299146785881  6.4661385174288668
 12.0529912894400635  6.8607331325683392  5.2063701599809606
 12.5170856605045664  8.2073624740077715  5.1330693252629844
 12.5548959269258162  8.8627171863151304  3.8733637340356748
 12.2448404539484912 10.2528889725454455  3.7996193370940996
 11.8371930579426401 11.0551569718363201 20.9164754441405805
 11.3678792145204977 11.4948450899003891 19.6671136747277835
 10.1447942544812690 12.2237338651544079 19.5852718095256719
  9.5145586089672616 12.4135782078387944 18.3245166431378728
  8.0939279103310451 12.4297472664142177 18.2499469107135504
  7.4589777726533093 12.2682935955523078 16.9892863899245192
  6.2374654644805014 11.5354548808346955 16.9143871966397512
  5.7903458554891571 11.0593156111371975 15.6540634910511951
  5.1376953238800329  9.7930890326032713 15.5790461038660553
  5.0113871517837820  9.1514910166837264 14.3178198876079676
  5.1237600845083380  7.7318719447597184 14.2438748873148580
  5.3551703637437083  7.1183280615942417 12.9839085921083015
  6.1990583932472996  5.9702369228205203 12.9106156609543223
  6.7189513460813819  5.5685633735511972 11.6513593059335197
  8.0394326407063907  5.0338115225490867 11.5794180620419951
  8.6918376024663324  4.9615428589413213 10.3187064514343838
 10.0963083832045850  5.2002212736298610 10.2451270313344462
 10.6887148534281948  5.4822843527173255  8.9847778624833960
 11.7581111627388033  6.4232761482549314  8.9103802536488974
 12.1144241717669363  6.9746733501280671  7.6501926318843188
 12.5318092230597493  8.3363176202146647  7.5763079988145492
 12.5470070532704856  8.9926958999222961  6.3168593437931682
 12.1896296899005581 10.3715191212930282  6.2433093494363154
 11.7338724878089167 11.1520457588381348 23.3669392951696118
 11.2662112198312965 11.5923482406082119 22.0939182149409667
 10.0181580140156150 12.2815016362742710 22.0215685690195961
  9.3844242334024823 12.4371194099834756 20.7653536438153452
  7.9572649951539383 12.4101359135916063 20.6914827949010736
  7.3339416295425908 12.2140887544091843 19.4340302156616964
  6.1369291217565944 11.4436893533481907 19.3588705481770518
  5.7079194164371376 10.9505858701070089 18.0977090252831481
  5.0987575811241257  9.6645841599354103 18.0234178541494927
  4.9928621772574964  9.0188995354945458 16.7625714643574852
  5.1539577611279679  7.6031661712217913 16.6887274720306955
  5.4074159760186484  6.9985655327800966 15.4288683645810973
  6.2915597560120737  5.8814142417779678 15.3555291885212064
  6.8267910401219494  5.4993799677975241 14.0957914112392189
  8.1660851774391343  5.0144440189794057 14.0238410527901518
  8.8209946772930738  4.9637513857836373 12.7645056423141021
 10.2174943490799848  5.2505449367655750 12.6912588294032815
 10.7991755951882595  5.5517194639060641 11.4293997227284603
 11.8354738842481577  6.5281461272329322 11.3541632939571233
 12.1728597381327326  7.0907781676953316 10.0937456617069241
 12.5440771989824480  8.4659431678720498 10.0189211785057442
 12.5356496404602833  9.1223731068048846  8.7598382175773732
 12.1314183663037145 10.4881425987506045  8.6867257315058470
 11.6318662146884186 11.2448812435076437 25.8077232928302216
 11.1651508001404149 11.6989925833886623 24.5417554316975242
  9.8959678527704202 12.3547093790804681 24.4667675980342061
  9.2536481287041017 12.4723261730169366 23.2068847852952977
  7.8326841047242057 12.3845328835088360 23.1339558302989055
  7.2117633744036835 12.1676260150869879 21.8748613114298536
  6.0428867275173488 11.3526646660894386 21.8015199871762952
  5.6272033503566048 10.8453907676158714 20.5429321506419349
  5.0626757978685539  9.5356231367509494 20.4692218891023394
  4.9809634139947558  8.8862192637457174 19.2091534794323913
  5.1916116519841955  7.4773970353510961 19.1349563663037898
  5.4648122483640575  6.8813952589288778 17.8738786574730959
  6.3875397240477083  5.7967358192966492 17.8002134753687464
  6.9344781756511331  5.4327215229897883 16.5407244426577194
  8.2923279168655348  4.9984607831124279 16.4682124891513055
  8.9499054852525290  4.9751976993117735 15.2099788850923048
 10.3347634495221961  5.3116731652404132 15.1371187048695059
 10.9079607516349277  5.6260540423849132 13.8740178122115552
 11.9138394072031222  6.6354938168790003 13.7983334250876517
 12.2292105493037813  7.2093215165107516 12.5374086444111814
 12.5539339412088662  8.5959078854947339 12.4609166490251422
 12.5219862881052428  9.2519779909115343 11.2016769764858619
 12.0716023683092324 10.6028239077421969 11.1294631983372891
 11.5371564556003658 11.3393792977407024 28.2499463901159267
 11.0508450295755729 11.7778213475305940 26.9893090120523169
  9.7685135005085080 12.3986843052128641 26.9131462196306543
  9.1242211094636243 12.5058867244831848 25.6494946254384750
  7.7062819244148342 12.3603410967848752 25.5769790549756308
  7.0949042695304474 12.1179486390910682 24.3188687572312539
  5.9566544912872654 11.2596241117968709 24.2462157949313735
  5.5591163419755762 10.7350403965575918 22.9874813833674878
  5.0420358617765846  9.4083718943431940 22.9147039288679899
  4.9775525818579611  8.7552333546673591 21.6540949489318244
  5.2384333080445273  7.3544685325114063 21.5799247129225051
  5.5274669721756613  6.7673722690513669 20.3200625782636095
  6.4899277361153516  5.7146372588926297 20.2461345738944338
  7.0482288413221017  5.3722934294630580 18.9864561263998937
  8.4202448007893231  4.9891134922924794 18.9132224851165418
  9.0765400261830660  4.9906890852688299 17.6530408016785501
 10.4447363531148163  5.3838515594841532 17.5790457302324334
 11.0114237805299542  5.7111813652744656 16.3204655630581570
 11.9935996108789116  6.7491973343239682 16.2465499542422727
 12.2870789198671435  7.3299804837964135 14.9795842507321417
 12.5625671034290551  8.7247984547680186 14.9000972268354825
 12.5076710729570468  9.3805996687796380 13.6426056884602698
 11.4438966406940814 11.4326297756367179 30.6936618802121934
 10.9405489518602081 11.8526552095487592 29.4331919390898875
  9.6398061388950165 12.4318938360041820 29.3577915452609517
  8.9917769161926167 12.5234508854064295 28.0956353717463898
  7.5793731931346935 12.3299769436687843 28.0223125284214092
  6.9792938940536517 12.0638045088368511 26.7627484111660543
  5.8755706064097568 11.1635039467353412 26.6904766085000631
  5.4962315014676264 10.6256068415125711 25.4312526848610290
  5.0262741052166513  9.2805513121212275 25.3591849648992209
  4.9845515834930207  8.6251752687351537 24.1000185551470487
  5.2945992313663170  7.2346342478758654 24.0262205420910533
  5.6051666607057200  6.6581968829205431 22.7656015130566836
  6.6023020501609375  5.6427541667581922 22.6915425627374283
  7.1684596717952926  5.3173457758222140 21.4300496649272674
  8.5533968334041148  4.9845901804213257 21.3548621237829295
  9.2050647724156534  5.0066593213486188 20.0968429510308297
 10.5603343279407405  5.4559386623278776 20.0225063356877868
 11.1020571242331823  5.8169475201009568 18.7644461373481519
 12.0489927259510292  6.8805998453424806 18.6927215150427237
 12.3533394996019084  7.4508281025712515 17.4212172775580036
 12.5898507142027682  8.8595399243186730 17.3389339778860077
 12.4921413079406154  9.5086342464693470 16.0822772701573768
 11.3488371886736790 11.5232091803330867 33.1372641266255954
 10.8312899835111889 11.9259357192817195 31.8769180213012362
  9.5110634148157125 12.4606096468597443 31.8024956039193647
  8.8593333120666315 12.5304370761663080 30.5417860774364165
  7.4552744583284332 12.2901698760740068 30.4678180310372433
  6.8644466100141255 12.0055920623406074 29.2070018860201301
  5.7943018972266440 11.0649960717284230 29.1347909298530894
  5.4364493965958935 10.5135532565902690 27.8757765868387928
  5.0151478364961379  9.1525164016326723 27.8036842013887195
  4.9976946112452207  8.4958108286142267 26.5443479213869544
  5.3560652024068380  7.1176377395883241 26.4705320890094811
  5.6852804305475075  6.5515636486108981 25.2099631770677526
  6.7175490478118816  5.5695703231793017 25.1357246444934468
  7.2959278955145468  5.2661203219408179 23.8751687153958976
  8.6907333345237596  4.9776451834594173 23.7999388233761664
  9.3425955490410058  5.0335104282011462 22.5385592429917700
 10.6782025935367777  5.5191041494181032 22.4630331465850794
 11.2091466276094263  5.9045403617644228 21.2022689309078558
 12.1208984413037246  7.0022713508042944 21.1218258244175594
 12.4100317047503861  7.5699205322275995 19.8724072153124069
 12.7945426370012889  8.9861649901221572 19.7825942097217187
 12.5068115281652439  9.6422489968632359 18.5117637464316545
 11.2515757668284593 11.6110064079161148 35.5813457702469123
 10.7202536823695116 11.9955161911164456 34.3211610824466078
  9.3823794866516437 12.4842307860864228 34.2473234034042235
  8.7282518267352014 12.5317761375714145 32.9868032076263660
  7.3333794283138705 12.2438013073739214 32.9126589566448047
  6.7518223519715903 11.9404187314691104 31.6522042911147601
  5.7153293977910637 10.9627415807330255 31.5797263742420107
  5.3789060250742278 10.3988689865005846 30.3200882724950809
  5.0070608014371789  9.0239649717517487 30.2476285942068941
  5.0131307910825731  8.3672912844926675 28.9880939881505348
  5.4189734913183161  7.0017705719288958 28.9145120879103885
  5.7689353630748332  6.4475631805589426 27.6545481362505932
  6.8326574080167344  5.5000457246695014 27.5804631027279079
  7.4223397796893202  5.2159648469467204 26.3193932433740905
  8.8245811790837312  4.9687371357753678 26.2441089832320529
  9.4756299310730956  5.0397557788711360 24.9828641513053498
 10.8012569832193996  5.5631653261054987 24.9089167756669241
 11.3194256524394437  5.9700091204760133 23.6513344453866132
 12.1783733987994278  7.1053744980590512 23.5821855863534857
 12.4192306041900533  7.7320809821088385 22.3272626537300063
 12.5758067523427037  9.1278988350244106 22.2728567577367791
 12.6351963850085465  9.8288334462320694 21.0059691914964617
 11.1510894924050596 11.6948888246005342 38.0257939240018388
 10.6068083201090761 12.0608979155368843 36.7654452626122747
  9.2529234179265067 12.5032334002734729 36.6918478212669328
  8.5975442887752642 12.5284940850803181 35.4314676921475424
  7.2133560324651436 12.1925443598235947 35.3574485795050464
  6.6424897498929845 11.8693587124449689 34.0972407119659664
  5.6405256500240570 10.8568474678436946 34.0245218582921680
  5.3236374399100530 10.2820401471189378 32.7644012421782875
  5.0006050608102006  8.8945966006506367 32.6915619003661249
  5.0308891768663173  8.2386955931280159 31.4321318105055063
  5.4831271941059070  6.8878827032234513 31.3589479034769241
  5.8528940376435648  6.3459985805003782 30.0988027691099091
  6.9467855828301230  5.4340199301902725 30.0249714847653841
  7.5458372102724196  5.1680973633749074 28.7643375201520648
  8.9560892765908910  4.9664197120696514 28.6898739693092253
  9.6056620157706227  5.0563972670941508 27.4298600839640585
 10.9121534437646943  5.6240740504418198 27.3578445970935391
 11.4191740422038048  6.0433625842619456 26.0982032512361712
 12.2348378345735114  7.2086397578957664 26.0292402427915768
 12.4505712892334159  7.8320465968146884 24.7701262305398906
 12.5334367153160766  9.2513662367656746 24.7033543720979445
 12.4082458356179384  9.8959007647408637 23.4472209271858247
 11.0474139407789824 11.7749947124621581  0.0222089234412265
 10.4912234099379216 12.1223302353016482 39.2098881660591374
  9.1228390762253042 12.5178543452602931 39.1363158508749862
  8.4669926736410890 12.5205071527344760 37.8760964711100243
  7.0952282936837507 12.1370877172815597 37.8022394695791490
  6.5358202742039886 11.7944346515160721 36.5419227847873955
  5.5693991008663826 10.7480304881605733 36.4690972398614122
  5.2725830401133118 10.1627982844379474 35.2090227670733071
  4.9977262607961572  8.7650670881877417 35.1358850285828908
  5.0513027263245220  8.1106389685056719 33.8762134639936505
  5.5496241462743336  6.7763541678315731 33.8033237675914293
  5.9376996896111862  6.2470144103227749 32.5432297979949965
  7.0622096464135202  5.3725048027706137 32.4697466026754569
  7.6701713377405181  5.1264876859198871 31.2096890202779491
  9.0863195165565500  4.9729699338228119 31.1360223702292025
  9.7328640386760661  5.0841939387555302 29.8755993648154821
 11.0180329401763650  5.6971935669177487 29.8035759194248122
 11.5112538192146765  6.1307728071694418 28.5434196794372674
 12.2847418614603185  7.3267772176244410 28.4723474619813963
 12.4793058800388721  7.9544592569624699 27.2139307724178785
 12.5108143236260627  9.3787970878075431 27.1437641485130428
 12.3473594669778546 10.0158263518837476 25.8857647464333702
  8.3366588263928918 12.5079197362036165 40.3205762315402652
  6.9789108421210031 12.0775399792257279 40.2469430079174799
  6.4316894232606927 11.7159375319115941 38.9866112740114232
  5.5017596926279237 10.6369131188654880 38.9136706240785273
  5.2253877579554660 10.0417069760406488 37.6536720275591392
  4.9989406628924575  8.6354763711164306 37.5803421316801405
  5.0752560860716720  7.9834736909943853 36.3204209802378131
  5.6194054414769150  6.6670975973356841 36.2477638473798862
  6.0256722220182857  6.1514941836638437 34.9878737069520014
  7.1793667456087729  5.3160594962785765 34.9145556751326467
  7.7957472619541539  5.0908160880884408 33.6545232177984488
  9.2160638589568507  4.9860469050959804 33.5813167907477848
  9.8585444869829661  5.1181116676489777 32.3208626217855581
 11.1221028331081069  5.7755481253490411 32.2484221676692542
 11.5994128094916853  6.2255538431777913 30.9886788457215765
 12.3302297258075342  7.4482853881344697 30.9164510277040421
 12.5012171156433745  8.0821122138226915 29.6571601747791149
 12.4838523323531021  9.5060771634300281 29.5854557034460619
 12.2987252713491912 10.1357502902725418 28.3259298879917978
  5.1822363013329191  9.9191670890659260 40.0982222267559578
  5.0043780243130280  8.5059103199499404 40.0248162337880160
  5.1031440381699005  7.8568955711712167 38.7648686152531710
  5.6923938193412988  6.5600486292888203 38.6922441125055343
  6.1164688921505093  6.0588364121027958 37.4323865165466927
  7.2982152263851123  5.2636873216085167 37.3590347426288787
  7.9219808189744958  5.0595617338791010 36.0990605472940302
  9.3452566101191987  5.0039287688993683 36.0261178800041293
  9.9828787353389519  5.1579415392254626 34.7659816358756686
 11.2230738159267318  5.8585975689795102 34.6931734416697850
 11.6843963190318192  6.3248202105337405 33.4332089369262064
 12.3723379418370172  7.5719378967747177 33.3603696828017178
 12.5211712967764655  8.2108009116888709 32.1005337795017809
 12.4543011608879688  9.6336868595037313 32.0280192873522509
 12.2469250431091208 10.2561102482376540 30.7686254979403060
  6.2100940691563489  5.9694227704332414 39.8767942925916259
  7.4185557174962753  5.2153761396962910 39.8033676038562447
  8.0490688923132723  5.0328041305934272 38.5435553291209061
  9.4734693631401488  5.0262577115112705 38.4707861700869103
 10.1055023115835443  5.2025657579325042 37.2107173205797395
 11.3206402214605841  5.9456250414542398 37.1375485711818385
 11.7659756371477631  6.4271296120389598 35.8775111778350393
 12.4106249444582559  7.6973014293641135 35.8044784914623051
 12.5371089573246515  8.3408069633546642 34.5445171242502198
 12.4208261733977370  9.7604828726391997 34.4715766282057530
 12.1914668195311204 10.3749396103248728 33.2117378022303669
 10.2265091638491903  5.2507064915769392 39.6551785189746724
 11.4153623481721009  6.0353711786264883 39.5817497239116705
 11.8437228114625270  6.5322998722303653 38.3218579290415704
 12.4445450830409108  7.8237429251727981 38.2488288935549718
 12.5488226123736055  8.4713534907106514 36.9886705107784834
 12.3839313395333885  9.8861681960443075 36.9154209595173342
 12.1334574060472278 10.4923843966160764 35.6554001952860276
 12.5560501103381448  8.6019123858319393 39.4329845849839487
 12.3423215970024405 10.0102402059213542 39.3594971967856182
 12.0712945315003868 10.6075323133250077 38.0995187431290745
 14.6238743344513669  9.5629879930721753 20.3838562561185448
 15.2473696439033990  8.5404528984695798 21.2665100094019621
