Ge Se
 1.0000000000000000
     4.5000000000000000    0.0000000000000000    0.0000000000000000
     0.0000000000000000    3.7000000000000002    0.0000000000000000
     0.0000000000000000    0.0000000000000000   11.1422209999999993
 Ge  Se 
   4   4
Selective dynamics
Cartesian
  0.5044398643739121  0.9249999999999998  1.3632493964042207   T   T   T
  2.7544398643739116  2.7750000000000004  4.2078611035957767   T   T   T
  3.9955601356260892  2.7750000000000004  9.7789716035957799   T   T   T
  1.7455601356260879  0.9249999999999998  6.9343598964042226   T   T   T
 -0.0046675400491743  0.9249999999999998  3.9252127291568946   T   T   T
  2.2453324599508244  2.7750000000000004  1.6458977708431028   T   T   T
  4.5046675400491711  2.7750000000000004  7.2170082708431016   T   T   T
  2.2546675400491756  0.9249999999999998  9.4963232291568982   T   T   T
