Ge Se                                   
    1.000000000000000     
     3.8581001759000002    0.0000000000000000    0.0000000000000000
     0.0000000000000000    4.5265750884999996    0.0000000000000000
     0.0000000000000000    0.0000000000000000   23.0851764678999984
   Ge   Se
     4     4
Direct
  0.2500000000064801  0.1156418993976018  0.0593222992643874
  0.7500000000194404  0.8843581080031413  0.6807706521045134
  0.7500000000194404  0.6156418920520892  0.1807706521023462
  0.2500000000064801  0.3843581080583647  0.5593223028619363
  0.2500000000064801  0.5049489736306185  0.6693279952390867
  0.7500000000194404  0.4950509668320962  0.0707649453869905
  0.7500000000194404  0.0049490225086330  0.5707649597273630
  0.2500000000064801  0.9950510264246120  0.1693280095751248
 
  0.00000000E+00  0.00000000E+00  0.00000000E+00
  0.00000000E+00  0.00000000E+00  0.00000000E+00
  0.00000000E+00  0.00000000E+00  0.00000000E+00
  0.00000000E+00  0.00000000E+00  0.00000000E+00
  0.00000000E+00  0.00000000E+00  0.00000000E+00
  0.00000000E+00  0.00000000E+00  0.00000000E+00
  0.00000000E+00  0.00000000E+00  0.00000000E+00
  0.00000000E+00  0.00000000E+00  0.00000000E+00
