Ge Se
 1.0000000000000000
     4.7500000000000000    0.0000000000000000    0.0000000000000000
     0.0000000000000000    3.7500000000000000    0.0000000000000000
     0.0000000000000000    0.0000000000000000   11.1422209999999993
 Ge  Se 
   4   4
Selective dynamics
Cartesian
  0.5742664225976385  0.9375000000000000  1.3707026705653047   T   T   T
  2.9492664225976379  2.8125000000000000  4.2004078294346954   T   T   T
  4.1757335774023625  2.8125000000000000  9.7715183294346968   T   T   T
  1.8007335774023634  0.9375000000000000  6.9418131705653030   T   T   T
 -0.0668086635510799  0.9375000000000000  3.8998178096082521   T   T   T
  2.3081913364489197  2.8125000000000000  1.6712926903917478   T   T   T
  4.8168086635510816  2.8125000000000000  7.2424031903917481   T   T   T
  2.4418086635510821  0.9375000000000000  9.4709283096082473   T   T   T
