Ge Se
 1.0000000000000000
     3.8581001758999998    0.0000000000000000    0.0000000000000000
     0.0000000000000000    4.5265750884999987    0.0000000000000000
     0.0000000000000000    0.0000000000000000   11.0851764678999984
 Ge  Se 
   4   4
Cartesian
  0.1817221097344204  1.1726000906560381  1.3632845376242730
  2.1107721976844198  3.4358876349060359  4.1793036963257251
  2.8935751319250000  4.0100003729888849  9.7218919302757278
  0.9645250439749999  1.7467128287388884  6.9058727715742734
  0.1817221097344204  0.6257420851348449  3.9062145503529235
  2.1107721976844198  2.8890296293848432  1.6363736835970737
  2.8935751319250000  0.0302832900100802  7.1789619175470731
  0.9645250439749999  2.2935708342600818  9.4488027843029201
