Ge Se
 1.0000000000000000
     4.5999999999999996    0.0000000000000000    0.0000000000000000
     0.0000000000000000    4.5499999999999989    0.0000000000000000
     0.0000000000000000    0.0000000000000000   11.1422209999999993
 Ge  Se 
   4   4
Selective dynamics
Cartesian
  0.4747088207771151  1.1374999999999997  1.5115000519810009   T   T   T
  2.7747088207771151  3.4124999999999992  4.0596104480189990   T   T   T
  4.1252911792228844  3.4124999999999992  9.6307209480189950   T   T   T
  1.8252911792228868  1.1374999999999997  7.0826105519810003   T   T   T
 -0.2375601483792772  1.1374999999999997  3.9329554055704659   T   T   T
  2.0624398516207236  3.4124999999999992  1.6381550944295331   T   T   T
  4.8375601483792803  3.4124999999999992  7.2092655944295316   T   T   T
  2.5375601483792773  1.1374999999999997  9.5040659055704655   T   T   T
