Ge Se                                   
    1.000000000000000     
     3.8581001759000002    0.0000000000000000    0.0000000000000000
     0.0000000000000000    4.5265750884999996    0.0000000000000000
     0.0000000000000000    0.0000000000000000    9.0851764679000002
   Ge   Se
     4     4
Direct
  0.2500000000064801  0.1156418993976018  0.1507362847423650
  0.7500000000194404  0.8843581080031413  0.9593331146394988
  0.7500000000194404  0.6156418920520892  0.4593331146339992
  0.2500000000064801  0.3843581080583647  0.6507362938836252
  0.2500000000064801  0.5049489736306185  0.9302576471531694
  0.7500000000194404  0.4950509668320962  0.1798117249314828
  0.7500000000194404  0.0049490225086330  0.6798117613699617
  0.2500000000064801  0.9950510264246120  0.4302576835806420
 
  0.00000000E+00  0.00000000E+00  0.00000000E+00
  0.00000000E+00  0.00000000E+00  0.00000000E+00
  0.00000000E+00  0.00000000E+00  0.00000000E+00
  0.00000000E+00  0.00000000E+00  0.00000000E+00
  0.00000000E+00  0.00000000E+00  0.00000000E+00
  0.00000000E+00  0.00000000E+00  0.00000000E+00
  0.00000000E+00  0.00000000E+00  0.00000000E+00
  0.00000000E+00  0.00000000E+00  0.00000000E+00
