Ge Se                                   
    1.000000000000000     
     3.8581001759000002    0.0000000000000000    0.0000000000000000
     0.0000000000000000    4.5265750884999996    0.0000000000000000
     0.0000000000000000    0.0000000000000000   31.0851764678999984
   Ge   Se
     4     4
Direct
  0.2500000000064801  0.1156418993976018  0.0440552669345209
  0.7500000000194404  0.8843581080031413  0.6342479882126213
  0.7500000000194404  0.6156418920520892  0.1342479882110155
  0.2500000000064801  0.3843581080583647  0.5440552696062113
  0.2500000000064801  0.5049489736306185  0.6257501836956436
  0.7500000000194404  0.4950509668320962  0.0525530634734181
  0.7500000000194404  0.0049490225086330  0.5525530741231890
  0.2500000000064801  0.9950510264246120  0.1257501943422028
 
  0.00000000E+00  0.00000000E+00  0.00000000E+00
  0.00000000E+00  0.00000000E+00  0.00000000E+00
  0.00000000E+00  0.00000000E+00  0.00000000E+00
  0.00000000E+00  0.00000000E+00  0.00000000E+00
  0.00000000E+00  0.00000000E+00  0.00000000E+00
  0.00000000E+00  0.00000000E+00  0.00000000E+00
  0.00000000E+00  0.00000000E+00  0.00000000E+00
  0.00000000E+00  0.00000000E+00  0.00000000E+00
