Ge Se                                   
    1.000000000000000     
    12.4581815817940420    0.0000012435274261   -0.0000018251399605
     0.0000012471556712   12.4945304762029590   -0.0000009519409458
    -0.0000020823606508   -0.0000010829402221   11.0419236663997999
   Ge   Se
    36    36
Direct
  0.0634084391636591  0.0489105466442084  0.1278015796366816
  0.2293232842167896  0.8686232001279848  0.3608598297282199
  0.5747034786168186  0.2145278425427435  0.3622252331384601
  0.5632620790461971  0.5496920900334956  0.3668177234541616
  0.5475616513475359  0.8522030898877730  0.3813652078758665
  0.8884471518893449  0.1972655475567606  0.3742835745803745
  0.8885006108392162  0.5296927236096778  0.3585265289896071
  0.9032629839232271  0.8951313545125856  0.3694791225802305
  0.0550435223006147  0.1689588739480996  0.6318959175372356
  0.0639772744376259  0.4880438512539556  0.6320991172678276
  0.0539928665166869  0.8108008829800184  0.6202933576750667
  0.4045395895804944  0.1464515871061494  0.6229774300942523
  0.4007665428387384  0.4812917344578551  0.6215325366363373
  0.3986874097179154  0.8257666027565520  0.6334322188286166
  0.7475391585141864  0.1611483912661811  0.6413750302084011
  0.7314164742783689  0.4876286220375903  0.6338111798763322
  0.2174014016231993  0.5365567741212942  0.3633254061120894
  0.2406633773425568  0.2048644566415021  0.3605822180961411
  0.7483042726929199  0.8107968780734254  0.6337099892701303
  0.9100299960110760  0.6590814479415243  0.8821290014680514
  0.9165480923566420  0.9808508398945577  0.8694188862080523
  0.0845041727736557  0.3891899641426662  0.1358457032787683
  0.0814692198095202  0.7238943994121954  0.1149106574187471
  0.4212405420493326  0.0550635758166962  0.1241881562203275
  0.4061349127648697  0.3801235036449029  0.1114881274216017
  0.7536184799161845  0.0669934895520399  0.1005243065268360
  0.7254301198740265  0.3801586136550625  0.1506657956664981
  0.4098424113901018  0.7141643903614039  0.1345864729908186
  0.2392294295750759  0.3139928593801002  0.8718059563394220
  0.2287119998191613  0.6453300066338556  0.8642102567564436
  0.2348817434855519  0.9866737684969991  0.8802361614747980
  0.5611500438490680  0.3176305866613944  0.8910734423738091
  0.5889830613445355  0.6513929522547812  0.8819527591253689
  0.5639176382172053  0.9851069020253718  0.8701712346830774
  0.9052401719294707  0.3348776552299171  0.8711178966190758
  0.7332306534226944  0.7133916617567877  0.1296410954654945
  0.8991369632197035  0.0172769335181329  0.6471791520034884
  0.2314992787022092  0.3524265280987251  0.6489263263943030
  0.2285183369635888  0.6917738500728916  0.6378589667544361
  0.5737433121997952  0.0310680252679632  0.6388389369343770
  0.5651946354102648  0.3389711452451110  0.6454365288129793
  0.5800227425324209  0.6923625048622242  0.6361559372722283
  0.8984927823401421  0.3453616562747754  0.6343677936435554
  0.7467684109511126  0.0242314443229716  0.3466147151029801
  0.0716035294932169  0.0178131874179286  0.3476235716155784
  0.0726495212101668  0.3475867929358714  0.3623468821606579
  0.0502820229393777  0.6705393298118238  0.3581202090285132
  0.3912271174778823  0.9949213604588181  0.3548765227659061
  0.4100603980727371  0.3496322224624606  0.3544736095271972
  0.3997180286677278  0.6762247408826809  0.3516907915313325
  0.2354419347643173  0.0173015127500733  0.6575300534597091
  0.9092776892538836  0.6705638740004005  0.6324699203868889
  0.9040917433217928  0.8531542279869697  0.1505081750769719
  0.2426010670441912  0.1762845230369408  0.1371374606632187
  0.9056188215055769  0.1950913149742490  0.1410550846585963
  0.7355270431139971  0.3511233005915315  0.3740803656404310
  0.0661974869676385  0.1855108462108035  0.8540646399147320
  0.0740701824590175  0.5212646735810225  0.8571309644748553
  0.0579313200843501  0.8495005935550139  0.8549594762349528
  0.3967547270293679  0.1900994163673531  0.8740499605715044
  0.4074244298939576  0.5204839154647232  0.8511506169137846
  0.4116538823446092  0.8514729328296724  0.8601175606360272
  0.7487064677121396  0.1807381147345382  0.8710436083031254
  0.7401895218836714  0.5180010632581968  0.8508007677978284
  0.7437397305959976  0.8506447524919380  0.8723077509408697
  0.2390617710730183  0.5210269243238628  0.1317224497825009
  0.2277195416002940  0.8510279736797628  0.1269731147111557
  0.5759403459332333  0.1930344561056501  0.1394242450041574
  0.5666522418617390  0.5129790753514456  0.1416766511804823
  0.5715865767901676  0.8534774988587444  0.1486942653327077
  0.9005694496551442  0.5019577195313687  0.1420418229172427
  0.7219393233104938  0.6764560608508319  0.3566173932368599
 
  0.00000000E+00  0.00000000E+00  0.00000000E+00
  0.00000000E+00  0.00000000E+00  0.00000000E+00
  0.00000000E+00  0.00000000E+00  0.00000000E+00
  0.00000000E+00  0.00000000E+00  0.00000000E+00
  0.00000000E+00  0.00000000E+00  0.00000000E+00
  0.00000000E+00  0.00000000E+00  0.00000000E+00
  0.00000000E+00  0.00000000E+00  0.00000000E+00
  0.00000000E+00  0.00000000E+00  0.00000000E+00
  0.00000000E+00  0.00000000E+00  0.00000000E+00
  0.00000000E+00  0.00000000E+00  0.00000000E+00
  0.00000000E+00  0.00000000E+00  0.00000000E+00
  0.00000000E+00  0.00000000E+00  0.00000000E+00
  0.00000000E+00  0.00000000E+00  0.00000000E+00
  0.00000000E+00  0.00000000E+00  0.00000000E+00
  0.00000000E+00  0.00000000E+00  0.00000000E+00
  0.00000000E+00  0.00000000E+00  0.00000000E+00
  0.00000000E+00  0.00000000E+00  0.00000000E+00
  0.00000000E+00  0.00000000E+00  0.00000000E+00
  0.00000000E+00  0.00000000E+00  0.00000000E+00
  0.00000000E+00  0.00000000E+00  0.00000000E+00
  0.00000000E+00  0.00000000E+00  0.00000000E+00
  0.00000000E+00  0.00000000E+00  0.00000000E+00
  0.00000000E+00  0.00000000E+00  0.00000000E+00
  0.00000000E+00  0.00000000E+00  0.00000000E+00
  0.00000000E+00  0.00000000E+00  0.00000000E+00
  0.00000000E+00  0.00000000E+00  0.00000000E+00
  0.00000000E+00  0.00000000E+00  0.00000000E+00
  0.00000000E+00  0.00000000E+00  0.00000000E+00
  0.00000000E+00  0.00000000E+00  0.00000000E+00
  0.00000000E+00  0.00000000E+00  0.00000000E+00
  0.00000000E+00  0.00000000E+00  0.00000000E+00
  0.00000000E+00  0.00000000E+00  0.00000000E+00
  0.00000000E+00  0.00000000E+00  0.00000000E+00
  0.00000000E+00  0.00000000E+00  0.00000000E+00
  0.00000000E+00  0.00000000E+00  0.00000000E+00
  0.00000000E+00  0.00000000E+00  0.00000000E+00
  0.00000000E+00  0.00000000E+00  0.00000000E+00
  0.00000000E+00  0.00000000E+00  0.00000000E+00
  0.00000000E+00  0.00000000E+00  0.00000000E+00
  0.00000000E+00  0.00000000E+00  0.00000000E+00
  0.00000000E+00  0.00000000E+00  0.00000000E+00
  0.00000000E+00  0.00000000E+00  0.00000000E+00
  0.00000000E+00  0.00000000E+00  0.00000000E+00
  0.00000000E+00  0.00000000E+00  0.00000000E+00
  0.00000000E+00  0.00000000E+00  0.00000000E+00
  0.00000000E+00  0.00000000E+00  0.00000000E+00
  0.00000000E+00  0.00000000E+00  0.00000000E+00
  0.00000000E+00  0.00000000E+00  0.00000000E+00
  0.00000000E+00  0.00000000E+00  0.00000000E+00
  0.00000000E+00  0.00000000E+00  0.00000000E+00
  0.00000000E+00  0.00000000E+00  0.00000000E+00
  0.00000000E+00  0.00000000E+00  0.00000000E+00
  0.00000000E+00  0.00000000E+00  0.00000000E+00
  0.00000000E+00  0.00000000E+00  0.00000000E+00
  0.00000000E+00  0.00000000E+00  0.00000000E+00
  0.00000000E+00  0.00000000E+00  0.00000000E+00
  0.00000000E+00  0.00000000E+00  0.00000000E+00
  0.00000000E+00  0.00000000E+00  0.00000000E+00
  0.00000000E+00  0.00000000E+00  0.00000000E+00
  0.00000000E+00  0.00000000E+00  0.00000000E+00
  0.00000000E+00  0.00000000E+00  0.00000000E+00
  0.00000000E+00  0.00000000E+00  0.00000000E+00
  0.00000000E+00  0.00000000E+00  0.00000000E+00
  0.00000000E+00  0.00000000E+00  0.00000000E+00
  0.00000000E+00  0.00000000E+00  0.00000000E+00
  0.00000000E+00  0.00000000E+00  0.00000000E+00
  0.00000000E+00  0.00000000E+00  0.00000000E+00
  0.00000000E+00  0.00000000E+00  0.00000000E+00
  0.00000000E+00  0.00000000E+00  0.00000000E+00
  0.00000000E+00  0.00000000E+00  0.00000000E+00
  0.00000000E+00  0.00000000E+00  0.00000000E+00
  0.00000000E+00  0.00000000E+00  0.00000000E+00
