Ge Se                                   
    1.000000000000000     
     3.8581001759000002    0.0000000000000000    0.0000000000000000
     0.0000000000000000    4.5265750884999996    0.0000000000000000
     0.0000000000000000    0.0000000000000000   11.5851764679000002
   Ge   Se
     4     4
Direct
  0.2065217423020016  0.3426201689419131  0.1319717445072186
  0.7065217064070026  0.8426201562543483  0.3680282282876917
  0.7499998549169717  0.9037565484439227  0.8680282493168505
  0.2499997814687589  0.4037565014541187  0.6319717590821057
  0.2065217261268515  0.2258425162822846  0.3511099272482383
  0.7065217426132975  0.7258425369987052  0.1488900489974512
  0.7499997605040534  0.0205341518219768  0.6488900756728953
  0.2499998376634309  0.5205341758546211  0.8511099464221417
 
  0.00000000E+00  0.00000000E+00  0.00000000E+00
  0.00000000E+00  0.00000000E+00  0.00000000E+00
  0.00000000E+00  0.00000000E+00  0.00000000E+00
  0.00000000E+00  0.00000000E+00  0.00000000E+00
  0.00000000E+00  0.00000000E+00  0.00000000E+00
  0.00000000E+00  0.00000000E+00  0.00000000E+00
  0.00000000E+00  0.00000000E+00  0.00000000E+00
  0.00000000E+00  0.00000000E+00  0.00000000E+00
