Ge Se                                   
    1.000000000000000     
     4.2999999999999998    0.0000000000000000    0.0000000000000000
     0.0000000000000000    4.6999999999999993    0.0000000000000000
     0.0000000000000000    0.0000000000000000   11.1422209999999993
   Ge   Se
     4     4
Selective dynamics
Direct
  0.2500000000000000  0.8876840199883418  0.1309260944381663   T   T   T
  0.7500000000000000  0.3876840199883418  0.3690739055618337   T   T   T
  0.7500000000000000  0.1123159800116582  0.8690739055618337   T   T   T
  0.2500000000000000  0.6123159800116582  0.6309260944381663   T   T   T
  0.2500000000000000  0.0410982022993736  0.3509063425143637   T   T   T
  0.7500000000000000  0.5410982022993736  0.1490936574856363   T   T   T
  0.7500000000000000  0.9589017977006264  0.6490936574856363   T   T   T
  0.2500000000000000  0.4589017977006264  0.8509063425143637   T   T   T
 
  0.00000000E+00  0.00000000E+00  0.00000000E+00
  0.00000000E+00  0.00000000E+00  0.00000000E+00
  0.00000000E+00  0.00000000E+00  0.00000000E+00
  0.00000000E+00  0.00000000E+00  0.00000000E+00
  0.00000000E+00  0.00000000E+00  0.00000000E+00
  0.00000000E+00  0.00000000E+00  0.00000000E+00
  0.00000000E+00  0.00000000E+00  0.00000000E+00
  0.00000000E+00  0.00000000E+00  0.00000000E+00
