Ge Se                                   
    1.000000000000000     
     3.8839762694878366    0.0000000000000000    0.0000000000000000
     0.0000000000000000    4.5569347733381882    0.0000000000000000
     0.0000000000000000    0.0000000000000000   11.1595247481265893
   Ge   Se
     4     4
Direct
  0.2500000001160387  0.1175768778783803  0.1253768395290105
  0.7500000000902531  0.8824231446497403  0.8746231455906546
  0.7500000000902531  0.6175768554052060  0.3746231456265514
  0.2500000001160387  0.3824231148137162  0.6253768543913971
  0.2500000001160387  0.5041715862033134  0.8522773375986381
  0.7500000000902531  0.4958283840156099  0.1477226325329940
  0.7500000000902531  0.0041716066984065  0.6477226623834136
  0.2500000001160387  0.9958284138516329  0.3522773674311097
 
  0.00000000E+00  0.00000000E+00  0.00000000E+00
  0.00000000E+00  0.00000000E+00  0.00000000E+00
  0.00000000E+00  0.00000000E+00  0.00000000E+00
  0.00000000E+00  0.00000000E+00  0.00000000E+00
  0.00000000E+00  0.00000000E+00  0.00000000E+00
  0.00000000E+00  0.00000000E+00  0.00000000E+00
  0.00000000E+00  0.00000000E+00  0.00000000E+00
  0.00000000E+00  0.00000000E+00  0.00000000E+00
