generated by phonopy
   1.0
    23.3038576169270186    0.0000000000000000    0.0000000000000000
     0.0000000000000000   27.3416086400291292    0.0000000000000000
     0.0000000000000000    0.0000000000000000   22.3190494962531787
Ge Se
 288  288
Direct
  0.0416666666860064  0.0195961463130634  0.0626884197645052
  0.2083333333526731  0.0195961463130634  0.0626884197645052
  0.3750000000193397  0.0195961463130634  0.0626884197645052
  0.5416666666860064  0.0195961463130634  0.0626884197645052
  0.7083333333526731  0.0195961463130634  0.0626884197645052
  0.8750000000193398  0.0195961463130634  0.0626884197645052
  0.0416666666860064  0.1862628129797300  0.0626884197645052
  0.2083333333526731  0.1862628129797300  0.0626884197645052
  0.3750000000193397  0.1862628129797300  0.0626884197645052
  0.5416666666860064  0.1862628129797300  0.0626884197645052
  0.7083333333526731  0.1862628129797300  0.0626884197645052
  0.8750000000193398  0.1862628129797300  0.0626884197645052
  0.0416666666860064  0.3529294796463967  0.0626884197645052
  0.2083333333526731  0.3529294796463967  0.0626884197645052
  0.3750000000193397  0.3529294796463967  0.0626884197645052
  0.5416666666860064  0.3529294796463967  0.0626884197645052
  0.7083333333526731  0.3529294796463967  0.0626884197645052
  0.8750000000193398  0.3529294796463967  0.0626884197645052
  0.0416666666860064  0.5195961463130635  0.0626884197645052
  0.2083333333526731  0.5195961463130635  0.0626884197645052
  0.3750000000193397  0.5195961463130635  0.0626884197645052
  0.5416666666860064  0.5195961463130635  0.0626884197645052
  0.7083333333526731  0.5195961463130635  0.0626884197645052
  0.8750000000193398  0.5195961463130635  0.0626884197645052
  0.0416666666860064  0.6862628129797301  0.0626884197645052
  0.2083333333526731  0.6862628129797301  0.0626884197645052
  0.3750000000193397  0.6862628129797301  0.0626884197645052
  0.5416666666860064  0.6862628129797301  0.0626884197645052
  0.7083333333526731  0.6862628129797301  0.0626884197645052
  0.8750000000193398  0.6862628129797301  0.0626884197645052
  0.0416666666860064  0.8529294796463966  0.0626884197645052
  0.2083333333526731  0.8529294796463966  0.0626884197645052
  0.3750000000193397  0.8529294796463966  0.0626884197645052
  0.5416666666860064  0.8529294796463966  0.0626884197645052
  0.7083333333526731  0.8529294796463966  0.0626884197645052
  0.8750000000193398  0.8529294796463966  0.0626884197645052
  0.0416666666860064  0.0195961463130634  0.5626884197645052
  0.2083333333526731  0.0195961463130634  0.5626884197645052
  0.3750000000193397  0.0195961463130634  0.5626884197645052
  0.5416666666860064  0.0195961463130634  0.5626884197645052
  0.7083333333526731  0.0195961463130634  0.5626884197645052
  0.8750000000193398  0.0195961463130634  0.5626884197645052
  0.0416666666860064  0.1862628129797300  0.5626884197645052
  0.2083333333526731  0.1862628129797300  0.5626884197645052
  0.3750000000193397  0.1862628129797300  0.5626884197645052
  0.5416666666860064  0.1862628129797300  0.5626884197645052
  0.7083333333526731  0.1862628129797300  0.5626884197645052
  0.8750000000193398  0.1862628129797300  0.5626884197645052
  0.0416666666860064  0.3529294796463967  0.5626884197645052
  0.2083333333526731  0.3529294796463967  0.5626884197645052
  0.3750000000193397  0.3529294796463967  0.5626884197645052
  0.5416666666860064  0.3529294796463967  0.5626884197645052
  0.7083333333526731  0.3529294796463967  0.5626884197645052
  0.8750000000193398  0.3529294796463967  0.5626884197645052
  0.0416666666860064  0.5195961463130635  0.5626884197645052
  0.2083333333526731  0.5195961463130635  0.5626884197645052
  0.3750000000193397  0.5195961463130635  0.5626884197645052
  0.5416666666860064  0.5195961463130635  0.5626884197645052
  0.7083333333526731  0.5195961463130635  0.5626884197645052
  0.8750000000193398  0.5195961463130635  0.5626884197645052
  0.0416666666860064  0.6862628129797301  0.5626884197645052
  0.2083333333526731  0.6862628129797301  0.5626884197645052
  0.3750000000193397  0.6862628129797301  0.5626884197645052
  0.5416666666860064  0.6862628129797301  0.5626884197645052
  0.7083333333526731  0.6862628129797301  0.5626884197645052
  0.8750000000193398  0.6862628129797301  0.5626884197645052
  0.0416666666860064  0.8529294796463966  0.5626884197645052
  0.2083333333526731  0.8529294796463966  0.5626884197645052
  0.3750000000193397  0.8529294796463966  0.5626884197645052
  0.5416666666860064  0.8529294796463966  0.5626884197645052
  0.7083333333526731  0.8529294796463966  0.5626884197645052
  0.8750000000193398  0.8529294796463966  0.5626884197645052
  0.1250000000150422  0.1470705241082901  0.4373115727953273
  0.2916666666817088  0.1470705241082901  0.4373115727953273
  0.4583333333483755  0.1470705241082901  0.4373115727953273
  0.6250000000150422  0.1470705241082901  0.4373115727953273
  0.7916666666817088  0.1470705241082901  0.4373115727953273
  0.9583333333483754  0.1470705241082901  0.4373115727953273
  0.1250000000150422  0.3137371907749568  0.4373115727953273
  0.2916666666817088  0.3137371907749568  0.4373115727953273
  0.4583333333483755  0.3137371907749568  0.4373115727953273
  0.6250000000150422  0.3137371907749568  0.4373115727953273
  0.7916666666817088  0.3137371907749568  0.4373115727953273
  0.9583333333483754  0.3137371907749568  0.4373115727953273
  0.1250000000150422  0.4804038574416234  0.4373115727953273
  0.2916666666817088  0.4804038574416234  0.4373115727953273
  0.4583333333483755  0.4804038574416234  0.4373115727953273
  0.6250000000150422  0.4804038574416234  0.4373115727953273
  0.7916666666817088  0.4804038574416234  0.4373115727953273
  0.9583333333483754  0.4804038574416234  0.4373115727953273
  0.1250000000150422  0.6470705241082900  0.4373115727953273
  0.2916666666817088  0.6470705241082900  0.4373115727953273
  0.4583333333483755  0.6470705241082900  0.4373115727953273
  0.6250000000150422  0.6470705241082900  0.4373115727953273
  0.7916666666817088  0.6470705241082900  0.4373115727953273
  0.9583333333483754  0.6470705241082900  0.4373115727953273
  0.1250000000150422  0.8137371907749568  0.4373115727953273
  0.2916666666817088  0.8137371907749568  0.4373115727953273
  0.4583333333483755  0.8137371907749568  0.4373115727953273
  0.6250000000150422  0.8137371907749568  0.4373115727953273
  0.7916666666817088  0.8137371907749568  0.4373115727953273
  0.9583333333483754  0.8137371907749568  0.4373115727953273
  0.1250000000150422  0.9804038574416234  0.4373115727953273
  0.2916666666817088  0.9804038574416234  0.4373115727953273
  0.4583333333483755  0.9804038574416234  0.4373115727953273
  0.6250000000150422  0.9804038574416234  0.4373115727953273
  0.7916666666817088  0.9804038574416234  0.4373115727953273
  0.9583333333483754  0.9804038574416234  0.4373115727953273
  0.1250000000150422  0.1470705241082901  0.9373115727953273
  0.2916666666817088  0.1470705241082901  0.9373115727953273
  0.4583333333483755  0.1470705241082901  0.9373115727953273
  0.6250000000150422  0.1470705241082901  0.9373115727953273
  0.7916666666817088  0.1470705241082901  0.9373115727953273
  0.9583333333483754  0.1470705241082901  0.9373115727953273
  0.1250000000150422  0.3137371907749568  0.9373115727953273
  0.2916666666817088  0.3137371907749568  0.9373115727953273
  0.4583333333483755  0.3137371907749568  0.9373115727953273
  0.6250000000150422  0.3137371907749568  0.9373115727953273
  0.7916666666817088  0.3137371907749568  0.9373115727953273
  0.9583333333483754  0.3137371907749568  0.9373115727953273
  0.1250000000150422  0.4804038574416234  0.9373115727953273
  0.2916666666817088  0.4804038574416234  0.9373115727953273
  0.4583333333483755  0.4804038574416234  0.9373115727953273
  0.6250000000150422  0.4804038574416234  0.9373115727953273
  0.7916666666817088  0.4804038574416234  0.9373115727953273
  0.9583333333483754  0.4804038574416234  0.9373115727953273
  0.1250000000150422  0.6470705241082900  0.9373115727953273
  0.2916666666817088  0.6470705241082900  0.9373115727953273
  0.4583333333483755  0.6470705241082900  0.9373115727953273
  0.6250000000150422  0.6470705241082900  0.9373115727953273
  0.7916666666817088  0.6470705241082900  0.9373115727953273
  0.9583333333483754  0.6470705241082900  0.9373115727953273
  0.1250000000150422  0.8137371907749568  0.9373115727953273
  0.2916666666817088  0.8137371907749568  0.9373115727953273
  0.4583333333483755  0.8137371907749568  0.9373115727953273
  0.6250000000150422  0.8137371907749568  0.9373115727953273
  0.7916666666817088  0.8137371907749568  0.9373115727953273
  0.9583333333483754  0.8137371907749568  0.9373115727953273
  0.1250000000150422  0.9804038574416234  0.9373115727953273
  0.2916666666817088  0.9804038574416234  0.9373115727953273
  0.4583333333483755  0.9804038574416234  0.9373115727953273
  0.6250000000150422  0.9804038574416234  0.9373115727953273
  0.7916666666817088  0.9804038574416234  0.9373115727953273
  0.9583333333483754  0.9804038574416234  0.9373115727953273
  0.1250000000150422  0.1029294759008677  0.1873115728132757
  0.2916666666817088  0.1029294759008677  0.1873115728132757
  0.4583333333483755  0.1029294759008677  0.1873115728132757
  0.6250000000150422  0.1029294759008677  0.1873115728132757
  0.7916666666817088  0.1029294759008677  0.1873115728132757
  0.9583333333483754  0.1029294759008677  0.1873115728132757
  0.1250000000150422  0.2695961425675343  0.1873115728132757
  0.2916666666817088  0.2695961425675343  0.1873115728132757
  0.4583333333483755  0.2695961425675343  0.1873115728132757
  0.6250000000150422  0.2695961425675343  0.1873115728132757
  0.7916666666817088  0.2695961425675343  0.1873115728132757
  0.9583333333483754  0.2695961425675343  0.1873115728132757
  0.1250000000150422  0.4362628092342010  0.1873115728132757
  0.2916666666817088  0.4362628092342010  0.1873115728132757
  0.4583333333483755  0.4362628092342010  0.1873115728132757
  0.6250000000150422  0.4362628092342010  0.1873115728132757
  0.7916666666817088  0.4362628092342010  0.1873115728132757
  0.9583333333483754  0.4362628092342010  0.1873115728132757
  0.1250000000150422  0.6029294759008678  0.1873115728132757
  0.2916666666817088  0.6029294759008678  0.1873115728132757
  0.4583333333483755  0.6029294759008678  0.1873115728132757
  0.6250000000150422  0.6029294759008678  0.1873115728132757
  0.7916666666817088  0.6029294759008678  0.1873115728132757
  0.9583333333483754  0.6029294759008678  0.1873115728132757
  0.1250000000150422  0.7695961425675343  0.1873115728132757
  0.2916666666817088  0.7695961425675343  0.1873115728132757
  0.4583333333483755  0.7695961425675343  0.1873115728132757
  0.6250000000150422  0.7695961425675343  0.1873115728132757
  0.7916666666817088  0.7695961425675343  0.1873115728132757
  0.9583333333483754  0.7695961425675343  0.1873115728132757
  0.1250000000150422  0.9362628092342010  0.1873115728132757
  0.2916666666817088  0.9362628092342010  0.1873115728132757
  0.4583333333483755  0.9362628092342010  0.1873115728132757
  0.6250000000150422  0.9362628092342010  0.1873115728132757
  0.7916666666817088  0.9362628092342010  0.1873115728132757
  0.9583333333483754  0.9362628092342010  0.1873115728132757
  0.1250000000150422  0.1029294759008677  0.6873115728132758
  0.2916666666817088  0.1029294759008677  0.6873115728132758
  0.4583333333483755  0.1029294759008677  0.6873115728132758
  0.6250000000150422  0.1029294759008677  0.6873115728132758
  0.7916666666817088  0.1029294759008677  0.6873115728132758
  0.9583333333483754  0.1029294759008677  0.6873115728132758
  0.1250000000150422  0.2695961425675343  0.6873115728132758
  0.2916666666817088  0.2695961425675343  0.6873115728132758
  0.4583333333483755  0.2695961425675343  0.6873115728132758
  0.6250000000150422  0.2695961425675343  0.6873115728132758
  0.7916666666817088  0.2695961425675343  0.6873115728132758
  0.9583333333483754  0.2695961425675343  0.6873115728132758
  0.1250000000150422  0.4362628092342010  0.6873115728132758
  0.2916666666817088  0.4362628092342010  0.6873115728132758
  0.4583333333483755  0.4362628092342010  0.6873115728132758
  0.6250000000150422  0.4362628092342010  0.6873115728132758
  0.7916666666817088  0.4362628092342010  0.6873115728132758
  0.9583333333483754  0.4362628092342010  0.6873115728132758
  0.1250000000150422  0.6029294759008678  0.6873115728132758
  0.2916666666817088  0.6029294759008678  0.6873115728132758
  0.4583333333483755  0.6029294759008678  0.6873115728132758
  0.6250000000150422  0.6029294759008678  0.6873115728132758
  0.7916666666817088  0.6029294759008678  0.6873115728132758
  0.9583333333483754  0.6029294759008678  0.6873115728132758
  0.1250000000150422  0.7695961425675343  0.6873115728132758
  0.2916666666817088  0.7695961425675343  0.6873115728132758
  0.4583333333483755  0.7695961425675343  0.6873115728132758
  0.6250000000150422  0.7695961425675343  0.6873115728132758
  0.7916666666817088  0.7695961425675343  0.6873115728132758
  0.9583333333483754  0.7695961425675343  0.6873115728132758
  0.1250000000150422  0.9362628092342010  0.6873115728132758
  0.2916666666817088  0.9362628092342010  0.6873115728132758
  0.4583333333483755  0.9362628092342010  0.6873115728132758
  0.6250000000150422  0.9362628092342010  0.6873115728132758
  0.7916666666817088  0.9362628092342010  0.6873115728132758
  0.9583333333483754  0.9362628092342010  0.6873115728132758
  0.0416666666860064  0.0637371858022860  0.3126884271956986
  0.2083333333526731  0.0637371858022860  0.3126884271956986
  0.3750000000193397  0.0637371858022860  0.3126884271956986
  0.5416666666860064  0.0637371858022860  0.3126884271956986
  0.7083333333526731  0.0637371858022860  0.3126884271956986
  0.8750000000193398  0.0637371858022860  0.3126884271956986
  0.0416666666860064  0.2304038524689527  0.3126884271956986
  0.2083333333526731  0.2304038524689527  0.3126884271956986
  0.3750000000193397  0.2304038524689527  0.3126884271956986
  0.5416666666860064  0.2304038524689527  0.3126884271956986
  0.7083333333526731  0.2304038524689527  0.3126884271956986
  0.8750000000193398  0.2304038524689527  0.3126884271956986
  0.0416666666860064  0.3970705191356194  0.3126884271956986
  0.2083333333526731  0.3970705191356194  0.3126884271956986
  0.3750000000193397  0.3970705191356194  0.3126884271956986
  0.5416666666860064  0.3970705191356194  0.3126884271956986
  0.7083333333526731  0.3970705191356194  0.3126884271956986
  0.8750000000193398  0.3970705191356194  0.3126884271956986
  0.0416666666860064  0.5637371858022859  0.3126884271956986
  0.2083333333526731  0.5637371858022859  0.3126884271956986
  0.3750000000193397  0.5637371858022859  0.3126884271956986
  0.5416666666860064  0.5637371858022859  0.3126884271956986
  0.7083333333526731  0.5637371858022859  0.3126884271956986
  0.8750000000193398  0.5637371858022859  0.3126884271956986
  0.0416666666860064  0.7304038524689527  0.3126884271956986
  0.2083333333526731  0.7304038524689527  0.3126884271956986
  0.3750000000193397  0.7304038524689527  0.3126884271956986
  0.5416666666860064  0.7304038524689527  0.3126884271956986
  0.7083333333526731  0.7304038524689527  0.3126884271956986
  0.8750000000193398  0.7304038524689527  0.3126884271956986
  0.0416666666860064  0.8970705191356194  0.3126884271956986
  0.2083333333526731  0.8970705191356194  0.3126884271956986
  0.3750000000193397  0.8970705191356194  0.3126884271956986
  0.5416666666860064  0.8970705191356194  0.3126884271956986
  0.7083333333526731  0.8970705191356194  0.3126884271956986
  0.8750000000193398  0.8970705191356194  0.3126884271956986
  0.0416666666860064  0.0637371858022860  0.8126884271956986
  0.2083333333526731  0.0637371858022860  0.8126884271956986
  0.3750000000193397  0.0637371858022860  0.8126884271956986
  0.5416666666860064  0.0637371858022860  0.8126884271956986
  0.7083333333526731  0.0637371858022860  0.8126884271956986
  0.8750000000193398  0.0637371858022860  0.8126884271956986
  0.0416666666860064  0.2304038524689527  0.8126884271956986
  0.2083333333526731  0.2304038524689527  0.8126884271956986
  0.3750000000193397  0.2304038524689527  0.8126884271956986
  0.5416666666860064  0.2304038524689527  0.8126884271956986
  0.7083333333526731  0.2304038524689527  0.8126884271956986
  0.8750000000193398  0.2304038524689527  0.8126884271956986
  0.0416666666860064  0.3970705191356194  0.8126884271956986
  0.2083333333526731  0.3970705191356194  0.8126884271956986
  0.3750000000193397  0.3970705191356194  0.8126884271956986
  0.5416666666860064  0.3970705191356194  0.8126884271956986
  0.7083333333526731  0.3970705191356194  0.8126884271956986
  0.8750000000193398  0.3970705191356194  0.8126884271956986
  0.0416666666860064  0.5637371858022859  0.8126884271956986
  0.2083333333526731  0.5637371858022859  0.8126884271956986
  0.3750000000193397  0.5637371858022859  0.8126884271956986
  0.5416666666860064  0.5637371858022859  0.8126884271956986
  0.7083333333526731  0.5637371858022859  0.8126884271956986
  0.8750000000193398  0.5637371858022859  0.8126884271956986
  0.0416666666860064  0.7304038524689527  0.8126884271956986
  0.2083333333526731  0.7304038524689527  0.8126884271956986
  0.3750000000193397  0.7304038524689527  0.8126884271956986
  0.5416666666860064  0.7304038524689527  0.8126884271956986
  0.7083333333526731  0.7304038524689527  0.8126884271956986
  0.8750000000193398  0.7304038524689527  0.8126884271956986
  0.0416666666860064  0.8970705191356194  0.8126884271956986
  0.2083333333526731  0.8970705191356194  0.8126884271956986
  0.3750000000193397  0.8970705191356194  0.8126884271956986
  0.5416666666860064  0.8970705191356194  0.8126884271956986
  0.7083333333526731  0.8970705191356194  0.8126884271956986
  0.8750000000193398  0.8970705191356194  0.8126884271956986
  0.0419450213865937  0.0843069524011395  0.4261386687993191
  0.2083333333526731  0.0840285977005522  0.4261386687993191
  0.3750000000193397  0.0840285977005522  0.4261386687993191
  0.5416666666860064  0.0840285977005522  0.4261386687993191
  0.7083333333526731  0.0840285977005522  0.4261386687993191
  0.8750000000193398  0.0840285977005522  0.4261386687993191
  0.0416666666860064  0.2506952643672190  0.4261386687993191
  0.2083333333526731  0.2506952643672190  0.4261386687993191
  0.3750000000193397  0.2506952643672190  0.4261386687993191
  0.5416666666860064  0.2506952643672190  0.4261386687993191
  0.7083333333526731  0.2506952643672190  0.4261386687993191
  0.8750000000193398  0.2506952643672190  0.4261386687993191
  0.0416666666860064  0.4173619310338856  0.4261386687993191
  0.2083333333526731  0.4173619310338856  0.4261386687993191
  0.3750000000193397  0.4173619310338856  0.4261386687993191
  0.5416666666860064  0.4173619310338856  0.4261386687993191
  0.7083333333526731  0.4173619310338856  0.4261386687993191
  0.8750000000193398  0.4173619310338856  0.4261386687993191
  0.0416666666860064  0.5840285977005522  0.4261386687993191
  0.2083333333526731  0.5840285977005522  0.4261386687993191
  0.3750000000193397  0.5840285977005522  0.4261386687993191
  0.5416666666860064  0.5840285977005522  0.4261386687993191
  0.7083333333526731  0.5840285977005522  0.4261386687993191
  0.8750000000193398  0.5840285977005522  0.4261386687993191
  0.0416666666860064  0.7506952643672188  0.4261386687993191
  0.2083333333526731  0.7506952643672188  0.4261386687993191
  0.3750000000193397  0.7506952643672188  0.4261386687993191
  0.5416666666860064  0.7506952643672188  0.4261386687993191
  0.7083333333526731  0.7506952643672188  0.4261386687993191
  0.8750000000193398  0.7506952643672188  0.4261386687993191
  0.0416666666860064  0.9173619310338855  0.4261386687993191
  0.2083333333526731  0.9173619310338855  0.4261386687993191
  0.3750000000193397  0.9173619310338855  0.4261386687993191
  0.5416666666860064  0.9173619310338855  0.4261386687993191
  0.7083333333526731  0.9173619310338855  0.4261386687993191
  0.8750000000193398  0.9173619310338855  0.4261386687993191
  0.0416666666860064  0.0840285977005522  0.9261386687993191
  0.2083333333526731  0.0840285977005522  0.9261386687993191
  0.3750000000193397  0.0840285977005522  0.9261386687993191
  0.5416666666860064  0.0840285977005522  0.9261386687993191
  0.7083333333526731  0.0840285977005522  0.9261386687993191
  0.8750000000193398  0.0840285977005522  0.9261386687993191
  0.0416666666860064  0.2506952643672190  0.9261386687993191
  0.2083333333526731  0.2506952643672190  0.9261386687993191
  0.3750000000193397  0.2506952643672190  0.9261386687993191
  0.5416666666860064  0.2506952643672190  0.9261386687993191
  0.7083333333526731  0.2506952643672190  0.9261386687993191
  0.8750000000193398  0.2506952643672190  0.9261386687993191
  0.0416666666860064  0.4173619310338856  0.9261386687993191
  0.2083333333526731  0.4173619310338856  0.9261386687993191
  0.3750000000193397  0.4173619310338856  0.9261386687993191
  0.5416666666860064  0.4173619310338856  0.9261386687993191
  0.7083333333526731  0.4173619310338856  0.9261386687993191
  0.8750000000193398  0.4173619310338856  0.9261386687993191
  0.0416666666860064  0.5840285977005522  0.9261386687993191
  0.2083333333526731  0.5840285977005522  0.9261386687993191
  0.3750000000193397  0.5840285977005522  0.9261386687993191
  0.5416666666860064  0.5840285977005522  0.9261386687993191
  0.7083333333526731  0.5840285977005522  0.9261386687993191
  0.8750000000193398  0.5840285977005522  0.9261386687993191
  0.0416666666860064  0.7506952643672188  0.9261386687993191
  0.2083333333526731  0.7506952643672188  0.9261386687993191
  0.3750000000193397  0.7506952643672188  0.9261386687993191
  0.5416666666860064  0.7506952643672188  0.9261386687993191
  0.7083333333526731  0.7506952643672188  0.9261386687993191
  0.8750000000193398  0.7506952643672188  0.9261386687993191
  0.0416666666860064  0.9173619310338855  0.9261386687993191
  0.2083333333526731  0.9173619310338855  0.9261386687993191
  0.3750000000193397  0.9173619310338855  0.9261386687993191
  0.5416666666860064  0.9173619310338855  0.9261386687993191
  0.7083333333526731  0.9173619310338855  0.9261386687993191
  0.8750000000193398  0.9173619310338855  0.9261386687993191
  0.1250000000150422  0.0826380640026017  0.0738613162664970
  0.2916666666817088  0.0826380640026017  0.0738613162664970
  0.4583333333483755  0.0826380640026017  0.0738613162664970
  0.6250000000150422  0.0826380640026017  0.0738613162664970
  0.7916666666817088  0.0826380640026017  0.0738613162664970
  0.9583333333483754  0.0826380640026017  0.0738613162664970
  0.1250000000150422  0.2493047306692683  0.0738613162664970
  0.2916666666817088  0.2493047306692683  0.0738613162664970
  0.4583333333483755  0.2493047306692683  0.0738613162664970
  0.6250000000150422  0.2493047306692683  0.0738613162664970
  0.7916666666817088  0.2493047306692683  0.0738613162664970
  0.9583333333483754  0.2493047306692683  0.0738613162664970
  0.1250000000150422  0.4159713973359350  0.0738613162664970
  0.2916666666817088  0.4159713973359350  0.0738613162664970
  0.4583333333483755  0.4159713973359350  0.0738613162664970
  0.6250000000150422  0.4159713973359350  0.0738613162664970
  0.7916666666817088  0.4159713973359350  0.0738613162664970
  0.9583333333483754  0.4159713973359350  0.0738613162664970
  0.1250000000150422  0.5826380640026018  0.0738613162664970
  0.2916666666817088  0.5826380640026018  0.0738613162664970
  0.4583333333483755  0.5826380640026018  0.0738613162664970
  0.6250000000150422  0.5826380640026018  0.0738613162664970
  0.7916666666817088  0.5826380640026018  0.0738613162664970
  0.9583333333483754  0.5826380640026018  0.0738613162664970
  0.1250000000150422  0.7493047306692683  0.0738613162664970
  0.2916666666817088  0.7493047306692683  0.0738613162664970
  0.4583333333483755  0.7493047306692683  0.0738613162664970
  0.6250000000150422  0.7493047306692683  0.0738613162664970
  0.7916666666817088  0.7493047306692683  0.0738613162664970
  0.9583333333483754  0.7493047306692683  0.0738613162664970
  0.1250000000150422  0.9159713973359350  0.0738613162664970
  0.2916666666817088  0.9159713973359350  0.0738613162664970
  0.4583333333483755  0.9159713973359350  0.0738613162664970
  0.6250000000150422  0.9159713973359350  0.0738613162664970
  0.7916666666817088  0.9159713973359350  0.0738613162664970
  0.9583333333483754  0.9159713973359350  0.0738613162664970
  0.1250000000150422  0.0826380640026017  0.5738613162664969
  0.2916666666817088  0.0826380640026017  0.5738613162664969
  0.4583333333483755  0.0826380640026017  0.5738613162664969
  0.6250000000150422  0.0826380640026017  0.5738613162664969
  0.7916666666817088  0.0826380640026017  0.5738613162664969
  0.9583333333483754  0.0826380640026017  0.5738613162664969
  0.1250000000150422  0.2493047306692683  0.5738613162664969
  0.2916666666817088  0.2493047306692683  0.5738613162664969
  0.4583333333483755  0.2493047306692683  0.5738613162664969
  0.6250000000150422  0.2493047306692683  0.5738613162664969
  0.7916666666817088  0.2493047306692683  0.5738613162664969
  0.9583333333483754  0.2493047306692683  0.5738613162664969
  0.1250000000150422  0.4159713973359350  0.5738613162664969
  0.2916666666817088  0.4159713973359350  0.5738613162664969
  0.4583333333483755  0.4159713973359350  0.5738613162664969
  0.6250000000150422  0.4159713973359350  0.5738613162664969
  0.7916666666817088  0.4159713973359350  0.5738613162664969
  0.9583333333483754  0.4159713973359350  0.5738613162664969
  0.1250000000150422  0.5826380640026018  0.5738613162664969
  0.2916666666817088  0.5826380640026018  0.5738613162664969
  0.4583333333483755  0.5826380640026018  0.5738613162664969
  0.6250000000150422  0.5826380640026018  0.5738613162664969
  0.7916666666817088  0.5826380640026018  0.5738613162664969
  0.9583333333483754  0.5826380640026018  0.5738613162664969
  0.1250000000150422  0.7493047306692683  0.5738613162664969
  0.2916666666817088  0.7493047306692683  0.5738613162664969
  0.4583333333483755  0.7493047306692683  0.5738613162664969
  0.6250000000150422  0.7493047306692683  0.5738613162664969
  0.7916666666817088  0.7493047306692683  0.5738613162664969
  0.9583333333483754  0.7493047306692683  0.5738613162664969
  0.1250000000150422  0.9159713973359350  0.5738613162664969
  0.2916666666817088  0.9159713973359350  0.5738613162664969
  0.4583333333483755  0.9159713973359350  0.5738613162664969
  0.6250000000150422  0.9159713973359350  0.5738613162664969
  0.7916666666817088  0.9159713973359350  0.5738613162664969
  0.9583333333483754  0.9159713973359350  0.5738613162664969
  0.1250000000150422  0.0006952677830678  0.3238613311917068
  0.2916666666817088  0.0006952677830678  0.3238613311917068
  0.4583333333483755  0.0006952677830678  0.3238613311917068
  0.6250000000150422  0.0006952677830678  0.3238613311917068
  0.7916666666817088  0.0006952677830678  0.3238613311917068
  0.9583333333483754  0.0006952677830678  0.3238613311917068
  0.1250000000150422  0.1673619344497344  0.3238613311917068
  0.2916666666817088  0.1673619344497344  0.3238613311917068
  0.4583333333483755  0.1673619344497344  0.3238613311917068
  0.6250000000150422  0.1673619344497344  0.3238613311917068
  0.7916666666817088  0.1673619344497344  0.3238613311917068
  0.9583333333483754  0.1673619344497344  0.3238613311917068
  0.1250000000150422  0.3340286011164011  0.3238613311917068
  0.2916666666817088  0.3340286011164011  0.3238613311917068
  0.4583333333483755  0.3340286011164011  0.3238613311917068
  0.6250000000150422  0.3340286011164011  0.3238613311917068
  0.7916666666817088  0.3340286011164011  0.3238613311917068
  0.9583333333483754  0.3340286011164011  0.3238613311917068
  0.1250000000150422  0.5006952677830678  0.3238613311917068
  0.2916666666817088  0.5006952677830678  0.3238613311917068
  0.4583333333483755  0.5006952677830678  0.3238613311917068
  0.6250000000150422  0.5006952677830678  0.3238613311917068
  0.7916666666817088  0.5006952677830678  0.3238613311917068
  0.9583333333483754  0.5006952677830678  0.3238613311917068
  0.1250000000150422  0.6673619344497344  0.3238613311917068
  0.2916666666817088  0.6673619344497344  0.3238613311917068
  0.4583333333483755  0.6673619344497344  0.3238613311917068
  0.6250000000150422  0.6673619344497344  0.3238613311917068
  0.7916666666817088  0.6673619344497344  0.3238613311917068
  0.9583333333483754  0.6673619344497344  0.3238613311917068
  0.1250000000150422  0.8340286011164012  0.3238613311917068
  0.2916666666817088  0.8340286011164012  0.3238613311917068
  0.4583333333483755  0.8340286011164012  0.3238613311917068
  0.6250000000150422  0.8340286011164012  0.3238613311917068
  0.7916666666817088  0.8340286011164012  0.3238613311917068
  0.9583333333483754  0.8340286011164012  0.3238613311917068
  0.1250000000150422  0.0006952677830678  0.8238613311917068
  0.2916666666817088  0.0006952677830678  0.8238613311917068
  0.4583333333483755  0.0006952677830678  0.8238613311917068
  0.6250000000150422  0.0006952677830678  0.8238613311917068
  0.7916666666817088  0.0006952677830678  0.8238613311917068
  0.9583333333483754  0.0006952677830678  0.8238613311917068
  0.1250000000150422  0.1673619344497344  0.8238613311917068
  0.2916666666817088  0.1673619344497344  0.8238613311917068
  0.4583333333483755  0.1673619344497344  0.8238613311917068
  0.6250000000150422  0.1673619344497344  0.8238613311917068
  0.7916666666817088  0.1673619344497344  0.8238613311917068
  0.9583333333483754  0.1673619344497344  0.8238613311917068
  0.1250000000150422  0.3340286011164011  0.8238613311917068
  0.2916666666817088  0.3340286011164011  0.8238613311917068
  0.4583333333483755  0.3340286011164011  0.8238613311917068
  0.6250000000150422  0.3340286011164011  0.8238613311917068
  0.7916666666817088  0.3340286011164011  0.8238613311917068
  0.9583333333483754  0.3340286011164011  0.8238613311917068
  0.1250000000150422  0.5006952677830678  0.8238613311917068