Ge Se                                   
    1.000000000000000     
     3.8499999999999996    0.0000000000000000    0.0000000000000000
     0.0000000000000000    4.0499999999999989    0.0000000000000000
     0.0000000000000000    0.0000000000000000   11.1422209999999993
   Ge   Se
     4     4
Selective dynamics
Direct
  0.2500000000000000  0.0964754006164696  0.1258483287319336   T   T   T
  0.7500000000000000  0.5964754006164696  0.3741516712680664   T   T   T
  0.7500000000000000  0.9035245993835304  0.8741516712680664   T   T   T
  0.2500000000000000  0.4035245993835304  0.6258483287319336   T   T   T
  0.2500000000000000  0.0244612370385227  0.3575450529037312   T   T   T
  0.7500000000000000  0.5244612370385227  0.1424549470962688   T   T   T
  0.7500000000000000  0.9755387629614773  0.6424549470962688   T   T   T
  0.2500000000000000  0.4755387629614773  0.8575450529037312   T   T   T
 
  0.00000000E+00  0.00000000E+00  0.00000000E+00
  0.00000000E+00  0.00000000E+00  0.00000000E+00
  0.00000000E+00  0.00000000E+00  0.00000000E+00
  0.00000000E+00  0.00000000E+00  0.00000000E+00
  0.00000000E+00  0.00000000E+00  0.00000000E+00
  0.00000000E+00  0.00000000E+00  0.00000000E+00
  0.00000000E+00  0.00000000E+00  0.00000000E+00
  0.00000000E+00  0.00000000E+00  0.00000000E+00
