Ge Se                                   
    1.000000000000000     
     3.8999999999999995    0.0000000000000000    0.0000000000000000
     0.0000000000000000    3.8500000000000010    0.0000000000000000
     0.0000000000000000    0.0000000000000000   11.1422210000000010
   Ge   Se
     4     4
Selective dynamics
Direct
  0.0798715645353170  0.2500000000000000  0.1238745379505843   T   T   T
  0.5798715645353170  0.7500000000000000  0.3761254620494157   T   T   T
  0.9201284354646830  0.7500000000000000  0.8761254620494157   T   T   T
  0.4201284354646830  0.2500000000000000  0.6238745379505843   T   T   T
  0.0267958651988849  0.2500000000000000  0.3570805433530282   T   T   T
  0.5267958651988849  0.7500000000000000  0.1429194566469718   T   T   T
  0.9732041348011222  0.7500000000000000  0.6429194566469718   T   T   T
  0.4732041348011151  0.2500000000000000  0.8570805433530282   T   T   T
 
  0.00000000E+00  0.00000000E+00  0.00000000E+00
  0.00000000E+00  0.00000000E+00  0.00000000E+00
  0.00000000E+00  0.00000000E+00  0.00000000E+00
  0.00000000E+00  0.00000000E+00  0.00000000E+00
  0.00000000E+00  0.00000000E+00  0.00000000E+00
  0.00000000E+00  0.00000000E+00  0.00000000E+00
  0.00000000E+00  0.00000000E+00  0.00000000E+00
  0.00000000E+00  0.00000000E+00  0.00000000E+00
