 C 
 1.0000000000000000
    32.3722991942999982    0.0000000000000000    0.0000000000000000
     0.0000000000000000   19.9214134216000005    0.0000000000000000
     0.0000000000000000    0.0000000000000000   40.4480476378999967
 C  
 364
Cartesian
 12.0098279114438444 10.7247656698899139  0.0995669294783288
 11.9398154553471159 10.8347072976079577  2.5425670461699017
 10.9447243850235392 11.8541443777557287  2.4697981219826577
 10.3757260950670442 12.1811822225731632  1.2103659571028755
  8.9939453047394942 12.5272284845874982  1.1372314334402842
 11.8658251588607282 10.9421670868723364  4.9857719776874712
 10.8361524217365197 11.9266407725471950  4.9129514887852244
 10.2562464842163017 12.2337824973041922  3.6535183413670689
  8.8632844903248937 12.5316788543639053  3.5800795862417227
  8.2084270599980318 12.4890038776660663  2.3207421099838794
  6.8664173441607472 12.0115338974943100  2.2476719885612191
  6.3315154731478103 11.6314271971962189  0.9882078199413489
  5.4393953844374172 10.5208585981956855  0.9150903424173918
 11.7876514259933636 11.0469436706409692  7.4294586589394571
 10.7246941386090793 11.9952555244730732  7.3565526553456406
 10.1349186522270482 12.2821634026820856  6.0968784702811361
  8.7325173781446495 12.5318273209729938  6.0233032888571643
  8.0797053277450530 12.4664486412740931  4.7638192319501007
  6.7549917075852415 11.9429476909468502  4.6908461131144419
  6.2334855753777090 11.5447755930699962  3.4312742433824948
  5.3802257519312304 10.4041888690087774  3.3580124863413632
  5.1451443294136610  9.7916039949859233  2.0985765597990196
  5.0172964881307109  8.3728310827232626  2.0252628073373513
  5.1389405268540873  7.7279414741322503  0.7658819444441064
  5.7747172617485791  6.4531458131510862  0.6928764293894137
 11.7059814642689464 11.1490309437558359  9.8737311806464145
 10.6109771699295141 12.0600242598367426  9.8006836241638702
 10.0116651700906925 12.3264284136896034  8.5407063447137670
  8.6016201339864722 12.5277035263905958  8.4670825800632539
  7.9516130290036502 12.4398057376961741  7.2072406068107959
  6.6457550461112955 11.8708647495792015  7.1343539957058439
  6.1383870467065185 11.4549589243439733  5.8746401833534820
  5.3249762827171816 10.2855937417615841  5.8012032514812795
  5.1114200073219322  9.6652109432452562  4.5416177531638526
  5.0325575825824735  8.2429113748268694  4.4684600243416810
  5.1763926639340285  7.6026789088811304  3.2088427181094943
  5.8555827190069314  6.3505580607684289  3.1357328046844803
  6.3139110792444191  5.8808888162625079  1.8764094472817296
  7.5491083027522947  5.1712976388742771  1.8028492876297439
  8.1858055320804688  5.0120174721513875  0.5435839943611556
  9.6096138454574671  5.0563147102975039  0.4706465875581283
 12.0096940193661492 10.7204616301956843 13.5793931604385385
 11.6209092283797091 11.2484091781835840 12.3187054485638914
 10.4952531396415392 12.1212272571689343 12.2454311900241031
  9.8871294191604058 12.3665205830479756 10.9851253669929392
  8.4709669681999884 12.5191086653637846 10.9115738963861659
  7.8244631512726119 12.4088600457824665  9.6513553285059146
  6.5389603279947215 11.7953172410629019  9.5784338311874091
  6.0465635369201314 11.3618996621775512  8.3184781310362705
  5.2742892147584008 10.1650544824905538  8.2448918981913977
  5.0822540048067015  9.5377327126690830  6.9851187881335193
  5.0525458657696163  8.1136131156629059  6.9120751392736972
  5.2180351897773436  7.4788016959369124  5.6522640465883205
  5.9400489958770324  6.2508852181976176  5.5789287265659988
  6.4143917201067380  5.7974735217823703  4.3194096005818237
  7.6733597433701890  5.1311193242438433  4.2459680546046163
  8.3150932596533895  4.9938507197603705  2.9865300785420361
  9.7365184742812989  5.0873667463217869  2.9135535949872393
 10.3547516307418466  5.3073375036040238  1.6542292393497244
 11.5157045772658009  6.1327295638640180  1.5806641598449889
 11.9267457042948255  6.6444099025061822  0.3213770215444858
 12.4824467895907230  7.9559753991407938  0.2485513914990254
 11.9396025247172144 10.8307342189184332 16.0252615098096101
 11.5325888589572347 11.3447672515479798 14.7643694921222703
 10.3776253630890007 12.1783342042585847 14.6908513289676481
  9.7615326701392036 12.4025671242719842 13.4302427900914747
  8.3409665497559082 12.5061342582421862 13.3568618767562146
  7.6987277811972632 12.3734928222021558 12.0962627927641027
  6.4352022877425750 11.7159769508478906 12.0232071528358162
  5.9578803802822300 11.2661138820242392 10.7629590302404594
  5.2275316848102049 10.0431803022075457 10.6893197762711054
  5.0574294064876888  9.4095968313186855  9.4292542693815804
  5.0771411927623813  7.9853403646452623  9.3562675657907626
  5.2644615979669842  7.3566486197985448  8.0962576477888408
  6.0283255445378794  6.1543890812620328  8.0227085590541574
  6.5176692202369280  5.7175827321066395  6.7628810763158613
  7.7987695334416269  5.0949995358745586  6.6896146877311162
  8.4448228122224638  4.9800932166849075  5.4298673238587769
  9.8620817572742201  5.1226207942182054  5.3567564078466052
 10.4725062934481574  5.3636614293957683  4.0973287005744039
 11.6043965725313090  6.2285003629204061  4.0237787493871187
 11.9975025514754545  6.7539885986748303  2.7643752355534144
 12.5078291005824305  8.0839091775915612  2.6916201039919065
 12.5668015896170520  8.7376033626168059  1.4321933234966058
 12.3027387943805042 10.1374205693251636  1.3588767875166838
 11.8657345461686763 10.9386161697788769 18.4714674565402390
 11.4416057703158991 11.4384964300928775 17.2104383070382454
 10.2585249360878894 12.2317145961501073 17.1367599963733817
  9.6348770097713654 12.4343964862685858 15.8759437461263229
  8.2115784539295298 12.4886738942240072 15.8027285757306970
  7.5742344589838568 12.3340591208098456 14.5418571862550632
  6.3342915443349295 11.6330698179874403 14.4685878465414319
  5.8730631474640012 11.1668663577450822 13.2080175556512263
  5.1854186654167336  9.9194960742978484 13.1344711345870415
  5.0371401307257528  9.2806623173966951 11.8739697241113102
  5.1060590380683415  7.8579468432075208 11.8009918729417755
  5.3149292779597177  7.2361574485632216 10.5407099531345061
  6.1198135967920599  6.0609575774823261 10.4670392521175710
  6.6239571313661587  5.6412889645886120  9.2069424733313330
  7.9256596628474467  5.0630308425488924  9.1338220712208020
  8.5750477484296095  4.9705279201443062  7.8736992752462935
  9.9864901064274427  5.1619562319967551  7.8004661846116576
 10.5879906559731758  5.4241136772775542  6.5407593345605077
 11.6894216782871752  6.3274279739726262  6.4673530840424656
 12.0643564185516485  6.8660026170769779  5.2077031942206746
 12.5283532721674629  8.2127480274518447  5.1348457910066214
 12.5649797516102630  8.8679972578054649  3.8753786405154838
 12.2528300285841425 10.2578767223298257  3.8019079094747470
 11.7882209786494663 11.0437551338221756 20.9177520969261330
 11.3469361268072344 11.5286359095800766 19.6567469491232814
 10.1373481119721411 12.2806442526751418 19.5830145878756845
  9.5072417256460948 12.4617209322502838 18.3220324602340447
  8.0828891243246073 12.4667167534123671 18.2490084912568555
  7.4515071572993090 12.2900146560505803 16.9879781298313794
  6.2366512009724300 11.5465029838914166 16.9144733009240120
  5.7917736523542382 11.0648227202547442 15.6536689825822641
  5.1473000990168245  9.7946375234956520 15.5802649765740266
  5.0211980976284005  9.1510960551681961 14.3194246700142216
  5.1390789871014739  7.7316065292951013 14.2463327648055920
  5.3694982029574350  7.1175993783837548 12.9857710291316177
  6.2143895985015307  5.9708446046609058 12.9120801779931185
  6.7325347586111697  5.5687637936878653 11.6516247992031357
  8.0533978142701184  5.0356568829011676 11.5786224567658156
  8.7055859753818048  4.9655326006941518 10.3182573914678581
 10.1095513787842322  5.2057850416840861 10.2448243598152278
 10.7014947186870888  5.4883921410286600  8.9847362841890224
 11.7710380080982535  6.4292295279244955  8.9115411984160620
 12.1270132840453506  6.9803533487112430  7.6515279993788914
 12.5441974268023309  8.3423181683735965  7.5785220785179126
 12.5581129388180859  8.9983049141513227  6.3188566305821920
 12.1980306915631918 10.3764978407873407  6.2453575051703183
 11.7074482086486320 11.1462947655900848 23.3639693374202295
 11.2497909229086446 11.6157929460643068 22.1030706683305134
 10.0148917865593123 12.3255755966065461 22.0294464633821789
  9.3787495199224775 12.4846324901228094 20.7684168424654949
  7.9551422359305421 12.4402912188991426 20.6954029929361063
  7.3301137319494671 12.2419675067526761 19.4343695541280717
  6.1415528681122904 11.4570085076601167 19.3607092619696814
  5.7137912076579731 10.9601512659659797 18.0997428595551106
  5.1135754039782402  9.6685168921777880 18.0265165247728838
  5.0098413968698674  9.0210476905950028 16.7654501652533945
  5.1768290787275530  7.6065384860786462 16.6921540178683223
  5.4279570332427616  7.0008145341201118 15.4313584922156526
  6.3120018293529441  5.8840153233804857 15.3577634220179178
  6.8436259389118499  5.5001825314151640 14.0969758798527476
  8.1819959664027984  5.0129586901150338 14.0239713970119126
  8.8361088510345631  4.9653111431500996 12.7633664239384874
 10.2309015446662368  5.2538504075267811 12.6897763541846711
 10.8127009989471574  5.5567000804924973 11.4294062675697461
 11.8491016451827260  6.5339358157855143 11.3563912124905624
 12.1857020917493024  7.0968710204568817 10.0959941406299585
 12.5554982566529709  8.4724086185365231 10.0228207916661809
 12.5467644775455760  9.1283191712211860  8.7627889615903900
 12.1392866952935723 10.4932153102881749  8.6893823008432491
 11.6230393218295713 11.2460135554993386 25.8098986644226791
 11.1492493031543489 11.6992138970884039 24.5491648534444167
  9.8905330399676714 12.3657520406707793 24.4757617648225505
  9.2494686467019811 12.5029670000587263 23.2147489501014412
  7.8282555957616768 12.4094331419300161 23.1416968144598023
  7.2106520851924865 12.1895381607458333 21.8807407764707769
  6.0498907265928308 11.3640988522417299 21.8070164735699308
  5.6393538871836437 10.8528444520644918 20.5460342345392668
  5.0840610662080667  9.5412871237169501 20.4729450994491202
  5.0027310363619453  8.8906856160404999 19.2118264667363619
  5.2182728301268968  7.4827779882672276 19.1383151503148312
  5.4905409685541811  6.8862756996992287 17.8774026227662368
  6.4124886369630927  5.8005826354411187 17.8039672426072926
  6.9570332520076104  5.4353569698851585 16.5429188001763379
  8.3114064330947297  4.9946053077155330 16.4697961179550987
  8.9666309223920138  4.9695999276280256 15.2089975091017298
 10.3505923184610662  5.3061456128677440 15.1353638148717895
 10.9214074619952122  5.6288685675449965 13.8746770836067768
 11.9232756257474612  6.6413443343322545 13.8017579106934534
 12.2403162182051783  7.2154461132980083 12.5411262781743247
 12.5622498270708594  8.6029393002131709 12.4677199092865827
 12.5308196988639136  9.2580171441568790 11.2073397253792866
 12.0765263332996966 10.6079566047449667 11.1340849944049491
 11.5354229366488958 11.3428606347224878 28.2553625735533380
 11.0460185317179871 11.7793087527838072 26.9948911885078644
  9.7650340305103587 12.4021065703423616 26.9217387483505206
  9.1195304808162572 12.5168784788058467 25.6609055909250614
  7.7023538636570112 12.3743677638803327 25.5877024601525207
  7.0926545862884947 12.1333390140557427 24.3269171069049612
  5.9608641793008692 11.2685471003238789 24.2532966964906436
  5.5684999716767187 10.7432750416317919 22.9923348555835965
  5.0586530312193272  9.4133968111388082 22.9193307839843747
  5.0000221883165521  8.7602820376880661 21.6583401794725035
  5.2640121722476350  7.3606788444091285 21.5846734552958672
  5.5565134710079311  6.7737966092952666 20.3237114522663944
  6.5155271272337121  5.7207021324872800 20.2504856546604337
  7.0723164090431645  5.3743592292960942 18.9893366586414345
  8.4410895443276761  4.9805779402432115 18.9160459483955350
  9.0968031631298238  4.9781927709506464 17.6551005659956495
 10.4683621341480873  5.3622093168551634 17.5814988668314705
 11.0276716411632023  5.7046022214397025 16.3205717479508579
 11.9938655191088337  6.7511138267456463 16.2476390430387880
 12.2906612033686038  7.3358338870553670 14.9868230508203322
 12.5644517188767004  8.7335533833147316 14.9132094481724629
 12.5103749764334360  9.3870715895985359 13.6525539972011423
 11.4447386822770802 11.4369048578104628 30.7002101474352571
 10.9402683035879100 11.8561001331959552 29.4400358347011313
  9.6385202411719764 12.4343138222521823 29.3671034020963084
  8.9891472800313785 12.5267029557437706 28.1065971741209744
  7.5777052399918263 12.3354928115460432 28.0332656834294163
  6.9765883325832663 12.0732657244849655 26.7727158745036355
  5.8754202999364926 11.1698412970381149 26.6993362494019024
  5.5011289858230121 10.6314244842130634 25.4384801059434871
  5.0374649899059492  9.2847108806339822 25.3654171833323758
  5.0015044201736023  8.6298744025817697 24.1046224219341134
  5.3137894973008537  7.2402473801604188 24.0309135608105748
  5.6265590915032480  6.6638296306654947 22.7700337539894093
  6.6212573922520015  5.6443277283501114 22.6969865115892304
  7.1897880644833325  5.3176489120822508 21.4359046732772462
  8.5712421772121026  4.9711467006806433 21.3624230083731099
  9.2266399147321998  4.9913491973813748 20.1014149672106335
 10.5840862165073162  5.4223771504683604 20.0279755741132917
 11.1312609415733839  5.7837129179352340 18.7668527481696579
 12.0607068603251513  6.8630565060398778 18.6938087790472061
 12.3370114561143609  7.4577843728082494 17.4329288705273022
 12.5623366908317262  8.8641522735511327 17.3592470105179792
 12.4857308000276035  9.5152883820433090 16.0983383018606041
 11.3506355236205962 11.5275292499668343 33.1444062386502125
 10.8319289336269264 11.9292338735958925 31.8845486290254847
  9.5109654215316706 12.4620978703099041 31.8117243989986171
  8.8586180625607831 12.5319760320542066 30.5516590403492039
  7.4545822026307471 12.2921073103264487 30.4782585021518706
  6.8627672012012884 12.0094212656968544 29.2180051566883314
  5.7934877491772623 11.0683781527450975 29.1448816203241066
  5.4378666013429964 10.5172678846248076 27.8842979566396103
  5.0208219841554573  9.1553483829090272 27.8110916868876501
  5.0074708935034389  8.4996153010791193 26.5505052425387831
  5.3676826435231435  7.1216210786222778 26.4768505159819156
  5.7001609268173565  6.5562663857249479 25.2161227210502439
  6.7292973055731808  5.5715161076939230 25.1431583993779135
  7.3088549222675558  5.2645063801586192 23.8823172272848545
  8.7015403048136601  4.9660899549242972 23.8086839652974653
  9.3559174781890011  5.0089370367757562 22.5477992853135092
 10.6977320618154970  5.4865644112296827 22.4745678600996222
 11.2321273402390602  5.8664031325274708 21.2133927882140441
 12.1235886851643819  6.9772503772591419 21.1401126942167323
 12.3791002531469587  7.5811843230359175 19.8791794091063032
 12.5556052442764781  8.9945087462040014 19.8055488824064483
 12.4567310919551932  9.6427190082633505 18.5445218161307537
 11.2537678729795552 11.6149450188708787 35.5881855554507638
 10.7214624971412604 11.9985975164040504 34.3285675041257505
  9.3827727250660899 12.4854601434639267 34.2557357280972710
  8.7282443317316556 12.5327085043187427 32.9960679166911390
  7.3333349068549039 12.2442839208108598 32.9225650122738003
  6.7512903332291305 11.9412950724105045 31.6627224968940233
  5.7150311573508157 10.9639364137819761 31.5897658907304937
  5.3787697933398446 10.4008293296306871 30.3294905859760320
  5.0088731275677834  9.0253224267714334 30.2561371218241177
  5.0179406000420057  8.3695217092424716 28.9958299647434501
  5.4253071147291347  7.0046534888737106 28.9223654166029220
  5.7773563073017584  6.4512120957476347 27.6618319605246157
  6.8399399828983540  5.5026652740453619 27.5888169853540219
  7.4297391084503372  5.2157504672056287 26.3282712536857630
  8.8319281275144750  4.9656903103738506 26.2546384020763455
  9.4844127197383816  5.0311010800709077 24.9939238544328219
 10.8088749037328196  5.5549439039744648 24.9208522054201609
 11.3299260922344551  5.9529787173670927 23.6598832897100664
 12.1827560893010478  7.0937878874356475 23.5863648450450576
 12.4170916731320915  7.7059882582666486 22.3254172290517054
 12.5447833282857282  9.1245543378273322 22.2519619047184953
 12.4232881109081710  9.7688977519849391 20.9908792737905436
 11.1537347601072145 11.6984467886707666 38.0316087234188629
 10.6084214000189778 12.0637642795077973 36.7721167432853164
  9.2537336899495699 12.5042083388843839 36.6992288096202728
  8.5978986127524681 12.5288928878615522 35.4397730275768268
  7.2138427713240496 12.1922508582103415 35.3662755578586285
  6.6425585414530985 11.8692661481310573 34.1067321165484714
  5.6404715856793484 10.8568350912739948 34.0338499490133017
  5.3234023680206883 10.2823654713031658 32.7740256245637198
  5.0012974303771998  8.8948380788576529 32.7004901560083425
  5.0329582066906209  8.2395964502343393 31.4405233252769598
  5.4870691268213232  6.8895353904040206 31.3672883175985611
  5.8578990354618492  6.3485258579680250 30.1069969501390950
  6.9526193537665613  5.4371995850600330 30.0338202448313254
  7.5522606443695190  5.1710767374587059 28.7736189623220149
  8.9623101845168929  4.9698460496357608 28.6999987598104624
  9.6123359023128980  5.0577880477528945 27.4395739440437367
 10.9179599740363074  5.6270539858104653 27.3665558897003649
 11.4249150102712793  6.0428486304617079 26.1058717839645773
 12.2381333332454574  7.2122485138410308 26.0322143661367313
 12.4513713815618878  7.8322760443322732 24.7714820721019962
 12.5299674378642631  9.2544535734764146 24.6982305276945944
 12.3862327251887070  9.8941336002287308 23.4372159155613957
 11.0506697814109103 11.7780917191305914  0.0267581046984159
 10.4932812134285811 12.1247064624139913 39.2153277364835304
  9.1241830193950015 12.5182149890034076 39.1423500840006895
  8.4677894696323008 12.5204642096504362 37.8830050566318235
  7.0961157137880635 12.1362232541150465 37.8096204486986593
  6.5362831426940495 11.7936519398965753 36.5502148876726594
  5.5698513158828602 10.7471249949440484 36.4773254727816720
  5.2727742289316772 10.1620286618639781 35.2178506845730439
  4.9986587813199961  8.7642593095572110 35.1442081570911569
  5.0526878179877377  8.1103150125162227 33.8845976381001250
  5.5530487979850633  6.7767009927917687 33.8115331609833660
  5.9422003265837224  6.2485862347915324 32.5515852193189232
  7.0679996217467878  5.3758814275796993 32.4782345758093882
  7.6763205819116127  5.1306485987725408 31.2183066862082725
  9.0925414882879014  4.9784358769431192 31.1448273943751595
  9.7390803520334082  5.0889745281379257 29.8846456885052518
 11.0243309596190553  5.7028569970392784 29.8115439138750347
 11.5167675286821485  6.1360491283183531 28.5512837418289287
 12.2892382603608645  7.3327573790842164 28.4775882775240774
 12.4810790065770743  7.9597216301164870 27.2170982417406790
 12.5106798624619806  9.3837784025211839 27.1440397760134751
 12.3448753935806259 10.0181067199739235 25.8833002049884620
  8.3379969465416721 12.5070837137648585 40.3259175308107061
  6.9804224939992601 12.0758253012536390 40.2527154318396043
  6.4326713457798537 11.7143019533624013 38.9933162427142435
  5.5028759371556433 10.6350997340300442 38.9203422015874381
  5.2261823915826895 10.0400147347437372 37.6610664954904379
  5.0004917284921531  8.6335582092221728 37.5874414408727944
  5.0771990051329405  7.9819312269827449 36.3280579349157193
  5.6233049402351734  6.6663395662041296 36.2551237925764127
  6.0304373654955112  6.1519537909672044 34.9954567729352632
  7.1856295969119799  5.3185968365864067 34.9219559915745066
  7.8021843586182147  5.0945907657023390 33.6622987719425026
  9.2228016768899153  4.9912358828959462 33.5890368021731476
  9.8651273628123661  5.1240862120212158 32.3290674716411388
 11.1285938246682559  5.7817232355278625 32.2559076775138180
 11.6056021461449408  6.2319449420745974 30.9959805284904739
 12.3362876551009446  7.4546701934620812 30.9223766132751834
 12.5063769661803175  8.0881099772239171 29.6622202581571024
 12.4870492169626814  9.5123628887222065 29.5892939365132293
 12.2993167332099116 10.1406476794291507 28.3288857003620080
  5.1836508503825307  9.9164606182905839 40.1038698358152104
  5.0066734019400769  8.5029892218168790 40.0303493195141940
  5.1059236767002201  7.8542864552110743 38.7710655462834524
  5.6971663137171582  6.5582930673558577 38.6981447808600549
  6.1218587250401049  6.0581627301046472 37.4387238036687506
  7.3051685853218604  5.2650628053581459 37.3651474896846949
  7.9291526949300533  5.0624697352371060 36.1056866248989934
  9.3525648498580924  5.0083118846531489 36.0326558158239294
  9.9900126633126245  5.1632518764746216 34.7729132337071718
 11.2301101795567675  5.8641600176294322 34.6996611175236254
 11.6913194160128260  6.3307388964397475 33.4400131207154558
 12.3792039305278720  7.5780756394754762 33.3665704999333386
 12.5273192644961995  8.2171727698670871 32.1066901026283844
 12.4589210106709061  9.6399617523789836 32.0337396397566536
 12.2498235236956514 10.2617799046605498 30.7737827098077226
  6.2165281792562270  5.9678965242487996 39.8816694776685310
  7.4264715665989991  5.2160126351497862 39.8080551462975905
  8.0570603936700191  5.0348084128562407 38.5487396466189693
  9.4815800616026671  5.0299091123000617 38.4758657142006442
 10.1133403255723291  5.2070020632961969 37.2163083503151029
 11.3283631032951373  5.9504450272756495 37.1429298955838902
 11.7733799396251584  6.4325787567270867 35.8834701619462777
 12.4177294768409912  7.7029338038481523 35.8102347060426851
 12.5436608549758404  8.3468819345781071 34.5505842595936343
 12.4259766134291780  9.7664938062817530 34.4775584295672317
 12.1955674127520250 10.3806804965020216 33.2179176648622416
 10.2352369516430191  5.2547423659765737 39.6593566357140972
 11.4239286911574638  6.0397695074362137 39.5858503299831810
 11.8519596274819268  6.5371797317295846 38.3265351282965199
 12.4523988347995331  7.8288518078268829 38.2535282313355154
 12.5559061497028175  8.4769754151450094 36.9940130662613100
 12.3894100455907932  9.8916986504183662 36.9208841824349676
 12.1376964089686918 10.4978208377881845 35.6615315310395289
 12.5637899684927756  8.6072453802035636 39.4371195264644072
 12.3483571801389083 10.0153745697865890 39.3639563996148425
 12.0758852301032036 10.6125638481008213 38.1046781126368899
