Ge Se
 1.0000000000000000
     4.0999999999999988    0.0000000000000000    0.0000000000000000
     0.0000000000000000    3.8999999999999995    0.0000000000000000
     0.0000000000000000    0.0000000000000000   11.1422209999999975
 Ge  Se 
   4   4
Selective dynamics
Cartesian
  0.4098124500446440  0.9750000000000001  1.4215734858782869   T   T   T
  2.4598124500446419  2.9249999999999998  4.1495370141217069   T   T   T
  3.6901875499553549  2.9249999999999998  9.7206475141217119   T   T   T
  1.6401875499553558  0.9750000000000001  6.9926839858782870   T   T   T
  0.0782495722018226  0.9750000000000001  3.9892743982655277   T   T   T
  2.1282495722018218  2.9249999999999998  1.5818361017344671   T   T   T
  4.0217504277981764  2.9249999999999998  7.1529466017344676   T   T   T
  1.9717504277981774  0.9750000000000001  9.5603848982655304   T   T   T
