Ge Se 
 1.0000000000000000
    12.4607716602717371    0.0000005044567064    0.0000015326237497
     0.0000005067183931   12.5166412194505270    0.0000055517952864
     0.0000017551479402    0.0000063294919610   11.0854505286217897
 Ge  Se 
  36  36
Cartesian
  1.0349965795199589  0.6324539572604840  1.4701271223819530
  2.8767317902867409 11.0478150881762698  4.0844597933913915
  7.2348092382362337  2.4317950211311579  4.0645186926697425
  7.2898723621311525  6.6588036877336885  4.2577621420234255
  7.2220366766843744 10.9339251021920756  4.3477434032357083
 11.2869510947803793  2.7365597957000052  4.0095755577184002
 11.3427587865713555  6.7377167021306663  4.2301088642684324
 11.5081257929342282 10.7376711320284297  3.8610707396356876
  0.7936797651287949  1.8081642383458831  6.9235999139922884
  0.4547911614101893  6.2158281318158437  6.8375139537869671
  0.5005057058488914 10.5523915383701095  6.7298553872689100
  4.9998237588156318  2.0612063037317765  7.1516939766096437
  4.7320806200130061  6.1917890797325983  6.8714956785961050
  4.8030272096106588 10.0133968755045828  6.9244190833510233
  8.7821110255178017  1.9338524058119106  6.8991804403171617
  9.0259950223030767  6.1052617852902245  6.9461302511155720
  3.1785379632541129  6.5945257308430243  4.1013349050119761
  3.2829762810239052  2.3653850031789250  4.0359958845836523
  9.0319861080433750 10.3172524648879733  7.0622664870297926
 11.0256883598594904  8.1546886100071081  9.7086779646061654
 10.9968437492473186 12.2169838402309345  9.6198788752660978
  1.2287157131858599  4.4418509221448330  1.4183186833768593
  0.8531875825108262  8.9683115560300291  1.4078946119497551
  5.2172619264804583  0.0597316540372863  1.3318916882522078
  5.3535422041527303  4.4310912623494145  1.5842855255375159
  9.3777084360059622  0.5468878744066057  1.4071971226139885
  9.1768442948866049  4.8857474916113013  1.1046800095742018
  4.9581367740248341  8.9438746929997119  1.3645963246130253
  2.8111405611734006  4.0827614000060395  9.6845167066621656
  2.4754255511298986  8.3012727271878379  9.6653786684825462
  3.1541776691548429 12.3255614438311536  9.6559608476779495
  6.9020203447547210  4.2245127528532969  9.6526184192180882
  6.8461129433494001  8.0592658783616926  9.6743293961797843
  7.1332348242113319 12.5449556069142627  9.6517402705515618
 11.2125809148451250  3.9642501719376884  9.6138420517284970
  9.3421803893790187  8.6392920981541383  1.3827928316992015
 11.3450562935560377  0.1266822968382692  7.1425039302808706
  2.6870593654748411  4.5675714299965975  7.0038239398710234
  3.0324071439130988  8.3001412795418439  7.1854182932194899
  6.8912942426949986  0.3098963392581645  7.1319948316181936
  7.1716584598165900  4.2177287510735395  7.0919005259249435
  6.9544409851385778  8.6091761507528073  7.0482521778000589
 11.1503210219159996  4.4518388015761863  7.1584082821199200
  9.3135902835343938  0.1026148261199337  3.9131748250442393
  0.8462652300974978  0.2428377126215910  3.9589807934452610
  0.5878886895764190  4.5008333507847285  3.9632095697306129
  1.0478262496408124  8.2082933864264671  3.8999138888782867
  4.9087672372061064  0.3502397422090570  3.8740770873638142
  5.2095356634080066  4.1978799718134265  4.0961222577017917
  5.1425666302301680  8.1698609788205481  3.8628290802827179
  2.9999697911327883  0.1385752494577383  6.9937719709718014
 11.0291347732502842  8.7422216445612921  7.0471697560010549
 11.2124366207831621 10.6323216122111273  1.2700051146266902
  2.6934482987969970  2.4488021074488344  1.5546300004544398
 11.1019674029674267  2.4763865777411862  1.5166538404172552
  9.2072120639689690  4.2947101320810583  4.0197365305449226
  0.8525726259537187  2.3898654063026710  9.5548784379495366
  0.6602590088382609  6.6010840948381651  9.4702447456262124
  1.1399160235445065 10.5125270497077032  9.3263088694574243
  4.8918220527245575  2.3269645144425626  9.6327873889662410
  5.0667630514396418  6.2109624753332620  9.4249997313592964
  5.1159225186488353 10.6929753578161222  9.6265153377491064
  9.3515402075147875  2.1093136355734803  9.3819090094659376
  9.0666597907141711  6.5058843902609489  9.5946746778234999
  8.9611723752175934 10.6830747125101446  9.4779475315931236
  3.1767222458599109  6.0286758970803556  1.6615360592010349
  2.8638276800563021 10.6862768276920121  1.4716647500423377
  7.1515803344734898  2.1095727102944548  1.5774674355660268
  7.0888483098305288  6.3233222302297278  1.6500440708499395
  6.8108811139007006 10.6487476690253082  1.7494698453609498
 11.0147225311083368  6.6117510116747162  1.5811264784338528
  9.0220559699792862  8.6268853988569667  3.9076855492133600
