Ge Se
 1.0000000000000000
     3.8581001758999998    0.0000000000000000    0.0000000000000000
     0.0000000000000000    4.5265750884999987    0.0000000000000000
     0.0000000000000000    0.0000000000000000   11.0851764678999984
 Ge  Se 
   4   4
Cartesian
  0.6290380721576082  1.1069975531415452  1.3632845376242730
  2.5580881601076091  3.3702850973915432  4.1793036963257251
  2.8935751319250000  4.0100003729888849  9.7218919302757278
  0.9645250439749999  1.7467128287388884  6.9058727715742734
  0.6290380721576082  0.5601395476203521  3.9062145503529235
  2.5580881601076091  2.8234270918703506  1.6363736835970737
  2.8935751319250000  0.0302832900100802  7.1789619175470731
  0.9645250439749999  2.2935708342600818  9.4488027843029201
