Ge Se 
 1.0000000000000000
    12.4348431608658014    0.0000002478939107    0.0000012099279111
     0.0000002490043074   12.4905536511369863    0.0000057587808202
     0.0000013828832637    0.0000065526289164   11.0407107138825822
 Ge  Se 
  36  36
Cartesian
  0.7825192640630282  0.5076164737502039  1.2233547729333631
  2.9275237431020766 11.2450269677656216  4.2578327655054489
  7.0901967581237502  2.8740089427858022  4.1582799673252895
  7.2158331681046421  6.8968077150271050  4.3047075131203592
  7.1177786635420084 10.7168569066659849  4.0349160411023783
 11.0278218696260062  2.4640267867143226  4.1211835544432081
 11.1737816041588349  6.6583300841026771  4.0825354076467120
 11.2136028245178689 10.8927494524563997  4.0986042622052201
  0.8411685958282809  1.8279002204249817  6.8712508368364151
  1.0076094582832149  6.0782568644743842  7.0691880424448401
  0.9961838263273403 10.1868745678226240  6.8840264688201707
  4.8608553237388419  1.8590140460460911  6.8134348413669841
  5.0109722692904315  6.0388867239361579  6.8755168792229870
  4.9229786903903889 10.1398522196747543  6.7443462485755798
  9.0495610790223164  1.8752458001401413  6.9793752531085715
  9.4441650029461925  6.1089022411641700  6.8586032812107067
  2.9487356603406578  6.9058801516526760  3.9675199021445517
  2.7791998038788184  2.5972448471415732  4.3708302789213924
  9.2667112103732450 10.0991329247945938  6.8711557686964913
 11.1534745697004869  8.1164136711405614  9.7545621280961896
 11.3344071266003841 12.1182276716001756  9.7384309315303419
  0.7612718927070904  4.6809381845186957  1.4589417937428657
  0.8053323846224034  8.8668806336614718  1.5354961144563615
  4.8479159335773545  0.4934812265546183  1.4727173677978038
  4.7672240436960855  4.6419298430774694  1.1370905652722896
  9.0041995015104455  0.5538446613929229  1.5508075125810781
  9.0141962022343165  4.8418821612511023  1.4504570473255289
  5.1054340443914903  8.7366368764301487  1.2663241524981581
  3.0614284924691613  3.7662375581882896  9.6510997516502393
  2.8933418395419399  8.2114850865531412  9.7227625924564212
  3.1567481098695835 12.2725288677744775  9.7663879549433315
  6.9246080865917685  4.0974548312109196  9.7479274267913745
  6.9870446805248880  7.8747373718292977  9.6081407576878100
  7.3484440219518712 12.1423616409268860  9.6612161496738107
 11.0480548309199680  3.9335212102294892  9.8218591093161915
  9.0792456733438733  8.8977874199887790  1.2000618381586419
 11.2276064860058060  0.0568707144787676  7.3245867962703581
  2.9435631232657036  4.1645754624727527  7.2377138200661255
  2.9631777565092241  8.5219440307033647  7.1748408511817550
  7.1188157985452261  0.1788104490412818  7.0765855015267487
  7.1526566416460895  4.4482808354371466  7.1434704741214743
  7.1264378393612215  8.3946969482968541  6.9620284840065931
 11.3325838086748085  4.2788193683034557  7.1614673296430569
  9.0847748712134173  0.0648304761096883  4.1230238384711644
  0.8382680480733322  0.1139818829311417  3.7624636335841308
  0.6817230215538446  4.1679463665984757  4.0775355337323642
  0.8444430403844837  8.3732415429323162  4.0478191422507370
  5.0905146555338963  0.0049130290588595  4.0295131286261316
  4.8246051974865853  4.2565376994743849  3.9924300168954074
  5.2455329645553288  8.5928715230351838  3.8846423617898984
  3.0527185433581172  0.0622210047580510  6.9266519309633257
 11.4761491713355461  8.5527309119103521  7.0763441376719838
 11.1765102632957181 10.4577166716941594  1.6856273041112391
  2.7945356958306360  2.1198486413150652  1.7742472483606366
 11.2611429815638697  2.3247281474335235  1.5574560809924678
  9.2047217466388531  4.4084067456938447  3.8780283980692030
  1.0095255264712324  2.1019795818159879  9.3650160439606029
  0.9157927714916397  6.2723987116070417  9.4864483354988600
  1.1287013074952110 10.5435840968852830  9.5056425531364415
  5.1935058936404657  2.1773812888856603  9.3731771771328063
  4.9827111521770906  6.3814131839181707  9.4052463016711041
  4.9519662504650004 10.6423012868922342  9.3835131209892673
  8.9813253567094087  2.4255158385600724  9.5487331349864100
  9.2631863204397114  6.3871926068289300  9.3715441679981328
  9.1751904949401020 10.4662244185685207  9.4154647378413241
  2.7544325116954855  6.4097439182742111  1.4354763983623324
  2.9904621657305182 10.6083445268936600  1.5737488242717526
  7.0216622522261298  2.1143883447492753  1.6744897664288756
  7.0801240746195981  6.4356969005801652  1.6460611130964711
  7.0304202800082285 10.7018668474216572  1.5336292346088281
 11.2149348562545459  6.4489639312204314  1.4986529464342906
  9.1944411011599403  8.4525551376523875  3.7475444543172096
