Ge Se                                   
    1.000000000000000     
     3.8500000000000010    0.0000000000000000    0.0000000000000000
     0.0000000000000000    3.6999999999999997    0.0000000000000000
     0.0000000000000000    0.0000000000000000   11.1422210000000010
   Ge   Se
     4     4
Selective dynamics
Direct
  0.0547311006176088  0.2500000000000000  0.1149914571611106   T   T   T
  0.5547311006176088  0.7500000000000000  0.3850085428388894   T   T   T
  0.9452688993823912  0.7500000000000000  0.8850085428388894   T   T   T
  0.4452688993823912  0.2500000000000000  0.6149914571611106   T   T   T
  0.0149509741785891  0.2500000000000000  0.3508074420859870   T   T   T
  0.5149509741785891  0.7500000000000000  0.1491925579140130   T   T   T
  0.9850490258214109  0.7500000000000000  0.6491925579140130   T   T   T
  0.4850490258214109  0.2500000000000000  0.8508074420859870   T   T   T
 
  0.00000000E+00  0.00000000E+00  0.00000000E+00
  0.00000000E+00  0.00000000E+00  0.00000000E+00
  0.00000000E+00  0.00000000E+00  0.00000000E+00
  0.00000000E+00  0.00000000E+00  0.00000000E+00
  0.00000000E+00  0.00000000E+00  0.00000000E+00
  0.00000000E+00  0.00000000E+00  0.00000000E+00
  0.00000000E+00  0.00000000E+00  0.00000000E+00
  0.00000000E+00  0.00000000E+00  0.00000000E+00
