 C  S 
 1.0000000000000000
    32.3722991942999982    0.0000000000000000    0.0000000000000000
     0.0000000000000000   19.9214134216000005    0.0000000000000000
     0.0000000000000000    0.0000000000000000   40.4480476378999967
 C   S  
 364   1
Cartesian
 12.0089082791120205 10.7238937401535637  0.1000117532133945
 11.9383058632882708 10.8334604570445876  2.5446631054582158
 10.9436949220289570 11.8531792777315026  2.4718742947746271
 10.3753051805797956 12.1803718248077164  1.2116468709313410
  8.9935872017229510 12.5264925701364849  1.1383232765972973
 11.8630540259020236 10.9404461064023781  4.9890671423537318
 10.8341725983681947 11.9257735118724337  4.9163612649189359
 10.2551804233089658 12.2329988992733636  3.6562912754548207
  8.8622855629446935 12.5311758549399492  3.5827171546049050
  8.2081335771708392 12.4882965032409743  2.3225655174690183
  6.8662284366645210 12.0108598087622234  2.2493176331159548
  6.3318119113714904 11.6310534952146956  0.9890219951126120
  5.4395689813196828 10.5206714639504284  0.9156480076947139
 11.7826487377933411 11.0448058739360579  7.4332636085474801
 10.7214326385654015 11.9951690606392987  7.3608829788440735
 10.1326546331380101 12.2819878233923543  6.1006398993196820
  8.7305995733636070 12.5322620759448871  6.0271113472221955
  8.0785453573032271 12.4663881312448375  4.7669363736739800
  6.7539752170546130 11.9425501627570174  4.6938094764230360
  6.2332242037397760 11.5443656382954476  3.4335869313083074
  5.3799449543744196 10.4038201465592639  3.3599961610267584
  5.1451002243156196  9.7917096247470692  2.0997959866821940
  5.0167052814895721  8.3731760337291821  2.0261007105952085
  5.1382421689583690  7.7286278614062018  0.7659575702881763
  5.7734658927436868  6.4537533337875708  0.6926124994556611
 11.6989924853528588 11.1471353128207316  9.8765399166874879
 10.6072947499680001 12.0613095622907096  9.8050971711880184
 10.0087536854909764 12.3281597533381149  8.5451249633308617
  8.5985190520764085 12.5300945407551279  8.4718091888742766
  7.9494111772369509 12.4411023618269763  7.2116808286660161
  6.6437993344414625 11.8710033365647440  7.1385311233926112
  6.1374007625332414 11.4545999709179593  5.8781897309667093
  5.3243149731655697 10.2850977356636122  5.8044192674909860
  5.1108488475114378  9.6651204815506198  4.5442129668860405
  5.0314361996537462  8.2428934710783519  4.4707035297145508
  5.1751607476166388  7.6030890263631443  3.2103098425171597
  5.8537724339802564  6.3508752479033639  3.1367326457349152
  6.3120452976454384  5.8814277162878943  1.8767435728748647
  7.5469534056198313  5.1716578594280769  1.8028993683376020
  8.1836911603601195  5.0125709592772756  0.5430466892317871
  9.6073948540251806  5.0567481317509788  0.4700375464535713
 12.0101066647017269 10.7211439360319236 13.5770692188285711
 11.6182980371623152 11.2495240938661762 12.3199715271604244
 10.4933135604896055 12.1251047205212235 12.2494723424270315
  9.8848414644592566 12.3702174287969964 10.9910918307648853
  8.4672830249015245 12.5219239486401790 10.9175958676897160
  7.8215055379978686 12.4108003686492765  9.6568600074791444
  6.5367707918434190 11.7956625287036747  9.5833343509447442
  6.0450225992720785 11.3618609057393360  8.3228240569695462
  5.2735100431154800 10.1643854920687886  8.2489351629388583
  5.0816125004850266  9.5373178291037330  6.9887770741112263
  5.0516174136256540  8.1131588266260639  6.9154974466160848
  5.2164922691718401  7.4787396014279999  5.6548802068646751
  5.9376670083344916  6.2504628562062781  5.5810523876968103
  6.4117705007805617  5.7973384852362448  4.3209788634590396
  7.6703764029351040  5.1305061628728188  4.2472106568876260
  8.3123117866182454  4.9937997396622773  2.9871935910961658
  9.7335526456711570  5.0871254626737921  2.9141658781919499
 10.3520055940289257  5.3073474643184202  1.6543937191728164
 11.5130993358027727  6.1325146437924767  1.5809768978570693
 11.9243062280138936  6.6441320337691678  0.3211697796008465
 12.4804627852016150  7.9555166747906352  0.2484730165997857
 11.9675316455549634 10.8427124639124592 16.0178205254678510
 11.5444835899616685 11.3496724940332800 14.7689803345385933
 10.3769744787975444 12.1748380221374983 14.6966421999752779
  9.7599450303604360 12.4005886661194431 13.4377123584860954
  8.3388012827650169 12.5025879960312949 13.3635967306524197
  7.6960591566027237 12.3735213255237415 12.1020494890067312
  6.4323515449821826 11.7157770956949534 12.0280109528189545
  5.9558078256329736 11.2660403181131983 10.7676341348457765
  5.2265337892673527 10.0420416177489997 10.6935526861018815
  5.0571571753974629  9.4086121366515911  9.4332201189891371
  5.0769404698370924  7.9844130133866180  9.3600233017281997
  5.2632726201669113  7.3559819675310116  8.0996738644345854
  6.0258535750665949  6.1528089850868808  8.0258206834105259
  6.5146412309146493  5.7163171467733260  6.7653241692405341
  7.7948665608359233  5.0925691131156423  6.6916689520420700
  8.4410776774423102  4.9782700447536641  5.4314630807008557
  9.8583005808259543  5.1203266865417536  5.3582564336142786
 10.4690181571662873  5.3624114112923040  4.0987487684010775
 11.6009392466119543  6.2271396267003842  4.0254104692737327
 11.9944310839042068  6.7531200097876676  2.7656620795503200
 12.5050712266860220  8.0828147242083492  2.6931506438760722
 12.5647960099132927  8.7365740923954522  1.4331944400616334
 12.3012912584567200 10.1364773900872827  1.3599885388071704
 11.9131390258946581 10.9569068385640485 18.4721143871844475
 11.4514738865021766 11.4192984033331069 17.2186324212706729
 10.2530170393118585 12.1895828612379891 17.1423632583089542
  9.6319653159811285 12.4103117113926640 15.8812841646765595
  8.2089205825673428 12.4750288072276518 15.8075753899805065
  7.5709848250891882 12.3298248949302138 14.5471109565336381
  6.3278614256861374 11.6320051070999604 14.4726354628736384
  5.8689321202365639 11.1658851007566788 13.2118653133024484
  5.1827914466854086  9.9177738715383992 13.1377682103657047
  5.0362068998164338  9.2790201826293544 11.8773908447257508
  5.1055970877322245  7.8561630634010244 11.8043416612435408
  5.3144924778657963  7.2346846483324203 10.5442344361208509
  6.1174699537406161  6.0582522407279953 10.4705772025372674
  6.6206491701021246  5.6382205300889474  9.2098107454245728
  7.9209954522682935  5.0573838069714627  9.1364601035626283
  8.5704433252400740  4.9655888230422267  7.8762514731044488
  9.9819844896541827  5.1562742117678111  7.8027823859707466
 10.5836333977957242  5.4204457935360892  6.5430005211546085
 11.6844140077351391  6.3241672882702895  6.4696314310513552
 12.0600622263166759  6.8637799095768210  5.2101291969735453
 12.5239390981918230  8.2106334255588980  5.1374622818105316
 12.5618043688382084  8.8662940277847149  3.8779425251501798
 12.2503760831078576 10.2563680116636124  3.8046787771879194
 11.7857173127001751 10.9932647486316437 20.9268610358038067
 11.3515700983333510 11.4796239409398844 19.6444699859171443
 10.1317255851968522 12.2246888435006742 19.5789050350978293
  9.5036411661754698 12.4198061649594020 18.3238848279382118
  8.0759747527861663 12.4497294320284411 18.2507307138617954
  7.4450028812286213 12.2801489707212674 16.9907983310199278
  6.2260475073352790 11.5442613183513245 16.9165678995040309
  5.7828738676116931 11.0634002790866255 15.6554901244657110
  5.1398645610365694  9.7920468674121821 15.5821129151219608
  5.0172538464716450  9.1486101052369655 14.3217994411878262
  5.1357427449617647  7.7289131439731538 14.2488223056882042
  5.3677501508034995  7.1150873630816225 12.9884937749784104
  6.2103527037934629  5.9668699019509273 12.9150994516121340
  6.7283560243902159  5.5637895469068335 11.6550462858401698
  8.0482436239032520  5.0272651545967175 11.5825657279685252
  8.7005997174261438  4.9575615659127887 10.3216016067633500
 10.1040812474862118  5.1970666628524071 10.2477148459620970
 10.6963667632658144  5.4810611871823909  8.9876063062958966
 11.7644809319704269  6.4236905363356982  8.9138368120264744
 12.1206088334259334  6.9764228678935103  7.6546328119305551
 12.5366342748295185  8.3388337260969791  7.5813503118930710
 12.5521984058651501  8.9956131221923226  6.3220661294121632
 12.1933072225179231 10.3739405729189773  6.2489572895001020
 11.7003565826735283 11.1363475790088984 23.3679254453249072
 11.2407225777783193 11.5846976237922146 22.1051635357797132
 10.0100489603444380 12.2956807652694060 22.0272857211855175
  9.3751940827807037 12.4402831019237077 20.7626140804613755
  7.9537704453966516 12.4188108411608074 20.6919383160926920
  7.3233510631246075 12.2309063147053507 19.4323148090566598
  6.1270033221494318 11.4550817279865100 19.3600582620434771
  5.6996174030323514 10.9592476590513463 18.1004566165140837
  5.1013362947341383  9.6654752673480040 18.0276890697225234
  5.0013987180910924  9.0177806948166292 16.7664991576207179
  5.1681270888955284  7.6034922078366076 16.6934377555625986
  5.4207050067253348  6.9973253739352508 15.4332679932694816
  6.3028675104995644  5.8782227669928870 15.3603368803627074
  6.8374701697386859  5.4945908766035902 14.1005963532713263
  8.1756934790064442  5.0066988949096842 14.0289434453861990
  8.8304262484294345  4.9566367724918612 12.7674145671770223
 10.2249311400829583  5.2453312698718690 12.6934542772635037
 10.8068422464290865  5.5476101627989154 11.4332950111060629
 11.8407838893645465  6.5275184169768865 11.3584236991765550
 12.1765749223420841  7.0919810876933651 10.0983143752528139
 12.5441708463832740  8.4676307841942844 10.0237142263075611
 12.5374963830986736  9.1244085817101528  8.7651319751755583
 12.1318832873107834 10.4900902841298489  8.6925918454250901
 11.6154132322308321 11.2456150784495872 25.8109328433932959
 11.1413157373147893 11.6964811776940216 24.5507243903728849
  9.8861945610144506 12.3636424275502694 24.4729549687774544
  9.2469733517153809 12.4937649583192716 23.2089050578777574
  7.8242079403220268 12.4066009844146219 23.1369869173100078
  7.2055946617882203 12.1833198151158903 21.8781183312200369
  6.0413380132751415 11.3634561496850885 21.8055645634967163
  5.6276871385377731 10.8514192953256554 20.5451552991119719
  5.0736252211048001  9.5393372558684906 20.4728610854405844
  4.9911222345857400  8.8886533742873954 19.2122105502873346
  5.2054180428326084  7.4786855935377661 19.1394851397071477
  5.4778801023043577  6.8821206739060923 17.8789241741526332
  6.3975765118640195  5.7945623774645201 17.8062763375710702
  6.9453811438446120  5.4297132636418750 16.5456393520238016
  8.3015931386928568  4.9957448836108309 16.4737486245214946
  8.9588866589966027  4.9682539758028916 15.2149103980877438
 10.3423052403888871  5.3118294023957562 15.1425608205488551
 10.9135388347433047  5.6271505574311975 13.8786488251821076
 11.9121298703691032  6.6387769117590967 13.8015220874762736
 12.2304531726067438  7.2105637159812792 12.5412398961633027
 12.5503661863050695  8.5989580480156835 12.4642210459023186
 12.5192749695506151  9.2540674376173602 11.2069625721053043
 12.0686622284660618 10.6053826793676791 11.1358905996828241
 11.5280495889741896 11.3429381654046217 28.2535239489216998
 11.0393563821429925 11.7813634560034330 26.9935505150739132
  9.7600258531279138 12.4077369763695096 26.9183153708721470
  9.1146024125081624 12.5218370565082022 25.6579061612082313
  7.6976606716769824 12.3794373732441798 25.5841910044218359
  7.0882720096245091 12.1355475413417935 24.3226916415645178
  5.9567278436715698 11.2703139237526369 24.2503228565240221
  5.5615382101506539 10.7440167580011554 22.9907136169765671
  5.0527032016694573  9.4130279458537558 22.9184560214703978
  4.9921599036171802  8.7587344651229007 21.6584105528500110
  5.2535533203189866  7.3589072924379275 21.5851724254017938
  5.5414566948190913  6.7699894433694725 20.3242016391261799
  6.4981785140817943  5.7132868173687044 20.2515227619876192
  7.0542312361864488  5.3676691903097131 18.9916745614488818
  8.4280232973960221  4.9857198881188465 18.9198336570897645
  9.0858335668897503  4.9954735889577062 17.6602100417553878
 10.4482677266710411  5.4012746688376501 17.5891415716615214
 11.0107157985143385  5.7292364678091108 16.3244116062467768
 11.9734436766309695  6.7748391113332094 16.2473738951053015
 12.2788429946112423  7.3398092481521031 14.9845588720341514
 12.5565051426214467  8.7331387837017083 14.9026497646752318
 12.5006700811203810  9.3864166026270475 13.6446933470589009
 11.4397696901769592 11.4373850309392608 30.6968565654022356
 10.9349692314923228 11.8581087872228608 29.4377396551847106
  9.6342048413639869 12.4388127407667799 29.3639741628037747
  8.9842193440532814 12.5322677373621936 28.1036746235713935
  7.5734295683625508 12.3407683365484608 28.0297388093480713
  6.9720918975918877 12.0786033247511639 26.7688664837587673
  5.8725022687240189 11.1726711027605710 26.6958970674857596
  5.4986193520825521 10.6329664542285744 25.4358363534424541
  5.0362533993953615  9.2859413054800370 25.3632584445753650
  4.9981183492394550  8.6302600457237073 24.1031250954781662
  5.3078512200275236  7.2397634187572049 24.0298259780407015
  5.6163440185758056  6.6615038427667619 22.7697769114253745
  6.6090926209735006  5.6395270968580915 22.6969634483760210
  7.1755227829396739  5.3126312268201188 21.4356236898098373
  8.5588708469212236  4.9751870911822555 21.3615260473726742
  9.2117073531577933  5.0025504568287049 20.1015258973111521
 10.5648227656108684  5.4587009759427669 20.0280851293985762
 11.1058213102775305  5.8328458000042991 18.7729697056881335
 12.0483457662753803  6.9075992932090546 18.7082722850118408
 12.3179283075641699  7.5013778706430934 17.4259490153438392
 12.6017545855296209  8.8695525466608007 17.3284214765208660
 12.5077366765798832  9.5185623658932617 16.0811014219558857
 11.3478792101705253 11.5276212374263789 33.1411064743760946
 10.8283770253153264 11.9301272915540917 31.8815784578622043
  9.5080825826442030 12.4640367417257867 31.8085838864175301
  8.8550644817667727 12.5356368873324584 30.5486299333636708
  7.4510756991343365 12.2953977239587822 30.4748987134218794
  6.8590102815444354 12.0131383134407006 29.2148430914289676
  5.7913318509947791 11.0705664769339638 29.1414054354643071
  5.4365374276775569 10.5190831959935700 27.8805455928040757
  5.0205450822464908  9.1568688646848546 27.8076052809730285
  5.0065524410105287  8.5008720252017440 26.5476718661499334
  5.3648923743285559  7.1221502270801951 26.4742475850203363
  5.6950890898481479  6.5554871987203462 25.2141294037793884
  6.7223479726025435  5.5687942067523215 25.1408244475672440
  7.2993298933361643  5.2603487248096927 23.8799608727304715
  8.6942214436309122  4.9661070858389005 23.8052971256962245
  9.3461998151461358  5.0181223901977292 22.5448242622430399
 10.6845751297009439  5.5059129329619259 22.4711286376070376
 11.2110240692218817  5.9020426935881387 21.2097821721792315
 12.1252235758334379  6.9946418095096545 21.1341633779651694
 12.4285870454690954  7.5735676153309699 19.8808730598943697
 12.8476002816475496  8.9973734218659089 19.8329535168375060
 12.7373411360678936  9.7227143950266584 18.5200398257164451
 11.2524403600023017 11.6145844534285079 35.5855712326933471
 10.7197532206637529 11.9987226914545921 34.3257194232713516
  9.3812294900137125 12.4858636967299184 34.2529900848000324
  8.7261058459457299 12.5339657756561920 32.9933392881571805
  7.3312914987864692 12.2453224747776979 32.9196829010077820
  6.7488640221986937 11.9428008824328096 31.6596112955285207
  5.7133495547753306 10.9650196538908276 31.5862416818374534
  5.3771845215226497 10.4022640190378795 30.3256150880533077
  5.0078530565615038  9.0264822484112130 30.2521891198491666
  5.0173092665963654  8.3707866001972633 28.9920217256218749
  5.4235430505521860  7.0056300219533689 28.9185672081445020
  5.7743314023417609  6.4513245404841779 27.6583405210170383
  6.8357112180591733  5.5008202729973155 27.5850549181145475
  7.4244876862130633  5.2129863787655308 26.3247843195915046
  8.8269074754874701  4.9625818948668927 26.2502587946750054
  9.4786150708003252  5.0312533972930176 24.9887746925592431
 10.8040788465991717  5.5537952646218116 24.9149677967281491
 11.3254213434058659  5.9532194469783182 23.6557840406832334
 12.1936246183446606  7.0891431673289844 23.5836673426011600
 12.4460900185455312  7.6989298483133641 22.3349520764558598
 12.5671566344950811  9.1239818090945288 22.2716126741433378
 12.4635274869104986  9.7714474565077758 21.0242786450966648
 11.1530690976350524 11.6979274148894543 38.0302693076961518
 10.6077237792510495 12.0633662457329436 36.7703066939080259
  9.2531187969701207 12.5038309514815573 36.6974385374856098
  8.5969726142338931 12.5287272669826173 35.4376180183280809
  7.2131039494254932 12.1920933863373513 35.3639765533968031
  6.6413798198293170 11.8696025409782582 34.1040092161405184
  5.6394035952696369 10.8571687238619301 34.0308145877295232
  5.3221256055242696 10.2830734674061368 32.7706442531369504
  4.9999966756908725  8.8956254675474700 32.6968022809185399
  5.0316773072514920  8.2406817952335985 31.4364021524580224
  5.4851567313878320  6.8903282735197946 31.3631135997125767
  5.8554784464818024  6.3489694488228361 30.1028903941681278
  6.9491956525820546  5.4362554123222884 30.0297025606806933
  7.5482333389971528  5.1689394612847765 28.7694037247737278
  8.9580052425711951  4.9655405661687668 28.6952244782373569
  9.6075369210560577  5.0520111894687822 27.4345940793278373
 10.9148488200660694  5.6206525741819933 27.3615965088426556
 11.4220404459347371  6.0360376530087514 26.1030396434318455
 12.2346445617150277  7.2073356005770997 26.0323487536057172
 12.4510621704001316  7.8282786452629605 24.7753933291083328
 12.5213674665047137  9.2486962869992659 24.7078419675608814
 12.3799838700130262  9.8887320884430903 23.4497755957265781
 11.0500849886734525 11.7773783634868341  0.0271331496413975
 10.4929212951618727 12.1240168824877159 39.2149859909539842
  9.1239870991256016 12.5175426470394964 39.1418707593359372
  8.4676729881849635 12.5199438242344243 37.8819525394141792
  7.0960879673708765 12.1357266078323764 37.8083540484225864
  6.5361064582056247 11.7934228489869550 36.5484097708893074
  5.5696231053927976 10.7471247884655874 36.4752395324372074
  5.2722054510830398 10.1623539949591706 35.2151917126538052
  4.9976880769884815  8.7648176601618495 35.1412481861554866
  5.0511989166525781  8.1111570917494085 33.8810737359489451
  5.5511553315425859  6.7773593755904766 33.8078371370173230
  5.9398975822016968  6.2492177310107735 32.5475336160511333
  7.0650602690730899  5.3757550480805349 32.4741979216811885
  7.6726048143253207  5.1293077700550542 31.2140231710575939
  9.0889383269353559  4.9754603919021836 31.1403990482935278
  9.7350434557950756  5.0842884327723414 29.8803003175386053
 11.0204962440737440  5.6985025910779852 29.8075110457946408
 11.5121370446086910  6.1315613147006358 28.5475066785322262
 12.2813362484296231  7.3298648185343458 28.4755002606752612
 12.4725607145166837  7.9568693542171625 27.2162607363785547
 12.4998732969808053  9.3811573190997599 27.1454597563001023
 12.3343240009842159 10.0154966065996778 25.8881066794013002
  8.3380992839008048 12.5064158549736053 40.3263164244081125
  6.9805485563697518 12.0751917290739446 40.2529009321247955
  6.4330405363996626 11.7139237169312143 38.9927226203441322
  5.5031304104740624 10.6350087349239271 38.9194801319112571
  5.2261877678179758 10.0403037148934082 37.6594857047556530
  5.0000662247652059  8.6340664948668771 37.5855804934766766
  5.0762475897199621  7.9826713693783233 36.3255330579198983
  5.6219036282668116  6.6670670197903261 36.2523705174705526
  6.0284212854777186  6.1527154727245801 34.9921083701623772
  7.1833342479535061  5.3189458966527177 34.9185311243831791
  7.7992320036517553  5.0943778056228082 33.6585158978804344
  9.2198152210596938  4.9903684827744188 33.5852102570670894
  9.8616825556807335  5.1221268037598060 32.3249022301671474
 11.1248821354277823  5.7799044690509467 32.2519004046219635
 11.6012066223432875  6.2292847344794415 30.9916950192721004
 12.3303558280462209  7.4531329531517345 30.9186160522729807
 12.4984481172499997  8.0864141499144200 29.6593451156532417
 12.4784180713840680  9.5109612586376358 29.5872510723668611
 12.2891276323817031 10.1395032048856120 28.3285799795031430
  5.1838911965610412  9.9167261141135192 40.1036532564771235
  5.0064774690021094  8.5034900501870236 40.0298278987552862
  5.1054060852784993  7.8550488717425351 38.7697104898162905
  5.6961061298278350  6.5590075240561818 38.6965504263545483
  6.1203313200006644  6.0589723730372960 37.4364644003576146
  7.3034066970448936  5.2656875980563198 37.3627592157551760
  7.9268959934151688  5.0629771739315874 36.1027303131602366
  9.3501770574393799  5.0086209719494335 36.0295612499377427
  9.9871369695318783  5.1629160322414531 34.7693005643277360
 11.2272978393283935  5.8637663505977518 34.6960483435911939
 11.6878765186532245  6.3297407845503368 33.4360151668095398
 12.3754427940790119  7.5773509045357246 33.3627179786630350
 12.5219628105985503  8.2162913686274113 32.1027785448249432
 12.4534942447479899  9.6389945497860356 32.0301861962553218
 12.2432442590708241 10.2610290302513167 30.7708403267934187
  6.2151261277954601  5.9686729707677770 39.8806791818771202
  7.4247858394715580  5.2167148059392385 39.8068617454101670
  8.0551208178787626  5.0355038838422708 38.5468873243592682
  9.4795659951759674  5.0304855398326449 38.4738999559594888
 10.1109684472890518  5.2073499111169070 37.2138303076941384
 11.3261211202923171  5.9506180628004044 37.1403968131784978
 11.7707555523004679  6.4323917113242119 35.8802927867570460
 12.4152719381131735  7.7025935208639167 35.8070722566556014
 12.5407059110892281  8.3462398722097237 34.5468748598319451
 12.4232998447606864  9.7659432725828008 34.4741313557795834
 12.1920744307839453 10.3801625796348507 33.2145291859037854
 10.2329342770738680  5.2552029727343426 39.6581899969939542
 11.4216586662981374  6.0400107862421821 39.5847086038563134
 11.8496695606677118  6.5370813027247623 38.3247178377517415
 12.4504875315243329  7.8286223124341667 38.2517321413426075
 12.5539892810292706  8.4764265569509014 36.9915885069055790
 12.3879458792274377  9.8912430732100098 36.9186230990820832
 12.1359534443054180 10.4972879594845665 35.6587522626548434
 12.5620401765321983  8.6066005524786089 39.4363896218842953
 12.3471352178939195 10.0147130325056928 39.3632606288972866
 12.0749567652444387 10.6118970264421808 38.1033129792587388
 14.4958131839033051  9.6202753774822511 19.1774108843944049
