
     Program PWSCF v.7.2 starts on 13Apr2024 at  1:35:36 

     This program is part of the open-source Quantum ESPRESSO suite
     for quantum simulation of materials; please cite
         "P. Giannozzi et al., J. Phys.:Condens. Matter 21 395502 (2009);
         "P. Giannozzi et al., J. Phys.:Condens. Matter 29 465901 (2017);
         "P. Giannozzi et al., J. Chem. Phys. 152 154105 (2020);
          URL http://www.quantum-espresso.org", 
     in publications or presentations arising from this work. More details at
     http://www.quantum-espresso.org/quote

     Parallel version (MPI & OpenMP), running on    6144 processor cores
     Number of MPI processes:              1536
     Threads/MPI process:                     4

     MPI processes distributed on    24 nodes
     479225 MiB available memory on the printing compute node when the environment starts

     Reading input from espresso.pwi
Warning: card &IONS ignored
Warning: card / ignored
Warning: card &CELL ignored
Warning: card / ignored

     Current dimensions of program PWSCF are:
     Max number of different atomic species (ntypx) = 10
     Max number of k-points (npk) =  40000
     Max angular momentum in pseudopotentials (lmaxx) =  4

     Atomic positions and unit cell read from directory:
     ./CNT_PBE.save/
     Atomic positions from file used, from input discarded


     K-points division:     npool     =       4
     R & G space division:  proc/nbgrp/npool/nimage =     384
     Subspace diagonalization in iterative solution of the eigenvalue problem:
     one sub-group per band group will be used
     custom distributed-memory algorithm (size of sub-group:  8*  8 procs)


     Parallelization info
     --------------------
     sticks:   dense  smooth     PW     G-vecs:    dense   smooth      PW
     Min         114     114     29                28776    28776    3693
     Max         115     115     30                28795    28795    3705
     Sum       43977   43977  11205             11053081 11053081 1420575

     Using Slab Decomposition



     bravais-lattice index     =            0
     lattice parameter (alat)  =      61.1748  a.u.
     unit-cell volume          =  176044.1909 (a.u.)^3
     number of atoms/cell      =          364
     number of atomic types    =            1
     number of electrons       =      1456.00
     number of Kohn-Sham states=          800
     kinetic-energy cutoff     =      60.0000  Ry
     charge density cutoff     =     240.0000  Ry
     Exchange-correlation= PBE
                           (   1   4   3   4   0   0   0)

     celldm(1)=  61.174780  celldm(2)=   0.000000  celldm(3)=   0.000000
     celldm(4)=   0.000000  celldm(5)=   0.000000  celldm(6)=   0.000000

     crystal axes: (cart. coord. in units of alat)
               a(1) = (   1.000000   0.000000   0.000000 )  
               a(2) = (   0.000000   0.615409   0.000000 )  
               a(3) = (   0.000000   0.000000   1.249513 )  

     reciprocal axes: (cart. coord. in units 2 pi/alat)
               b(1) = (  1.000000  0.000000  0.000000 )  
               b(2) = (  0.000000  1.624937  0.000000 )  
               b(3) = (  0.000000  0.000000  0.800312 )  


     PseudoPot. # 1 for C  read from file:
     ./C_ONCV_PBE-1.2.upf
     MD5 check sum: 1a5f83a7b1f58d24996abe00ed223ac6
     Pseudo is Norm-conserving, Zval =  4.0
     Generated using ONCVPSP code by D. R. Hamann
     Using radial grid of  602 points,  4 beta functions with: 
                l(1) =   0
                l(2) =   0
                l(3) =   1
                l(4) =   1

     atomic species   valence    mass     pseudopotential
        C              4.00    12.01100     C ( 1.00)

     No symmetry found


                                    s                        frac. trans.

      isym =  1     identity                                     

 cryst.   s( 1) = (     1          0          0      )
                  (     0          1          0      )
                  (     0          0          1      )

 cart.    s( 1) = (  1.0000000  0.0000000  0.0000000 )
                  (  0.0000000  1.0000000  0.0000000 )
                  (  0.0000000  0.0000000  1.0000000 )


   Cartesian axes

     site n.     atom                  positions (alat units)
         1           C   tau(   1) = (   0.3709934   0.3312973   0.0030768  )
         2           C   tau(   2) = (   0.3688304   0.3346927   0.0785354  )
         3           C   tau(   3) = (   0.3380914   0.3661837   0.0762870  )
         4           C   tau(   4) = (   0.3205134   0.3762870   0.0373874  )
         5           C   tau(   5) = (   0.2778290   0.3869766   0.0351263  )
         6           C   tau(   6) = (   0.3665437   0.3380113   0.1540010  )
         7           C   tau(   7) = (   0.3347369   0.3684219   0.1517534  )
         8           C   tau(   8) = (   0.3168225   0.3779110   0.1128502  )
         9           C   tau(   9) = (   0.2737926   0.3871133   0.1105826  )
        10           C   tau(  10) = (   0.2535628   0.3857956   0.0716841  )
        11           C   tau(  11) = (   0.2121064   0.3710462   0.0694273  )
        12           C   tau(  12) = (   0.1955818   0.3593042   0.0305242  )
        13           C   tau(  13) = (   0.1680231   0.3249978   0.0282658  )
        14           C   tau(  14) = (   0.3641286   0.3412472   0.2294843  )
        15           C   tau(  15) = (   0.3312934   0.3705407   0.2272343  )
        16           C   tau(  16) = (   0.3130741   0.3794044   0.1883219  )
        17           C   tau(  17) = (   0.2697534   0.3871167   0.1860513  )
        18           C   tau(  18) = (   0.2495864   0.3850977   0.1471456  )
        19           C   tau(  19) = (   0.2086650   0.3689266   0.1448930  )
        20           C   tau(  20) = (   0.1925543   0.3566270   0.1059855  )
        21           C   tau(  21) = (   0.1661959   0.3213930   0.1037229  )
        22           C   tau(  22) = (   0.1589333   0.3024692   0.0648218  )
        23           C   tau(  23) = (   0.1549840   0.2586418   0.0625577  )
        24           C   tau(  24) = (   0.1587418   0.2387197   0.0236560  )
        25           C   tau(  25) = (   0.1783820   0.1993400   0.0214023  )
        26           C   tau(  26) = (   0.3616055   0.3443998   0.3049885  )
        27           C   tau(  27) = (   0.3277797   0.3725413   0.3027328  )
        28           C   tau(  28) = (   0.3092672   0.3807707   0.2638109  )
        29           C   tau(  29) = (   0.2657095   0.3869883   0.2615380  )
        30           C   tau(  30) = (   0.2456300   0.3842736   0.2226206  )
        31           C   tau(  31) = (   0.2052912   0.3666989   0.2203704  )
        32           C   tau(  32) = (   0.1896176   0.3538516   0.1814578  )
        33           C   tau(  33) = (   0.1644903   0.3177286   0.1791898  )
        34           C   tau(  34) = (   0.1578926   0.2985645   0.1402831  )
        35           C   tau(  35) = (   0.1554564   0.2546284   0.1380233  )
        36           C   tau(  36) = (   0.1598993   0.2348505   0.0991146  )
        37           C   tau(  37) = (   0.1808805   0.1961713   0.0968568  )
        38           C   tau(  38) = (   0.1950389   0.1816622   0.0579583  )
        39           C   tau(  39) = (   0.2331951   0.1597422   0.0556869  )
        40           C   tau(  40) = (   0.2528648   0.1548211   0.0167891  )
        41           C   tau(  41) = (   0.2968469   0.1561891   0.0145366  )
        42           C   tau(  42) = (   0.3709857   0.3311611   0.4194608  )
        43           C   tau(  43) = (   0.3589767   0.3474695   0.3805168  )
        44           C   tau(  44) = (   0.3242046   0.3744311   0.3782528  )
        45           C   tau(  45) = (   0.3054200   0.3820086   0.3393208  )
        46           C   tau(  46) = (   0.2616737   0.3867219   0.3370485  )
        47           C   tau(  47) = (   0.2417028   0.3833167   0.2981197  )
        48           C   tau(  48) = (   0.2019929   0.3643642   0.2958674  )
        49           C   tau(  49) = (   0.1867817   0.3509760   0.2569470  )
        50           C   tau(  50) = (   0.1629254   0.3140047   0.2546739  )
        51           C   tau(  51) = (   0.1569927   0.2946262   0.2157603  )
        52           C   tau(  52) = (   0.1560748   0.2506344   0.2135036  )
        53           C   tau(  53) = (   0.1611867   0.2310238   0.1745889  )
        54           C   tau(  54) = (   0.1834905   0.1930928   0.1723231  )
        55           C   tau(  55) = (   0.1981437   0.1790857   0.1334192  )
        56           C   tau(  56) = (   0.2370336   0.1585018   0.1311500  )
        57           C   tau(  57) = (   0.2568591   0.1542605   0.0922474  )
        58           C   tau(  58) = (   0.3007671   0.1571488   0.0899931  )
        59           C   tau(  59) = (   0.3198668   0.1639442   0.0510957  )
        60           C   tau(  60) = (   0.3557293   0.1894409   0.0488228  )
        61           C   tau(  61) = (   0.3684277   0.2052483   0.0099261  )
        62           C   tau(  62) = (   0.3855938   0.2457637   0.0076755  )
        63           C   tau(  63) = (   0.3688196   0.3345671   0.4950198  )
        64           C   tau(  64) = (   0.3562476   0.3504455   0.4560680  )
        65           C   tau(  65) = (   0.3205705   0.3761946   0.4537964  )
        66           C   tau(  66) = (   0.3015396   0.3831214   0.4148544  )
        67           C   tau(  67) = (   0.2576579   0.3863203   0.4125867  )
        68           C   tau(  68) = (   0.2378189   0.3822234   0.3736455  )
        69           C   tau(  69) = (   0.1987883   0.3619127   0.3713883  )
        70           C   tau(  70) = (   0.1840429   0.3480163   0.3324581  )
        71           C   tau(  71) = (   0.1614820   0.3102398   0.3301833  )
        72           C   tau(  72) = (   0.1562267   0.2906678   0.2912591  )
        73           C   tau(  73) = (   0.1568356   0.2466720   0.2890040  )
        74           C   tau(  74) = (   0.1626218   0.2272507   0.2500825  )
        75           C   tau(  75) = (   0.1862182   0.1901124   0.2478101  )
        76           C   tau(  76) = (   0.2013346   0.1766185   0.2088954  )
        77           C   tau(  77) = (   0.2409085   0.1573868   0.2066310  )
        78           C   tau(  78) = (   0.2608664   0.1538365   0.1677189  )
        79           C   tau(  79) = (   0.3046462   0.1582388   0.1654602  )
        80           C   tau(  80) = (   0.3235043   0.1656849   0.1265587  )
        81           C   tau(  81) = (   0.3584686   0.1923996   0.1242866  )
        82           C   tau(  82) = (   0.3706135   0.2086339   0.0853855  )
        83           C   tau(  83) = (   0.3863774   0.2497154   0.0831376  )
        84           C   tau(  84) = (   0.3881997   0.2699106   0.0442385  )
        85           C   tau(  85) = (   0.3800427   0.3131514   0.0419719  )
        86           C   tau(  86) = (   0.3665372   0.3378993   0.5705903  )
        87           C   tau(  87) = (   0.3534366   0.3533402   0.5316333  )
        88           C   tau(  88) = (   0.3168907   0.3778433   0.5293571  )
        89           C   tau(  89) = (   0.2976270   0.3841041   0.4904075  )
        90           C   tau(  90) = (   0.2536608   0.3857806   0.4881452  )
        91           C   tau(  91) = (   0.2339736   0.3810047   0.4491941  )
        92           C   tau(  92) = (   0.1956712   0.3593511   0.4469304  )
        93           C   tau(  93) = (   0.1814235   0.3449503   0.4079894  )
        94           C   tau(  94) = (   0.1601818   0.3064190   0.4057171  )
        95           C   tau(  95) = (   0.1556008   0.2866850   0.3667780  )
        96           C   tau(  96) = (   0.1577299   0.2427369   0.3645236  )
        97           C   tau(  97) = (   0.1641817   0.2235292   0.3255923  )
        98           C   tau(  98) = (   0.1890451   0.1872269   0.3233165  )
        99           C   tau(  99) = (   0.2046181   0.1742627   0.2843912  )
       100           C   tau( 100) = (   0.2448287   0.1564001   0.2821320  )
       101           C   tau( 101) = (   0.2648887   0.1535420   0.2432072  )
       102           C   tau( 102) = (   0.3084894   0.1594551   0.2409448  )
       103           C   tau( 103) = (   0.3270710   0.1675528   0.2020333  )
       104           C   tau( 104) = (   0.3610948   0.1954565   0.1997662  )
       105           C   tau( 105) = (   0.3726778   0.2120941   0.1608558  )
       106           C   tau( 106) = (   0.3870107   0.2536957   0.1586062  )
       107           C   tau( 107) = (   0.3881426   0.2739384   0.1197032  )
       108           C   tau( 108) = (   0.3784999   0.3168720   0.1174338  )
       109           C   tau( 109) = (   0.3641430   0.3411470   0.6461637  )
       110           C   tau( 110) = (   0.3505121   0.3561244   0.6072072  )
       111           C   tau( 111) = (   0.3131474   0.3793544   0.6049296  )
       112           C   tau( 112) = (   0.2936842   0.3849479   0.5659740  )
       113           C   tau( 113) = (   0.2496853   0.3851023   0.5637178  )
       114           C   tau( 114) = (   0.2301826   0.3796442   0.5247611  )
       115           C   tau( 115) = (   0.1926551   0.3566767   0.5224901  )
       116           C   tau( 116) = (   0.1789130   0.3417982   0.4835409  )
       117           C   tau( 117) = (   0.1590049   0.3025617   0.4812727  )
       118           C   tau( 118) = (   0.1551093   0.2826830   0.4423226  )
       119           C   tau( 119) = (   0.1587508   0.2388344   0.4400645  )
       120           C   tau( 120) = (   0.1658680   0.2198676   0.4011234  )
       121           C   tau( 121) = (   0.1919671   0.1844440   0.3988468  )
       122           C   tau( 122) = (   0.2079725   0.1720234   0.3599091  )
       123           C   tau( 123) = (   0.2487747   0.1555555   0.3576539  )
       124           C   tau( 124) = (   0.2689208   0.1533888   0.3187199  )
       125           C   tau( 125) = (   0.3122905   0.1608102   0.3164517  )
       126           C   tau( 126) = (   0.3305762   0.1695393   0.2775269  )
       127           C   tau( 127) = (   0.3636153   0.1986023   0.2752662  )
       128           C   tau( 128) = (   0.3746122   0.2156264   0.2363435  )
       129           C   tau( 129) = (   0.3874993   0.2576989   0.2340901  )
       130           C   tau( 130) = (   0.3879296   0.2779633   0.1951783  )
       131           C   tau( 131) = (   0.3768065   0.3205358   0.1929097  )
       132           C   tau( 132) = (   0.3616481   0.3443145   0.7217348  )
       133           C   tau( 133) = (   0.3475113   0.3588167   0.6827819  )
       134           C   tau( 134) = (   0.3093648   0.3807422   0.6805077  )
       135           C   tau( 135) = (   0.2897151   0.3856554   0.6415504  )
       136           C   tau( 136) = (   0.2457391   0.3842859   0.6392949  )
       137           C   tau( 137) = (   0.2264328   0.3781600   0.6003376  )
       138           C   tau( 138) = (   0.1897177   0.3539122   0.5980619  )
       139           C   tau( 139) = (   0.1765046   0.3385648   0.5591069  )
       140           C   tau( 140) = (   0.1579636   0.2986656   0.5568443  )
       141           C   tau( 141) = (   0.1547590   0.2786660   0.5178867  )
       142           C   tau( 142) = (   0.1599173   0.2349712   0.5156219  )
       143           C   tau( 143) = (   0.1676743   0.2162607   0.4766728  )
       144           C   tau( 144) = (   0.1949828   0.1817624   0.4743989  )
       145           C   tau( 145) = (   0.2114044   0.1699057   0.4354503  )
       146           C   tau( 146) = (   0.2527472   0.1548551   0.4331950  )
       147           C   tau( 147) = (   0.2729526   0.1533828   0.3942524  )
       148           C   tau( 148) = (   0.3160385   0.1622959   0.3919792  )
       149           C   tau( 149) = (   0.3340105   0.1716504   0.3530445  )
       150           C   tau( 150) = (   0.3660255   0.2018377   0.3507887  )
       151           C   tau( 151) = (   0.3764238   0.2192262   0.3118539  )
       152           C   tau( 152) = (   0.3878472   0.2617181   0.3095943  )
       153           C   tau( 153) = (   0.3875781   0.2819787   0.2706707  )
       154           C   tau( 154) = (   0.3749907   0.3241417   0.2684043  )
       155           C   tau( 155) = (   0.3590414   0.3473951   0.7972957  )
       156           C   tau( 156) = (   0.3444059   0.3613939   0.7583489  )
       157           C   tau( 157) = (   0.3055237   0.3819834   0.7560814  )
       158           C   tau( 158) = (   0.2857216   0.3862218   0.7171252  )
       159           C   tau( 159) = (   0.2418197   0.3833327   0.7148685  )
       160           C   tau( 160) = (   0.2227426   0.3765404   0.6759137  )
       161           C   tau( 161) = (   0.1868861   0.3510422   0.6736363  )
       162           C   tau( 162) = (   0.1742052   0.3352502   0.6346803  )
       163           C   tau( 163) = (   0.1570520   0.2947355   0.6324224  )
       164           C   tau( 164) = (   0.1545397   0.2746393   0.5934625  )
       165           C   tau( 165) = (   0.1611978   0.2311483   0.5911913  )
       166           C   tau( 166) = (   0.1696077   0.2127229   0.5522380  )
       167           C   tau( 167) = (   0.1980871   0.1791855   0.5499689  )
       168           C   tau( 168) = (   0.2149075   0.1679037   0.5110118  )
       169           C   tau( 169) = (   0.2567446   0.1542889   0.5087526  )
       170           C   tau( 170) = (   0.2769841   0.1535161   0.4698032  )
       171           C   tau( 171) = (   0.3197353   0.1639121   0.4675283  )
       172           C   tau( 172) = (   0.3373677   0.1738805   0.4285831  )
       173           C   tau( 173) = (   0.3683158   0.2051562   0.4263301  )
       174           C   tau( 174) = (   0.3781096   0.2228900   0.3873873  )
       175           C   tau( 175) = (   0.3880545   0.2657502   0.3851194  )
       176           C   tau( 176) = (   0.3870843   0.2859851   0.3461849  )
       177           C   tau( 177) = (   0.3730509   0.3276861   0.3439217  )
       178           C   tau( 178) = (   0.3563354   0.3503870   0.8728407  )
       179           C   tau( 179) = (   0.3412176   0.3638685   0.8339034  )
       180           C   tau( 180) = (   0.3016474   0.3831070   0.8316432  )
       181           C   tau( 181) = (   0.2817079   0.3866519   0.7926938  )
       182           C   tau( 182) = (   0.2379309   0.3822498   0.7904321  )
       183           C   tau( 183) = (   0.2190977   0.3748045   0.7514833  )
       184           C   tau( 184) = (   0.1841362   0.3480907   0.7492090  )
       185           C   tau( 185) = (   0.1720164   0.3318656   0.7102543  )
       186           C   tau( 186) = (   0.1562670   0.2907851   0.7079990  )
       187           C   tau( 187) = (   0.1544560   0.2706111   0.6690429  )
       188           C   tau( 188) = (   0.1626107   0.2273767   0.6667671  )
       189           C   tau( 189) = (   0.1716458   0.2092487   0.6278120  )
       190           C   tau( 190) = (   0.2012702   0.1767181   0.6255497  )
       191           C   tau( 191) = (   0.2184686   0.1660200   0.5865888  )
       192           C   tau( 192) = (   0.2607506   0.1538560   0.5843246  )
       193           C   tau( 193) = (   0.2810049   0.1537823   0.5453699  )
       194           C   tau( 194) = (   0.3233729   0.1656446   0.5430962  )
       195           C   tau( 195) = (   0.3406496   0.1762205   0.5041426  )
       196           C   tau( 196) = (   0.3704959   0.2085475   0.5018895  )
       197           C   tau( 197) = (   0.3796640   0.2266091   0.4629397  )
       198           C   tau( 198) = (   0.3881215   0.2697849   0.4606656  )
       199           C   tau( 199) = (   0.3864516   0.2899719   0.4217216  )
       200           C   tau( 200) = (   0.3535344   0.3532928   0.9483651  )
       201           C   tau( 201) = (   0.3379514   0.3662412   0.9094374  )
       202           C   tau( 202) = (   0.2977391   0.3841027   0.9071845  )
       203           C   tau( 203) = (   0.2776804   0.3869560   0.8682462  )
       204           C   tau( 204) = (   0.2340803   0.3810496   0.8659803  )
       205           C   tau( 205) = (   0.2155120   0.3729491   0.8270401  )
       206           C   tau( 206) = (   0.1814964   0.3450421   0.8247732  )
       207           C   tau( 207) = (   0.1699350   0.3284106   0.7858226  )
       208           C   tau( 208) = (   0.1556121   0.2868101   0.7835653  )
       209           C   tau( 209) = (   0.1545016   0.2665827   0.7446159  )
       210           C   tau( 210) = (   0.1641482   0.2236566   0.7423386  )
       211           C   tau( 211) = (   0.1738094   0.2058516   0.7033867  )
       212           C   tau( 212) = (   0.2045359   0.1743588   0.7011297  )
       213           C   tau( 213) = (   0.2220973   0.1642682   0.6621711  )
       214           C   tau( 214) = (   0.2647711   0.1535647   0.6599007  )
       215           C   tau( 215) = (   0.2850154   0.1541888   0.6209443  )
       216           C   tau( 216) = (   0.3269476   0.1675033   0.6186755  )
       217           C   tau( 217) = (   0.3438492   0.1786644   0.5797153  )
       218           C   tau( 218) = (   0.3725604   0.2120057   0.5774589  )
       219           C   tau( 219) = (   0.3810953   0.2303761   0.5385064  )
       220           C   tau( 220) = (   0.3880557   0.2738193   0.5362303  )
       221           C   tau( 221) = (   0.3856896   0.2939325   0.4972774  )
       222           C   tau( 222) = (   0.3506287   0.3560923   1.0238670  )
       223           C   tau( 223) = (   0.3346049   0.3685011   0.9849490  )
       224           C   tau( 224) = (   0.2937991   0.3849618   0.9827008  )
       225           C   tau( 225) = (   0.2736485   0.3871199   0.9437762  )
       226           C   tau( 226) = (   0.2302762   0.3797103   0.9415092  )
       227           C   tau( 227) = (   0.2119954   0.3709777   0.9025790  )
       228           C   tau( 228) = (   0.1789645   0.3419086   0.9003202  )
       229           C   tau( 229) = (   0.1679799   0.3248846   0.8613789  )
       230           C   tau( 230) = (   0.1550971   0.2828143   0.8591173  )
       231           C   tau( 231) = (   0.1546853   0.2625588   0.8201752  )
       232           C   tau( 232) = (   0.1658125   0.2199920   0.8179000  )
       233           C   tau( 233) = (   0.1760828   0.2025287   0.7789531  )
       234           C   tau( 234) = (   0.2078733   0.1721094   0.7766988  )
       235           C   tau( 235) = (   0.2257754   0.1626263   0.7377482  )
       236           C   tau( 236) = (   0.2687960   0.1534081   0.7354729  )
       237           C   tau( 237) = (   0.2890090   0.1547318   0.6965209  )
       238           C   tau( 238) = (   0.3304583   0.1694859   0.6942582  )
       239           C   tau( 239) = (   0.3469650   0.1812187   0.6552967  )
       240           C   tau( 240) = (   0.3745029   0.2155331   0.6530328  )
       241           C   tau( 241) = (   0.3823954   0.2341878   0.6140786  )
       242           C   tau( 242) = (   0.3878477   0.2778462   0.6118041  )
       243           C   tau( 243) = (   0.3847934   0.2978686   0.5728470  )
       244           C   tau( 244) = (   0.3476372   0.3587931   1.0993532  )
       245           C   tau( 245) = (   0.3311922   0.3706449   1.0604435  )
       246           C   tau( 246) = (   0.2898400   0.3856842   1.0581955  )
       247           C   tau( 247) = (   0.2696206   0.3871435   1.0192837  )
       248           C   tau( 248) = (   0.2265304   0.3782343   1.0170147  )
       249           C   tau( 249) = (   0.2085512   0.3688742   0.9780973  )
       250           C   tau( 250) = (   0.1765402   0.3386831   0.9758442  )
       251           C   tau( 251) = (   0.1661534   0.3212883   0.9369137  )
       252           C   tau( 252) = (   0.1547270   0.2787978   0.9346476  )
       253           C   tau( 253) = (   0.1550077   0.2585400   0.8957154  )
       254           C   tau( 254) = (   0.1675917   0.2163786   0.8934463  )
       255           C   tau( 255) = (   0.1784669   0.1992830   0.8545061  )
       256           C   tau( 256) = (   0.2112906   0.1699821   0.8522504  )
       257           C   tau( 257) = (   0.2295095   0.1611196   0.8133097  )
       258           C   tau( 258) = (   0.2728237   0.1533951   0.8110347  )
       259           C   tau( 259) = (   0.2929786   0.1554159   0.7720885  )
       260           C   tau( 260) = (   0.3338918   0.1715975   0.7698307  )
       261           C   tau( 261) = (   0.3499864   0.1838928   0.7308763  )
       262           C   tau( 262) = (   0.3763309   0.2191327   0.7286048  )
       263           C   tau( 263) = (   0.3835692   0.2380430   0.6896508  )
       264           C   tau( 264) = (   0.3875137   0.2818632   0.6873814  )
       265           C   tau( 265) = (   0.3837607   0.3017662   0.6484227  )
       266           C   tau( 266) = (   0.3445479   0.3613734   1.1748256  )
       267           C   tau( 267) = (   0.3277009   0.3726588   1.1359225  )
       268           C   tau( 268) = (   0.2858543   0.3862642   1.1336710  )
       269           C   tau( 269) = (   0.2655935   0.3870265   1.0947684  )
       270           C   tau( 270) = (   0.2228393   0.3766281   1.0924990  )
       271           C   tau( 271) = (   0.2051911   0.3666501   1.0535918  )
       272           C   tau( 272) = (   0.1742360   0.3353758   1.0513410  )
       273           C   tau( 273) = (   0.1644420   0.3176292   1.0124260  )
       274           C   tau( 274) = (   0.1544919   0.2747673   1.0101539  )
       275           C   tau( 275) = (   0.1554706   0.2545265   0.9712340  )
       276           C   tau( 276) = (   0.1694987   0.2128223   0.9689716  )
       277           C   tau( 277) = (   0.1809544   0.1961105   0.9300403  )
       278           C   tau( 278) = (   0.2147709   0.1679592   0.9277796  )
       279           C   tau( 279) = (   0.2332943   0.1597389   0.8888507  )
       280           C   tau( 280) = (   0.2768511   0.1535226   0.8865765  )
       281           C   tau( 281) = (   0.2969307   0.1562396   0.8476397  )
       282           C   tau( 282) = (   0.3372617   0.1738240   0.8453837  )
       283           C   tau( 283) = (   0.3529213   0.1866682   0.8064393  )
       284           C   tau( 284) = (   0.3780419   0.2227915   0.8041633  )
       285           C   tau( 285) = (   0.3846284   0.2419441   0.7652166  )
       286           C   tau( 286) = (   0.3870563   0.2858756   0.7629535  )
       287           C   tau( 287) = (   0.3826163   0.3056347   0.7239977  )
       288           C   tau( 288) = (   0.3413651   0.3638340   0.0008255  )
       289           C   tau( 289) = (   0.3241445   0.3745422   1.2113899  )
       290           C   tau( 290) = (   0.2818527   0.3866977   1.2091338  )
       291           C   tau( 291) = (   0.2615739   0.3867668   1.1702372  )
       292           C   tau( 292) = (   0.2192027   0.3748981   1.1679698  )
       293           C   tau( 293) = (   0.2019073   0.3643146   1.1290686  )
       294           C   tau( 294) = (   0.1720538   0.3319876   1.1268170  )
       295           C   tau( 295) = (   0.1628766   0.3139119   1.0879140  )
       296           C   tau( 296) = (   0.1544093   0.2707342   1.0856387  )
       297           C   tau( 297) = (   0.1560791   0.2505324   1.0467309  )
       298           C   tau( 298) = (   0.1715359   0.2093366   1.0444730  )
       299           C   tau( 299) = (   0.1835579   0.1930227   1.0055546  )
       300           C   tau( 300) = (   0.2183345   0.1660643   1.0032881  )
       301           C   tau( 301) = (   0.2371265   0.1584892   0.9643691  )
       302           C   tau( 302) = (   0.2808741   0.1537870   0.9620992  )
       303           C   tau( 303) = (   0.3008464   0.1572020   0.9231711  )
       304           C   tau( 304) = (   0.3405482   0.1761646   0.9209129  )
       305           C   tau( 305) = (   0.3557597   0.1895467   0.8819822  )
       306           C   tau( 306) = (   0.3796213   0.2265134   0.8797052  )
       307           C   tau( 307) = (   0.3855467   0.2458808   0.8407673  )
       308           C   tau( 308) = (   0.3864611   0.2898702   0.8385099  )
       309           C   tau( 309) = (   0.3813391   0.3094646   0.7995639  )
       310           C   tau( 310) = (   0.2575650   0.3863542   1.2456945  )
       311           C   tau( 311) = (   0.2156281   0.3730327   1.2434322  )
       312           C   tau( 312) = (   0.1987063   0.3618641   1.2045321  )
       313           C   tau( 313) = (   0.1699842   0.3285271   1.2022774  )
       314           C   tau( 314) = (   0.1614363   0.3101426   1.1633815  )
       315           C   tau( 315) = (   0.1544650   0.2666969   1.1611071  )
       316           C   tau( 316) = (   0.1568354   0.2465658   1.1222062  )
       317           C   tau( 317) = (   0.1737052   0.2059269   1.1199528  )
       318           C   tau( 318) = (   0.1862829   0.1900368   1.0810444  )
       319           C   tau( 319) = (   0.2219676   0.1642938   1.0787733  )
       320           C   tau( 320) = (   0.2410144   0.1573742   1.0398633  )
       321           C   tau( 321) = (   0.2848980   0.1541814   1.0376002  )
       322           C   tau( 322) = (   0.3047401   0.1582856   0.9986806  )
       323           C   tau( 323) = (   0.3437697   0.1786003   0.9964205  )
       324           C   tau( 324) = (   0.3585047   0.1925083   0.9575009  )
       325           C   tau( 325) = (   0.3810758   0.2302790   0.9552275  )
       326           C   tau( 326) = (   0.3863293   0.2498463   0.9163005  )
       327           C   tau( 327) = (   0.3857318   0.2938426   0.9140476  )
       328           C   tau( 328) = (   0.3799323   0.3132501   0.8751126  )
       329           C   tau( 329) = (   0.1601221   0.3063260   1.2388348  )
       330           C   tau( 330) = (   0.1546555   0.2626631   1.2365643  )
       331           C   tau( 331) = (   0.1577221   0.2426225   1.1976659  )
       332           C   tau( 332) = (   0.1759866   0.2025885   1.1954142  )
       333           C   tau( 333) = (   0.1891064   0.1871388   1.1565128  )
       334           C   tau( 334) = (   0.2256600   0.1626389   1.1542404  )
       335           C   tau( 335) = (   0.2449361   0.1563809   1.1153366  )
       336           C   tau( 336) = (   0.2889066   0.1547078   1.1130810  )
       337           C   tau( 337) = (   0.3085981   0.1594945   1.0741695  )
       338           C   tau( 338) = (   0.3469063   0.1811462   1.0719071  )
       339           C   tau( 339) = (   0.3611532   0.1955598   1.0329965  )
       340           C   tau( 340) = (   0.3824024   0.2340907   1.0307293  )
       341           C   tau( 341) = (   0.3869773   0.2538331   0.9918105  )
       342           C   tau( 342) = (   0.3848640   0.2977843   0.9895583  )
       343           C   tau( 343) = (   0.3784043   0.3169919   0.9506371  )
       344           C   tau( 344) = (   0.1920303   0.1843499   1.2319700  )
       345           C   tau( 345) = (   0.2294067   0.1611231   1.2296975  )
       346           C   tau( 346) = (   0.2488872   0.1555255   1.1907979  )
       347           C   tau( 347) = (   0.2928920   0.1553739   1.1885474  )
       348           C   tau( 348) = (   0.3124084   0.1608450   1.1496426  )
       349           C   tau( 349) = (   0.3499420   0.1838109   1.1473762  )
       350           C   tau( 350) = (   0.3636890   0.1987051   1.1084723  )
       351           C   tau( 351) = (   0.3835936   0.2379472   1.1062117  )
       352           C   tau( 352) = (   0.3874833   0.2578403   1.0673009  )
       353           C   tau( 353) = (   0.3838477   0.3016927   1.0650471  )
       354           C   tau( 354) = (   0.3767291   0.3206659   1.0261357  )
       355           C   tau( 355) = (   0.3161745   0.1623193   1.2251036  )
       356           C   tau( 356) = (   0.3528943   0.1865695   1.2228331  )
       357           C   tau( 357) = (   0.3661170   0.2019358   1.1839346  )
       358           C   tau( 358) = (   0.3846654   0.2418370   1.1816799  )
       359           C   tau( 359) = (   0.3878627   0.2618587   1.1427759  )
       360           C   tau( 360) = (   0.3827192   0.3055609   1.1405177  )
       361           C   tau( 361) = (   0.3749423   0.3242852   1.1016170  )
       362           C   tau( 362) = (   0.3881069   0.2658832   1.2182402  )
       363           C   tau( 363) = (   0.3814520   0.3093814   1.2159780  )
       364           C   tau( 364) = (   0.3730340   0.3278301   1.1770831  )

   Crystallographic axes

     site n.     atom                  positions (cryst. coord.)
         1           C   tau(   1) = (  0.3709934  0.5383372  0.0024624  )
         2           C   tau(   2) = (  0.3688304  0.5438544  0.0628528  )
         3           C   tau(   3) = (  0.3380914  0.5950254  0.0610534  )
         4           C   tau(   4) = (  0.3205134  0.6114426  0.0299216  )
         5           C   tau(   5) = (  0.2778290  0.6288125  0.0281119  )
         6           C   tau(   6) = (  0.3665437  0.5492471  0.1232488  )
         7           C   tau(   7) = (  0.3347369  0.5986622  0.1214500  )
         8           C   tau(   8) = (  0.3168225  0.6140814  0.0903153  )
         9           C   tau(   9) = (  0.2737926  0.6290346  0.0885006  )
        10           C   tau(  10) = (  0.2535628  0.6268934  0.0573696  )
        11           C   tau(  11) = (  0.2121064  0.6029267  0.0555635  )
        12           C   tau(  12) = (  0.1955818  0.5838466  0.0244288  )
        13           C   tau(  13) = (  0.1680231  0.5281010  0.0226214  )
        14           C   tau(  14) = (  0.3641286  0.5545051  0.1836589  )
        15           C   tau(  15) = (  0.3312934  0.6021053  0.1818582  )
        16           C   tau(  16) = (  0.3130741  0.6165081  0.1507162  )
        17           C   tau(  17) = (  0.2697534  0.6290401  0.1488990  )
        18           C   tau(  18) = (  0.2495864  0.6257594  0.1177623  )
        19           C   tau(  19) = (  0.2086650  0.5994824  0.1159595  )
        20           C   tau(  20) = (  0.1925543  0.5794963  0.0848215  )
        21           C   tau(  21) = (  0.1661959  0.5222433  0.0830107  )
        22           C   tau(  22) = (  0.1589333  0.4914933  0.0518776  )
        23           C   tau(  23) = (  0.1549840  0.4202767  0.0500656  )
        24           C   tau(  24) = (  0.1587418  0.3879044  0.0189322  )
        25           C   tau(  25) = (  0.1783820  0.3239148  0.0171285  )
        26           C   tau(  26) = (  0.3616055  0.5596278  0.2440858  )
        27           C   tau(  27) = (  0.3277797  0.6053561  0.2422805  )
        28           C   tau(  28) = (  0.3092672  0.6187284  0.2111309  )
        29           C   tau(  29) = (  0.2657095  0.6288315  0.2093119  )
        30           C   tau(  30) = (  0.2456300  0.6244203  0.1781659  )
        31           C   tau(  31) = (  0.2052912  0.5958625  0.1763650  )
        32           C   tau(  32) = (  0.1896176  0.5749865  0.1452227  )
        33           C   tau(  33) = (  0.1644903  0.5162890  0.1434077  )
        34           C   tau(  34) = (  0.1578926  0.4851484  0.1122702  )
        35           C   tau(  35) = (  0.1554564  0.4137551  0.1104617  )
        36           C   tau(  36) = (  0.1598993  0.3816173  0.0793226  )
        37           C   tau(  37) = (  0.1808805  0.3187659  0.0775156  )
        38           C   tau(  38) = (  0.1950389  0.2951896  0.0463847  )
        39           C   tau(  39) = (  0.2331951  0.2595709  0.0445669  )
        40           C   tau(  40) = (  0.2528648  0.2515745  0.0134365  )
        41           C   tau(  41) = (  0.2968469  0.2537974  0.0116338  )
        42           C   tau(  42) = (  0.3709857  0.5381158  0.3356993  )
        43           C   tau(  43) = (  0.3589767  0.5646159  0.3045320  )
        44           C   tau(  44) = (  0.3242046  0.6084269  0.3027200  )
        45           C   tau(  45) = (  0.3054200  0.6207398  0.2715624  )
        46           C   tau(  46) = (  0.2616737  0.6283987  0.2697438  )
        47           C   tau(  47) = (  0.2417028  0.6228654  0.2385886  )
        48           C   tau(  48) = (  0.2019929  0.5920688  0.2367861  )
        49           C   tau(  49) = (  0.1867817  0.5703139  0.2056377  )
        50           C   tau(  50) = (  0.1629254  0.5102378  0.2038185  )
        51           C   tau(  51) = (  0.1569927  0.4787490  0.1726755  )
        52           C   tau(  52) = (  0.1560748  0.4072651  0.1708694  )
        53           C   tau(  53) = (  0.1611867  0.3753990  0.1397255  )
        54           C   tau(  54) = (  0.1834905  0.3137636  0.1379122  )
        55           C   tau(  55) = (  0.1981437  0.2910029  0.1067769  )
        56           C   tau(  56) = (  0.2370336  0.2575554  0.1049608  )
        57           C   tau(  57) = (  0.2568591  0.2506635  0.0738267  )
        58           C   tau(  58) = (  0.3007671  0.2553569  0.0720225  )
        59           C   tau(  59) = (  0.3198668  0.2663989  0.0408925  )
        60           C   tau(  60) = (  0.3557293  0.3078295  0.0390735  )
        61           C   tau(  61) = (  0.3684277  0.3335155  0.0079440  )
        62           C   tau(  62) = (  0.3855938  0.3993506  0.0061428  )
        63           C   tau(  63) = (  0.3688196  0.5436504  0.3961700  )
        64           C   tau(  64) = (  0.3562476  0.5694518  0.3649965  )
        65           C   tau(  65) = (  0.3205705  0.6112925  0.3631785  )
        66           C   tau(  66) = (  0.3015396  0.6225481  0.3320127  )
        67           C   tau(  67) = (  0.2576579  0.6277461  0.3301979  )
        68           C   tau(  68) = (  0.2378189  0.6210888  0.2990328  )
        69           C   tau(  69) = (  0.1987883  0.5880852  0.2972264  )
        70           C   tau(  70) = (  0.1840429  0.5655045  0.2660701  )
        71           C   tau(  71) = (  0.1614820  0.5041201  0.2642495  )
        72           C   tau(  72) = (  0.1562267  0.4723168  0.2330980  )
        73           C   tau(  73) = (  0.1568356  0.4008264  0.2312933  )
        74           C   tau(  74) = (  0.1626218  0.3692680  0.2001439  )
        75           C   tau(  75) = (  0.1862182  0.3089206  0.1983252  )
        76           C   tau(  76) = (  0.2013346  0.2869939  0.1671814  )
        77           C   tau(  77) = (  0.2409085  0.2557436  0.1653692  )
        78           C   tau(  78) = (  0.2608664  0.2499746  0.1342274  )
        79           C   tau(  79) = (  0.3046462  0.2571281  0.1324197  )
        80           C   tau(  80) = (  0.3235043  0.2692274  0.1012864  )
        81           C   tau(  81) = (  0.3584686  0.3126372  0.0994680  )
        82           C   tau(  82) = (  0.3706135  0.3390170  0.0683350  )
        83           C   tau(  83) = (  0.3863774  0.4057717  0.0665360  )
        84           C   tau(  84) = (  0.3881997  0.4385877  0.0354046  )
        85           C   tau(  85) = (  0.3800427  0.5088512  0.0335906  )
        86           C   tau(  86) = (  0.3665372  0.5490651  0.4566500  )
        87           C   tau(  87) = (  0.3534366  0.5741556  0.4254723  )
        88           C   tau(  88) = (  0.3168907  0.6139715  0.4236506  )
        89           C   tau(  89) = (  0.2976270  0.6241449  0.3924787  )
        90           C   tau(  90) = (  0.2536608  0.6268692  0.3906682  )
        91           C   tau(  91) = (  0.2339736  0.6191086  0.3594952  )
        92           C   tau(  92) = (  0.1956712  0.5839228  0.3576835  )
        93           C   tau(  93) = (  0.1814235  0.5605224  0.3265186  )
        94           C   tau(  94) = (  0.1601818  0.4979115  0.3247000  )
        95           C   tau(  95) = (  0.1556008  0.4658451  0.2935367  )
        96           C   tau(  96) = (  0.1577299  0.3944322  0.2917324  )
        97           C   tau(  97) = (  0.1641817  0.3632209  0.2605753  )
        98           C   tau(  98) = (  0.1890451  0.3042319  0.2587539  )
        99           C   tau(  99) = (  0.2046181  0.2831658  0.2276015  )
       100           C   tau( 100) = (  0.2448287  0.2541402  0.2257935  )
       101           C   tau( 101) = (  0.2648887  0.2494961  0.1946415  )
       102           C   tau( 102) = (  0.3084894  0.2591044  0.1928309  )
       103           C   tau( 103) = (  0.3270710  0.2722626  0.1616895  )
       104           C   tau( 104) = (  0.3610948  0.3176044  0.1598752  )
       105           C   tau( 105) = (  0.3726778  0.3446396  0.1287347  )
       106           C   tau( 106) = (  0.3870107  0.4122395  0.1269344  )
       107           C   tau( 107) = (  0.3881426  0.4451326  0.0957998  )
       108           C   tau( 108) = (  0.3784999  0.5148970  0.0939836  )
       109           C   tau( 109) = (  0.3641430  0.5543424  0.5171323  )
       110           C   tau( 110) = (  0.3505121  0.5786797  0.4859549  )
       111           C   tau( 111) = (  0.3131474  0.6164269  0.4841321  )
       112           C   tau( 112) = (  0.2936842  0.6255160  0.4529555  )
       113           C   tau( 113) = (  0.2496853  0.6257669  0.4511499  )
       114           C   tau( 114) = (  0.2301826  0.6168978  0.4199724  )
       115           C   tau( 115) = (  0.1926551  0.5795772  0.4181548  )
       116           C   tau( 116) = (  0.1789130  0.5554005  0.3869833  )
       117           C   tau( 117) = (  0.1590049  0.4916437  0.3851681  )
       118           C   tau( 118) = (  0.1551093  0.4593420  0.3539959  )
       119           C   tau( 119) = (  0.1587508  0.3880908  0.3521887  )
       120           C   tau( 120) = (  0.1658680  0.3572709  0.3210237  )
       121           C   tau( 121) = (  0.1919671  0.2997099  0.3192017  )
       122           C   tau( 122) = (  0.2079725  0.2795271  0.2880394  )
       123           C   tau( 123) = (  0.2487747  0.2527678  0.2862346  )
       124           C   tau( 124) = (  0.2689208  0.2492470  0.2550752  )
       125           C   tau( 125) = (  0.3122905  0.2613064  0.2532600  )
       126           C   tau( 126) = (  0.3305762  0.2754906  0.2221080  )
       127           C   tau( 127) = (  0.3636153  0.3227161  0.2202987  )
       128           C   tau( 128) = (  0.3746122  0.3503792  0.1891485  )
       129           C   tau( 129) = (  0.3874993  0.4187444  0.1873450  )
       130           C   tau( 130) = (  0.3879296  0.4516727  0.1562035  )
       131           C   tau( 131) = (  0.3768065  0.5208504  0.1543879  )
       132           C   tau( 132) = (  0.3616481  0.5594893  0.5776127  )
       133           C   tau( 133) = (  0.3475113  0.5830544  0.5464382  )
       134           C   tau( 134) = (  0.3093648  0.6186819  0.5446181  )
       135           C   tau( 135) = (  0.2897151  0.6266657  0.5134402  )
       136           C   tau( 136) = (  0.2457391  0.6244404  0.5116351  )
       137           C   tau( 137) = (  0.2264328  0.6144861  0.4804571  )
       138           C   tau( 138) = (  0.1897177  0.5750849  0.4786358  )
       139           C   tau( 139) = (  0.1765046  0.5501465  0.4474597  )
       140           C   tau( 140) = (  0.1579636  0.4853128  0.4456489  )
       141           C   tau( 141) = (  0.1547590  0.4528147  0.4144707  )
       142           C   tau( 142) = (  0.1599173  0.3818133  0.4126582  )
       143           C   tau( 143) = (  0.1676743  0.3514100  0.3814867  )
       144           C   tau( 144) = (  0.1949828  0.2953523  0.3796669  )
       145           C   tau( 145) = (  0.2114044  0.2760860  0.3484959  )
       146           C   tau( 146) = (  0.2527472  0.2516297  0.3466910  )
       147           C   tau( 147) = (  0.2729526  0.2492374  0.3155247  )
       148           C   tau( 148) = (  0.3160385  0.2637205  0.3137054  )
       149           C   tau( 149) = (  0.3340105  0.2789210  0.2825456  )
       150           C   tau( 150) = (  0.3660255  0.3279735  0.2807402  )
       151           C   tau( 151) = (  0.3764238  0.3562287  0.2495803  )
       152           C   tau( 152) = (  0.3878472  0.4252753  0.2477719  )
       153           C   tau( 153) = (  0.3875781  0.4581975  0.2166208  )
       154           C   tau( 154) = (  0.3749907  0.5267097  0.2148071  )
       155           C   tau( 155) = (  0.3590414  0.5644950  0.6380849  )
       156           C   tau( 156) = (  0.3444059  0.5872422  0.6069154  )
       157           C   tau( 157) = (  0.3055237  0.6206989  0.6051007  )
       158           C   tau( 158) = (  0.2857216  0.6275860  0.5739236  )
       159           C   tau( 159) = (  0.2418197  0.6228914  0.5721175  )
       160           C   tau( 160) = (  0.2227426  0.6118544  0.5409415  )
       161           C   tau( 161) = (  0.1868861  0.5704215  0.5391189  )
       162           C   tau( 162) = (  0.1742052  0.5447604  0.5079420  )
       163           C   tau( 163) = (  0.1570520  0.4789266  0.5061349  )
       164           C   tau( 164) = (  0.1545397  0.4462714  0.4749549  )
       165           C   tau( 165) = (  0.1611978  0.3756014  0.4731372  )
       166           C   tau( 166) = (  0.1696077  0.3456613  0.4419624  )
       167           C   tau( 167) = (  0.1980871  0.2911650  0.4401464  )
       168           C   tau( 168) = (  0.2149075  0.2728330  0.4089686  )
       169           C   tau( 169) = (  0.2567446  0.2507097  0.4071606  )
       170           C   tau( 170) = (  0.2769841  0.2494540  0.3759889  )
       171           C   tau( 171) = (  0.3197353  0.2663468  0.3741683  )
       172           C   tau( 172) = (  0.3373677  0.2825448  0.3430000  )
       173           C   tau( 173) = (  0.3683158  0.3333659  0.3411969  )
       174           C   tau( 174) = (  0.3781096  0.3621821  0.3100305  )
       175           C   tau( 175) = (  0.3880545  0.4318272  0.3082155  )
       176           C   tau( 176) = (  0.3870843  0.4647077  0.2770558  )
       177           C   tau( 177) = (  0.3730509  0.5324692  0.2752445  )
       178           C   tau( 178) = (  0.3563354  0.5693568  0.6985445  )
       179           C   tau( 179) = (  0.3412176  0.5912634  0.6673825  )
       180           C   tau( 180) = (  0.3016474  0.6225247  0.6655737  )
       181           C   tau( 181) = (  0.2817079  0.6282849  0.6344019  )
       182           C   tau( 182) = (  0.2379309  0.6211318  0.6325919  )
       183           C   tau( 183) = (  0.2190977  0.6090336  0.6014208  )
       184           C   tau( 184) = (  0.1841362  0.5656254  0.5996006  )
       185           C   tau( 185) = (  0.1720164  0.5392606  0.5684247  )
       186           C   tau( 186) = (  0.1562670  0.4725074  0.5666197  )
       187           C   tau( 187) = (  0.1544560  0.4397259  0.5354428  )
       188           C   tau( 188) = (  0.1626107  0.3694728  0.5336214  )
       189           C   tau( 189) = (  0.1716458  0.3400159  0.5024451  )
       190           C   tau( 190) = (  0.2012702  0.2871558  0.5006346  )
       191           C   tau( 191) = (  0.2184686  0.2697721  0.4694537  )
       192           C   tau( 192) = (  0.2607506  0.2500064  0.4676417  )
       193           C   tau( 193) = (  0.2810049  0.2498864  0.4364658  )
       194           C   tau( 194) = (  0.3233729  0.2691620  0.4346462  )
       195           C   tau( 195) = (  0.3406496  0.2863471  0.4034712  )
       196           C   tau( 196) = (  0.3704959  0.3388765  0.4016680  )
       197           C   tau( 197) = (  0.3796640  0.3682254  0.3704959  )
       198           C   tau( 198) = (  0.3881215  0.4383835  0.3686760  )
       199           C   tau( 199) = (  0.3864516  0.4711861  0.3375086  )
       200           C   tau( 200) = (  0.3535344  0.5740784  0.7589875  )
       201           C   tau( 201) = (  0.3379514  0.5951188  0.7278332  )
       202           C   tau( 202) = (  0.2977391  0.6241426  0.7260302  )
       203           C   tau( 203) = (  0.2776804  0.6287791  0.6948674  )
       204           C   tau( 204) = (  0.2340803  0.6191815  0.6930540  )
       205           C   tau( 205) = (  0.2155120  0.6060188  0.6618897  )
       206           C   tau( 206) = (  0.1814964  0.5606717  0.6600755  )
       207           C   tau( 207) = (  0.1699350  0.5336464  0.6289028  )
       208           C   tau( 208) = (  0.1556121  0.4660483  0.6270963  )
       209           C   tau( 209) = (  0.1545016  0.4331800  0.5959247  )
       210           C   tau( 210) = (  0.1641482  0.3634278  0.5941021  )
       211           C   tau( 211) = (  0.1738094  0.3344958  0.5629284  )
       212           C   tau( 212) = (  0.2045359  0.2833220  0.5611221  )
       213           C   tau( 213) = (  0.2220973  0.2669254  0.5299431  )
       214           C   tau( 214) = (  0.2647711  0.2495329  0.5281261  )
       215           C   tau( 215) = (  0.2850154  0.2505470  0.4969488  )
       216           C   tau( 216) = (  0.3269476  0.2721823  0.4951331  )
       217           C   tau( 217) = (  0.3438492  0.2903184  0.4639528  )
       218           C   tau( 218) = (  0.3725604  0.3444959  0.4621470  )
       219           C   tau( 219) = (  0.3810953  0.3743465  0.4309729  )
       220           C   tau( 220) = (  0.3880557  0.4449391  0.4291513  )
       221           C   tau( 221) = (  0.3856896  0.4776217  0.3979768  )
       222           C   tau( 222) = (  0.3506287  0.5786275  0.8194126  )
       223           C   tau( 223) = (  0.3346049  0.5987910  0.7882660  )
       224           C   tau( 224) = (  0.2937991  0.6255387  0.7864668  )
       225           C   tau( 225) = (  0.2736485  0.6290453  0.7553150  )
       226           C   tau( 226) = (  0.2302762  0.6170053  0.7535007  )
       227           C   tau( 227) = (  0.2119954  0.6028154  0.7223443  )
       228           C   tau( 228) = (  0.1789645  0.5555798  0.7205366  )
       229           C   tau( 229) = (  0.1679799  0.5279170  0.6893714  )
       230           C   tau( 230) = (  0.1550971  0.4595553  0.6875614  )
       231           C   tau( 231) = (  0.1546853  0.4266415  0.6563957  )
       232           C   tau( 232) = (  0.1658125  0.3574732  0.6545748  )
       233           C   tau( 233) = (  0.1760828  0.3290963  0.6234051  )
       234           C   tau( 234) = (  0.2078733  0.2796668  0.6216010  )
       235           C   tau( 235) = (  0.2257754  0.2642574  0.5904284  )
       236           C   tau( 236) = (  0.2687960  0.2492785  0.5886074  )
       237           C   tau( 237) = (  0.2890090  0.2514295  0.5574337  )
       238           C   tau( 238) = (  0.3304583  0.2754039  0.5556228  )
       239           C   tau( 239) = (  0.3469650  0.2944690  0.5244415  )
       240           C   tau( 240) = (  0.3745029  0.3502277  0.5226296  )
       241           C   tau( 241) = (  0.3823954  0.3805404  0.4914542  )
       242           C   tau( 242) = (  0.3878477  0.4514824  0.4896339  )
       243           C   tau( 243) = (  0.3847934  0.4840176  0.4584560  )
       244           C   tau( 244) = (  0.3476372  0.5830161  0.8798251  )
       245           C   tau( 245) = (  0.3311922  0.6022745  0.8486851  )
       246           C   tau( 246) = (  0.2898400  0.6267125  0.8468860  )
       247           C   tau( 247) = (  0.2696206  0.6290837  0.8157444  )
       248           C   tau( 248) = (  0.2265304  0.6146068  0.8139285  )
       249           C   tau( 249) = (  0.2085512  0.5993973  0.7827825  )
       250           C   tau( 250) = (  0.1765402  0.5503386  0.7809794  )
       251           C   tau( 251) = (  0.1661534  0.5220731  0.7498228  )
       252           C   tau( 252) = (  0.1547270  0.4530288  0.7480092  )
       253           C   tau( 253) = (  0.1550077  0.4201112  0.7168514  )
       254           C   tau( 254) = (  0.1675917  0.3516015  0.7150354  )
       255           C   tau( 255) = (  0.1784669  0.3238222  0.6838711  )
       256           C   tau( 256) = (  0.2112906  0.2762101  0.6820658  )
       257           C   tau( 257) = (  0.2295095  0.2618092  0.6509011  )
       258           C   tau( 258) = (  0.2728237  0.2492573  0.6490804  )
       259           C   tau( 259) = (  0.2929786  0.2525411  0.6179113  )
       260           C   tau( 260) = (  0.3338918  0.2788351  0.6161044  )
       261           C   tau( 261) = (  0.3499864  0.2988141  0.5849287  )
       262           C   tau( 262) = (  0.3763309  0.3560769  0.5831108  )
       263           C   tau( 263) = (  0.3835692  0.3868048  0.5519354  )
       264           C   tau( 264) = (  0.3875137  0.4580099  0.5501192  )
       265           C   tau( 265) = (  0.3837607  0.4903510  0.5189401  )
       266           C   tau( 266) = (  0.3445479  0.5872089  0.9402265  )
       267           C   tau( 267) = (  0.3277009  0.6055470  0.9090919  )
       268           C   tau( 268) = (  0.2858543  0.6276549  0.9072900  )
       269           C   tau( 269) = (  0.2655935  0.6288935  0.8761558  )
       270           C   tau( 270) = (  0.2228393  0.6119968  0.8743396  )
       271           C   tau( 271) = (  0.2051911  0.5957833  0.8432016  )
       272           C   tau( 272) = (  0.1742360  0.5449644  0.8414003  )
       273           C   tau( 273) = (  0.1644420  0.5161273  0.8102561  )
       274           C   tau( 274) = (  0.1544919  0.4464796  0.8084378  )
       275           C   tau( 275) = (  0.1554706  0.4135895  0.7772897  )
       276           C   tau( 276) = (  0.1694987  0.3458228  0.7754791  )
       277           C   tau( 277) = (  0.1809544  0.3186671  0.7443220  )
       278           C   tau( 278) = (  0.2147709  0.2729231  0.7425127  )
       279           C   tau( 279) = (  0.2332943  0.2595656  0.7113575  )
       280           C   tau( 280) = (  0.2768511  0.2494645  0.7095374  )
       281           C   tau( 281) = (  0.2969307  0.2538794  0.6783758  )
       282           C   tau( 282) = (  0.3372617  0.2824530  0.6765703  )
       283           C   tau( 283) = (  0.3529213  0.3033241  0.6454026  )
       284           C   tau( 284) = (  0.3780419  0.3620220  0.6435811  )
       285           C   tau( 285) = (  0.3846284  0.3931438  0.6124117  )
       286           C   tau( 286) = (  0.3870563  0.4645298  0.6106005  )
       287           C   tau( 287) = (  0.3826163  0.4966371  0.5794237  )
       288           C   tau( 288) = (  0.3413651  0.5912072  0.0006606  )
       289           C   tau( 289) = (  0.3241445  0.6086074  0.9694893  )
       290           C   tau( 290) = (  0.2818527  0.6283593  0.9676837  )
       291           C   tau( 291) = (  0.2615739  0.6284717  0.9365543  )
       292           C   tau( 292) = (  0.2192027  0.6091857  0.9347397  )
       293           C   tau( 293) = (  0.2019073  0.5919883  0.9036066  )
       294           C   tau( 294) = (  0.1720538  0.5394589  0.9018046  )
       295           C   tau( 295) = (  0.1628766  0.5100870  0.8706701  )
       296           C   tau( 296) = (  0.1544093  0.4399259  0.8688492  )
       297           C   tau( 297) = (  0.1560791  0.4070993  0.8377108  )
       298           C   tau( 298) = (  0.1715359  0.3401587  0.8359037  )
       299           C   tau( 299) = (  0.1835579  0.3136497  0.8047569  )
       300           C   tau( 300) = (  0.2183345  0.2698441  0.8029430  )
       301           C   tau( 301) = (  0.2371265  0.2575349  0.7717957  )
       302           C   tau( 302) = (  0.2808741  0.2498941  0.7699790  )
       303           C   tau( 303) = (  0.3008464  0.2554433  0.7388245  )
       304           C   tau( 304) = (  0.3405482  0.2862563  0.7370172  )
       305           C   tau( 305) = (  0.3557597  0.3080015  0.7058605  )
       306           C   tau( 306) = (  0.3796213  0.3680699  0.7040382  )
       307           C   tau( 307) = (  0.3855467  0.3995407  0.6728758  )
       308           C   tau( 308) = (  0.3864611  0.4710207  0.6710691  )
       309           C   tau( 309) = (  0.3813391  0.5028604  0.6399002  )
       310           C   tau( 310) = (  0.2575650  0.6278012  0.9969436  )
       311           C   tau( 311) = (  0.2156281  0.6061545  0.9951331  )
       312           C   tau( 312) = (  0.1987063  0.5880063  0.9640009  )
       313           C   tau( 313) = (  0.1699842  0.5338358  0.9621965  )
       314           C   tau( 314) = (  0.1614363  0.5039621  0.9310676  )
       315           C   tau( 315) = (  0.1544650  0.4333656  0.9292474  )
       316           C   tau( 316) = (  0.1568354  0.4006539  0.8981146  )
       317           C   tau( 317) = (  0.1737052  0.3346182  0.8963111  )
       318           C   tau( 318) = (  0.1862829  0.3087978  0.8651722  )
       319           C   tau( 319) = (  0.2219676  0.2669671  0.8633547  )
       320           C   tau( 320) = (  0.2410144  0.2557232  0.8322146  )
       321           C   tau( 321) = (  0.2848980  0.2505350  0.8304034  )
       322           C   tau( 322) = (  0.3047401  0.2572042  0.7992556  )
       323           C   tau( 323) = (  0.3437697  0.2902142  0.7974468  )
       324           C   tau( 324) = (  0.3585047  0.3128138  0.7662990  )
       325           C   tau( 325) = (  0.3810758  0.3741888  0.7644796  )
       326           C   tau( 326) = (  0.3863293  0.4059845  0.7333258  )
       327           C   tau( 327) = (  0.3857318  0.4774756  0.7315229  )
       328           C   tau( 328) = (  0.3799323  0.5090116  0.7003627  )
       329           C   tau( 329) = (  0.1601221  0.4977604  0.9914538  )
       330           C   tau( 330) = (  0.1546555  0.4268110  0.9896366  )
       331           C   tau( 331) = (  0.1577221  0.3942463  0.9585058  )
       332           C   tau( 332) = (  0.1759866  0.3291934  0.9567038  )
       333           C   tau( 333) = (  0.1891064  0.3040887  0.9255705  )
       334           C   tau( 334) = (  0.2256600  0.2642780  0.9237519  )
       335           C   tau( 335) = (  0.2449361  0.2541091  0.8926167  )
       336           C   tau( 336) = (  0.2889066  0.2513903  0.8908115  )
       337           C   tau( 337) = (  0.3085981  0.2591685  0.8596702  )
       338           C   tau( 338) = (  0.3469063  0.2943512  0.8578596  )
       339           C   tau( 339) = (  0.3611532  0.3177723  0.8267190  )
       340           C   tau( 340) = (  0.3824024  0.3803825  0.8249045  )
       341           C   tau( 341) = (  0.3869773  0.4124627  0.7937573  )
       342           C   tau( 342) = (  0.3848640  0.4838807  0.7919549  )
       343           C   tau( 343) = (  0.3784043  0.5150919  0.7608058  )
       344           C   tau( 344) = (  0.1920303  0.2995570  0.9859597  )
       345           C   tau( 345) = (  0.2294067  0.2618149  0.9841410  )
       346           C   tau( 346) = (  0.2488872  0.2527191  0.9530093  )
       347           C   tau( 347) = (  0.2928920  0.2524727  0.9512082  )
       348           C   tau( 348) = (  0.3124084  0.2613630  0.9200722  )
       349           C   tau( 349) = (  0.3499420  0.2986811  0.9182584  )
       350           C   tau( 350) = (  0.3636890  0.3228832  0.8871231  )
       351           C   tau( 351) = (  0.3835936  0.3866491  0.8853139  )
       352           C   tau( 352) = (  0.3874833  0.4189742  0.8541732  )
       353           C   tau( 353) = (  0.3838477  0.4902315  0.8523695  )
       354           C   tau( 354) = (  0.3767291  0.5210619  0.8212282  )
       355           C   tau( 355) = (  0.3161745  0.2637585  0.9804645  )
       356           C   tau( 356) = (  0.3528943  0.3031636  0.9786474  )
       357           C   tau( 357) = (  0.3661170  0.3281329  0.9475165  )
       358           C   tau( 358) = (  0.3846654  0.3929699  0.9457120  )
       359           C   tau( 359) = (  0.3878627  0.4255039  0.9145767  )
       360           C   tau( 360) = (  0.3827192  0.4965171  0.9127695  )
       361           C   tau( 361) = (  0.3749423  0.5269429  0.8816368  )
       362           C   tau( 362) = (  0.3881069  0.4320433  0.9749716  )
       363           C   tau( 363) = (  0.3814520  0.5027252  0.9731612  )
       364           C   tau( 364) = (  0.3730340  0.5327033  0.9420332  )

     number of k points=     8
                       cart. coord. in units 2pi/alat
        k(    1) = (   0.0000000   0.0000000   0.0000000), wk =   0.2500000
        k(    2) = (   0.0000000   0.0000000   0.1000389), wk =   0.2500000
        k(    3) = (   0.0000000   0.0000000   0.2000779), wk =   0.2500000
        k(    4) = (   0.0000000   0.0000000   0.3001168), wk =   0.2500000
        k(    5) = (   0.0000000   0.0000000   0.4001558), wk =   0.2500000
        k(    6) = (   0.0000000   0.0000000   0.5001947), wk =   0.2500000
        k(    7) = (   0.0000000   0.0000000   0.6002336), wk =   0.2500000
        k(    8) = (   0.0000000   0.0000000   0.7002726), wk =   0.2500000

                       cryst. coord.
        k(    1) = (   0.0000000   0.0000000   0.0000000), wk =   0.2500000
        k(    2) = (   0.0000000   0.0000000   0.1250000), wk =   0.2500000
        k(    3) = (   0.0000000   0.0000000   0.2500000), wk =   0.2500000
        k(    4) = (   0.0000000   0.0000000   0.3750000), wk =   0.2500000
        k(    5) = (   0.0000000   0.0000000   0.5000000), wk =   0.2500000
        k(    6) = (   0.0000000   0.0000000   0.6250000), wk =   0.2500000
        k(    7) = (   0.0000000   0.0000000   0.7500000), wk =   0.2500000
        k(    8) = (   0.0000000   0.0000000   0.8750000), wk =   0.2500000

     Dense  grid: 11053081 G-vectors     FFT dimensions: ( 320, 192, 384)

     Dynamical RAM for                 wfc:      43.92 MB

     Dynamical RAM for     wfc (w. buffer):      43.92 MB

     Dynamical RAM for           str. fact:       0.44 MB

     Dynamical RAM for           local pot:       0.00 MB

     Dynamical RAM for          nlocal pot:     159.87 MB

     Dynamical RAM for                qrad:       0.36 MB

     Dynamical RAM for          rho,v,vnew:       2.72 MB

     Dynamical RAM for           G-vectors:       1.87 MB

     Dynamical RAM for          h,s,v(r/c):       1.83 MB

     Dynamical RAM for          <psi|beta>:      35.55 MB

     Dynamical RAM for                 psi:      87.84 MB

     Dynamical RAM for                hpsi:      87.84 MB

     Dynamical RAM for      wfcinit/wfcrot:     102.50 MB

     Estimated static dynamical RAM per process >     212.40 MB

     Estimated max dynamical RAM per process >     425.46 MB

     Estimated total dynamical RAM >     638.19 GB

     The potential is recalculated from file :
     ./CNT_PBE.save/charge-density

     Starting wfcs are random

     Band Structure Calculation
     Davidson diagonalization with overlap

     Computing kpt #:     1  of     2 on this pool
     total cpu time spent up to now is     3937.9 secs

     Computing kpt #:     2  of     2 on this pool
     total cpu time spent up to now is     7789.3 secs

     ethr =  5.05E-12,  avg # of iterations =111.9

     total cpu time spent up to now is     7789.3 secs

     End of band structure calculation

          k = 0.0000 0.0000 0.0000 (****** PWs)   bands (ev):

   -22.6701 -22.6043 -22.6030 -22.4575 -22.4574 -22.4062 -22.4053 -22.3919
   -22.3918 -22.3905 -22.3904 -22.1944 -22.1944 -22.1934 -22.1933 -22.0772
   -22.0763 -21.8664 -21.8664 -21.8654 -21.8653 -21.8294 -21.8293 -21.7644
   -21.7643 -21.7630 -21.7629 -21.6186 -21.6177 -21.5688 -21.5687 -21.5678
   -21.5676 -21.4093 -21.4092 -21.4082 -21.4081 -21.2441 -21.2440 -21.2429
   -21.2427 -21.0327 -21.0320 -20.8254 -20.8254 -20.8243 -20.8242 -20.8136
   -20.8135 -20.7917 -20.7916 -20.7901 -20.7900 -20.7497 -20.7496 -20.7483
   -20.7480 -20.5575 -20.5575 -20.5565 -20.5564 -20.3233 -20.3227 -20.2388
   -20.2388 -20.2374 -20.2373 -20.2143 -20.2143 -20.2122 -20.2121 -20.1188
   -20.1187 -20.1176 -20.1175 -19.7953 -19.7953 -19.7931 -19.7930 -19.5168
   -19.5167 -19.5140 -19.5139 -19.4962 -19.4956 -19.4549 -19.4548 -19.3928
   -19.3927 -19.3912 -19.3911 -19.2958 -19.2957 -19.2943 -19.2942 -19.2308
   -19.2308 -19.2275 -19.2274 -19.2067 -19.2066 -19.2055 -19.2054 -18.8986
   -18.8985 -18.8966 -18.8965 -18.7091 -18.7088 -18.7050 -18.7049 -18.5614
   -18.5610 -18.5532 -18.5531 -18.5493 -18.5492 -18.4713 -18.4712 -18.4680
   -18.4679 -18.3698 -18.3696 -18.3663 -18.3662 -17.9312 -17.9311 -17.9284
   -17.9284 -17.8638 -17.8637 -17.8244 -17.8243 -17.8123 -17.8122 -17.8099
   -17.8097 -17.7991 -17.7989 -17.7896 -17.7896 -17.7891 -17.7890 -17.6415
   -17.6415 -17.6191 -17.6190 -17.5390 -17.5387 -17.3835 -17.3835 -17.3610
   -17.3608 -17.3596 -17.3595 -17.3242 -17.3241 -17.3153 -17.3153 -17.2995
   -17.2994 -17.2388 -17.2052 -17.2049 -17.0371 -17.0370 -16.9677 -16.9675
   -16.9215 -16.9214 -16.7693 -16.7693 -16.4857 -16.4853 -16.4744 -16.4741
   -16.4488 -16.4487 -16.4199 -16.4198 -16.2450 -16.2088 -16.2086 -16.0141
   -16.0140 -15.9525 -15.9522 -15.7785 -15.7784 -15.6040 -15.6039 -15.5930
   -15.5925 -15.5655 -15.5654 -15.5131 -15.5131 -15.5105 -15.5104 -15.4485
   -15.4484 -15.4148 -15.4148 -15.4136 -15.4135 -15.3987 -15.3986 -15.3702
   -15.3701 -15.3579 -15.3579 -15.3564 -15.3563 -15.3187 -15.3185 -15.1365
   -15.1365 -15.1058 -15.1057 -15.0588 -15.0584 -15.0339 -15.0338 -14.9831
   -14.9831 -14.8685 -14.8685 -14.8381 -14.8380 -14.7965 -14.7964 -14.5947
   -14.5947 -14.5352 -14.5350 -14.5341 -14.5336 -14.4629 -14.4627 -14.4073
   -14.4071 -14.3331 -14.3331 -14.2708 -14.2702 -14.2603 -14.2602 -13.9965
   -13.9964 -13.8613 -13.8613 -13.5247 -13.5247 -13.5043 -13.5042 -13.4630
   -13.4629 -13.4292 -13.4292 -13.4044 -13.4043 -13.4030 -13.4029 -13.3940
   -13.3939 -13.3848 -13.3843 -13.3681 -13.3675 -13.3551 -13.3549 -13.3424
   -13.3423 -13.3294 -13.3293 -13.3248 -13.3248 -13.1315 -13.1314 -13.0718
   -13.0718 -13.0643 -13.0642 -13.0481 -13.0481 -13.0387 -13.0385 -13.0142
   -13.0140 -12.9868 -12.9868 -12.8635 -12.8635 -12.5642 -12.5642 -12.3748
   -12.3742 -12.3584 -12.3580 -12.2438 -12.2432 -12.2410 -12.2409 -12.1818
   -12.1817 -12.1413 -12.1412 -12.1264 -12.1263 -12.0584 -12.0583 -12.0115
   -12.0113 -11.9903 -11.9902 -11.9667 -11.9667 -11.8972 -11.8971 -11.8736
   -11.8736 -11.6868 -11.6867 -11.6425 -11.6424 -11.5765 -11.5763 -11.5409
   -11.5408 -11.4866 -11.4865 -11.4612 -11.4612 -11.3792 -11.3792 -11.3553
   -11.3548 -11.3390 -11.3387 -11.3062 -11.3056 -11.2747 -11.2746 -11.2096
   -11.2096 -11.1797 -11.1797 -11.1113 -11.1111 -11.0959 -11.0959 -11.0422
   -11.0421 -11.0200 -11.0199 -11.0086 -11.0086 -11.0042 -11.0042 -10.9356
   -10.9355 -10.9310 -10.9310 -10.8775 -10.8774 -10.8024 -10.7974 -10.7974
   -10.7257 -10.7246 -10.7229 -10.7227 -10.6297 -10.6297 -10.5616 -10.5616
   -10.4963 -10.4955 -10.4914 -10.4913 -10.4892 -10.4892 -10.4831 -10.4831
   -10.4572 -10.4569 -10.4167 -10.4166 -10.4041 -10.4040 -10.2907 -10.2905
   -10.2846 -10.2846 -10.2714 -10.2713 -10.2564 -10.2563 -10.2478 -10.2477
   -10.1861 -10.1856 -10.1220 -10.1213 -10.0645 -10.0644 -10.0565 -10.0564
   -10.0402 -10.0397 -10.0361 -10.0354 -10.0145 -10.0143 -10.0100 -10.0100
    -9.9716  -9.9714  -9.9643  -9.9639  -9.9638  -9.9638  -9.9636  -9.9636
    -9.9339  -9.9339  -9.9315  -9.9315  -9.9230  -9.9229  -9.8934  -9.8933
    -9.8708  -9.8706  -9.8658  -9.8651  -9.8550  -9.8549  -9.8522  -9.8521
    -9.8139  -9.8138  -9.8027  -9.8024  -9.7772  -9.7771  -9.7766  -9.7765
    -9.6731  -9.6725  -9.6612  -9.6611  -9.6368  -9.6362  -9.5594  -9.5593
    -9.5321  -9.5320  -9.5036  -9.5036  -9.4990  -9.4989  -9.4801  -9.3903
    -9.3902  -9.3759  -9.3758  -9.3500  -9.3499  -9.3405  -9.3403  -9.3255
    -9.3254  -9.3251  -9.3250  -9.2344  -9.2341  -9.2066  -9.2065  -9.1921
    -9.1920  -9.1786  -9.1786  -9.1531  -9.1530  -9.1258  -9.1258  -9.1004
    -9.1003  -9.0804  -9.0803  -9.0284  -9.0284  -9.0081  -9.0080  -9.0074
    -9.0070  -8.9857  -8.9854  -8.9836  -8.9835  -8.9781  -8.9780  -8.9280
    -8.9279  -8.9198  -8.9198  -8.8785  -8.8784  -8.7687  -8.7685  -8.6557
    -8.6556  -8.5855  -8.5854  -8.5758  -8.5757  -8.5517  -8.5517  -8.5229
    -8.5228  -8.5125  -8.5124  -8.5028  -8.5025  -8.4677  -8.4675  -8.3520
    -8.3518  -8.3130  -8.3129  -8.2900  -8.2899  -8.2078  -8.2078  -8.2078
    -8.2076  -8.2029  -8.2028  -8.1584  -8.1583  -8.1525  -8.1525  -8.1267
    -8.1267  -8.0787  -8.0786  -8.0138  -8.0138  -8.0057  -8.0056  -8.0010
    -8.0010  -7.9869  -7.9868  -7.9528  -7.9526  -7.9465  -7.9460  -7.9216
    -7.9215  -7.9025  -7.9022  -7.8287  -7.8287  -7.8162  -7.8162  -7.6967
    -7.6966  -7.6911  -7.6911  -7.6702  -7.6702  -7.6657  -7.6657  -7.6612
    -7.6612  -7.6496  -7.6496  -7.6133  -7.6131  -7.5780  -7.5779  -7.5127
    -7.5126  -7.4210  -7.4210  -7.3745  -7.3744  -7.3200  -7.3199  -7.2237
    -7.2233  -7.2168  -7.2167  -7.1989  -7.1989  -7.1975  -7.1975  -7.0611
    -7.0606  -7.0548  -7.0548  -7.0357  -7.0357  -7.0106  -7.0105  -7.0029
    -7.0028  -6.9672  -6.9671  -6.9135  -6.9134  -6.9130  -6.9129  -6.9108
    -6.9106  -6.8496  -6.8494  -6.8362  -6.8360  -6.8209  -6.8207  -6.7526
    -6.7525  -6.7463  -6.7462  -6.6499  -6.6498  -6.6352  -6.6352  -6.6169
    -6.6169  -6.5445  -6.5444  -6.5436  -6.5436  -6.5346  -6.5346  -6.5330
    -6.5330  -6.3250  -6.3247  -6.2877  -6.2877  -6.2428  -6.2425  -6.2367
    -6.2365  -6.2026  -6.2026  -6.1967  -6.1966  -6.1966  -6.1965  -6.1633
    -6.0622  -6.0618  -6.0176  -6.0176  -5.9754  -5.9753  -5.9285  -5.9228
    -5.9226  -5.8735  -5.8733  -5.7573  -5.7573  -5.7425  -5.7425  -5.5310
    -5.5310  -5.4667  -5.4665  -5.4617  -5.4614  -5.3948  -5.3947  -5.3094
    -5.3093  -5.2753  -5.2753  -5.2670  -5.2669  -5.2127  -5.2046  -5.2045
    -5.2035  -5.2034  -5.1649  -5.1646  -5.0794  -5.0793  -5.0544  -5.0543
    -5.0142  -5.0137  -4.9606  -4.9605  -4.9297  -4.9296  -4.9011  -4.9010
    -4.8977  -4.8976  -4.7479  -4.7477  -4.6986  -4.6985  -4.5922  -4.5920
    -4.5480  -4.5480  -4.2809  -4.2807  -4.1455  -4.1454  -4.0738  -4.0736
    -4.0040  -4.0037  -3.8065  -3.8063  -3.7106  -3.7104  -3.3355  -3.3352
    -2.4213  -2.4210  -2.0208  -2.0206  -1.9505  -1.9503  -1.8419  -1.8415
    -1.8025  -1.8024  -1.6751  -1.6750  -1.6680  -1.6677  -1.5660  -1.5659
    -1.5367  -1.5366  -1.5035  -1.4531  -1.4529  -1.3564  -1.3563  -1.3295
    -1.3294  -1.3017  -1.3015  -1.2827  -1.2825  -1.2757  -1.2756  -1.2459
    -1.2458  -1.1996  -1.1996  -1.1782  -1.1781  -1.1035  -1.1034  -1.0906
    -1.0904  -1.0352  -1.0352  -1.0165  -1.0164  -1.0122  -1.0121  -0.9902
    -0.9901  -0.9664  -0.9662  -0.9111  -0.9103  -0.6656  -0.6655  -0.6578
    -0.6577  -0.5719  -0.5718  -0.4912  -0.4911  -0.4304  -0.4303  -0.4077
    -0.4075  -0.2324  -0.2322  -0.1598  -0.1597  -0.0430  -0.0429   0.0163

          k = 0.0000 0.0000 0.1000 (****** PWs)   bands (ev):

   -22.6691 -22.6191 -22.5861 -22.4564 -22.4564 -22.4377 -22.4066 -22.4065
   -22.3737 -22.3736 -22.3718 -22.2258 -22.2256 -22.1601 -22.1598 -22.1250
   -22.0265 -21.9142 -21.9138 -21.8284 -21.8283 -21.8160 -21.8155 -21.7790
   -21.7788 -21.7464 -21.7462 -21.6825 -21.6000 -21.5996 -21.5518 -21.5349
   -21.5344 -21.4732 -21.4725 -21.3429 -21.3423 -21.2914 -21.2906 -21.1942
   -21.1933 -21.1124 -20.9503 -20.9051 -20.9042 -20.8550 -20.8537 -20.8126
   -20.8125 -20.7639 -20.7638 -20.7436 -20.7427 -20.7320 -20.7318 -20.7261
   -20.7246 -20.5882 -20.5877 -20.5243 -20.5238 -20.4182 -20.2931 -20.2911
   -20.2853 -20.2843 -20.2259 -20.2135 -20.2125 -20.1900 -20.1888 -20.1335
   -20.1314 -20.0220 -20.0209 -19.8574 -19.8554 -19.7312 -19.7290 -19.6102
   -19.6076 -19.6054 -19.4540 -19.4538 -19.4215 -19.4186 -19.4066 -19.4064
   -19.4046 -19.4033 -19.3847 -19.3756 -19.3754 -19.3077 -19.3046 -19.2364
   -19.2358 -19.1852 -19.1837 -19.1746 -19.1738 -19.1520 -19.1486 -18.9435
   -18.9420 -18.8515 -18.8495 -18.8153 -18.8116 -18.6834 -18.6435 -18.6396
   -18.6012 -18.5970 -18.5310 -18.5279 -18.4902 -18.4873 -18.4613 -18.4575
   -18.4376 -18.4096 -18.4063 -18.2480 -18.2439 -18.0043 -18.0013 -17.9357
   -17.9260 -17.8869 -17.8857 -17.8635 -17.8623 -17.8563 -17.8542 -17.8225
   -17.8134 -17.7950 -17.7830 -17.7144 -17.6989 -17.6939 -17.6926 -17.6702
   -17.6688 -17.6479 -17.6124 -17.5884 -17.5057 -17.4887 -17.4068 -17.4009
   -17.3918 -17.3814 -17.3672 -17.3165 -17.2795 -17.2637 -17.2530 -17.2410
   -17.2332 -17.2255 -17.2176 -17.2162 -17.0971 -17.0224 -17.0017 -16.9771
   -16.9112 -16.8644 -16.7980 -16.7681 -16.6138 -16.5408 -16.5141 -16.5068
   -16.4067 -16.3937 -16.3605 -16.3442 -16.2293 -16.2103 -16.1726 -16.0192
   -16.0042 -15.9812 -15.9191 -15.8182 -15.7231 -15.7119 -15.7090 -15.5648
   -15.5645 -15.5471 -15.5386 -15.5252 -15.5230 -15.4990 -15.4988 -15.4966
   -15.4803 -15.4780 -15.4745 -15.4695 -15.4025 -15.3817 -15.3815 -15.3741
   -15.3327 -15.3299 -15.2931 -15.2863 -15.2766 -15.2587 -15.2520 -15.1654
   -15.1444 -15.1415 -15.1296 -15.1081 -15.0690 -15.0028 -14.9890 -14.9860
   -14.9687 -14.9410 -14.9326 -14.8354 -14.7585 -14.7407 -14.7336 -14.6765
   -14.6731 -14.6031 -14.5978 -14.5887 -14.5350 -14.4707 -14.4093 -14.3932
   -14.3921 -14.3761 -14.3350 -14.2776 -14.1964 -14.1631 -14.1105 -14.1087
   -13.9697 -13.8824 -13.7624 -13.5329 -13.5302 -13.5263 -13.5222 -13.5098
   -13.5063 -13.4973 -13.4859 -13.4749 -13.4687 -13.4498 -13.4446 -13.4397
   -13.4235 -13.4175 -13.4133 -13.3943 -13.3810 -13.3459 -13.3028 -13.2538
   -13.2512 -13.2483 -13.2390 -13.2114 -13.2028 -13.1888 -13.1648 -13.1637
   -13.1567 -13.1065 -13.0825 -13.0770 -13.0092 -12.9921 -12.9889 -12.9677
   -12.9434 -12.9419 -12.9189 -12.9121 -12.7698 -12.6403 -12.5031 -12.4852
   -12.4485 -12.3886 -12.3804 -12.3275 -12.2803 -12.2660 -12.2446 -12.1990
   -12.1455 -12.1257 -12.1255 -12.1226 -12.1098 -12.0926 -12.0357 -12.0344
   -12.0075 -11.9728 -11.9660 -11.9223 -11.9164 -11.9093 -11.8540 -11.7799
   -11.7585 -11.7481 -11.6851 -11.6790 -11.6763 -11.6015 -11.5288 -11.5187
   -11.5079 -11.4786 -11.4727 -11.4608 -11.4429 -11.4346 -11.4115 -11.3852
   -11.3739 -11.3445 -11.3327 -11.3129 -11.2879 -11.2847 -11.2641 -11.1960
   -11.1925 -11.1922 -11.1680 -11.1673 -11.1627 -11.1138 -11.1127 -11.0991
   -11.0766 -11.0755 -11.0704 -11.0676 -11.0188 -10.9953 -10.9459 -10.9319
   -10.9301 -10.8924 -10.8789 -10.8318 -10.8012 -10.7985 -10.7969 -10.7615
   -10.7431 -10.7358 -10.7047 -10.6674 -10.6135 -10.5608 -10.5601 -10.5572
   -10.5327 -10.5063 -10.5011 -10.4990 -10.4813 -10.4697 -10.4680 -10.4628
   -10.4568 -10.4476 -10.4389 -10.4255 -10.3860 -10.3808 -10.3699 -10.3271
   -10.3263 -10.3165 -10.3061 -10.2926 -10.2637 -10.2346 -10.2179 -10.1835
   -10.1758 -10.1341 -10.1276 -10.1137 -10.0876 -10.0685 -10.0656 -10.0479
   -10.0450 -10.0448 -10.0417 -10.0365 -10.0349 -10.0251 -10.0209 -10.0185
   -10.0095 -10.0017 -10.0003  -9.9794  -9.9787  -9.9693  -9.9608  -9.9527
    -9.9472  -9.9449  -9.9321  -9.9307  -9.9163  -9.9148  -9.9088  -9.9003
    -9.8902  -9.8886  -9.8651  -9.8555  -9.8426  -9.8407  -9.8405  -9.8343
    -9.8316  -9.7990  -9.7783  -9.7710  -9.7689  -9.7512  -9.7468  -9.6991
    -9.6985  -9.6951  -9.6777  -9.6513  -9.5957  -9.5883  -9.5788  -9.5588
    -9.5537  -9.5453  -9.5309  -9.5203  -9.4809  -9.4807  -9.4457  -9.4251
    -9.4212  -9.4144  -9.3791  -9.3736  -9.3452  -9.3379  -9.3271  -9.3124
    -9.3061  -9.2806  -9.2616  -9.2481  -9.2321  -9.2248  -9.2103  -9.2084
    -9.1792  -9.1766  -9.1650  -9.1469  -9.1467  -9.1417  -9.1122  -9.1076
    -9.0944  -9.0895  -9.0892  -9.0813  -9.0802  -9.0800  -9.0240  -9.0164
    -9.0127  -9.0031  -8.9846  -8.9562  -8.9560  -8.9431  -8.9328  -8.9110
    -8.9082  -8.9036  -8.8854  -8.8697  -8.8688  -8.8334  -8.7101  -8.7079
    -8.6824  -8.6634  -8.6522  -8.6340  -8.5598  -8.5442  -8.5224  -8.5144
    -8.5102  -8.5017  -8.4999  -8.4587  -8.4492  -8.4449  -8.4039  -8.3936
    -8.3166  -8.3141  -8.3095  -8.2887  -8.2844  -8.2163  -8.2118  -8.2014
    -8.1951  -8.1928  -8.1863  -8.1736  -8.1649  -8.1494  -8.1463  -8.1405
    -8.0838  -8.0793  -8.0756  -8.0568  -8.0470  -8.0436  -8.0372  -8.0342
    -8.0267  -8.0126  -7.9856  -7.9799  -7.9783  -7.9657  -7.9129  -7.9124
    -7.8956  -7.8723  -7.8449  -7.8300  -7.7909  -7.7825  -7.7694  -7.7616
    -7.7596  -7.7366  -7.7205  -7.7191  -7.7126  -7.7107  -7.6791  -7.6179
    -7.6098  -7.5984  -7.5954  -7.5917  -7.5820  -7.5724  -7.5133  -7.4841
    -7.4787  -7.4562  -7.4274  -7.3784  -7.3697  -7.3223  -7.2992  -7.2634
    -7.2632  -7.2627  -7.2350  -7.2201  -7.1793  -7.1365  -7.1333  -7.1303
    -7.1005  -7.0938  -7.0932  -7.0783  -7.0253  -7.0215  -7.0184  -7.0006
    -6.9618  -6.9596  -6.9511  -6.9408  -6.9185  -6.9150  -6.9148  -6.9109
    -6.9102  -6.8678  -6.8201  -6.8193  -6.8049  -6.7686  -6.7632  -6.7359
    -6.7340  -6.7273  -6.7196  -6.7105  -6.7100  -6.6942  -6.5925  -6.5897
    -6.5843  -6.5779  -6.5683  -6.5595  -6.5385  -6.5088  -6.4995  -6.4989
    -6.4857  -6.3390  -6.3363  -6.3305  -6.3266  -6.3204  -6.2651  -6.2587
    -6.2522  -6.2451  -6.1908  -6.1653  -6.1510  -6.1468  -6.1465  -6.1368
    -6.1353  -6.0948  -6.0559  -6.0391  -5.9965  -5.9411  -5.9328  -5.9323
    -5.8955  -5.8163  -5.8070  -5.8055  -5.7500  -5.6975  -5.6782  -5.6090
    -5.5563  -5.5206  -5.4582  -5.4561  -5.4073  -5.3803  -5.3388  -5.3341
    -5.3121  -5.3045  -5.2799  -5.2726  -5.2516  -5.2253  -5.2178  -5.2170
    -5.1815  -5.1785  -5.1613  -5.1517  -5.1452  -5.1346  -5.1108  -5.0457
    -5.0162  -4.9983  -4.9728  -4.9623  -4.9327  -4.9208  -4.8952  -4.8831
    -4.8759  -4.7969  -4.7810  -4.7517  -4.6965  -4.6507  -4.6439  -4.5763
    -4.5389  -4.5314  -4.3460  -4.2139  -4.2020  -4.1572  -4.1229  -4.0900
    -3.9990  -3.8885  -3.8272  -3.7961  -3.7842  -3.6377  -3.3657  -3.3301
    -2.4182  -2.3999  -2.0910  -1.9732  -1.9514  -1.9450  -1.9183  -1.8611
    -1.7349  -1.7344  -1.6741  -1.6637  -1.6625  -1.6608  -1.6206  -1.5867
    -1.5123  -1.4980  -1.4899  -1.4672  -1.4300  -1.4285  -1.4013  -1.3803
    -1.3589  -1.3365  -1.2755  -1.2726  -1.2527  -1.2501  -1.2359  -1.2215
    -1.2214  -1.2161  -1.1959  -1.1856  -1.1662  -1.1158  -1.0992  -1.0964
    -1.0922  -1.0418  -1.0343  -1.0289  -1.0263  -1.0002  -0.9952  -0.9854
    -0.9819  -0.9669  -0.9668  -0.9311  -0.7855  -0.7529  -0.7436  -0.6828
    -0.6042  -0.5774  -0.5731  -0.5469  -0.5172  -0.4588  -0.3763  -0.3398
    -0.3125  -0.2957  -0.2821  -0.1232  -0.1104  -0.0629  -0.0363  -0.0108

          k = 0.0000 0.0000 0.2001 (****** PWs)   bands (ev):

   -22.6661 -22.6324 -22.5665 -22.4676 -22.4534 -22.4534 -22.4199 -22.4198
   -22.3542 -22.3541 -22.3357 -22.2556 -22.2554 -22.1712 -22.1242 -22.1239
   -21.9742 -21.9602 -21.9599 -21.8254 -21.8253 -21.7921 -21.7919 -21.7639
   -21.7634 -21.7448 -21.7271 -21.7269 -21.6295 -21.6291 -21.5353 -21.5347
   -21.4994 -21.4988 -21.4835 -21.3370 -21.3363 -21.2749 -21.2741 -21.1905
   -21.1426 -21.1417 -20.9829 -20.9821 -20.9164 -20.9152 -20.8664 -20.8097
   -20.8096 -20.7768 -20.7767 -20.7130 -20.7128 -20.6599 -20.6590 -20.6588
   -20.6572 -20.6171 -20.6167 -20.5116 -20.4894 -20.4888 -20.3701 -20.3682
   -20.3301 -20.3292 -20.3065 -20.3055 -20.1394 -20.1380 -20.1269 -20.0509
   -20.0487 -19.9235 -19.9224 -19.9176 -19.9158 -19.7132 -19.7020 -19.6994
   -19.6653 -19.6629 -19.5118 -19.5106 -19.4512 -19.4511 -19.4190 -19.4189
   -19.3829 -19.3799 -19.3572 -19.3570 -19.3245 -19.3216 -19.2718 -19.2644
   -19.2639 -19.1408 -19.1399 -19.0731 -19.0715 -19.0714 -19.0680 -18.9868
   -18.9853 -18.9202 -18.9167 -18.8042 -18.8027 -18.8005 -18.7323 -18.7285
   -18.6096 -18.6071 -18.5889 -18.5861 -18.4923 -18.4876 -18.3681 -18.3645
   -18.3463 -18.3429 -18.3127 -18.1254 -18.1203 -18.0760 -18.0727 -18.0477
   -18.0397 -17.9845 -17.9824 -17.8616 -17.8592 -17.8334 -17.8257 -17.8008
   -17.7801 -17.7788 -17.7785 -17.7650 -17.6943 -17.6750 -17.6293 -17.6164
   -17.6070 -17.6006 -17.5974 -17.5866 -17.5815 -17.5560 -17.4694 -17.4629
   -17.4405 -17.4084 -17.2929 -17.2742 -17.2724 -17.2717 -17.2579 -17.2331
   -17.1762 -17.1706 -17.1481 -17.1365 -17.1061 -17.0756 -17.0313 -16.9941
   -16.8532 -16.8470 -16.8063 -16.7983 -16.7442 -16.6210 -16.6061 -16.5666
   -16.3440 -16.3382 -16.2935 -16.2408 -16.1845 -16.1782 -16.1067 -16.0657
   -15.9936 -15.9263 -15.9177 -15.8364 -15.8258 -15.8241 -15.6761 -15.6560
   -15.6171 -15.5917 -15.5817 -15.5626 -15.5619 -15.5357 -15.5338 -15.4834
   -15.4811 -15.4747 -15.4051 -15.4043 -15.4036 -15.3529 -15.3428 -15.3425
   -15.3066 -15.3019 -15.2252 -15.2243 -15.1944 -15.1848 -15.1833 -15.1761
   -15.1544 -15.1441 -15.1367 -15.1356 -15.0808 -15.0313 -15.0239 -15.0052
   -14.9960 -14.8758 -14.8748 -14.8545 -14.8161 -14.8109 -14.7222 -14.7125
   -14.6611 -14.6408 -14.6250 -14.6106 -14.6088 -14.5992 -14.5575 -14.4800
   -14.2515 -14.2476 -14.2191 -14.2053 -14.1464 -14.0858 -14.0614 -14.0542
   -13.9603 -13.7667 -13.6756 -13.6746 -13.6703 -13.6567 -13.6069 -13.6025
   -13.5561 -13.5268 -13.5206 -13.5123 -13.4895 -13.4854 -13.4504 -13.4492
   -13.4354 -13.4104 -13.4091 -13.3901 -13.3660 -13.3600 -13.3490 -13.2874
   -13.2799 -13.2446 -13.1821 -13.1728 -13.1468 -13.1274 -13.1123 -13.0941
   -13.0935 -13.0823 -13.0501 -13.0473 -13.0081 -13.0033 -13.0003 -12.9617
   -12.8664 -12.8541 -12.7842 -12.7759 -12.7132 -12.6647 -12.6305 -12.5368
   -12.5353 -12.5199 -12.4728 -12.4346 -12.4037 -12.3377 -12.2596 -12.2419
   -12.1721 -12.1694 -12.1398 -12.1137 -12.0975 -12.0570 -12.0444 -11.9803
   -11.9436 -11.8895 -11.8750 -11.8437 -11.8198 -11.8174 -11.7804 -11.7737
   -11.7168 -11.6850 -11.6730 -11.6604 -11.6521 -11.6191 -11.5791 -11.5587
   -11.5511 -11.5257 -11.4403 -11.4148 -11.4088 -11.4068 -11.3923 -11.3690
   -11.3679 -11.3593 -11.3498 -11.3430 -11.3261 -11.3067 -11.2954 -11.2941
   -11.2530 -11.2332 -11.2210 -11.2063 -11.2049 -11.1597 -11.1554 -11.1458
   -11.1310 -11.1216 -11.1174 -11.0652 -11.0293 -10.9831 -10.9403 -10.8943
   -10.8936 -10.8824 -10.8587 -10.7976 -10.7587 -10.7435 -10.7401 -10.6819
   -10.6667 -10.6657 -10.6229 -10.5941 -10.5673 -10.5581 -10.5576 -10.5563
   -10.5406 -10.5211 -10.5167 -10.5040 -10.4933 -10.4877 -10.4759 -10.4684
   -10.4631 -10.4480 -10.4402 -10.4255 -10.4155 -10.3699 -10.3596 -10.3413
   -10.3388 -10.3348 -10.3267 -10.2483 -10.2360 -10.2280 -10.2250 -10.2181
   -10.1959 -10.1786 -10.1774 -10.1726 -10.1183 -10.0989 -10.0830 -10.0737
   -10.0680 -10.0562 -10.0471 -10.0419 -10.0338 -10.0323 -10.0302 -10.0250
   -10.0248 -10.0100 -10.0077 -10.0019  -9.9950  -9.9935  -9.9924  -9.9895
    -9.9690  -9.9427  -9.9341  -9.9295  -9.9145  -9.9132  -9.9051  -9.8814
    -9.8662  -9.8659  -9.8544  -9.8508  -9.8469  -9.8459  -9.8155  -9.7892
    -9.7878  -9.7872  -9.7727  -9.7617  -9.7397  -9.7181  -9.6927  -9.6901
    -9.6504  -9.6382  -9.6331  -9.6308  -9.6215  -9.6178  -9.6099  -9.5770
    -9.5599  -9.5357  -9.5224  -9.5100  -9.5030  -9.4833  -9.4755  -9.4621
    -9.4251  -9.3981  -9.3941  -9.3291  -9.3199  -9.3124  -9.3113  -9.3104
    -9.3051  -9.2933  -9.2628  -9.2519  -9.2287  -9.2278  -9.2259  -9.2066
    -9.1965  -9.1800  -9.1623  -9.1424  -9.1381  -9.1316  -9.1249  -9.1245
    -9.1161  -9.0897  -9.0803  -9.0787  -9.0594  -9.0552  -9.0498  -9.0412
    -9.0358  -9.0300  -8.9952  -8.9510  -8.9479  -8.9415  -8.9364  -8.9066
    -8.9019  -8.8977  -8.8969  -8.8787  -8.8406  -8.7898  -8.7799  -8.7472
    -8.7292  -8.7151  -8.6596  -8.6163  -8.5685  -8.5373  -8.5371  -8.5139
    -8.4980  -8.4974  -8.4662  -8.4516  -8.4246  -8.4064  -8.3226  -8.3161
    -8.3056  -8.2955  -8.2814  -8.2711  -8.2658  -8.2258  -8.2031  -8.1982
    -8.1931  -8.1776  -8.1757  -8.1735  -8.1668  -8.1575  -8.1478  -8.1363
    -8.1206  -8.1196  -8.1136  -8.1022  -8.0780  -8.0776  -8.0701  -8.0652
    -8.0433  -8.0363  -8.0121  -7.9613  -7.9491  -7.9407  -7.9283  -7.9274
    -7.8803  -7.8685  -7.8664  -7.8357  -7.8303  -7.8041  -7.7867  -7.7707
    -7.7687  -7.7582  -7.7404  -7.7387  -7.7030  -7.6947  -7.6386  -7.6339
    -7.5636  -7.5565  -7.5422  -7.5148  -7.5102  -7.4968  -7.4961  -7.4811
    -7.4386  -7.4202  -7.4040  -7.3983  -7.3838  -7.3270  -7.3254  -7.3250
    -7.2958  -7.2708  -7.2545  -7.2248  -7.2087  -7.1882  -7.1818  -7.1415
    -7.1391  -7.1292  -7.0727  -7.0690  -7.0662  -7.0644  -7.0613  -7.0587
    -7.0066  -6.9933  -6.9725  -6.9229  -6.9136  -6.8612  -6.8246  -6.8225
    -6.8191  -6.8177  -6.8172  -6.8157  -6.7837  -6.7825  -6.7779  -6.7743
    -6.7703  -6.7135  -6.7060  -6.7013  -6.6383  -6.6368  -6.6212  -6.6094
    -6.6016  -6.6000  -6.5384  -6.4830  -6.4711  -6.4613  -6.4593  -6.4584
    -6.4433  -6.4357  -6.4355  -6.3568  -6.3433  -6.3402  -6.3357  -6.3188
    -6.2999  -6.2919  -6.2336  -6.1725  -6.1711  -6.1559  -6.1369  -6.1191
    -6.0977  -6.0948  -6.0815  -6.0520  -6.0373  -5.9458  -5.8743  -5.8671
    -5.8657  -5.8168  -5.8020  -5.6924  -5.6915  -5.6488  -5.6372  -5.6266
    -5.6127  -5.5837  -5.5219  -5.3940  -5.3915  -5.3584  -5.3416  -5.3126
    -5.2988  -5.2981  -5.2892  -5.2889  -5.2767  -5.2536  -5.2440  -5.2338
    -5.2297  -5.2026  -5.1682  -5.1623  -5.1563  -5.1399  -5.1365  -5.0664
    -5.0341  -5.0240  -5.0097  -4.9700  -4.8791  -4.8765  -4.8698  -4.8579
    -4.8438  -4.8091  -4.7530  -4.6943  -4.6669  -4.6432  -4.6162  -4.6089
    -4.5263  -4.4845  -4.4093  -4.2590  -4.2483  -4.2450  -4.1453  -4.0363
    -3.9343  -3.8580  -3.8570  -3.7978  -3.7779  -3.5669  -3.4189  -3.3486
    -2.3928  -2.3567  -2.1611  -2.0435  -1.9851  -1.9096  -1.8838  -1.8785
    -1.6756  -1.6609  -1.6595  -1.6449  -1.6413  -1.6401  -1.6400  -1.6239
    -1.4957  -1.4816  -1.4709  -1.4671  -1.4603  -1.4515  -1.4462  -1.4343
    -1.3942  -1.3824  -1.3145  -1.3018  -1.2978  -1.2753  -1.1993  -1.1883
    -1.1722  -1.1705  -1.1563  -1.1540  -1.1359  -1.1293  -1.1248  -1.0896
    -1.0820  -1.0488  -1.0430  -1.0229  -1.0140  -1.0004  -0.9903  -0.9810
    -0.9686  -0.9683  -0.8706  -0.8412  -0.8389  -0.8302  -0.7911  -0.7149
    -0.6615  -0.6590  -0.6241  -0.4901  -0.4890  -0.4454  -0.4032  -0.3440
    -0.2599  -0.1936  -0.1820  -0.1808  -0.1446  -0.1421  -0.0130   0.0824

          k = 0.0000 0.0000 0.3001 (****** PWs)   bands (ev):

   -22.6612 -22.6435 -22.5449 -22.4954 -22.4486 -22.4485 -22.4309 -22.4308
   -22.3327 -22.3325 -22.2977 -22.2833 -22.2831 -22.2154 -22.0863 -22.0860
   -22.0043 -22.0039 -21.9199 -21.8206 -21.8205 -21.8052 -21.8030 -21.8029
   -21.7097 -21.7092 -21.7058 -21.7055 -21.6569 -21.6566 -21.5954 -21.5949
   -21.4618 -21.4612 -21.4132 -21.3806 -21.3800 -21.2667 -21.2048 -21.2041
   -21.0891 -21.0880 -21.0588 -21.0580 -20.9760 -20.9748 -20.8051 -20.8050
   -20.7875 -20.7874 -20.7806 -20.6920 -20.6918 -20.6441 -20.6438 -20.6032
   -20.5895 -20.5879 -20.5744 -20.5735 -20.4525 -20.4519 -20.4451 -20.4433
   -20.3977 -20.3967 -20.3728 -20.3720 -20.0868 -20.0854 -20.0262 -19.9760
   -19.9743 -19.9664 -19.9641 -19.8232 -19.8221 -19.8193 -19.7919 -19.7895
   -19.6173 -19.6161 -19.5975 -19.5949 -19.4563 -19.4534 -19.4468 -19.4467
   -19.4292 -19.4291 -19.3369 -19.3366 -19.2905 -19.2901 -19.2259 -19.2228
   -19.1573 -19.1051 -19.1041 -19.0281 -19.0268 -19.0237 -19.0203 -18.9892
   -18.9856 -18.9594 -18.9576 -18.9234 -18.8196 -18.8158 -18.7520 -18.7497
   -18.7276 -18.7254 -18.6451 -18.6424 -18.3823 -18.3771 -18.2813 -18.2778
   -18.2737 -18.2703 -18.1865 -18.1597 -18.1530 -18.1461 -18.1427 -18.0817
   -18.0790 -18.0019 -17.9957 -17.9304 -17.8581 -17.8551 -17.8416 -17.8359
   -17.7601 -17.7536 -17.7453 -17.7435 -17.7180 -17.7026 -17.7024 -17.7002
   -17.5489 -17.5474 -17.5438 -17.5218 -17.5110 -17.5052 -17.5041 -17.4784
   -17.4764 -17.4480 -17.3531 -17.3387 -17.3244 -17.2686 -17.2252 -17.1850
   -17.1414 -17.1271 -17.1064 -17.0841 -17.0571 -17.0391 -17.0127 -16.9802
   -16.9096 -16.8760 -16.8578 -16.7936 -16.7472 -16.7360 -16.6700 -16.6269
   -16.3034 -16.2717 -16.2692 -16.1319 -16.1292 -16.1182 -16.1164 -16.0186
   -15.9570 -15.9421 -15.9390 -15.9329 -15.8551 -15.7992 -15.7979 -15.7645
   -15.6801 -15.6757 -15.5590 -15.5580 -15.5442 -15.5427 -15.5090 -15.4662
   -15.4641 -15.4456 -15.4270 -15.4256 -15.3968 -15.3133 -15.2978 -15.2796
   -15.2725 -15.2721 -15.2655 -15.2233 -15.2224 -15.2132 -15.2095 -15.1239
   -15.1115 -15.0698 -15.0551 -15.0329 -15.0269 -15.0201 -15.0117 -14.9945
   -14.9929 -14.9537 -14.9470 -14.9144 -14.8342 -14.7851 -14.7801 -14.7775
   -14.7467 -14.7046 -14.6881 -14.6614 -14.6310 -14.5820 -14.5386 -14.4661
   -14.3276 -14.2082 -14.1086 -14.1017 -14.0740 -14.0137 -13.9436 -13.9288
   -13.8205 -13.8099 -13.8064 -13.8061 -13.7438 -13.7177 -13.6750 -13.6493
   -13.5990 -13.5262 -13.5223 -13.5094 -13.5092 -13.4950 -13.4867 -13.4804
   -13.4608 -13.4198 -13.4096 -13.4008 -13.3928 -13.3905 -13.3850 -13.3123
   -13.3060 -13.2563 -13.2072 -13.2064 -13.1084 -13.0973 -13.0592 -13.0552
   -13.0229 -13.0189 -13.0052 -12.9697 -12.9486 -12.9075 -12.9049 -12.8967
   -12.7879 -12.7825 -12.7567 -12.7330 -12.6811 -12.6614 -12.6549 -12.6358
   -12.6229 -12.6175 -12.5888 -12.5504 -12.4735 -12.3926 -12.3679 -12.3199
   -12.3012 -12.1464 -12.1258 -12.0778 -12.0764 -12.0545 -11.9816 -11.9277
   -11.8805 -11.8559 -11.8248 -11.7940 -11.7433 -11.7364 -11.7173 -11.7142
   -11.6678 -11.6523 -11.6309 -11.6272 -11.6133 -11.6076 -11.5897 -11.5890
   -11.5787 -11.4936 -11.4892 -11.4795 -11.4517 -11.4241 -11.4007 -11.3941
   -11.3680 -11.3643 -11.3548 -11.3495 -11.3468 -11.3190 -11.3048 -11.3030
   -11.3000 -11.2840 -11.2622 -11.2415 -11.2173 -11.2149 -11.2020 -11.1905
   -11.1904 -11.1447 -11.1353 -11.1245 -11.0483 -11.0253 -10.8900 -10.8632
   -10.8182 -10.7929 -10.7917 -10.7847 -10.7718 -10.6884 -10.6568 -10.6343
   -10.6173 -10.6094 -10.6043 -10.5994 -10.5960 -10.5895 -10.5523 -10.5502
   -10.5411 -10.5378 -10.5334 -10.5299 -10.4801 -10.4745 -10.4525 -10.4240
   -10.4174 -10.4152 -10.4071 -10.3945 -10.3719 -10.3694 -10.3647 -10.3585
   -10.3453 -10.3150 -10.3090 -10.2940 -10.2939 -10.2782 -10.2780 -10.2431
   -10.2075 -10.1835 -10.1763 -10.1716 -10.1699 -10.1635 -10.1554 -10.1485
   -10.1347 -10.1336 -10.0697 -10.0596 -10.0478 -10.0434 -10.0405 -10.0335
   -10.0226 -10.0127 -10.0042  -9.9983  -9.9831  -9.9823  -9.9783  -9.9617
    -9.9548  -9.9481  -9.9404  -9.9381  -9.9150  -9.9107  -9.8980  -9.8956
    -9.8711  -9.8247  -9.8214  -9.8081  -9.7906  -9.7870  -9.7865  -9.7860
    -9.7834  -9.7693  -9.7682  -9.7418  -9.7351  -9.7087  -9.6872  -9.6785
    -9.6674  -9.6477  -9.6459  -9.6158  -9.6141  -9.6113  -9.5758  -9.5537
    -9.5459  -9.5446  -9.5382  -9.5278  -9.5016  -9.4870  -9.4800  -9.4758
    -9.4233  -9.3935  -9.3813  -9.3717  -9.3443  -9.3327  -9.3059  -9.2921
    -9.2861  -9.2839  -9.2834  -9.2504  -9.2488  -9.2443  -9.2198  -9.2114
    -9.1731  -9.1585  -9.1490  -9.1259  -9.1127  -9.1111  -9.1102  -9.0897
    -9.0866  -9.0859  -9.0811  -9.0755  -9.0733  -9.0586  -9.0576  -9.0413
    -9.0256  -9.0242  -8.9936  -8.9871  -8.9725  -8.9717  -8.9701  -8.9222
    -8.9217  -8.9070  -8.9044  -8.9030  -8.8964  -8.8478  -8.8361  -8.7543
    -8.6994  -8.6176  -8.6016  -8.5893  -8.5782  -8.5573  -8.5369  -8.5307
    -8.5190  -8.4957  -8.4956  -8.3990  -8.3707  -8.3450  -8.3350  -8.3112
    -8.3009  -8.2925  -8.2685  -8.2491  -8.2298  -8.2264  -8.2231  -8.2128
    -8.1896  -8.1890  -8.1846  -8.1732  -8.1568  -8.1535  -8.1449  -8.1404
    -8.1348  -8.1066  -8.1052  -8.0940  -8.0769  -8.0759  -8.0735  -8.0626
    -8.0553  -8.0329  -8.0244  -7.9843  -7.9806  -7.9638  -7.9478  -7.9462
    -7.9128  -7.9009  -7.9000  -7.8888  -7.8680  -7.8236  -7.8149  -7.8137
    -7.8037  -7.7587  -7.6958  -7.6480  -7.6466  -7.6329  -7.6287  -7.6107
    -7.5356  -7.5101  -7.5073  -7.5014  -7.5004  -7.4703  -7.4351  -7.4346
    -7.4104  -7.3938  -7.3923  -7.3889  -7.3856  -7.3571  -7.3347  -7.3209
    -7.2899  -7.2801  -7.2733  -7.2684  -7.2612  -7.2378  -7.2199  -7.1916
    -7.1889  -7.1818  -7.1758  -7.1557  -7.1192  -7.0548  -6.9976  -6.9908
    -6.9834  -6.9698  -6.9507  -6.9341  -6.9210  -6.8563  -6.8452  -6.8411
    -6.8123  -6.8101  -6.8063  -6.7939  -6.7902  -6.7768  -6.7292  -6.7233
    -6.6959  -6.6941  -6.6907  -6.6840  -6.6827  -6.6386  -6.6296  -6.6027
    -6.5345  -6.5319  -6.5056  -6.4877  -6.4825  -6.4457  -6.4314  -6.4218
    -6.4217  -6.4214  -6.4066  -6.4059  -6.3968  -6.3793  -6.3630  -6.3522
    -6.3457  -6.3370  -6.2727  -6.2504  -6.2410  -6.2179  -6.2124  -6.1807
    -6.0425  -6.0416  -6.0354  -5.9672  -5.9585  -5.9383  -5.9313  -5.9272
    -5.7918  -5.7776  -5.7436  -5.7395  -5.6711  -5.6504  -5.5915  -5.5792
    -5.5764  -5.5461  -5.5032  -5.4546  -5.4104  -5.4083  -5.3593  -5.3318
    -5.3156  -5.3109  -5.3013  -5.2855  -5.2603  -5.2579  -5.2507  -5.2462
    -5.2364  -5.2207  -5.2138  -5.1850  -5.1669  -5.1289  -5.1091  -5.0829
    -5.0678  -5.0123  -4.9992  -4.9716  -4.8886  -4.8700  -4.8535  -4.8479
    -4.8356  -4.7980  -4.7431  -4.6669  -4.6238  -4.5877  -4.5746  -4.5559
    -4.5323  -4.4708  -4.4291  -4.3694  -4.3457  -4.3161  -4.0753  -3.9851
    -3.9313  -3.8942  -3.8810  -3.8123  -3.6733  -3.4997  -3.4907  -3.3865
    -2.3493  -2.2956  -2.2293  -2.1361  -1.9850  -1.9470  -1.8328  -1.8186
    -1.7300  -1.6965  -1.6358  -1.6155  -1.6099  -1.6047  -1.5772  -1.5524
    -1.5255  -1.5141  -1.5105  -1.5010  -1.4640  -1.4546  -1.4193  -1.4102
    -1.4057  -1.3957  -1.3704  -1.3506  -1.3336  -1.3175  -1.2765  -1.2380
    -1.1792  -1.1443  -1.1085  -1.0956  -1.0888  -1.0812  -1.0727  -1.0621
    -1.0562  -1.0284  -1.0170  -1.0057  -0.9884  -0.9823  -0.9770  -0.9716
    -0.9705  -0.9233  -0.9228  -0.9170  -0.8964  -0.8228  -0.7737  -0.7567
    -0.7471  -0.7277  -0.5488  -0.5313  -0.5228  -0.4091  -0.4012  -0.2727
    -0.2542  -0.2285  -0.2279  -0.1425  -0.0743  -0.0668   0.0074   0.0943

          k = 0.0000 0.0000 0.4002 (****** PWs)   bands (ev):

   -22.6564 -22.6503 -22.5216 -22.5207 -22.4439 -22.4438 -22.4376 -22.4376
   -22.3094 -22.3094 -22.3085 -22.3084 -22.2580 -22.2571 -22.0467 -22.0466
   -22.0456 -22.0456 -21.8639 -21.8631 -21.8162 -21.8160 -21.8095 -21.8094
   -21.6827 -21.6827 -21.6818 -21.6816 -21.6538 -21.6538 -21.6528 -21.6528
   -21.4226 -21.4224 -21.4214 -21.4213 -21.3413 -21.3406 -21.1330 -21.1329
   -21.1319 -21.1318 -21.0337 -21.0336 -21.0323 -21.0322 -20.8009 -20.8008
   -20.7936 -20.7936 -20.6931 -20.6925 -20.6695 -20.6693 -20.6684 -20.6684
   -20.5184 -20.5183 -20.5165 -20.5164 -20.4872 -20.4871 -20.4860 -20.4859
   -20.4139 -20.4139 -20.4127 -20.4126 -20.0325 -20.0325 -20.0307 -20.0306
   -19.9239 -19.9233 -19.8802 -19.8801 -19.8777 -19.8776 -19.7213 -19.7212
   -19.7200 -19.7198 -19.5279 -19.5279 -19.5251 -19.5250 -19.4430 -19.4429
   -19.4349 -19.4348 -19.3150 -19.3150 -19.3141 -19.3139 -19.1256 -19.1255
   -19.1224 -19.1223 -19.0678 -19.0677 -19.0663 -19.0662 -19.0414 -19.0409
   -18.9053 -18.9052 -18.9016 -18.9014 -18.8443 -18.8442 -18.8423 -18.8422
   -18.6996 -18.6995 -18.6969 -18.6969 -18.2714 -18.2713 -18.2655 -18.2654
   -18.2146 -18.2146 -18.2110 -18.2110 -18.1782 -18.1782 -18.1751 -18.1750
   -18.0592 -18.0588 -17.8779 -17.8779 -17.8701 -17.8699 -17.8542 -17.8541
   -17.8431 -17.8430 -17.7401 -17.7399 -17.7236 -17.7236 -17.6253 -17.6252
   -17.6237 -17.6236 -17.5146 -17.5145 -17.4858 -17.4857 -17.4280 -17.4268
   -17.4181 -17.4180 -17.4084 -17.4083 -17.3697 -17.3696 -17.1771 -17.1769
   -17.1354 -17.1353 -17.0522 -17.0520 -17.0087 -17.0084 -16.9808 -16.9807
   -16.9405 -16.9404 -16.8565 -16.8564 -16.7327 -16.7324 -16.6874 -16.6872
   -16.2771 -16.2769 -16.2003 -16.2000 -16.0376 -16.0375 -16.0332 -16.0317
   -16.0315 -16.0286 -15.9144 -15.9143 -15.8607 -15.8606 -15.7719 -15.7719
   -15.7462 -15.7461 -15.5554 -15.5553 -15.5483 -15.5482 -15.4475 -15.4475
   -15.4456 -15.4454 -15.3908 -15.3907 -15.3895 -15.3894 -15.3581 -15.3576
   -15.2518 -15.2517 -15.2416 -15.2416 -15.1948 -15.1946 -15.0894 -15.0892
   -15.0814 -15.0809 -15.0727 -15.0727 -15.0318 -15.0318 -14.9539 -14.9539
   -14.9534 -14.9533 -14.9072 -14.9071 -14.8840 -14.8840 -14.8504 -14.8503
   -14.7125 -14.7125 -14.6823 -14.6819 -14.6573 -14.6573 -14.4342 -14.4340
   -14.3354 -14.3354 -13.9652 -13.9647 -13.9546 -13.9545 -13.9410 -13.9409
   -13.8795 -13.8794 -13.8317 -13.8311 -13.7997 -13.7996 -13.6596 -13.6595
   -13.5364 -13.5364 -13.5303 -13.5301 -13.5246 -13.5246 -13.5029 -13.5029
   -13.4710 -13.4709 -13.4030 -13.4030 -13.3944 -13.3944 -13.3595 -13.3595
   -13.2605 -13.2604 -13.2321 -13.2320 -13.0848 -13.0848 -13.0587 -13.0587
   -13.0378 -13.0377 -12.8819 -12.8813 -12.8475 -12.8475 -12.8260 -12.8259
   -12.8047 -12.8042 -12.7616 -12.7615 -12.7430 -12.7428 -12.7068 -12.7066
   -12.6057 -12.6056 -12.5245 -12.5243 -12.4996 -12.4995 -12.4286 -12.4286
   -12.2341 -12.2341 -12.1046 -12.1046 -11.9984 -11.9983 -11.9792 -11.9791
   -11.8487 -11.8482 -11.7723 -11.7722 -11.7381 -11.7375 -11.6667 -11.6665
   -11.6440 -11.6439 -11.6244 -11.6243 -11.5974 -11.5972 -11.5583 -11.5582
   -11.5172 -11.5170 -11.4920 -11.4920 -11.4885 -11.4884 -11.4398 -11.4397
   -11.4112 -11.4111 -11.3596 -11.3596 -11.3403 -11.3403 -11.3113 -11.3112
   -11.2828 -11.2828 -11.2485 -11.2484 -11.2296 -11.2296 -11.1590 -11.1586
   -11.1558 -11.1558 -11.1557 -11.1556 -11.1333 -11.1333 -10.7856 -10.7803
   -10.7536 -10.7535 -10.7502 -10.7497 -10.7409 -10.7409 -10.7099 -10.7098
   -10.6913 -10.6912 -10.6297 -10.6289 -10.5457 -10.5457 -10.5396 -10.5395
   -10.4800 -10.4798 -10.4723 -10.4722 -10.4509 -10.4507 -10.4234 -10.4232
   -10.4138 -10.4137 -10.3978 -10.3978 -10.3880 -10.3880 -10.3868 -10.3867
   -10.3264 -10.3256 -10.3116 -10.3114 -10.2982 -10.2982 -10.2852 -10.2851
   -10.2286 -10.2286 -10.2110 -10.2109 -10.1784 -10.1783 -10.1191 -10.1190
   -10.1133 -10.1133 -10.0914 -10.0914 -10.0901 -10.0900 -10.0576 -10.0569
   -10.0376 -10.0375 -10.0145 -10.0144  -9.9665  -9.9665  -9.9611  -9.9605
    -9.9300  -9.9297  -9.9235  -9.9235  -9.8912  -9.8911  -9.8874  -9.8867
    -9.8842  -9.8842  -9.7964  -9.7963  -9.7849  -9.7849  -9.7799  -9.7798
    -9.7664  -9.7656  -9.7262  -9.7262  -9.7035  -9.7032  -9.6858  -9.6857
    -9.6783  -9.6778  -9.6404  -9.6399  -9.6090  -9.6089  -9.5933  -9.5926
    -9.5431  -9.5431  -9.4968  -9.4902  -9.4685  -9.4685  -9.4631  -9.4631
    -9.4493  -9.4491  -9.4166  -9.4166  -9.3231  -9.3225  -9.2964  -9.2963
    -9.2881  -9.2880  -9.2832  -9.2829  -9.2636  -9.2636  -9.1754  -9.1754
    -9.1370  -9.1368  -9.1204  -9.1203  -9.1011  -9.1010  -9.0959  -9.0959
    -9.0850  -9.0850  -9.0830  -9.0829  -9.0694  -9.0694  -9.0384  -9.0384
    -9.0335  -9.0334  -9.0167  -9.0166  -8.9963  -8.9963  -8.9435  -8.9435
    -8.9292  -8.9292  -8.9123  -8.9122  -8.9044  -8.9043  -8.7993  -8.7992
    -8.6150  -8.6148  -8.5892  -8.5890  -8.5838  -8.5837  -8.5246  -8.5246
    -8.4951  -8.4950  -8.4500  -8.4498  -8.3596  -8.3594  -8.3024  -8.3019
    -8.2961  -8.2959  -8.2710  -8.2710  -8.2505  -8.2504  -8.2260  -8.2259
    -8.2162  -8.2161  -8.1666  -8.1665  -8.1330  -8.1329  -8.1207  -8.1206
    -8.0832  -8.0832  -8.0670  -8.0669  -8.0662  -8.0661  -8.0488  -8.0487
    -8.0396  -8.0395  -8.0309  -8.0308  -8.0182  -8.0181  -8.0180  -8.0180
    -7.9282  -7.9282  -7.8710  -7.8710  -7.8589  -7.8589  -7.8473  -7.8473
    -7.7564  -7.7563  -7.6833  -7.6832  -7.5908  -7.5908  -7.5639  -7.5639
    -7.5585  -7.5584  -7.5230  -7.5225  -7.4491  -7.4491  -7.4443  -7.4443
    -7.3843  -7.3841  -7.3556  -7.3555  -7.3529  -7.3529  -7.3163  -7.3162
    -7.2890  -7.2889  -7.2852  -7.2851  -7.2589  -7.2589  -7.2575  -7.2574
    -7.2521  -7.2520  -7.1696  -7.1694  -7.1045  -7.1044  -6.9508  -6.9507
    -6.9327  -6.9325  -6.9276  -6.9276  -6.9187  -6.9187  -6.9109  -6.9108
    -6.8067  -6.8065  -6.7990  -6.7988  -6.7504  -6.7503  -6.7308  -6.7307
    -6.6658  -6.6657  -6.6572  -6.6572  -6.6325  -6.6323  -6.6280  -6.6279
    -6.5717  -6.5712  -6.5095  -6.5094  -6.4406  -6.4404  -6.3901  -6.3900
    -6.3896  -6.3895  -6.3894  -6.3893  -6.3803  -6.3802  -6.3754  -6.3752
    -6.3623  -6.3621  -6.3283  -6.3283  -6.2988  -6.2988  -6.1974  -6.1918
    -6.0000  -5.9945  -5.9872  -5.9872  -5.9856  -5.9856  -5.8669  -5.8668
    -5.8403  -5.8402  -5.7199  -5.7199  -5.6643  -5.6643  -5.5401  -5.5396
    -5.5155  -5.5154  -5.4786  -5.4786  -5.4681  -5.4679  -5.3803  -5.3802
    -5.3072  -5.3069  -5.2800  -5.2798  -5.2798  -5.2790  -5.2743  -5.2742
    -5.2113  -5.2111  -5.1915  -5.1914  -5.1487  -5.1486  -5.0994  -5.0994
    -5.0590  -5.0589  -4.9336  -4.9335  -4.9313  -4.9312  -4.8463  -4.8461
    -4.7902  -4.7901  -4.7279  -4.7277  -4.5488  -4.5487  -4.5303  -4.5302
    -4.4960  -4.4957  -4.4487  -4.4485  -4.3729  -4.3728  -4.0040  -4.0038
    -3.9374  -3.9373  -3.8402  -3.8400  -3.5769  -3.5766  -3.4385  -3.4382
    -2.2933  -2.2931  -2.2211  -2.2207  -1.9723  -1.9722  -1.7829  -1.7827
    -1.7561  -1.7560  -1.5995  -1.5993  -1.5755  -1.5753  -1.5673  -1.5671
    -1.5582  -1.5580  -1.4892  -1.4889  -1.4468  -1.4466  -1.4176  -1.4171
    -1.3948  -1.3944  -1.3682  -1.3681  -1.3626  -1.3625  -1.2984  -1.2982
    -1.1609  -1.1609  -1.0839  -1.0839  -1.0642  -1.0641  -1.0113  -1.0112
    -1.0040  -1.0038  -1.0035  -1.0033  -0.9982  -0.9980  -0.9762  -0.9761
    -0.9735  -0.9735  -0.9276  -0.9274  -0.8830  -0.8829  -0.8277  -0.8276
    -0.6496  -0.6494  -0.6408  -0.6407  -0.4027  -0.4022  -0.3304  -0.3304
    -0.3142  -0.3141  -0.1107  -0.1106  -0.0243  -0.0243   0.0451   0.0452

          k = 0.0000 0.0000 0.5002 (****** PWs)   bands (ev):

   -22.6612 -22.6435 -22.5449 -22.4954 -22.4486 -22.4485 -22.4309 -22.4308
   -22.3327 -22.3325 -22.2977 -22.2833 -22.2831 -22.2154 -22.0863 -22.0860
   -22.0043 -22.0039 -21.9199 -21.8206 -21.8205 -21.8052 -21.8030 -21.8029
   -21.7097 -21.7092 -21.7058 -21.7055 -21.6569 -21.6566 -21.5954 -21.5949
   -21.4618 -21.4612 -21.4132 -21.3806 -21.3800 -21.2667 -21.2048 -21.2041
   -21.0891 -21.0880 -21.0588 -21.0580 -20.9760 -20.9748 -20.8051 -20.8050
   -20.7875 -20.7874 -20.7806 -20.6920 -20.6918 -20.6441 -20.6438 -20.6032
   -20.5895 -20.5879 -20.5744 -20.5735 -20.4525 -20.4519 -20.4451 -20.4433
   -20.3977 -20.3967 -20.3728 -20.3720 -20.0868 -20.0854 -20.0262 -19.9760
   -19.9743 -19.9664 -19.9641 -19.8232 -19.8221 -19.8193 -19.7919 -19.7895
   -19.6173 -19.6161 -19.5975 -19.5949 -19.4563 -19.4534 -19.4468 -19.4467
   -19.4292 -19.4291 -19.3369 -19.3366 -19.2905 -19.2901 -19.2259 -19.2228
   -19.1573 -19.1051 -19.1041 -19.0281 -19.0268 -19.0237 -19.0203 -18.9892
   -18.9856 -18.9594 -18.9576 -18.9234 -18.8196 -18.8158 -18.7520 -18.7497
   -18.7276 -18.7254 -18.6451 -18.6424 -18.3823 -18.3771 -18.2813 -18.2778
   -18.2737 -18.2703 -18.1865 -18.1597 -18.1530 -18.1461 -18.1427 -18.0817
   -18.0790 -18.0019 -17.9957 -17.9304 -17.8581 -17.8551 -17.8416 -17.8359
   -17.7601 -17.7536 -17.7453 -17.7435 -17.7180 -17.7026 -17.7024 -17.7002
   -17.5489 -17.5474 -17.5438 -17.5218 -17.5110 -17.5052 -17.5041 -17.4784
   -17.4764 -17.4480 -17.3531 -17.3387 -17.3244 -17.2686 -17.2252 -17.1850
   -17.1414 -17.1271 -17.1064 -17.0841 -17.0571 -17.0391 -17.0127 -16.9802
   -16.9096 -16.8760 -16.8578 -16.7936 -16.7472 -16.7360 -16.6700 -16.6269
   -16.3034 -16.2717 -16.2692 -16.1319 -16.1292 -16.1182 -16.1164 -16.0186
   -15.9570 -15.9421 -15.9390 -15.9329 -15.8551 -15.7992 -15.7979 -15.7645
   -15.6801 -15.6757 -15.5590 -15.5580 -15.5442 -15.5427 -15.5090 -15.4662
   -15.4641 -15.4456 -15.4270 -15.4256 -15.3968 -15.3133 -15.2978 -15.2796
   -15.2725 -15.2721 -15.2655 -15.2233 -15.2224 -15.2132 -15.2095 -15.1239
   -15.1115 -15.0698 -15.0551 -15.0329 -15.0269 -15.0201 -15.0117 -14.9945
   -14.9929 -14.9537 -14.9470 -14.9144 -14.8342 -14.7851 -14.7801 -14.7775
   -14.7467 -14.7046 -14.6881 -14.6614 -14.6310 -14.5820 -14.5386 -14.4661
   -14.3276 -14.2082 -14.1086 -14.1017 -14.0740 -14.0137 -13.9436 -13.9288
   -13.8205 -13.8099 -13.8064 -13.8061 -13.7438 -13.7177 -13.6750 -13.6493
   -13.5990 -13.5262 -13.5223 -13.5094 -13.5092 -13.4950 -13.4867 -13.4804
   -13.4608 -13.4198 -13.4096 -13.4008 -13.3928 -13.3905 -13.3850 -13.3123
   -13.3060 -13.2563 -13.2072 -13.2064 -13.1084 -13.0973 -13.0592 -13.0552
   -13.0229 -13.0189 -13.0052 -12.9697 -12.9486 -12.9075 -12.9049 -12.8967
   -12.7879 -12.7825 -12.7567 -12.7330 -12.6811 -12.6614 -12.6549 -12.6358
   -12.6229 -12.6175 -12.5888 -12.5504 -12.4735 -12.3926 -12.3679 -12.3199
   -12.3012 -12.1464 -12.1258 -12.0778 -12.0764 -12.0545 -11.9816 -11.9277
   -11.8805 -11.8559 -11.8248 -11.7940 -11.7433 -11.7364 -11.7173 -11.7142
   -11.6678 -11.6523 -11.6309 -11.6272 -11.6133 -11.6076 -11.5897 -11.5890
   -11.5787 -11.4936 -11.4892 -11.4795 -11.4517 -11.4241 -11.4007 -11.3941
   -11.3680 -11.3643 -11.3548 -11.3495 -11.3468 -11.3190 -11.3048 -11.3030
   -11.3000 -11.2840 -11.2622 -11.2415 -11.2173 -11.2149 -11.2020 -11.1905
   -11.1904 -11.1447 -11.1353 -11.1245 -11.0483 -11.0253 -10.8900 -10.8632
   -10.8182 -10.7929 -10.7917 -10.7847 -10.7718 -10.6884 -10.6568 -10.6343
   -10.6173 -10.6094 -10.6043 -10.5994 -10.5960 -10.5895 -10.5523 -10.5502
   -10.5411 -10.5378 -10.5334 -10.5299 -10.4801 -10.4745 -10.4525 -10.4240
   -10.4174 -10.4152 -10.4071 -10.3945 -10.3719 -10.3694 -10.3647 -10.3585
   -10.3453 -10.3150 -10.3090 -10.2940 -10.2939 -10.2782 -10.2780 -10.2431
   -10.2075 -10.1835 -10.1763 -10.1716 -10.1699 -10.1635 -10.1554 -10.1485
   -10.1347 -10.1336 -10.0697 -10.0596 -10.0478 -10.0434 -10.0405 -10.0335
   -10.0226 -10.0127 -10.0042  -9.9983  -9.9831  -9.9823  -9.9783  -9.9617
    -9.9548  -9.9481  -9.9404  -9.9381  -9.9150  -9.9107  -9.8980  -9.8956
    -9.8711  -9.8247  -9.8214  -9.8081  -9.7906  -9.7870  -9.7865  -9.7860
    -9.7834  -9.7693  -9.7682  -9.7418  -9.7351  -9.7087  -9.6872  -9.6785
    -9.6674  -9.6477  -9.6459  -9.6158  -9.6141  -9.6113  -9.5758  -9.5537
    -9.5459  -9.5446  -9.5382  -9.5278  -9.5016  -9.4870  -9.4800  -9.4758
    -9.4233  -9.3935  -9.3813  -9.3717  -9.3443  -9.3327  -9.3059  -9.2921
    -9.2861  -9.2839  -9.2834  -9.2504  -9.2488  -9.2443  -9.2198  -9.2114
    -9.1731  -9.1585  -9.1490  -9.1259  -9.1127  -9.1111  -9.1102  -9.0897
    -9.0866  -9.0859  -9.0811  -9.0755  -9.0733  -9.0586  -9.0576  -9.0413
    -9.0256  -9.0242  -8.9936  -8.9871  -8.9725  -8.9717  -8.9701  -8.9222
    -8.9217  -8.9070  -8.9044  -8.9030  -8.8964  -8.8478  -8.8361  -8.7543
    -8.6994  -8.6176  -8.6016  -8.5893  -8.5782  -8.5573  -8.5369  -8.5307
    -8.5190  -8.4957  -8.4956  -8.3990  -8.3707  -8.3450  -8.3350  -8.3112
    -8.3009  -8.2925  -8.2685  -8.2491  -8.2298  -8.2264  -8.2231  -8.2128
    -8.1896  -8.1890  -8.1846  -8.1732  -8.1568  -8.1535  -8.1449  -8.1404
    -8.1348  -8.1066  -8.1052  -8.0940  -8.0769  -8.0759  -8.0735  -8.0626
    -8.0553  -8.0329  -8.0244  -7.9843  -7.9806  -7.9638  -7.9478  -7.9462
    -7.9128  -7.9009  -7.9000  -7.8888  -7.8680  -7.8236  -7.8149  -7.8137
    -7.8037  -7.7587  -7.6958  -7.6480  -7.6466  -7.6329  -7.6287  -7.6107
    -7.5356  -7.5101  -7.5073  -7.5014  -7.5004  -7.4703  -7.4351  -7.4346
    -7.4104  -7.3938  -7.3923  -7.3889  -7.3856  -7.3571  -7.3347  -7.3209
    -7.2899  -7.2801  -7.2733  -7.2684  -7.2612  -7.2378  -7.2199  -7.1916
    -7.1889  -7.1818  -7.1758  -7.1557  -7.1192  -7.0548  -6.9976  -6.9908
    -6.9834  -6.9698  -6.9507  -6.9341  -6.9210  -6.8563  -6.8452  -6.8411
    -6.8123  -6.8101  -6.8063  -6.7939  -6.7902  -6.7768  -6.7292  -6.7233
    -6.6959  -6.6941  -6.6907  -6.6840  -6.6827  -6.6386  -6.6296  -6.6027
    -6.5345  -6.5319  -6.5056  -6.4877  -6.4825  -6.4457  -6.4314  -6.4218
    -6.4217  -6.4214  -6.4066  -6.4059  -6.3968  -6.3793  -6.3630  -6.3522
    -6.3457  -6.3370  -6.2727  -6.2504  -6.2410  -6.2179  -6.2124  -6.1807
    -6.0425  -6.0416  -6.0354  -5.9672  -5.9585  -5.9383  -5.9313  -5.9272
    -5.7918  -5.7776  -5.7436  -5.7395  -5.6711  -5.6504  -5.5915  -5.5792
    -5.5764  -5.5461  -5.5032  -5.4546  -5.4104  -5.4083  -5.3593  -5.3318
    -5.3156  -5.3109  -5.3013  -5.2855  -5.2603  -5.2579  -5.2507  -5.2462
    -5.2364  -5.2207  -5.2138  -5.1850  -5.1669  -5.1289  -5.1091  -5.0829
    -5.0678  -5.0123  -4.9992  -4.9716  -4.8886  -4.8700  -4.8535  -4.8479
    -4.8356  -4.7980  -4.7431  -4.6669  -4.6238  -4.5877  -4.5746  -4.5559
    -4.5323  -4.4708  -4.4291  -4.3694  -4.3457  -4.3161  -4.0753  -3.9851
    -3.9313  -3.8942  -3.8810  -3.8123  -3.6733  -3.4997  -3.4907  -3.3865
    -2.3493  -2.2956  -2.2293  -2.1361  -1.9850  -1.9470  -1.8328  -1.8186
    -1.7300  -1.6965  -1.6358  -1.6155  -1.6099  -1.6047  -1.5772  -1.5524
    -1.5255  -1.5141  -1.5105  -1.5010  -1.4640  -1.4546  -1.4193  -1.4102
    -1.4057  -1.3957  -1.3704  -1.3506  -1.3336  -1.3175  -1.2765  -1.2380
    -1.1792  -1.1443  -1.1085  -1.0956  -1.0888  -1.0812  -1.0727  -1.0621
    -1.0562  -1.0284  -1.0170  -1.0057  -0.9884  -0.9823  -0.9770  -0.9716
    -0.9705  -0.9233  -0.9228  -0.9170  -0.8964  -0.8228  -0.7737  -0.7567
    -0.7471  -0.7277  -0.5488  -0.5313  -0.5228  -0.4091  -0.4012  -0.2727
    -0.2542  -0.2285  -0.2279  -0.1425  -0.0743  -0.0668   0.0074   0.0943

          k = 0.0000 0.0000 0.6002 (****** PWs)   bands (ev):

   -22.6661 -22.6324 -22.5665 -22.4676 -22.4534 -22.4534 -22.4199 -22.4198
   -22.3542 -22.3541 -22.3357 -22.2556 -22.2554 -22.1712 -22.1242 -22.1239
   -21.9742 -21.9602 -21.9599 -21.8254 -21.8253 -21.7921 -21.7919 -21.7639
   -21.7634 -21.7448 -21.7271 -21.7269 -21.6295 -21.6291 -21.5353 -21.5347
   -21.4994 -21.4988 -21.4835 -21.3370 -21.3363 -21.2749 -21.2741 -21.1905
   -21.1426 -21.1417 -20.9829 -20.9821 -20.9164 -20.9152 -20.8664 -20.8097
   -20.8096 -20.7768 -20.7767 -20.7130 -20.7128 -20.6599 -20.6590 -20.6588
   -20.6572 -20.6171 -20.6167 -20.5116 -20.4894 -20.4888 -20.3701 -20.3682
   -20.3301 -20.3292 -20.3065 -20.3055 -20.1394 -20.1380 -20.1269 -20.0509
   -20.0487 -19.9235 -19.9224 -19.9176 -19.9158 -19.7132 -19.7020 -19.6994
   -19.6653 -19.6629 -19.5118 -19.5106 -19.4512 -19.4511 -19.4190 -19.4189
   -19.3829 -19.3799 -19.3572 -19.3570 -19.3245 -19.3216 -19.2718 -19.2644
   -19.2639 -19.1408 -19.1399 -19.0731 -19.0715 -19.0714 -19.0680 -18.9868
   -18.9853 -18.9202 -18.9167 -18.8042 -18.8027 -18.8005 -18.7323 -18.7285
   -18.6096 -18.6071 -18.5889 -18.5861 -18.4923 -18.4876 -18.3681 -18.3645
   -18.3463 -18.3429 -18.3127 -18.1254 -18.1203 -18.0760 -18.0727 -18.0477
   -18.0397 -17.9845 -17.9824 -17.8616 -17.8592 -17.8334 -17.8257 -17.8008
   -17.7801 -17.7788 -17.7785 -17.7650 -17.6943 -17.6750 -17.6293 -17.6164
   -17.6070 -17.6006 -17.5974 -17.5866 -17.5815 -17.5560 -17.4694 -17.4629
   -17.4405 -17.4084 -17.2929 -17.2742 -17.2724 -17.2717 -17.2579 -17.2331
   -17.1762 -17.1706 -17.1481 -17.1365 -17.1061 -17.0756 -17.0313 -16.9941
   -16.8532 -16.8470 -16.8063 -16.7983 -16.7442 -16.6210 -16.6061 -16.5666
   -16.3440 -16.3382 -16.2935 -16.2408 -16.1845 -16.1782 -16.1067 -16.0657
   -15.9936 -15.9263 -15.9177 -15.8364 -15.8258 -15.8241 -15.6761 -15.6560
   -15.6171 -15.5917 -15.5817 -15.5626 -15.5619 -15.5357 -15.5338 -15.4834
   -15.4811 -15.4747 -15.4051 -15.4043 -15.4036 -15.3529 -15.3428 -15.3425
   -15.3066 -15.3019 -15.2252 -15.2243 -15.1944 -15.1848 -15.1833 -15.1761
   -15.1544 -15.1441 -15.1367 -15.1356 -15.0808 -15.0313 -15.0239 -15.0052
   -14.9960 -14.8758 -14.8748 -14.8545 -14.8161 -14.8109 -14.7222 -14.7125
   -14.6611 -14.6408 -14.6250 -14.6106 -14.6088 -14.5992 -14.5575 -14.4800
   -14.2515 -14.2476 -14.2191 -14.2053 -14.1464 -14.0858 -14.0614 -14.0542
   -13.9603 -13.7667 -13.6756 -13.6746 -13.6703 -13.6567 -13.6069 -13.6025
   -13.5561 -13.5268 -13.5206 -13.5123 -13.4895 -13.4854 -13.4504 -13.4492
   -13.4354 -13.4104 -13.4091 -13.3901 -13.3660 -13.3600 -13.3490 -13.2874
   -13.2799 -13.2446 -13.1821 -13.1728 -13.1468 -13.1274 -13.1123 -13.0941
   -13.0935 -13.0823 -13.0501 -13.0473 -13.0081 -13.0033 -13.0003 -12.9617
   -12.8664 -12.8541 -12.7842 -12.7759 -12.7132 -12.6647 -12.6305 -12.5368
   -12.5353 -12.5199 -12.4728 -12.4346 -12.4037 -12.3377 -12.2596 -12.2419
   -12.1721 -12.1694 -12.1398 -12.1137 -12.0975 -12.0570 -12.0444 -11.9803
   -11.9436 -11.8895 -11.8750 -11.8437 -11.8198 -11.8174 -11.7804 -11.7737
   -11.7168 -11.6850 -11.6730 -11.6604 -11.6521 -11.6191 -11.5791 -11.5587
   -11.5511 -11.5257 -11.4403 -11.4148 -11.4088 -11.4068 -11.3923 -11.3690
   -11.3679 -11.3593 -11.3498 -11.3430 -11.3261 -11.3067 -11.2954 -11.2941
   -11.2530 -11.2332 -11.2210 -11.2063 -11.2049 -11.1597 -11.1554 -11.1458
   -11.1310 -11.1216 -11.1174 -11.0652 -11.0293 -10.9831 -10.9403 -10.8943
   -10.8936 -10.8824 -10.8587 -10.7976 -10.7587 -10.7435 -10.7401 -10.6819
   -10.6667 -10.6657 -10.6229 -10.5941 -10.5673 -10.5581 -10.5576 -10.5563
   -10.5406 -10.5211 -10.5167 -10.5040 -10.4933 -10.4877 -10.4759 -10.4684
   -10.4631 -10.4480 -10.4402 -10.4255 -10.4155 -10.3699 -10.3596 -10.3413
   -10.3388 -10.3348 -10.3267 -10.2483 -10.2360 -10.2280 -10.2250 -10.2181
   -10.1959 -10.1786 -10.1774 -10.1726 -10.1183 -10.0989 -10.0830 -10.0737
   -10.0680 -10.0562 -10.0471 -10.0419 -10.0338 -10.0323 -10.0302 -10.0250
   -10.0248 -10.0100 -10.0077 -10.0019  -9.9950  -9.9935  -9.9924  -9.9895
    -9.9690  -9.9427  -9.9341  -9.9295  -9.9145  -9.9132  -9.9051  -9.8814
    -9.8662  -9.8659  -9.8544  -9.8508  -9.8469  -9.8459  -9.8155  -9.7892
    -9.7878  -9.7872  -9.7727  -9.7617  -9.7397  -9.7181  -9.6927  -9.6901
    -9.6504  -9.6382  -9.6331  -9.6308  -9.6215  -9.6178  -9.6099  -9.5770
    -9.5599  -9.5357  -9.5224  -9.5100  -9.5030  -9.4833  -9.4755  -9.4621
    -9.4251  -9.3981  -9.3941  -9.3291  -9.3199  -9.3124  -9.3113  -9.3104
    -9.3051  -9.2933  -9.2628  -9.2519  -9.2287  -9.2278  -9.2259  -9.2066
    -9.1965  -9.1800  -9.1623  -9.1424  -9.1381  -9.1316  -9.1249  -9.1245
    -9.1161  -9.0897  -9.0803  -9.0787  -9.0594  -9.0552  -9.0498  -9.0412
    -9.0358  -9.0300  -8.9952  -8.9510  -8.9479  -8.9415  -8.9364  -8.9066
    -8.9019  -8.8977  -8.8969  -8.8787  -8.8406  -8.7898  -8.7799  -8.7472
    -8.7292  -8.7151  -8.6596  -8.6163  -8.5685  -8.5373  -8.5371  -8.5139
    -8.4980  -8.4974  -8.4662  -8.4516  -8.4246  -8.4064  -8.3226  -8.3161
    -8.3056  -8.2955  -8.2814  -8.2711  -8.2658  -8.2258  -8.2031  -8.1982
    -8.1931  -8.1776  -8.1757  -8.1735  -8.1668  -8.1575  -8.1478  -8.1363
    -8.1206  -8.1196  -8.1136  -8.1022  -8.0780  -8.0776  -8.0701  -8.0652
    -8.0433  -8.0363  -8.0121  -7.9613  -7.9491  -7.9407  -7.9283  -7.9274
    -7.8803  -7.8685  -7.8664  -7.8357  -7.8303  -7.8041  -7.7867  -7.7707
    -7.7687  -7.7582  -7.7404  -7.7387  -7.7030  -7.6947  -7.6386  -7.6339
    -7.5636  -7.5565  -7.5422  -7.5148  -7.5102  -7.4968  -7.4961  -7.4811
    -7.4386  -7.4202  -7.4040  -7.3983  -7.3838  -7.3270  -7.3254  -7.3250
    -7.2958  -7.2708  -7.2545  -7.2248  -7.2087  -7.1882  -7.1818  -7.1415
    -7.1391  -7.1292  -7.0727  -7.0690  -7.0662  -7.0644  -7.0613  -7.0587
    -7.0066  -6.9933  -6.9725  -6.9229  -6.9136  -6.8612  -6.8246  -6.8225
    -6.8191  -6.8177  -6.8172  -6.8157  -6.7837  -6.7825  -6.7779  -6.7743
    -6.7703  -6.7135  -6.7060  -6.7013  -6.6383  -6.6368  -6.6212  -6.6094
    -6.6016  -6.6000  -6.5384  -6.4830  -6.4711  -6.4613  -6.4593  -6.4584
    -6.4433  -6.4357  -6.4355  -6.3568  -6.3433  -6.3402  -6.3357  -6.3188
    -6.2999  -6.2919  -6.2336  -6.1725  -6.1711  -6.1559  -6.1369  -6.1191
    -6.0977  -6.0948  -6.0815  -6.0520  -6.0373  -5.9458  -5.8743  -5.8671
    -5.8657  -5.8168  -5.8020  -5.6924  -5.6915  -5.6488  -5.6372  -5.6266
    -5.6127  -5.5837  -5.5219  -5.3940  -5.3915  -5.3584  -5.3416  -5.3126
    -5.2988  -5.2981  -5.2892  -5.2889  -5.2767  -5.2536  -5.2440  -5.2338
    -5.2297  -5.2026  -5.1682  -5.1623  -5.1563  -5.1399  -5.1365  -5.0664
    -5.0341  -5.0240  -5.0097  -4.9700  -4.8791  -4.8765  -4.8698  -4.8579
    -4.8438  -4.8091  -4.7530  -4.6943  -4.6669  -4.6432  -4.6162  -4.6089
    -4.5263  -4.4845  -4.4093  -4.2590  -4.2483  -4.2450  -4.1453  -4.0363
    -3.9343  -3.8580  -3.8570  -3.7978  -3.7779  -3.5669  -3.4189  -3.3486
    -2.3928  -2.3567  -2.1611  -2.0435  -1.9851  -1.9096  -1.8838  -1.8785
    -1.6756  -1.6609  -1.6595  -1.6449  -1.6413  -1.6401  -1.6400  -1.6239
    -1.4957  -1.4816  -1.4709  -1.4671  -1.4603  -1.4515  -1.4462  -1.4343
    -1.3942  -1.3824  -1.3145  -1.3018  -1.2978  -1.2753  -1.1993  -1.1883
    -1.1722  -1.1705  -1.1563  -1.1540  -1.1359  -1.1293  -1.1248  -1.0896
    -1.0820  -1.0488  -1.0430  -1.0229  -1.0140  -1.0004  -0.9903  -0.9810
    -0.9686  -0.9683  -0.8706  -0.8412  -0.8389  -0.8302  -0.7911  -0.7149
    -0.6615  -0.6590  -0.6241  -0.4901  -0.4890  -0.4454  -0.4032  -0.3440
    -0.2599  -0.1936  -0.1820  -0.1808  -0.1446  -0.1421  -0.0130   0.0824

          k = 0.0000 0.0000 0.7003 (****** PWs)   bands (ev):

   -22.6691 -22.6191 -22.5861 -22.4564 -22.4564 -22.4377 -22.4066 -22.4065
   -22.3737 -22.3736 -22.3718 -22.2258 -22.2256 -22.1601 -22.1598 -22.1250
   -22.0265 -21.9142 -21.9138 -21.8284 -21.8283 -21.8160 -21.8155 -21.7790
   -21.7788 -21.7464 -21.7462 -21.6825 -21.6000 -21.5996 -21.5518 -21.5349
   -21.5344 -21.4732 -21.4725 -21.3429 -21.3423 -21.2914 -21.2906 -21.1942
   -21.1933 -21.1124 -20.9503 -20.9051 -20.9042 -20.8550 -20.8537 -20.8126
   -20.8125 -20.7639 -20.7638 -20.7436 -20.7427 -20.7320 -20.7318 -20.7261
   -20.7246 -20.5882 -20.5877 -20.5243 -20.5238 -20.4182 -20.2931 -20.2911
   -20.2853 -20.2843 -20.2259 -20.2135 -20.2125 -20.1900 -20.1888 -20.1335
   -20.1314 -20.0220 -20.0209 -19.8574 -19.8554 -19.7312 -19.7290 -19.6102
   -19.6076 -19.6054 -19.4540 -19.4538 -19.4215 -19.4186 -19.4066 -19.4064
   -19.4046 -19.4033 -19.3847 -19.3756 -19.3754 -19.3077 -19.3046 -19.2364
   -19.2358 -19.1852 -19.1837 -19.1746 -19.1738 -19.1520 -19.1486 -18.9435
   -18.9420 -18.8515 -18.8495 -18.8153 -18.8116 -18.6834 -18.6435 -18.6396
   -18.6012 -18.5970 -18.5310 -18.5279 -18.4902 -18.4873 -18.4613 -18.4575
   -18.4376 -18.4096 -18.4063 -18.2480 -18.2439 -18.0043 -18.0013 -17.9357
   -17.9260 -17.8869 -17.8857 -17.8635 -17.8623 -17.8563 -17.8542 -17.8225
   -17.8134 -17.7950 -17.7830 -17.7144 -17.6989 -17.6939 -17.6926 -17.6702
   -17.6688 -17.6479 -17.6124 -17.5884 -17.5057 -17.4887 -17.4068 -17.4009
   -17.3918 -17.3814 -17.3672 -17.3165 -17.2795 -17.2637 -17.2530 -17.2410
   -17.2332 -17.2255 -17.2176 -17.2162 -17.0971 -17.0224 -17.0017 -16.9771
   -16.9112 -16.8644 -16.7980 -16.7681 -16.6138 -16.5408 -16.5141 -16.5068
   -16.4067 -16.3937 -16.3605 -16.3442 -16.2293 -16.2103 -16.1726 -16.0192
   -16.0042 -15.9812 -15.9191 -15.8182 -15.7231 -15.7119 -15.7090 -15.5648
   -15.5645 -15.5471 -15.5386 -15.5252 -15.5230 -15.4990 -15.4988 -15.4966
   -15.4803 -15.4780 -15.4745 -15.4695 -15.4025 -15.3817 -15.3815 -15.3741
   -15.3327 -15.3299 -15.2931 -15.2863 -15.2766 -15.2587 -15.2520 -15.1654
   -15.1444 -15.1415 -15.1296 -15.1081 -15.0690 -15.0028 -14.9890 -14.9860
   -14.9687 -14.9410 -14.9326 -14.8354 -14.7585 -14.7407 -14.7336 -14.6765
   -14.6731 -14.6031 -14.5978 -14.5887 -14.5350 -14.4707 -14.4093 -14.3932
   -14.3921 -14.3761 -14.3350 -14.2776 -14.1964 -14.1631 -14.1105 -14.1087
   -13.9697 -13.8824 -13.7624 -13.5329 -13.5302 -13.5263 -13.5222 -13.5098
   -13.5063 -13.4973 -13.4859 -13.4749 -13.4687 -13.4498 -13.4446 -13.4397
   -13.4235 -13.4175 -13.4133 -13.3943 -13.3810 -13.3459 -13.3028 -13.2538
   -13.2512 -13.2483 -13.2390 -13.2114 -13.2028 -13.1888 -13.1648 -13.1637
   -13.1567 -13.1065 -13.0825 -13.0770 -13.0092 -12.9921 -12.9889 -12.9677
   -12.9434 -12.9419 -12.9189 -12.9121 -12.7698 -12.6403 -12.5031 -12.4852
   -12.4485 -12.3886 -12.3804 -12.3275 -12.2803 -12.2660 -12.2446 -12.1990
   -12.1455 -12.1257 -12.1255 -12.1226 -12.1098 -12.0926 -12.0357 -12.0344
   -12.0075 -11.9728 -11.9660 -11.9223 -11.9164 -11.9093 -11.8540 -11.7799
   -11.7585 -11.7481 -11.6851 -11.6790 -11.6763 -11.6015 -11.5288 -11.5187
   -11.5079 -11.4786 -11.4727 -11.4608 -11.4429 -11.4346 -11.4115 -11.3852
   -11.3739 -11.3445 -11.3327 -11.3129 -11.2879 -11.2847 -11.2641 -11.1960
   -11.1925 -11.1922 -11.1680 -11.1673 -11.1627 -11.1138 -11.1127 -11.0991
   -11.0766 -11.0755 -11.0704 -11.0676 -11.0188 -10.9953 -10.9459 -10.9319
   -10.9301 -10.8924 -10.8789 -10.8318 -10.8012 -10.7985 -10.7969 -10.7615
   -10.7431 -10.7358 -10.7047 -10.6674 -10.6135 -10.5608 -10.5601 -10.5572
   -10.5327 -10.5063 -10.5011 -10.4990 -10.4813 -10.4697 -10.4680 -10.4628
   -10.4568 -10.4476 -10.4389 -10.4255 -10.3860 -10.3808 -10.3699 -10.3271
   -10.3263 -10.3165 -10.3061 -10.2926 -10.2637 -10.2346 -10.2179 -10.1835
   -10.1758 -10.1341 -10.1276 -10.1137 -10.0876 -10.0685 -10.0656 -10.0479
   -10.0450 -10.0448 -10.0417 -10.0365 -10.0349 -10.0251 -10.0209 -10.0185
   -10.0095 -10.0017 -10.0003  -9.9794  -9.9787  -9.9693  -9.9608  -9.9527
    -9.9472  -9.9449  -9.9321  -9.9307  -9.9163  -9.9148  -9.9088  -9.9003
    -9.8902  -9.8886  -9.8651  -9.8555  -9.8426  -9.8407  -9.8405  -9.8343
    -9.8316  -9.7990  -9.7783  -9.7710  -9.7689  -9.7512  -9.7468  -9.6991
    -9.6985  -9.6951  -9.6777  -9.6513  -9.5957  -9.5883  -9.5788  -9.5588
    -9.5537  -9.5453  -9.5309  -9.5203  -9.4809  -9.4807  -9.4457  -9.4251
    -9.4212  -9.4144  -9.3791  -9.3736  -9.3452  -9.3379  -9.3271  -9.3124
    -9.3061  -9.2806  -9.2616  -9.2481  -9.2321  -9.2248  -9.2103  -9.2084
    -9.1792  -9.1766  -9.1650  -9.1469  -9.1467  -9.1417  -9.1122  -9.1076
    -9.0944  -9.0895  -9.0892  -9.0813  -9.0802  -9.0800  -9.0240  -9.0164
    -9.0127  -9.0031  -8.9846  -8.9562  -8.9560  -8.9431  -8.9328  -8.9110
    -8.9082  -8.9036  -8.8854  -8.8697  -8.8688  -8.8334  -8.7101  -8.7079
    -8.6824  -8.6634  -8.6522  -8.6340  -8.5598  -8.5442  -8.5224  -8.5144
    -8.5102  -8.5017  -8.4999  -8.4587  -8.4492  -8.4449  -8.4039  -8.3936
    -8.3166  -8.3141  -8.3095  -8.2887  -8.2844  -8.2163  -8.2118  -8.2014
    -8.1951  -8.1928  -8.1863  -8.1736  -8.1649  -8.1494  -8.1463  -8.1405
    -8.0838  -8.0793  -8.0756  -8.0568  -8.0470  -8.0436  -8.0372  -8.0342
    -8.0267  -8.0126  -7.9856  -7.9799  -7.9783  -7.9657  -7.9129  -7.9124
    -7.8956  -7.8723  -7.8449  -7.8300  -7.7909  -7.7825  -7.7694  -7.7616
    -7.7596  -7.7366  -7.7205  -7.7191  -7.7126  -7.7107  -7.6791  -7.6179
    -7.6098  -7.5984  -7.5954  -7.5917  -7.5820  -7.5724  -7.5133  -7.4841
    -7.4787  -7.4562  -7.4274  -7.3784  -7.3697  -7.3223  -7.2992  -7.2634
    -7.2632  -7.2627  -7.2350  -7.2201  -7.1793  -7.1365  -7.1333  -7.1303
    -7.1005  -7.0938  -7.0932  -7.0783  -7.0253  -7.0215  -7.0184  -7.0006
    -6.9618  -6.9596  -6.9511  -6.9408  -6.9185  -6.9150  -6.9148  -6.9109
    -6.9102  -6.8678  -6.8201  -6.8193  -6.8049  -6.7686  -6.7632  -6.7359
    -6.7340  -6.7273  -6.7196  -6.7105  -6.7100  -6.6942  -6.5925  -6.5897
    -6.5843  -6.5779  -6.5683  -6.5595  -6.5385  -6.5088  -6.4995  -6.4989
    -6.4857  -6.3390  -6.3363  -6.3305  -6.3266  -6.3204  -6.2651  -6.2587
    -6.2522  -6.2451  -6.1908  -6.1653  -6.1510  -6.1468  -6.1465  -6.1368
    -6.1353  -6.0948  -6.0559  -6.0391  -5.9965  -5.9411  -5.9328  -5.9323
    -5.8955  -5.8163  -5.8070  -5.8055  -5.7500  -5.6975  -5.6782  -5.6090
    -5.5563  -5.5206  -5.4582  -5.4561  -5.4073  -5.3803  -5.3388  -5.3341
    -5.3121  -5.3045  -5.2799  -5.2726  -5.2516  -5.2253  -5.2178  -5.2170
    -5.1815  -5.1785  -5.1613  -5.1517  -5.1452  -5.1346  -5.1108  -5.0457
    -5.0162  -4.9983  -4.9728  -4.9623  -4.9327  -4.9208  -4.8952  -4.8831
    -4.8759  -4.7969  -4.7810  -4.7517  -4.6965  -4.6507  -4.6439  -4.5763
    -4.5389  -4.5314  -4.3460  -4.2139  -4.2020  -4.1572  -4.1229  -4.0900
    -3.9990  -3.8885  -3.8272  -3.7961  -3.7842  -3.6377  -3.3657  -3.3301
    -2.4182  -2.3999  -2.0910  -1.9732  -1.9514  -1.9450  -1.9183  -1.8611
    -1.7349  -1.7344  -1.6741  -1.6637  -1.6625  -1.6608  -1.6206  -1.5867
    -1.5123  -1.4980  -1.4899  -1.4672  -1.4300  -1.4285  -1.4013  -1.3803
    -1.3589  -1.3365  -1.2755  -1.2726  -1.2527  -1.2501  -1.2359  -1.2215
    -1.2214  -1.2161  -1.1959  -1.1856  -1.1662  -1.1158  -1.0992  -1.0964
    -1.0922  -1.0418  -1.0343  -1.0289  -1.0263  -1.0002  -0.9952  -0.9854
    -0.9819  -0.9669  -0.9668  -0.9311  -0.7855  -0.7529  -0.7436  -0.6828
    -0.6042  -0.5774  -0.5731  -0.5469  -0.5172  -0.4588  -0.3763  -0.3398
    -0.3125  -0.2957  -0.2821  -0.1232  -0.1104  -0.0629  -0.0363  -0.0108

     Writing all to output data dir ./CNT_PBE.save/

     init_run     :      6.73s CPU      8.47s WALL (       1 calls)
     electrons    :   8381.97s CPU   7780.29s WALL (       1 calls)

     Called by init_run:
     wfcinit      :      0.02s CPU      0.09s WALL (       1 calls)
     wfcinit:wfcr :    129.39s CPU    112.86s WALL (       2 calls)
     potinit      :      0.29s CPU      1.81s WALL (       1 calls)
     hinit0       :      1.50s CPU      1.54s WALL (       1 calls)

     Called by electrons:
     c_bands      :   8381.97s CPU   7780.29s WALL (       1 calls)
     v_of_rho     :      0.10s CPU      0.74s WALL (       1 calls)
     v_h          :      0.02s CPU      0.25s WALL (       1 calls)
     v_xc         :      0.08s CPU      0.48s WALL (       1 calls)

     Called by c_bands:
     init_us_2    :      0.65s CPU      0.39s WALL (       2 calls)
     init_us_2:cp :      0.65s CPU      0.39s WALL (       2 calls)
     cegterg      :   8213.02s CPU   7457.67s WALL (      11 calls)

     Called by sum_band:

     Called by *egterg:
     cdiaghg      :    123.68s CPU    184.58s WALL (     200 calls)
     cegterg:over :    765.16s CPU    806.58s WALL (     198 calls)
     cegterg:upda :    460.97s CPU    471.80s WALL (     198 calls)
     cegterg:last :   1034.19s CPU   1063.69s WALL (     100 calls)
     cdiaghg:chol :      2.42s CPU     11.47s WALL (     200 calls)
     cdiaghg:inve :      0.26s CPU      0.83s WALL (     200 calls)
     cdiaghg:para :     35.41s CPU     54.95s WALL (     400 calls)
     h_psi        :   5901.47s CPU   4992.09s WALL (     211 calls)
     g_psi        :      3.97s CPU      1.06s WALL (     198 calls)

     Called by h_psi:
     h_psi:calbec :   2294.45s CPU   2318.23s WALL (     211 calls)
     vloc_psi     :   1321.06s CPU    392.42s WALL (     211 calls)
     add_vuspsi   :   2275.76s CPU   2278.53s WALL (     211 calls)

     General routines
     calbec       :   2294.45s CPU   2318.23s WALL (     211 calls)
     fft          :      1.28s CPU      2.27s WALL (      10 calls)
     fftw         :   1290.06s CPU    384.26s WALL (  159458 calls)
     davcio       :      0.05s CPU      0.21s WALL (       4 calls)

     Parallel routines

     PWSCF        :      2h20m CPU      2h10m WALL


   This run was terminated on:   3:46:33  13Apr2024            

=------------------------------------------------------------------------------=
   JOB DONE.
=------------------------------------------------------------------------------=
