
     Program PWSCF v.7.2 starts on 16May2024 at 21:20:32 

     This program is part of the open-source Quantum ESPRESSO suite
     for quantum simulation of materials; please cite
         "P. Giannozzi et al., J. Phys.:Condens. Matter 21 395502 (2009);
         "P. Giannozzi et al., J. Phys.:Condens. Matter 29 465901 (2017);
         "P. Giannozzi et al., J. Chem. Phys. 152 154105 (2020);
          URL http://www.quantum-espresso.org", 
     in publications or presentations arising from this work. More details at
     http://www.quantum-espresso.org/quote

     Parallel version (MPI & OpenMP), running on    1536 processor cores
     Number of MPI processes:               768
     Threads/MPI process:                     2

     MPI processes distributed on    12 nodes
     483170 MiB available memory on the printing compute node when the environment starts

     Reading input from espresso.pwi
Warning: card &CELL ignored
Warning: card / ignored

     Current dimensions of program PWSCF are:
     Max number of different atomic species (ntypx) = 10
     Max number of k-points (npk) =  40000
     Max angular momentum in pseudopotentials (lmaxx) =  4

     K-points division:     npool     =       2
     R & G space division:  proc/nbgrp/npool/nimage =     384
     Subspace diagonalization in iterative solution of the eigenvalue problem:
     one sub-group per band group will be used
     custom distributed-memory algorithm (size of sub-group:  7*  7 procs)


     Parallelization info
     --------------------
     sticks:   dense  smooth     PW     G-vecs:    dense   smooth      PW
     Min         114     114     28                28776    28776    3638
     Max         115     115     29                28795    28795    3665
     Sum       43977   43977  11115             11053081 11053081 1403663

     Using Slab Decomposition



     bravais-lattice index     =            0
     lattice parameter (alat)  =      61.1748  a.u.
     unit-cell volume          =  176044.1909 (a.u.)^3
     number of atoms/cell      =          365
     number of atomic types    =            2
     number of electrons       =      1462.00
     number of Kohn-Sham states=          732
     kinetic-energy cutoff     =      60.0000  Ry
     charge density cutoff     =     240.0000  Ry
     scf convergence threshold =      7.4E-08
     mixing beta               =       0.7000
     number of iterations used =            8  plain     mixing
     Exchange-correlation= PBE
                           (   1   4   3   4   0   0   0)

     celldm(1)=  61.174780  celldm(2)=   0.000000  celldm(3)=   0.000000
     celldm(4)=   0.000000  celldm(5)=   0.000000  celldm(6)=   0.000000

     crystal axes: (cart. coord. in units of alat)
               a(1) = (   1.000000   0.000000   0.000000 )  
               a(2) = (   0.000000   0.615409   0.000000 )  
               a(3) = (   0.000000   0.000000   1.249513 )  

     reciprocal axes: (cart. coord. in units 2 pi/alat)
               b(1) = (  1.000000  0.000000  0.000000 )  
               b(2) = (  0.000000  1.624937  0.000000 )  
               b(3) = (  0.000000  0.000000  0.800312 )  


     PseudoPot. # 1 for C  read from file:
     ./C_ONCV_PBE-1.2.upf
     MD5 check sum: 1a5f83a7b1f58d24996abe00ed223ac6
     Pseudo is Norm-conserving, Zval =  4.0
     Generated using ONCVPSP code by D. R. Hamann
     Using radial grid of  602 points,  4 beta functions with: 
                l(1) =   0
                l(2) =   0
                l(3) =   1
                l(4) =   1

     PseudoPot. # 2 for Se read from file:
     ./Se_ONCV_PBE-1.2.upf
     MD5 check sum: e78e48a4f5d8ce1f8dc76ec1271f249c
     Pseudo is Norm-conserving, Zval =  6.0
     Generated using ONCVPSP code by D. R. Hamann
     Using radial grid of  602 points,  6 beta functions with: 
                l(1) =   0
                l(2) =   0
                l(3) =   1
                l(4) =   1
                l(5) =   2
                l(6) =   2

     atomic species   valence    mass     pseudopotential
        C              4.00    12.01100     C ( 1.00)
        Se             6.00    78.96000     Se( 1.00)

     No symmetry found


                                    s                        frac. trans.

      isym =  1     identity                                     

 cryst.   s( 1) = (     1          0          0      )
                  (     0          1          0      )
                  (     0          0          1      )

 cart.    s( 1) = (  1.0000000  0.0000000  0.0000000 )
                  (  0.0000000  1.0000000  0.0000000 )
                  (  0.0000000  0.0000000  1.0000000 )


   Cartesian axes

     site n.     atom                  positions (alat units)
         1           C   tau(   1) = (   0.3709523   0.3312801   0.0030741  )
         2           C   tau(   2) = (   0.3687838   0.3346697   0.0785826  )
         3           C   tau(   3) = (   0.3380579   0.3661670   0.0763370  )
         4           C   tau(   4) = (   0.3204920   0.3762715   0.0374121  )
         5           C   tau(   5) = (   0.2778096   0.3869622   0.0351483  )
         6           C   tau(   6) = (   0.3664899   0.3379787   0.1540878  )
         7           C   tau(   7) = (   0.3346992   0.3684085   0.1518475  )
         8           C   tau(   8) = (   0.3167985   0.3778983   0.1129272  )
         9           C   tau(   9) = (   0.2737695   0.3871058   0.1106582  )
        10           C   tau(  10) = (   0.2535530   0.3857814   0.0717338  )
        11           C   tau(  11) = (   0.2121011   0.3710300   0.0694718  )
        12           C   tau(  12) = (   0.1955883   0.3592947   0.0305405  )
        13           C   tau(  13) = (   0.1680310   0.3249898   0.0282736  )
        14           C   tau(  14) = (   0.3640472   0.3411963   0.2295953  )
        15           C   tau(  15) = (   0.3312466   0.3705345   0.2273627  )
        16           C   tau(  16) = (   0.3130406   0.3793996   0.1884370  )
        17           C   tau(  17) = (   0.2697274   0.3871232   0.1861688  )
        18           C   tau(  18) = (   0.2495713   0.3850977   0.1472441  )
        19           C   tau(  19) = (   0.2086532   0.3689157   0.1449866  )
        20           C   tau(  20) = (   0.1925566   0.3566176   0.1060578  )
        21           C   tau(  21) = (   0.1662006   0.3213827   0.1037852  )
        22           C   tau(  22) = (   0.1589421   0.3024718   0.0648562  )
        23           C   tau(  23) = (   0.1549811   0.2586509   0.0625801  )
        24           C   tau(  24) = (   0.1587343   0.2387390   0.0236517  )
        25           C   tau(  25) = (   0.1783597   0.1993578   0.0213869  )
        26           C   tau(  26) = (   0.3614855   0.3443298   0.3050816  )
        27           C   tau(  27) = (   0.3277368   0.3725418   0.3028697  )
        28           C   tau(  28) = (   0.3092366   0.3807946   0.2639507  )
        29           C   tau(  29) = (   0.2656727   0.3870259   0.2616855  )
        30           C   tau(  30) = (   0.2456072   0.3842948   0.2227632  )
        31           C   tau(  31) = (   0.2052705   0.3666951   0.2205048  )
        32           C   tau(  32) = (   0.1896147   0.3538404   0.1815739  )
        33           C   tau(  33) = (   0.1644937   0.3177161   0.1792959  )
        34           C   tau(  34) = (   0.1578951   0.2985636   0.1403675  )
        35           C   tau(  35) = (   0.1554447   0.2546298   0.1380979  )
        36           C   tau(  36) = (   0.1598819   0.2348644   0.0991626  )
        37           C   tau(  37) = (   0.1808465   0.1961829   0.0968909  )
        38           C   tau(  38) = (   0.1949995   0.1816799   0.0579669  )
        39           C   tau(  39) = (   0.2331472   0.1597544   0.0556858  )
        40           C   tau(  40) = (   0.2528140   0.1548387   0.0167669  )
        41           C   tau(  41) = (   0.2967934   0.1562052   0.0145111  )
        42           C   tau(  42) = (   0.3710249   0.3311000   0.4194176  )
        43           C   tau(  43) = (   0.3589598   0.3474448   0.3805698  )
        44           C   tau(  44) = (   0.3242051   0.3744837   0.3783789  )
        45           C   tau(  45) = (   0.3054140   0.3820649   0.3395017  )
        46           C   tau(  46) = (   0.2616294   0.3867633   0.3372291  )
        47           C   tau(  47) = (   0.2416732   0.3833401   0.2982901  )
        48           C   tau(  48) = (   0.2019756   0.3643621   0.2960218  )
        49           C   tau(  49) = (   0.1867734   0.3509701   0.2570879  )
        50           C   tau(  50) = (   0.1629269   0.3139888   0.2548072  )
        51           C   tau(  51) = (   0.1569963   0.2946179   0.2158813  )
        52           C   tau(  52) = (   0.1560686   0.2506251   0.2136186  )
        53           C   tau(  53) = (   0.1611641   0.2310257   0.1746784  )
        54           C   tau(  54) = (   0.1834446   0.1930857   0.1723985  )
        55           C   tau(  55) = (   0.1980880   0.1790866   0.1334733  )
        56           C   tau(  56) = (   0.2369689   0.1584915   0.1311925  )
        57           C   tau(  57) = (   0.2567941   0.1542643   0.0922683  )
        58           C   tau(  58) = (   0.3006969   0.1571519   0.0900089  )
        59           C   tau(  59) = (   0.3197968   0.1639515   0.0510935  )
        60           C   tau(  60) = (   0.3556595   0.1894469   0.0488227  )
        61           C   tau(  61) = (   0.3683577   0.2052506   0.0099085  )
        62           C   tau(  62) = (   0.3855299   0.2457633   0.0076621  )
        63           C   tau(  63) = (   0.3695775   0.3347835   0.4948241  )
        64           C   tau(  64) = (   0.3565926   0.3505008   0.4562106  )
        65           C   tau(  65) = (   0.3205960   0.3760650   0.4539649  )
        66           C   tau(  66) = (   0.3015478   0.3830313   0.4150669  )
        67           C   tau(  67) = (   0.2576534   0.3862147   0.4127773  )
        68           C   tau(  68) = (   0.2377999   0.3822065   0.3738140  )
        69           C   tau(  69) = (   0.1987538   0.3619077   0.3715348  )
        70           C   tau(  70) = (   0.1840217   0.3480147   0.3326059  )
        71           C   tau(  71) = (   0.1614731   0.3102179   0.3303229  )
        72           C   tau(  72) = (   0.1562354   0.2906479   0.2913924  )
        73           C   tau(  73) = (   0.1568451   0.2466533   0.2891337  )
        74           C   tau(  74) = (   0.1626076   0.2272383   0.2502013  )
        75           C   tau(  75) = (   0.1861778   0.1900803   0.2479197  )
        76           C   tau(  76) = (   0.2012756   0.1765946   0.2089818  )
        77           C   tau(  77) = (   0.2408300   0.1573415   0.2067032  )
        78           C   tau(  78) = (   0.2607845   0.1538025   0.1677727  )
        79           C   tau(  79) = (   0.3045625   0.1581992   0.1655049  )
        80           C   tau(  80) = (   0.3234209   0.1656671   0.1265958  )
        81           C   tau(  81) = (   0.3583837   0.1923821   0.1243248  )
        82           C   tau(  82) = (   0.3705308   0.2086253   0.0854113  )
        83           C   tau(  83) = (   0.3862994   0.2497014   0.0831687  )
        84           C   tau(  84) = (   0.3881347   0.2698946   0.0442520  )
        85           C   tau(  85) = (   0.3799902   0.3131365   0.0419906  )
        86           C   tau(  86) = (   0.3676804   0.3381789   0.5705842  )
        87           C   tau(  87) = (   0.3536654   0.3527116   0.5318454  )
        88           C   tau(  88) = (   0.3167744   0.3766927   0.5295029  )
        89           C   tau(  89) = (   0.2975937   0.3834696   0.4905465  )
        90           C   tau(  90) = (   0.2536352   0.3854632   0.4882733  )
        91           C   tau(  91) = (   0.2339327   0.3809166   0.4493395  )
        92           C   tau(  92) = (   0.1955391   0.3593504   0.4470495  )
        93           C   tau(  93) = (   0.1813486   0.3449405   0.4081102  )
        94           C   tau(  94) = (   0.1601364   0.3063949   0.4058289  )
        95           C   tau(  95) = (   0.1555924   0.2866572   0.3668980  )
        96           C   tau(  96) = (   0.1577446   0.2427045   0.3646445  )
        97           C   tau(  97) = (   0.1641960   0.2235026   0.3257185  )
        98           C   tau(  98) = (   0.1890317   0.1871819   0.3234408  )
        99           C   tau(  99) = (   0.2045704   0.1742062   0.2844940  )
       100           C   tau( 100) = (   0.2447503   0.1562908   0.2822207  )
       101           C   tau( 101) = (   0.2647999   0.1534444   0.2432888  )
       102           C   tau( 102) = (   0.3084012   0.1593410   0.2410111  )
       103           C   tau( 103) = (   0.3269777   0.1674856   0.2020926  )
       104           C   tau( 104) = (   0.3609868   0.1953947   0.1998208  )
       105           C   tau( 105) = (   0.3725789   0.2120552   0.1609120  )
       106           C   tau( 106) = (   0.3869131   0.2536574   0.1586667  )
       107           C   tau( 107) = (   0.3880632   0.2739082   0.1197612  )
       108           C   tau( 108) = (   0.3784399   0.3168469   0.1175001  )
       109           C   tau( 109) = (   0.3641102   0.3396797   0.6463761  )
       110           C   tau( 110) = (   0.3505424   0.3546121   0.6068489  )
       111           C   tau( 111) = (   0.3130169   0.3777970   0.6047942  )
       112           C   tau( 112) = (   0.2936268   0.3838483   0.5660089  )
       113           C   tau( 113) = (   0.2495394   0.3847236   0.5637565  )
       114           C   tau( 114) = (   0.2300452   0.3794501   0.5248340  )
       115           C   tau( 115) = (   0.1924180   0.3566688   0.5225489  )
       116           C   tau( 116) = (   0.1787184   0.3417985   0.4836007  )
       117           C   tau( 117) = (   0.1588549   0.3025268   0.4813381  )
       118           C   tau( 118) = (   0.1550429   0.2826438   0.4424111  )
       119           C   tau( 119) = (   0.1587284   0.2387913   0.4401581  )
       120           C   tau( 120) = (   0.1658825   0.2198268   0.4012262  )
       121           C   tau( 121) = (   0.1919506   0.1843861   0.3989528  )
       122           C   tau( 122) = (   0.2079366   0.1719389   0.3600247  )
       123           C   tau( 123) = (   0.2487152   0.1553876   0.3577707  )
       124           C   tau( 124) = (   0.2688483   0.1532264   0.3188155  )
       125           C   tau( 125) = (   0.3122050   0.1606088   0.3165237  )
       126           C   tau( 126) = (   0.3304884   0.1693755   0.2775954  )
       127           C   tau( 127) = (   0.3635040   0.1984675   0.2753161  )
       128           C   tau( 128) = (   0.3744914   0.2155393   0.2364158  )
       129           C   tau( 129) = (   0.3873620   0.2576189   0.2341583  )
       130           C   tau( 130) = (   0.3878137   0.2779071   0.1952570  )
       131           C   tau( 131) = (   0.3767191   0.3204831   0.1930039  )
       132           C   tau( 132) = (   0.3616224   0.3440491   0.7217921  )
       133           C   tau( 133) = (   0.3473768   0.3579251   0.6827897  )
       134           C   tau( 134) = (   0.3093359   0.3798904   0.6804155  )
       135           C   tau( 135) = (   0.2896857   0.3844478   0.6413850  )
       136           C   tau( 136) = (   0.2457731   0.3837342   0.6391959  )
       137           C   tau( 137) = (   0.2263069   0.3779188   0.6002790  )
       138           C   tau( 138) = (   0.1893863   0.3539034   0.5980407  )
       139           C   tau( 139) = (   0.1761819   0.3385868   0.5591286  )
       140           C   tau( 140) = (   0.1577066   0.2986223   0.5568778  )
       141           C   tau( 141) = (   0.1546066   0.2786111   0.5179271  )
       142           C   tau( 142) = (   0.1598005   0.2349295   0.5156686  )
       143           C   tau( 143) = (   0.1675938   0.2162080   0.4767437  )
       144           C   tau( 144) = (   0.1948766   0.1816670   0.4744815  )
       145           C   tau( 145) = (   0.2113601   0.1698162   0.4355604  )
       146           C   tau( 146) = (   0.2526878   0.1547225   0.4333260  )
       147           C   tau( 147) = (   0.2728946   0.1531830   0.3943555  )
       148           C   tau( 148) = (   0.3159845   0.1620429   0.3920603  )
       149           C   tau( 149) = (   0.3339484   0.1713965   0.3531324  )
       150           C   tau( 150) = (   0.3659194   0.2016338   0.3508282  )
       151           C   tau( 151) = (   0.3762759   0.2190878   0.3119043  )
       152           C   tau( 152) = (   0.3876456   0.2615809   0.3096156  )
       153           C   tau( 153) = (   0.3874167   0.2818783   0.2707332  )
       154           C   tau( 154) = (   0.3748650   0.3240601   0.2684966  )
       155           C   tau( 155) = (   0.3589999   0.3473889   0.7972796  )
       156           C   tau( 156) = (   0.3443491   0.3613108   0.7583436  )
       157           C   tau( 157) = (   0.3055401   0.3818776   0.7559684  )
       158           C   tau( 158) = (   0.2857734   0.3859230   0.7169382  )
       159           C   tau( 159) = (   0.2418260   0.3832106   0.7147191  )
       160           C   tau( 160) = (   0.2226930   0.3763700   0.6758348  )
       161           C   tau( 161) = (   0.1867349   0.3510360   0.6735837  )
       162           C   tau( 162) = (   0.1739596   0.3352407   0.6346464  )
       163           C   tau( 163) = (   0.1568413   0.2947125   0.6324037  )
       164           C   tau( 164) = (   0.1543154   0.2746173   0.5934652  )
       165           C   tau( 165) = (   0.1609887   0.2310745   0.5912129  )
       166           C   tau( 166) = (   0.1694244   0.2126576   0.5522795  )
       167           C   tau( 167) = (   0.1978546   0.1790798   0.5500282  )
       168           C   tau( 168) = (   0.2147450   0.1677973   0.5110822  )
       169           C   tau( 169) = (   0.2566033   0.1542822   0.5088441  )
       170           C   tau( 170) = (   0.2768952   0.1534409   0.4699489  )
       171           C   tau( 171) = (   0.3196538   0.1639554   0.4677000  )
       172           C   tau( 172) = (   0.3372983   0.1737472   0.4286692  )
       173           C   tau( 173) = (   0.3681712   0.2049921   0.4263069  )
       174           C   tau( 174) = (   0.3779818   0.2226977   0.3873809  )
       175           C   tau( 175) = (   0.3878319   0.2655942   0.3850281  )
       176           C   tau( 176) = (   0.3868701   0.2858519   0.3461862  )
       177           C   tau( 177) = (   0.3729121   0.3275841   0.3439874  )
       178           C   tau( 178) = (   0.3562667   0.3503911   0.8727542  )
       179           C   tau( 179) = (   0.3411770   0.3639118   0.8338214  )
       180           C   tau( 180) = (   0.3016313   0.3832073   0.8315077  )
       181           C   tau( 181) = (   0.2817009   0.3867171   0.7925710  )
       182           C   tau( 182) = (   0.2379312   0.3823086   0.7902994  )
       183           C   tau( 183) = (   0.2190984   0.3748039   0.7513394  )
       184           C   tau( 184) = (   0.1841151   0.3481177   0.7490965  )
       185           C   tau( 185) = (   0.1718991   0.3318883   0.7101832  )
       186           C   tau( 186) = (   0.1561526   0.2907877   0.7079428  )
       187           C   tau( 187) = (   0.1543108   0.2705877   0.6690165  )
       188           C   tau( 188) = (   0.1624399   0.2273564   0.6667497  )
       189           C   tau( 189) = (   0.1713928   0.2091871   0.6278047  )
       190           C   tau( 190) = (   0.2009674   0.1765667   0.6255597  )
       191           C   tau( 191) = (   0.2181382   0.1658699   0.5866417  )
       192           C   tau( 192) = (   0.2605291   0.1539191   0.5844172  )
       193           C   tau( 193) = (   0.2808335   0.1541281   0.5454904  )
       194           C   tau( 194) = (   0.3229651   0.1665305   0.5432770  )
       195           C   tau( 195) = (   0.3403410   0.1767393   0.5042304  )
       196           C   tau( 196) = (   0.3700631   0.2090820   0.5018686  )
       197           C   tau( 197) = (   0.3794878   0.2266060   0.4628694  )
       198           C   tau( 198) = (   0.3879570   0.2696861   0.4603893  )
       199           C   tau( 199) = (   0.3862303   0.2898830   0.4215225  )
       200           C   tau( 200) = (   0.3534835   0.3533112   0.9482429  )
       201           C   tau( 201) = (   0.3379071   0.3662858   0.9093337  )
       202           C   tau( 202) = (   0.2977095   0.3841857   0.9070544  )
       203           C   tau( 203) = (   0.2776492   0.3870453   0.8681149  )
       204           C   tau( 204) = (   0.2340680   0.3811288   0.8658347  )
       205           C   tau( 205) = (   0.2155021   0.3730293   0.8268873  )
       206           C   tau( 206) = (   0.1814984   0.3450908   0.8246321  )
       207           C   tau( 207) = (   0.1699309   0.3284403   0.7857080  )
       208           C   tau( 208) = (   0.1556064   0.2868441   0.7834623  )
       209           C   tau( 209) = (   0.1544449   0.2665986   0.7445322  )
       210           C   tau( 210) = (   0.1640552   0.2236552   0.7422646  )
       211           C   tau( 211) = (   0.1736461   0.2058186   0.7033429  )
       212           C   tau( 212) = (   0.2043438   0.1742798   0.7010978  )
       213           C   tau( 213) = (   0.2218587   0.1641672   0.6621459  )
       214           C   tau( 214) = (   0.2645627   0.1536295   0.6598694  )
       215           C   tau( 215) = (   0.2847394   0.1543682   0.6209424  )
       216           C   tau( 216) = (   0.3265615   0.1683340   0.6186753  )
       217           C   tau( 217) = (   0.3432572   0.1798577   0.5798680  )
       218           C   tau( 218) = (   0.3721476   0.2131899   0.5778238  )
       219           C   tau( 219) = (   0.3805853   0.2314900   0.5382857  )
       220           C   tau( 220) = (   0.3892760   0.2738807   0.5353925  )
       221           C   tau( 221) = (   0.3863111   0.2939262   0.4968058  )
       222           C   tau( 222) = (   0.3505911   0.3561030   1.0237490  )
       223           C   tau( 223) = (   0.3345642   0.3685240   0.9848314  )
       224           C   tau( 224) = (   0.2937724   0.3850000   0.9825700  )
       225           C   tau( 225) = (   0.2736207   0.3871864   0.9436399  )
       226           C   tau( 226) = (   0.2302504   0.3797667   0.9413617  )
       227           C   tau( 227) = (   0.2119762   0.3710378   0.9024354  )
       228           C   tau( 228) = (   0.1789698   0.3419488   0.9001694  )
       229           C   tau( 229) = (   0.1679992   0.3249206   0.8612242  )
       230           C   tau( 230) = (   0.1551140   0.2828510   0.8589700  )
       231           C   tau( 231) = (   0.1546801   0.2625897   0.8200477  )
       232           C   tau( 232) = (   0.1657781   0.2200087   0.8177772  )
       233           C   tau( 233) = (   0.1760173   0.2025243   0.7788508  )
       234           C   tau( 234) = (   0.2077882   0.1720861   0.7765921  )
       235           C   tau( 235) = (   0.2256400   0.1625687   0.7376543  )
       236           C   tau( 236) = (   0.2687178   0.1534416   0.7353614  )
       237           C   tau( 237) = (   0.2888770   0.1549479   0.6964307  )
       238           C   tau( 238) = (   0.3302435   0.1699488   0.6941547  )
       239           C   tau( 239) = (   0.3465286   0.1820938   0.6551765  )
       240           C   tau( 240) = (   0.3746047   0.2159710   0.6528374  )
       241           C   tau( 241) = (   0.3836242   0.2340017   0.6140817  )
       242           C   tau( 242) = (   0.3957036   0.2778652   0.6124121  )
       243           C   tau( 243) = (   0.3922930   0.2999178   0.5722227  )
       244           C   tau( 244) = (   0.3476061   0.3587914   1.0992572  )
       245           C   tau( 245) = (   0.3311664   0.3706537   1.0603354  )
       246           C   tau( 246) = (   0.2898172   0.3856978   1.0580808  )
       247           C   tau( 247) = (   0.2695984   0.3871705   1.0191621  )
       248           C   tau( 248) = (   0.2265118   0.3782532   1.0168829  )
       249           C   tau( 249) = (   0.2085366   0.3688979   0.9779554  )
       250           C   tau( 250) = (   0.1765397   0.3387029   0.9756911  )
       251           C   tau( 251) = (   0.1661561   0.3213182   0.9367520  )
       252           C   tau( 252) = (   0.1547308   0.2788247   0.9344854  )
       253           C   tau( 253) = (   0.1550145   0.2585689   0.8955588  )
       254           C   tau( 254) = (   0.1675782   0.2164028   0.8932871  )
       255           C   tau( 255) = (   0.1784356   0.1992936   0.8543567  )
       256           C   tau( 256) = (   0.2112534   0.1699699   0.8520968  )
       257           C   tau( 257) = (   0.2294654   0.1611042   0.8131728  )
       258           C   tau( 258) = (   0.2727883   0.1533843   0.8108815  )
       259           C   tau( 259) = (   0.2929359   0.1554731   0.7719260  )
       260           C   tau( 260) = (   0.3338847   0.1715963   0.7696434  )
       261           C   tau( 261) = (   0.3500044   0.1838889   0.7307331  )
       262           C   tau( 262) = (   0.3767752   0.2189991   0.7284819  )
       263           C   tau( 263) = (   0.3844869   0.2378405   0.6898531  )
       264           C   tau( 264) = (   0.3882854   0.2818343   0.6878560  )
       265           C   tau( 265) = (   0.3851006   0.3018316   0.6492528  )
       266           C   tau( 266) = (   0.3445178   0.3613658   1.1747701  )
       267           C   tau( 267) = (   0.3276790   0.3726542   1.1358481  )
       268           C   tau( 268) = (   0.2858351   0.3862604   1.1335928  )
       269           C   tau( 269) = (   0.2655783   0.3870258   1.0946713  )
       270           C   tau( 270) = (   0.2228301   0.3766239   1.0923931  )
       271           C   tau( 271) = (   0.2051841   0.3666559   1.0534679  )
       272           C   tau( 272) = (   0.1742342   0.3353790   1.0512076  )
       273           C   tau( 273) = (   0.1644421   0.3176424   1.0122795  )
       274           C   tau( 274) = (   0.1544905   0.2747838   1.0100016  )
       275           C   tau( 275) = (   0.1554687   0.2545507   0.9710689  )
       276           C   tau( 276) = (   0.1694825   0.2128397   0.9688038  )
       277           C   tau( 277) = (   0.1809314   0.1961236   0.9298736  )
       278           C   tau( 278) = (   0.2147367   0.1679536   0.9276130  )
       279           C   tau( 279) = (   0.2332607   0.1597247   0.8886844  )
       280           C   tau( 280) = (   0.2768125   0.1534735   0.8864004  )
       281           C   tau( 281) = (   0.2968917   0.1561575   0.8474692  )
       282           C   tau( 282) = (   0.3372789   0.1737067   0.8452139  )
       283           C   tau( 283) = (   0.3529682   0.1865206   0.8063325  )
       284           C   tau( 284) = (   0.3781056   0.2226752   0.8041274  )
       285           C   tau( 285) = (   0.3847773   0.2418418   0.7652719  )
       286           C   tau( 286) = (   0.3869862   0.2857218   0.7631580  )
       287           C   tau( 287) = (   0.3826095   0.3054821   0.7242680  )
       288           C   tau( 288) = (   0.3413334   0.3638216   0.0008231  )
       289           C   tau( 289) = (   0.3241217   0.3745282   1.2113618  )
       290           C   tau( 290) = (   0.2818350   0.3866844   1.2091024  )
       291           C   tau( 291) = (   0.2615656   0.3867573   1.1701803  )
       292           C   tau( 292) = (   0.2191974   0.3748850   1.1679057  )
       293           C   tau( 293) = (   0.2019091   0.3643086   1.1289813  )
       294           C   tau( 294) = (   0.1720589   0.3319820   1.1267219  )
       295           C   tau( 295) = (   0.1628835   0.3139160   1.0877953  )
       296           C   tau( 296) = (   0.1544088   0.2707433   1.0855134  )
       297           C   tau( 297) = (   0.1560700   0.2505505   1.0465855  )
       298           C   tau( 298) = (   0.1715163   0.2093500   1.0443243  )
       299           C   tau( 299) = (   0.1835319   0.1930376   1.0053926  )
       300           C   tau( 300) = (   0.2182975   0.1660663   1.0031275  )
       301           C   tau( 301) = (   0.2370796   0.1584740   0.9642002  )
       302           C   tau( 302) = (   0.2808338   0.1537446   0.9619300  )
       303           C   tau( 303) = (   0.3008051   0.1571334   0.9230095  )
       304           C   tau( 304) = (   0.3405177   0.1760956   0.9207670  )
       305           C   tau( 305) = (   0.3557312   0.1894714   0.8818489  )
       306           C   tau( 306) = (   0.3795355   0.2264603   0.8796169  )
       307           C   tau( 307) = (   0.3854765   0.2458201   0.8407076  )
       308           C   tau( 308) = (   0.3863430   0.2898174   0.8385056  )
       309           C   tau( 309) = (   0.3812323   0.3094036   0.7996435  )
       310           C   tau( 310) = (   0.2575584   0.3863398   1.2456903  )
       311           C   tau( 311) = (   0.2156238   0.3730158   1.2434221  )
       312           C   tau( 312) = (   0.1987137   0.3618530   1.2044924  )
       313           C   tau( 313) = (   0.1699931   0.3285195   1.2022304  )
       314           C   tau( 314) = (   0.1614465   0.3101468   1.1633062  )
       315           C   tau( 315) = (   0.1544682   0.2667051   1.1610245  )
       316           C   tau( 316) = (   0.1568305   0.2465828   1.1220991  )
       317           C   tau( 317) = (   0.1736894   0.2059431   1.1198400  )
       318           C   tau( 318) = (   0.1862551   0.1900548   1.0809090  )
       319           C   tau( 319) = (   0.2219333   0.1643018   1.0786380  )
       320           C   tau( 320) = (   0.2409694   0.1573733   1.0397153  )
       321           C   tau( 321) = (   0.2848541   0.1541702   1.0374543  )
       322           C   tau( 322) = (   0.3046925   0.1582602   0.9985256  )
       323           C   tau( 323) = (   0.3437149   0.1785791   0.9962773  )
       324           C   tau( 324) = (   0.3584502   0.1924692   0.9573541  )
       325           C   tau( 325) = (   0.3809977   0.2302597   0.9551006  )
       326           C   tau( 326) = (   0.3862332   0.2498206   0.9161974  )
       327           C   tau( 327) = (   0.3856294   0.2938253   0.9139657  )
       328           C   tau( 328) = (   0.3798096   0.3132350   0.8750677  )
       329           C   tau( 329) = (   0.1601340   0.3063306   1.2388137  )
       330           C   tau( 330) = (   0.1546603   0.2626732   1.2365333  )
       331           C   tau( 331) = (   0.1577206   0.2426417   1.1976070  )
       332           C   tau( 332) = (   0.1759710   0.2026068   1.1953473  )
       333           C   tau( 333) = (   0.1890809   0.1871595   1.1564216  )
       334           C   tau( 334) = (   0.2256279   0.1626546   1.1541453  )
       335           C   tau( 335) = (   0.2448952   0.1563939   1.1152224  )
       336           C   tau( 336) = (   0.2888617   0.1547187   1.1129651  )
       337           C   tau( 337) = (   0.3085464   0.1594931   1.0740376  )
       338           C   tau( 338) = (   0.3468534   0.1811481   1.0717805  )
       339           C   tau( 339) = (   0.3610939   0.1955509   1.0328625  )
       340           C   tau( 340) = (   0.3823378   0.2340874   1.0306033  )
       341           C   tau( 341) = (   0.3868954   0.2538268   0.9916846  )
       342           C   tau( 342) = (   0.3847860   0.2977747   0.9894417  )
       343           C   tau( 343) = (   0.3783250   0.3169881   0.9505308  )
       344           C   tau( 344) = (   0.1920026   0.1843722   1.2319292  )
       345           C   tau( 345) = (   0.2293705   0.1611436   1.2296491  )
       346           C   tau( 346) = (   0.2488445   0.1555448   1.1907272  )
       347           C   tau( 347) = (   0.2928468   0.1553918   1.1884735  )
       348           C   tau( 348) = (   0.3123557   0.1608576   1.1495506  )
       349           C   tau( 349) = (   0.3498890   0.1838231   1.1472859  )
       350           C   tau( 350) = (   0.3636296   0.1987104   1.1083652  )
       351           C   tau( 351) = (   0.3835336   0.2379499   1.1061073  )
       352           C   tau( 352) = (   0.3874230   0.2578354   1.0671837  )
       353           C   tau( 353) = (   0.3837946   0.3016898   1.0649352  )
       354           C   tau( 354) = (   0.3766756   0.3206639   1.0260233  )
       355           C   tau( 355) = (   0.3161162   0.1623357   1.2250568  )
       356           C   tau( 356) = (   0.3528333   0.1865842   1.2227876  )
       357           C   tau( 357) = (   0.3660547   0.2019414   1.1838684  )
       358           C   tau( 358) = (   0.3846063   0.2418413   1.1816158  )
       359           C   tau( 359) = (   0.3878060   0.2618542   1.1426939  )
       360           C   tau( 360) = (   0.3826724   0.3055571   1.1404398  )
       361           C   tau( 361) = (   0.3748986   0.3242791   1.1015232  )
       362           C   tau( 362) = (   0.3880461   0.2658756   1.2182044  )
       363           C   tau( 363) = (   0.3814019   0.3093717   1.2159459  )
       364           C   tau( 364) = (   0.3729955   0.3278185   1.1770285  )
       365           Se  tau( 365) = (   0.4535840   0.2979624   0.5922331  )

   Crystallographic axes

     site n.     atom                  positions (cryst. coord.)
         1           C   tau(   1) = (  0.3709523  0.5383092  0.0024602  )
         2           C   tau(   2) = (  0.3687838  0.5438171  0.0628906  )
         3           C   tau(   3) = (  0.3380579  0.5949982  0.0610934  )
         4           C   tau(   4) = (  0.3204920  0.6114174  0.0299413  )
         5           C   tau(   5) = (  0.2778096  0.6287891  0.0281296  )
         6           C   tau(   6) = (  0.3664899  0.5491941  0.1233182  )
         7           C   tau(   7) = (  0.3346992  0.5986405  0.1215253  )
         8           C   tau(   8) = (  0.3167985  0.6140608  0.0903769  )
         9           C   tau(   9) = (  0.2737695  0.6290225  0.0885611  )
        10           C   tau(  10) = (  0.2535530  0.6268704  0.0574093  )
        11           C   tau(  11) = (  0.2121011  0.6029003  0.0555991  )
        12           C   tau(  12) = (  0.1955883  0.5838312  0.0244419  )
        13           C   tau(  13) = (  0.1680310  0.5280878  0.0226277  )
        14           C   tau(  14) = (  0.3640472  0.5544225  0.1837477  )
        15           C   tau(  15) = (  0.3312466  0.6020952  0.1819610  )
        16           C   tau(  16) = (  0.3130406  0.6165003  0.1508083  )
        17           C   tau(  17) = (  0.2697274  0.6290508  0.1489930  )
        18           C   tau(  18) = (  0.2495713  0.6257594  0.1178412  )
        19           C   tau(  19) = (  0.2086532  0.5994647  0.1160344  )
        20           C   tau(  20) = (  0.1925566  0.5794811  0.0848793  )
        21           C   tau(  21) = (  0.1662006  0.5222266  0.0830605  )
        22           C   tau(  22) = (  0.1589421  0.4914976  0.0519051  )
        23           C   tau(  23) = (  0.1549811  0.4202913  0.0500836  )
        24           C   tau(  24) = (  0.1587343  0.3879357  0.0189288  )
        25           C   tau(  25) = (  0.1783597  0.3239439  0.0171162  )
        26           C   tau(  26) = (  0.3614855  0.5595142  0.2441603  )
        27           C   tau(  27) = (  0.3277368  0.6053569  0.2423901  )
        28           C   tau(  28) = (  0.3092366  0.6187672  0.2112428  )
        29           C   tau(  29) = (  0.2656727  0.6288926  0.2094299  )
        30           C   tau(  30) = (  0.2456072  0.6244548  0.1782799  )
        31           C   tau(  31) = (  0.2052705  0.5958564  0.1764725  )
        32           C   tau(  32) = (  0.1896147  0.5749683  0.1453157  )
        33           C   tau(  33) = (  0.1644937  0.5162686  0.1434926  )
        34           C   tau(  34) = (  0.1578951  0.4851469  0.1123377  )
        35           C   tau(  35) = (  0.1554447  0.4137574  0.1105213  )
        36           C   tau(  36) = (  0.1598819  0.3816398  0.0793610  )
        37           C   tau(  37) = (  0.1808465  0.3187848  0.0775429  )
        38           C   tau(  38) = (  0.1949995  0.2952183  0.0463916  )
        39           C   tau(  39) = (  0.2331472  0.2595908  0.0445660  )
        40           C   tau(  40) = (  0.2528140  0.2516030  0.0134187  )
        41           C   tau(  41) = (  0.2967934  0.2538236  0.0116134  )
        42           C   tau(  42) = (  0.3710249  0.5380166  0.3356648  )
        43           C   tau(  43) = (  0.3589598  0.5645758  0.3045744  )
        44           C   tau(  44) = (  0.3242051  0.6085123  0.3028210  )
        45           C   tau(  45) = (  0.3054140  0.6208313  0.2717071  )
        46           C   tau(  46) = (  0.2616294  0.6284660  0.2698883  )
        47           C   tau(  47) = (  0.2416732  0.6229035  0.2387250  )
        48           C   tau(  48) = (  0.2019756  0.5920654  0.2369097  )
        49           C   tau(  49) = (  0.1867734  0.5703042  0.2057504  )
        50           C   tau(  50) = (  0.1629269  0.5102120  0.2039251  )
        51           C   tau(  51) = (  0.1569963  0.4787354  0.1727723  )
        52           C   tau(  52) = (  0.1560686  0.4072500  0.1709614  )
        53           C   tau(  53) = (  0.1611641  0.3754021  0.1397971  )
        54           C   tau(  54) = (  0.1834446  0.3137520  0.1379725  )
        55           C   tau(  55) = (  0.1980880  0.2910045  0.1068202  )
        56           C   tau(  56) = (  0.2369689  0.2575387  0.1049949  )
        57           C   tau(  57) = (  0.2567941  0.2506698  0.0738434  )
        58           C   tau(  58) = (  0.3006969  0.2553619  0.0720352  )
        59           C   tau(  59) = (  0.3197968  0.2664109  0.0408907  )
        60           C   tau(  60) = (  0.3556595  0.3078392  0.0390734  )
        61           C   tau(  61) = (  0.3683577  0.3335193  0.0079299  )
        62           C   tau(  62) = (  0.3855299  0.3993498  0.0061320  )
        63           C   tau(  63) = (  0.3695775  0.5440020  0.3960134  )
        64           C   tau(  64) = (  0.3565926  0.5695416  0.3651106  )
        65           C   tau(  65) = (  0.3205960  0.6110818  0.3633133  )
        66           C   tau(  66) = (  0.3015478  0.6224017  0.3321828  )
        67           C   tau(  67) = (  0.2576534  0.6275745  0.3303504  )
        68           C   tau(  68) = (  0.2377999  0.6210614  0.2991677  )
        69           C   tau(  69) = (  0.1987538  0.5880771  0.2973436  )
        70           C   tau(  70) = (  0.1840217  0.5655018  0.2661884  )
        71           C   tau(  71) = (  0.1614731  0.5040845  0.2643612  )
        72           C   tau(  72) = (  0.1562354  0.4722844  0.2332047  )
        73           C   tau(  73) = (  0.1568451  0.4007960  0.2313970  )
        74           C   tau(  74) = (  0.1626076  0.3692478  0.2002390  )
        75           C   tau(  75) = (  0.1861778  0.3088685  0.1984130  )
        76           C   tau(  76) = (  0.2012756  0.2869551  0.1672506  )
        77           C   tau(  77) = (  0.2408300  0.2556700  0.1654269  )
        78           C   tau(  78) = (  0.2607845  0.2499193  0.1342704  )
        79           C   tau(  79) = (  0.3045625  0.2570637  0.1324555  )
        80           C   tau(  80) = (  0.3234209  0.2691985  0.1013161  )
        81           C   tau(  81) = (  0.3583837  0.3126088  0.0994985  )
        82           C   tau(  82) = (  0.3705308  0.3390029  0.0683557  )
        83           C   tau(  83) = (  0.3862994  0.4057489  0.0665609  )
        84           C   tau(  84) = (  0.3881347  0.4385617  0.0354154  )
        85           C   tau(  85) = (  0.3799902  0.5088271  0.0336055  )
        86           C   tau(  86) = (  0.3676804  0.5495194  0.4566451  )
        87           C   tau(  87) = (  0.3536654  0.5731340  0.4256420  )
        88           C   tau(  88) = (  0.3167744  0.6121018  0.4237672  )
        89           C   tau(  89) = (  0.2975937  0.6231139  0.3925900  )
        90           C   tau(  90) = (  0.2536352  0.6263534  0.3907708  )
        91           C   tau(  91) = (  0.2339327  0.6189654  0.3596116  )
        92           C   tau(  92) = (  0.1955391  0.5839217  0.3577788  )
        93           C   tau(  93) = (  0.1813486  0.5605065  0.3266153  )
        94           C   tau(  94) = (  0.1601364  0.4978723  0.3247895  )
        95           C   tau(  95) = (  0.1555924  0.4657998  0.2936327  )
        96           C   tau(  96) = (  0.1577446  0.3943794  0.2918292  )
        97           C   tau(  97) = (  0.1641960  0.3631776  0.2606763  )
        98           C   tau(  98) = (  0.1890317  0.3041588  0.2588534  )
        99           C   tau(  99) = (  0.2045704  0.2830740  0.2276839  )
       100           C   tau( 100) = (  0.2447503  0.2539628  0.2258645  )
       101           C   tau( 101) = (  0.2647999  0.2493375  0.1947068  )
       102           C   tau( 102) = (  0.3084012  0.2589191  0.1928839  )
       103           C   tau( 103) = (  0.3269777  0.2721536  0.1617371  )
       104           C   tau( 104) = (  0.3609868  0.3175041  0.1599189  )
       105           C   tau( 105) = (  0.3725789  0.3445763  0.1287797  )
       106           C   tau( 106) = (  0.3869131  0.4121772  0.1269828  )
       107           C   tau( 107) = (  0.3880632  0.4450834  0.0958463  )
       108           C   tau( 108) = (  0.3784399  0.5148561  0.0940367  )
       109           C   tau( 109) = (  0.3641102  0.5519580  0.5173023  )
       110           C   tau( 110) = (  0.3505424  0.5762222  0.4856682  )
       111           C   tau( 111) = (  0.3130169  0.6138962  0.4840238  )
       112           C   tau( 112) = (  0.2936268  0.6237292  0.4529835  )
       113           C   tau( 113) = (  0.2495394  0.6251515  0.4511808  )
       114           C   tau( 114) = (  0.2300452  0.6165824  0.4200307  )
       115           C   tau( 115) = (  0.1924180  0.5795643  0.4182019  )
       116           C   tau( 116) = (  0.1787184  0.5554010  0.3870312  )
       117           C   tau( 117) = (  0.1588549  0.4915869  0.3852205  )
       118           C   tau( 118) = (  0.1550429  0.4592783  0.3540667  )
       119           C   tau( 119) = (  0.1587284  0.3880208  0.3522636  )
       120           C   tau( 120) = (  0.1658825  0.3572047  0.3211060  )
       121           C   tau( 121) = (  0.1919506  0.2996158  0.3192865  )
       122           C   tau( 122) = (  0.2079366  0.2793899  0.2881319  )
       123           C   tau( 123) = (  0.2487152  0.2524950  0.2863280  )
       124           C   tau( 124) = (  0.2688483  0.2489832  0.2551517  )
       125           C   tau( 125) = (  0.3122050  0.2609791  0.2533176  )
       126           C   tau( 126) = (  0.3304884  0.2752245  0.2221628  )
       127           C   tau( 127) = (  0.3635040  0.3224971  0.2203386  )
       128           C   tau( 128) = (  0.3744914  0.3502378  0.1892063  )
       129           C   tau( 129) = (  0.3873620  0.4186145  0.1873996  )
       130           C   tau( 130) = (  0.3878137  0.4515816  0.1562664  )
       131           C   tau( 131) = (  0.3767191  0.5207647  0.1544632  )
       132           C   tau( 132) = (  0.3616224  0.5590581  0.5776585  )
       133           C   tau( 133) = (  0.3473768  0.5816057  0.5464445  )
       134           C   tau( 134) = (  0.3093359  0.6172979  0.5445443  )
       135           C   tau( 135) = (  0.2896857  0.6247033  0.5133078  )
       136           C   tau( 136) = (  0.2457731  0.6235438  0.5115558  )
       137           C   tau( 137) = (  0.2263069  0.6140942  0.4804102  )
       138           C   tau( 138) = (  0.1893863  0.5750707  0.4786189  )
       139           C   tau( 139) = (  0.1761819  0.5501822  0.4474770  )
       140           C   tau( 140) = (  0.1577066  0.4852424  0.4456757  )
       141           C   tau( 141) = (  0.1546066  0.4527255  0.4145030  )
       142           C   tau( 142) = (  0.1598005  0.3817455  0.4126955  )
       143           C   tau( 143) = (  0.1675938  0.3513244  0.3815435  )
       144           C   tau( 144) = (  0.1948766  0.2951974  0.3797330  )
       145           C   tau( 145) = (  0.2113601  0.2759407  0.3485840  )
       146           C   tau( 146) = (  0.2526878  0.2514143  0.3467958  )
       147           C   tau( 147) = (  0.2728946  0.2489127  0.3156073  )
       148           C   tau( 148) = (  0.3159845  0.2633095  0.3137704  )
       149           C   tau( 149) = (  0.3339484  0.2785084  0.2826159  )
       150           C   tau( 150) = (  0.3659194  0.3276423  0.2807719  )
       151           C   tau( 151) = (  0.3762759  0.3560039  0.2496206  )
       152           C   tau( 152) = (  0.3876456  0.4250525  0.2477889  )
       153           C   tau( 153) = (  0.3874167  0.4580344  0.2166709  )
       154           C   tau( 154) = (  0.3748650  0.5265772  0.2148809  )
       155           C   tau( 155) = (  0.3589999  0.5644850  0.6380720  )
       156           C   tau( 156) = (  0.3443491  0.5871073  0.6069111  )
       157           C   tau( 157) = (  0.3055401  0.6205269  0.6050102  )
       158           C   tau( 158) = (  0.2857734  0.6271004  0.5737739  )
       159           C   tau( 159) = (  0.2418260  0.6226929  0.5719979  )
       160           C   tau( 160) = (  0.2226930  0.6115774  0.5408784  )
       161           C   tau( 161) = (  0.1867349  0.5704113  0.5390768  )
       162           C   tau( 162) = (  0.1739596  0.5447449  0.5079148  )
       163           C   tau( 163) = (  0.1568413  0.4788892  0.5061200  )
       164           C   tau( 164) = (  0.1543154  0.4462358  0.4749571  )
       165           C   tau( 165) = (  0.1609887  0.3754814  0.4731545  )
       166           C   tau( 166) = (  0.1694244  0.3455552  0.4419957  )
       167           C   tau( 167) = (  0.1978546  0.2909933  0.4401939  )
       168           C   tau( 168) = (  0.2147450  0.2726600  0.4090250  )
       169           C   tau( 169) = (  0.2566033  0.2506988  0.4072338  )
       170           C   tau( 170) = (  0.2768952  0.2493318  0.3761055  )
       171           C   tau( 171) = (  0.3196538  0.2664171  0.3743057  )
       172           C   tau( 172) = (  0.3372983  0.2823282  0.3430689  )
       173           C   tau( 173) = (  0.3681712  0.3330992  0.3411783  )
       174           C   tau( 174) = (  0.3779818  0.3618697  0.3100254  )
       175           C   tau( 175) = (  0.3878319  0.4315738  0.3081425  )
       176           C   tau( 176) = (  0.3868701  0.4644913  0.2770568  )
       177           C   tau( 177) = (  0.3729121  0.5323034  0.2752971  )
       178           C   tau( 178) = (  0.3562667  0.5693634  0.6984752  )
       179           C   tau( 179) = (  0.3411770  0.5913337  0.6673168  )
       180           C   tau( 180) = (  0.3016313  0.6226876  0.6654652  )
       181           C   tau( 181) = (  0.2817009  0.6283909  0.6343037  )
       182           C   tau( 182) = (  0.2379312  0.6212274  0.6324857  )
       183           C   tau( 183) = (  0.2190984  0.6090326  0.6013056  )
       184           C   tau( 184) = (  0.1841151  0.5656692  0.5995106  )
       185           C   tau( 185) = (  0.1718991  0.5392975  0.5683678  )
       186           C   tau( 186) = (  0.1561526  0.4725116  0.5665747  )
       187           C   tau( 187) = (  0.1543108  0.4396879  0.5354216  )
       188           C   tau( 188) = (  0.1624399  0.3694398  0.5336074  )
       189           C   tau( 189) = (  0.1713928  0.3399159  0.5024393  )
       190           C   tau( 190) = (  0.2009674  0.2869097  0.5006426  )
       191           C   tau( 191) = (  0.2181382  0.2695281  0.4694961  )
       192           C   tau( 192) = (  0.2605291  0.2501089  0.4677158  )
       193           C   tau( 193) = (  0.2808335  0.2504484  0.4365622  )
       194           C   tau( 194) = (  0.3229651  0.2706015  0.4347908  )
       195           C   tau( 195) = (  0.3403410  0.2871902  0.4035414  )
       196           C   tau( 196) = (  0.3700631  0.3397451  0.4016512  )
       197           C   tau( 197) = (  0.3794878  0.3682204  0.3704397  )
       198           C   tau( 198) = (  0.3879570  0.4382229  0.3684549  )
       199           C   tau( 199) = (  0.3862303  0.4710416  0.3373493  )
       200           C   tau( 200) = (  0.3534835  0.5741083  0.7588897  )
       201           C   tau( 201) = (  0.3379071  0.5951912  0.7277503  )
       202           C   tau( 202) = (  0.2977095  0.6242775  0.7259261  )
       203           C   tau( 203) = (  0.2776492  0.6289241  0.6947623  )
       204           C   tau( 204) = (  0.2340680  0.6193103  0.6929374  )
       205           C   tau( 205) = (  0.2155021  0.6061491  0.6617674  )
       206           C   tau( 206) = (  0.1814984  0.5607508  0.6599626  )
       207           C   tau( 207) = (  0.1699309  0.5336948  0.6288112  )
       208           C   tau( 208) = (  0.1556064  0.4661036  0.6270139  )
       209           C   tau( 209) = (  0.1544449  0.4332060  0.5958577  )
       210           C   tau( 210) = (  0.1640552  0.3634255  0.5940429  )
       211           C   tau( 211) = (  0.1736461  0.3344423  0.5628935  )
       212           C   tau( 212) = (  0.2043438  0.2831937  0.5610966  )
       213           C   tau( 213) = (  0.2218587  0.2667613  0.5299230  )
       214           C   tau( 214) = (  0.2645627  0.2496382  0.5281011  )
       215           C   tau( 215) = (  0.2847394  0.2508386  0.4969474  )
       216           C   tau( 216) = (  0.3265615  0.2735321  0.4951330  )
       217           C   tau( 217) = (  0.3432572  0.2922575  0.4640750  )
       218           C   tau( 218) = (  0.3721476  0.3464201  0.4624391  )
       219           C   tau( 219) = (  0.3805853  0.3761567  0.4307962  )
       220           C   tau( 220) = (  0.3892760  0.4450389  0.4284808  )
       221           C   tau( 221) = (  0.3863111  0.4776115  0.3975994  )
       222           C   tau( 222) = (  0.3505911  0.5786448  0.8193181  )
       223           C   tau( 223) = (  0.3345642  0.5988282  0.7881719  )
       224           C   tau( 224) = (  0.2937724  0.6256006  0.7863621  )
       225           C   tau( 225) = (  0.2736207  0.6291534  0.7552058  )
       226           C   tau( 226) = (  0.2302504  0.6170969  0.7533826  )
       227           C   tau( 227) = (  0.2119762  0.6029130  0.7222295  )
       228           C   tau( 228) = (  0.1789698  0.5556452  0.7204159  )
       229           C   tau( 229) = (  0.1679992  0.5279754  0.6892476  )
       230           C   tau( 230) = (  0.1551140  0.4596149  0.6874436  )
       231           C   tau( 231) = (  0.1546801  0.4266917  0.6562936  )
       232           C   tau( 232) = (  0.1657781  0.3575003  0.6544765  )
       233           C   tau( 233) = (  0.1760173  0.3290892  0.6233232  )
       234           C   tau( 234) = (  0.2077882  0.2796290  0.6215156  )
       235           C   tau( 235) = (  0.2256400  0.2641638  0.5903533  )
       236           C   tau( 236) = (  0.2687178  0.2493330  0.5885182  )
       237           C   tau( 237) = (  0.2888770  0.2517805  0.5573615  )
       238           C   tau( 238) = (  0.3302435  0.2761560  0.5555400  )
       239           C   tau( 239) = (  0.3465286  0.2958909  0.5243453  )
       240           C   tau( 240) = (  0.3746047  0.3509392  0.5224733  )
       241           C   tau( 241) = (  0.3836242  0.3802379  0.4914566  )
       242           C   tau( 242) = (  0.3957036  0.4515133  0.4901204  )
       243           C   tau( 243) = (  0.3922930  0.4873475  0.4579564  )
       244           C   tau( 244) = (  0.3476061  0.5830134  0.8797482  )
       245           C   tau( 245) = (  0.3311664  0.6022889  0.8485986  )
       246           C   tau( 246) = (  0.2898172  0.6267345  0.8467942  )
       247           C   tau( 247) = (  0.2695984  0.6291277  0.8156472  )
       248           C   tau( 248) = (  0.2265118  0.6146375  0.8138231  )
       249           C   tau( 249) = (  0.2085366  0.5994358  0.7826690  )
       250           C   tau( 250) = (  0.1765397  0.5503708  0.7808568  )
       251           C   tau( 251) = (  0.1661561  0.5221217  0.7496934  )
       252           C   tau( 252) = (  0.1547308  0.4530725  0.7478794  )
       253           C   tau( 253) = (  0.1550145  0.4201580  0.7167260  )
       254           C   tau( 254) = (  0.1675782  0.3516409  0.7149080  )
       255           C   tau( 255) = (  0.1784356  0.3238395  0.6837515  )
       256           C   tau( 256) = (  0.2112534  0.2761904  0.6819429  )
       257           C   tau( 257) = (  0.2294654  0.2617841  0.6507916  )
       258           C   tau( 258) = (  0.2727883  0.2492398  0.6489578  )
       259           C   tau( 259) = (  0.2929359  0.2526340  0.6177813  )
       260           C   tau( 260) = (  0.3338847  0.2788331  0.6159545  )
       261           C   tau( 261) = (  0.3500044  0.2988079  0.5848141  )
       262           C   tau( 262) = (  0.3767752  0.3558597  0.5830125  )
       263           C   tau( 263) = (  0.3844869  0.3864759  0.5520974  )
       264           C   tau( 264) = (  0.3882854  0.4579629  0.5504991  )
       265           C   tau( 265) = (  0.3851006  0.4904573  0.5196045  )
       266           C   tau( 266) = (  0.3445178  0.5871967  0.9401821  )
       267           C   tau( 267) = (  0.3276790  0.6055395  0.9090323  )
       268           C   tau( 268) = (  0.2858351  0.6276488  0.9072273  )
       269           C   tau( 269) = (  0.2655783  0.6288925  0.8760780  )
       270           C   tau( 270) = (  0.2228301  0.6119900  0.8742548  )
       271           C   tau( 271) = (  0.2051841  0.5957927  0.8431025  )
       272           C   tau( 272) = (  0.1742342  0.5449697  0.8412935  )
       273           C   tau( 273) = (  0.1644421  0.5161488  0.8101390  )
       274           C   tau( 274) = (  0.1544905  0.4465062  0.8083159  )
       275           C   tau( 275) = (  0.1554687  0.4136288  0.7771576  )
       276           C   tau( 276) = (  0.1694825  0.3458510  0.7753449  )
       277           C   tau( 277) = (  0.1809314  0.3186884  0.7441885  )
       278           C   tau( 278) = (  0.2147367  0.2729139  0.7423794  )
       279           C   tau( 279) = (  0.2332607  0.2595425  0.7112244  )
       280           C   tau( 280) = (  0.2768125  0.2493848  0.7093964  )
       281           C   tau( 281) = (  0.2968917  0.2537460  0.6782393  )
       282           C   tau( 282) = (  0.3372789  0.2822624  0.6764345  )
       283           C   tau( 283) = (  0.3529682  0.3030842  0.6453172  )
       284           C   tau( 284) = (  0.3781056  0.3618332  0.6435524  )
       285           C   tau( 285) = (  0.3847773  0.3929777  0.6124559  )
       286           C   tau( 286) = (  0.3869862  0.4642798  0.6107641  )
       287           C   tau( 287) = (  0.3826095  0.4963892  0.5796400  )
       288           C   tau( 288) = (  0.3413334  0.5911871  0.0006588  )
       289           C   tau( 289) = (  0.3241217  0.6085846  0.9694668  )
       290           C   tau( 290) = (  0.2818350  0.6283376  0.9676586  )
       291           C   tau( 291) = (  0.2615656  0.6284562  0.9365088  )
       292           C   tau( 292) = (  0.2191974  0.6091644  0.9346884  )
       293           C   tau( 293) = (  0.2019091  0.5919784  0.9035367  )
       294           C   tau( 294) = (  0.1720589  0.5394498  0.9017285  )
       295           C   tau( 295) = (  0.1628835  0.5100937  0.8705751  )
       296           C   tau( 296) = (  0.1544088  0.4399407  0.8687489  )
       297           C   tau( 297) = (  0.1560700  0.4071287  0.8375944  )
       298           C   tau( 298) = (  0.1715163  0.3401805  0.8357848  )
       299           C   tau( 299) = (  0.1835319  0.3136738  0.8046273  )
       300           C   tau( 300) = (  0.2182975  0.2698472  0.8028145  )
       301           C   tau( 301) = (  0.2370796  0.2575103  0.7716605  )
       302           C   tau( 302) = (  0.2808338  0.2498253  0.7698436  )
       303           C   tau( 303) = (  0.3008051  0.2553318  0.7386952  )
       304           C   tau( 304) = (  0.3405177  0.2861442  0.7369004  )
       305           C   tau( 305) = (  0.3557312  0.3078790  0.7057538  )
       306           C   tau( 306) = (  0.3795355  0.3679837  0.7039676  )
       307           C   tau( 307) = (  0.3854765  0.3994422  0.6728280  )
       308           C   tau( 308) = (  0.3863430  0.4709350  0.6710657  )
       309           C   tau( 309) = (  0.3812323  0.5027613  0.6399639  )
       310           C   tau( 310) = (  0.2575584  0.6277778  0.9969403  )
       311           C   tau( 311) = (  0.2156238  0.6061271  0.9951250  )
       312           C   tau( 312) = (  0.1987137  0.5879882  0.9639692  )
       313           C   tau( 313) = (  0.1699931  0.5338234  0.9621589  )
       314           C   tau( 314) = (  0.1614465  0.5039689  0.9310074  )
       315           C   tau( 315) = (  0.1544682  0.4333789  0.9291813  )
       316           C   tau( 316) = (  0.1568305  0.4006815  0.8980289  )
       317           C   tau( 317) = (  0.1736894  0.3346445  0.8962208  )
       318           C   tau( 318) = (  0.1862551  0.3088270  0.8650639  )
       319           C   tau( 319) = (  0.2219333  0.2669800  0.8632464  )
       320           C   tau( 320) = (  0.2409694  0.2557216  0.8320961  )
       321           C   tau( 321) = (  0.2848541  0.2505168  0.8302866  )
       322           C   tau( 322) = (  0.3046925  0.2571628  0.7991315  )
       323           C   tau( 323) = (  0.3437149  0.2901797  0.7973322  )
       324           C   tau( 324) = (  0.3584502  0.3127503  0.7661815  )
       325           C   tau( 325) = (  0.3809977  0.3741575  0.7643780  )
       326           C   tau( 326) = (  0.3862332  0.4059426  0.7332433  )
       327           C   tau( 327) = (  0.3856294  0.4774475  0.7314573  )
       328           C   tau( 328) = (  0.3798096  0.5089870  0.7003268  )
       329           C   tau( 329) = (  0.1601340  0.4977679  0.9914369  )
       330           C   tau( 330) = (  0.1546603  0.4268274  0.9896118  )
       331           C   tau( 331) = (  0.1577206  0.3942774  0.9584586  )
       332           C   tau( 332) = (  0.1759710  0.3292232  0.9566502  )
       333           C   tau( 333) = (  0.1890809  0.3041224  0.9254975  )
       334           C   tau( 334) = (  0.2256279  0.2643034  0.9236758  )
       335           C   tau( 335) = (  0.2448952  0.2541302  0.8925253  )
       336           C   tau( 336) = (  0.2888617  0.2514082  0.8907188  )
       337           C   tau( 337) = (  0.3085464  0.2591663  0.8595647  )
       338           C   tau( 338) = (  0.3468534  0.2943542  0.8577582  )
       339           C   tau( 339) = (  0.3610939  0.3177579  0.8266117  )
       340           C   tau( 340) = (  0.3823378  0.3803772  0.8248037  )
       341           C   tau( 341) = (  0.3868954  0.4124525  0.7936566  )
       342           C   tau( 342) = (  0.3847860  0.4838651  0.7918616  )
       343           C   tau( 343) = (  0.3783250  0.5150856  0.7607207  )
       344           C   tau( 344) = (  0.1920026  0.2995932  0.9859271  )
       345           C   tau( 345) = (  0.2293705  0.2618482  0.9841024  )
       346           C   tau( 346) = (  0.2488445  0.2527505  0.9529527  )
       347           C   tau( 347) = (  0.2928468  0.2525018  0.9511490  )
       348           C   tau( 348) = (  0.3123557  0.2613835  0.9199986  )
       349           C   tau( 349) = (  0.3498890  0.2987010  0.9181861  )
       350           C   tau( 350) = (  0.3636296  0.3228918  0.8870374  )
       351           C   tau( 351) = (  0.3835336  0.3866535  0.8852304  )
       352           C   tau( 352) = (  0.3874230  0.4189663  0.8540794  )
       353           C   tau( 353) = (  0.3837946  0.4902268  0.8522799  )
       354           C   tau( 354) = (  0.3766756  0.5210585  0.8211383  )
       355           C   tau( 355) = (  0.3161162  0.2637853  0.9804270  )
       356           C   tau( 356) = (  0.3528333  0.3031876  0.9786110  )
       357           C   tau( 357) = (  0.3660547  0.3281420  0.9474635  )
       358           C   tau( 358) = (  0.3846063  0.3929768  0.9456608  )
       359           C   tau( 359) = (  0.3878060  0.4254966  0.9145111  )
       360           C   tau( 360) = (  0.3826724  0.4965110  0.9127071  )
       361           C   tau( 361) = (  0.3748986  0.5269331  0.8815617  )
       362           C   tau( 362) = (  0.3880461  0.4320311  0.9749430  )
       363           C   tau( 363) = (  0.3814019  0.5027095  0.9731355  )
       364           C   tau( 364) = (  0.3729955  0.5326844  0.9419894  )
       365           Se  tau( 365) = (  0.4535840  0.4841700  0.4739710  )

     number of k points=     2
                       cart. coord. in units 2pi/alat
        k(    1) = (   0.0000000   0.0000000   0.0000000), wk =   1.0000000
        k(    2) = (   0.0000000   0.0000000   0.4001558), wk =   1.0000000

                       cryst. coord.
        k(    1) = (   0.0000000   0.0000000   0.0000000), wk =   1.0000000
        k(    2) = (   0.0000000   0.0000000   0.5000000), wk =   1.0000000

     Dense  grid: 11053081 G-vectors     FFT dimensions: ( 320, 192, 384)

     Dynamical RAM for                 wfc:      40.19 MB

     Dynamical RAM for     wfc (w. buffer):      40.19 MB

     Dynamical RAM for           str. fact:       0.88 MB

     Dynamical RAM for           local pot:       0.00 MB

     Dynamical RAM for          nlocal pot:     160.86 MB

     Dynamical RAM for                qrad:       2.49 MB

     Dynamical RAM for          rho,v,vnew:       2.72 MB

     Dynamical RAM for               rhoin:       0.91 MB

     Dynamical RAM for            rho*nmix:       7.03 MB

     Dynamical RAM for           G-vectors:       1.87 MB

     Dynamical RAM for          h,s,v(r/c):       8.00 MB

     Dynamical RAM for          <psi|beta>:      32.73 MB

     Dynamical RAM for                 psi:     160.75 MB

     Dynamical RAM for                hpsi:     160.75 MB

     Dynamical RAM for      wfcinit/wfcrot:      92.64 MB

     Estimated static dynamical RAM per process >     213.57 MB

     Estimated max dynamical RAM per process >     582.83 MB

     Estimated total dynamical RAM >     434.48 GB

     Initial potential from superposition of free atoms

     starting charge    1459.4463, renormalised to    1462.0000

     negative rho (up, down):  1.529E-02 0.000E+00
     Starting wfcs are random

     total cpu time spent up to now is       68.0 secs

     Self-consistent Calculation

     iteration #  1     ecut=    60.00 Ry     beta= 0.70
     Davidson diagonalization with overlap

---- Real-time Memory Report at c_bands before calling an iterative solver
           539 MiB given to the printing process from OS
             0 MiB allocation reported by mallinfo(arena+hblkhd)
        467835 MiB available memory on the node where the printing process lives
------------------
     ethr =  1.00E-02,  avg # of iterations = 12.5

     negative rho (up, down):  5.515E-06 0.000E+00

     total cpu time spent up to now is     1019.9 secs

     total energy              =   -4156.37572757 Ry
     estimated scf accuracy    <      38.74623261 Ry

     iteration #  2     ecut=    60.00 Ry     beta= 0.70
     Davidson diagonalization with overlap

---- Real-time Memory Report at c_bands before calling an iterative solver
           839 MiB given to the printing process from OS
             0 MiB allocation reported by mallinfo(arena+hblkhd)
        466673 MiB available memory on the node where the printing process lives
------------------
     ethr =  2.65E-03,  avg # of iterations =  7.0

     negative rho (up, down):  1.024E-06 0.000E+00

     total cpu time spent up to now is     1315.8 secs

     total energy              =   -4139.46012131 Ry
     estimated scf accuracy    <      72.71489802 Ry

     iteration #  3     ecut=    60.00 Ry     beta= 0.70
     Davidson diagonalization with overlap

---- Real-time Memory Report at c_bands before calling an iterative solver
           839 MiB given to the printing process from OS
             0 MiB allocation reported by mallinfo(arena+hblkhd)
        466746 MiB available memory on the node where the printing process lives
------------------
     ethr =  2.65E-03,  avg # of iterations = 15.0

     negative rho (up, down):  2.912E-07 0.000E+00

     total cpu time spent up to now is     1630.5 secs

     total energy              =   -4106.90467596 Ry
     estimated scf accuracy    <    1059.02145096 Ry

     iteration #  4     ecut=    60.00 Ry     beta= 0.70
     Davidson diagonalization with overlap

---- Real-time Memory Report at c_bands before calling an iterative solver
           839 MiB given to the printing process from OS
             0 MiB allocation reported by mallinfo(arena+hblkhd)
        466873 MiB available memory on the node where the printing process lives
------------------
     ethr =  2.65E-03,  avg # of iterations = 12.5

     negative rho (up, down):  4.002E-08 0.000E+00

     total cpu time spent up to now is     2101.5 secs

     total energy              =   -4141.93949534 Ry
     estimated scf accuracy    <     320.21260673 Ry

     iteration #  5     ecut=    60.00 Ry     beta= 0.70
     Davidson diagonalization with overlap

---- Real-time Memory Report at c_bands before calling an iterative solver
           839 MiB given to the printing process from OS
             0 MiB allocation reported by mallinfo(arena+hblkhd)
        466862 MiB available memory on the node where the printing process lives
------------------
     ethr =  2.65E-03,  avg # of iterations = 10.0

     total cpu time spent up to now is     2388.2 secs

     total energy              =   -4153.97409252 Ry
     estimated scf accuracy    <     152.58212976 Ry

     iteration #  6     ecut=    60.00 Ry     beta= 0.70
     Davidson diagonalization with overlap

---- Real-time Memory Report at c_bands before calling an iterative solver
           839 MiB given to the printing process from OS
             0 MiB allocation reported by mallinfo(arena+hblkhd)
        466833 MiB available memory on the node where the printing process lives
------------------
     ethr =  2.65E-03,  avg # of iterations =  7.5

     total cpu time spent up to now is     2603.9 secs

     total energy              =   -4164.80776524 Ry
     estimated scf accuracy    <       6.08868243 Ry

     iteration #  7     ecut=    60.00 Ry     beta= 0.70
     Davidson diagonalization with overlap

---- Real-time Memory Report at c_bands before calling an iterative solver
           839 MiB given to the printing process from OS
             0 MiB allocation reported by mallinfo(arena+hblkhd)
        466742 MiB available memory on the node where the printing process lives
------------------
     ethr =  4.16E-04,  avg # of iterations =  5.0

     total cpu time spent up to now is     2781.6 secs

     total energy              =   -4165.41409518 Ry
     estimated scf accuracy    <       0.70727121 Ry

     iteration #  8     ecut=    60.00 Ry     beta= 0.70
     Davidson diagonalization with overlap

---- Real-time Memory Report at c_bands before calling an iterative solver
           839 MiB given to the printing process from OS
             0 MiB allocation reported by mallinfo(arena+hblkhd)
        466741 MiB available memory on the node where the printing process lives
------------------
     ethr =  4.84E-05,  avg # of iterations =  5.0

     total cpu time spent up to now is     2949.1 secs

     total energy              =   -4165.40858229 Ry
     estimated scf accuracy    <       0.43258925 Ry

     iteration #  9     ecut=    60.00 Ry     beta= 0.70
     Davidson diagonalization with overlap

---- Real-time Memory Report at c_bands before calling an iterative solver
           839 MiB given to the printing process from OS
             0 MiB allocation reported by mallinfo(arena+hblkhd)
        466662 MiB available memory on the node where the printing process lives
------------------
     ethr =  2.96E-05,  avg # of iterations =  5.0

     total cpu time spent up to now is     3107.3 secs

     total energy              =   -4165.37860402 Ry
     estimated scf accuracy    <       0.24270472 Ry

     iteration # 10     ecut=    60.00 Ry     beta= 0.70
     Davidson diagonalization with overlap

---- Real-time Memory Report at c_bands before calling an iterative solver
           839 MiB given to the printing process from OS
             0 MiB allocation reported by mallinfo(arena+hblkhd)
        466471 MiB available memory on the node where the printing process lives
------------------
     ethr =  1.66E-05,  avg # of iterations =  7.0

     negative rho (up, down):  1.560E-05 0.000E+00

     total cpu time spent up to now is     3282.7 secs

     total energy              =   -4165.38929718 Ry
     estimated scf accuracy    <       0.07009954 Ry

     iteration # 11     ecut=    60.00 Ry     beta= 0.70
     Davidson diagonalization with overlap

---- Real-time Memory Report at c_bands before calling an iterative solver
           839 MiB given to the printing process from OS
             0 MiB allocation reported by mallinfo(arena+hblkhd)
        466520 MiB available memory on the node where the printing process lives
------------------
     ethr =  4.79E-06,  avg # of iterations =  6.0

     negative rho (up, down):  3.159E-04 0.000E+00

     total cpu time spent up to now is     3456.5 secs

     total energy              =   -4165.39300423 Ry
     estimated scf accuracy    <       0.03150669 Ry

     iteration # 12     ecut=    60.00 Ry     beta= 0.70
     Davidson diagonalization with overlap

---- Real-time Memory Report at c_bands before calling an iterative solver
           839 MiB given to the printing process from OS
             0 MiB allocation reported by mallinfo(arena+hblkhd)
        466473 MiB available memory on the node where the printing process lives
------------------
     ethr =  2.16E-06,  avg # of iterations =  6.5

     negative rho (up, down):  4.278E-04 0.000E+00

     total cpu time spent up to now is     3619.5 secs

     total energy              =   -4165.38733265 Ry
     estimated scf accuracy    <       0.01726091 Ry

     iteration # 13     ecut=    60.00 Ry     beta= 0.70
     Davidson diagonalization with overlap

---- Real-time Memory Report at c_bands before calling an iterative solver
           839 MiB given to the printing process from OS
             0 MiB allocation reported by mallinfo(arena+hblkhd)
        466354 MiB available memory on the node where the printing process lives
------------------
     ethr =  1.18E-06,  avg # of iterations = 11.0

     negative rho (up, down):  4.841E-05 0.000E+00

     total cpu time spent up to now is     3865.0 secs

     total energy              =   -4165.38854063 Ry
     estimated scf accuracy    <       0.02937021 Ry

     iteration # 14     ecut=    60.00 Ry     beta= 0.70
     Davidson diagonalization with overlap

---- Real-time Memory Report at c_bands before calling an iterative solver
           839 MiB given to the printing process from OS
             0 MiB allocation reported by mallinfo(arena+hblkhd)
        466430 MiB available memory on the node where the printing process lives
------------------
     ethr =  1.18E-06,  avg # of iterations = 11.0

     total cpu time spent up to now is     4063.5 secs

     total energy              =   -4165.39104977 Ry
     estimated scf accuracy    <       0.00279955 Ry

     iteration # 15     ecut=    60.00 Ry     beta= 0.70
     Davidson diagonalization with overlap

---- Real-time Memory Report at c_bands before calling an iterative solver
           839 MiB given to the printing process from OS
             0 MiB allocation reported by mallinfo(arena+hblkhd)
        466379 MiB available memory on the node where the printing process lives
------------------
     ethr =  1.91E-07,  avg # of iterations =  8.5

     total cpu time spent up to now is     4346.7 secs

     total energy              =   -4165.39105641 Ry
     estimated scf accuracy    <       0.00931532 Ry

     iteration # 16     ecut=    60.00 Ry     beta= 0.70
     Davidson diagonalization with overlap

---- Real-time Memory Report at c_bands before calling an iterative solver
           839 MiB given to the printing process from OS
             0 MiB allocation reported by mallinfo(arena+hblkhd)
        466085 MiB available memory on the node where the printing process lives
------------------
     ethr =  1.91E-07,  avg # of iterations =  8.0

     total cpu time spent up to now is     4591.7 secs

     total energy              =   -4165.39242120 Ry
     estimated scf accuracy    <       0.00027818 Ry

     iteration # 17     ecut=    60.00 Ry     beta= 0.70
     Davidson diagonalization with overlap

---- Real-time Memory Report at c_bands before calling an iterative solver
           839 MiB given to the printing process from OS
             0 MiB allocation reported by mallinfo(arena+hblkhd)
        466020 MiB available memory on the node where the printing process lives
------------------
     ethr =  1.90E-08,  avg # of iterations =  9.0

     total cpu time spent up to now is     4808.5 secs

     total energy              =   -4165.39247969 Ry
     estimated scf accuracy    <       0.00003094 Ry

     iteration # 18     ecut=    60.00 Ry     beta= 0.70
     Davidson diagonalization with overlap

---- Real-time Memory Report at c_bands before calling an iterative solver
           839 MiB given to the printing process from OS
             0 MiB allocation reported by mallinfo(arena+hblkhd)
        466035 MiB available memory on the node where the printing process lives
------------------
     ethr =  2.12E-09,  avg # of iterations =  8.0

     total cpu time spent up to now is     5060.9 secs

     total energy              =   -4165.39248650 Ry
     estimated scf accuracy    <       0.00000644 Ry

     iteration # 19     ecut=    60.00 Ry     beta= 0.70
     Davidson diagonalization with overlap

---- Real-time Memory Report at c_bands before calling an iterative solver
           839 MiB given to the printing process from OS
             0 MiB allocation reported by mallinfo(arena+hblkhd)
        466052 MiB available memory on the node where the printing process lives
------------------
     ethr =  4.40E-10,  avg # of iterations =  7.0

     total cpu time spent up to now is     5295.6 secs

     total energy              =   -4165.39248776 Ry
     estimated scf accuracy    <       0.00000278 Ry

     iteration # 20     ecut=    60.00 Ry     beta= 0.70
     Davidson diagonalization with overlap

---- Real-time Memory Report at c_bands before calling an iterative solver
           839 MiB given to the printing process from OS
             0 MiB allocation reported by mallinfo(arena+hblkhd)
        466078 MiB available memory on the node where the printing process lives
------------------
     ethr =  1.90E-10,  avg # of iterations =  8.0

     total cpu time spent up to now is     5506.4 secs

     total energy              =   -4165.39248823 Ry
     estimated scf accuracy    <       0.00000033 Ry

     iteration # 21     ecut=    60.00 Ry     beta= 0.70
     Davidson diagonalization with overlap

---- Real-time Memory Report at c_bands before calling an iterative solver
           839 MiB given to the printing process from OS
             0 MiB allocation reported by mallinfo(arena+hblkhd)
        465964 MiB available memory on the node where the printing process lives
------------------
     ethr =  2.27E-11,  avg # of iterations =  7.0

     total cpu time spent up to now is     5752.0 secs

     total energy              =   -4165.39248830 Ry
     estimated scf accuracy    <       0.00000012 Ry

     iteration # 22     ecut=    60.00 Ry     beta= 0.70
     Davidson diagonalization with overlap

---- Real-time Memory Report at c_bands before calling an iterative solver
           839 MiB given to the printing process from OS
             0 MiB allocation reported by mallinfo(arena+hblkhd)
        466030 MiB available memory on the node where the printing process lives
------------------
     ethr =  7.91E-12,  avg # of iterations =  7.0

     total cpu time spent up to now is     5987.7 secs

     End of self-consistent calculation

          k = 0.0000 0.0000 0.0000 (****** PWs)   bands (ev):

   -22.6870 -22.6238 -22.6164 -22.4816 -22.4692 -22.4292 -22.4188 -22.4123
   -22.4050 -22.4037 -22.4029 -22.2204 -22.2086 -22.2068 -22.2051 -22.0953
   -22.0901 -21.8983 -21.8812 -21.8786 -21.8774 -21.8513 -21.8403 -21.7920
   -21.7771 -21.7758 -21.7742 -21.6384 -21.6315 -21.5963 -21.5828 -21.5798
   -21.5793 -21.4344 -21.4241 -21.4213 -21.4202 -21.2725 -21.2588 -21.2552
   -21.2544 -21.0534 -21.0449 -20.8773 -20.8403 -20.8374 -20.8365 -20.8335
   -20.8252 -20.8127 -20.8065 -20.8027 -20.8014 -20.7750 -20.7621 -20.7614
   -20.7606 -20.5896 -20.5710 -20.5693 -20.5686 -20.3470 -20.3350 -20.2801
   -20.2525 -20.2509 -20.2495 -20.2351 -20.2292 -20.2252 -20.2233 -20.1433
   -20.1331 -20.1293 -20.1290 -19.8332 -19.8090 -19.8067 -19.8059 -19.5710
   -19.5319 -19.5271 -19.5258 -19.5131 -19.5079 -19.4876 -19.4667 -19.4304
   -19.4054 -19.4048 -19.4040 -19.3259 -19.3096 -19.3069 -19.3058 -19.2677
   -19.2447 -19.2410 -19.2403 -19.2302 -19.2191 -19.2190 -19.2176 -18.9426
   -18.9112 -18.9109 -18.9089 -18.7431 -18.7239 -18.7180 -18.7169 -18.6061
   -18.5743 -18.5711 -18.5667 -18.5626 -18.5617 -18.5076 -18.4846 -18.4829
   -18.4804 -18.3944 -18.3826 -18.3801 -18.3780 -18.0472 -17.9454 -17.9428
   -17.9409 -17.9114 -17.8769 -17.8578 -17.8382 -17.8349 -17.8277 -17.8250
   -17.8216 -17.8178 -17.8128 -17.8062 -17.8038 -17.8014 -17.8007 -17.6822
   -17.6537 -17.6419 -17.6319 -17.5584 -17.5508 -17.4330 -17.3962 -17.3936
   -17.3772 -17.3738 -17.3716 -17.3528 -17.3370 -17.3324 -17.3272 -17.3139
   -17.3135 -17.2571 -17.2183 -17.2176 -17.0752 -17.0482 -17.0048 -16.9812
   -16.9488 -16.9344 -16.7841 -16.7820 -16.5655 -16.4987 -16.4974 -16.4881
   -16.4756 -16.4616 -16.4407 -16.4318 -16.2587 -16.2532 -16.2213 -16.0346
   -16.0287 -15.9986 -15.9655 -15.8922 -15.7907 -15.7233 -15.6185 -15.6111
   -15.6076 -15.5952 -15.5774 -15.5599 -15.5288 -15.5238 -15.5234 -15.4981
   -15.4629 -15.4555 -15.4293 -15.4274 -15.4268 -15.4203 -15.4119 -15.3938
   -15.3871 -15.3790 -15.3701 -15.3687 -15.3666 -15.3474 -15.3300 -15.2121
   -15.1486 -15.1375 -15.1213 -15.1042 -15.0732 -15.0476 -15.0467 -15.0243
   -14.9947 -14.9529 -14.8816 -14.8651 -14.8541 -14.8223 -14.8110 -14.7638
   -14.6103 -14.6048 -14.5509 -14.5487 -14.5448 -14.5295 -14.4779 -14.4583
   -14.4219 -14.4106 -14.3479 -14.3434 -14.2873 -14.2774 -14.2732 -14.2461
   -14.0123 -14.0038 -13.8746 -13.8642 -13.5377 -13.5331 -13.5182 -13.5145
   -13.4797 -13.4718 -13.4433 -13.4395 -13.4201 -13.4176 -13.4159 -13.4132
   -13.4099 -13.4026 -13.4016 -13.3938 -13.3853 -13.3764 -13.3693 -13.3628
   -13.3617 -13.3528 -13.3456 -13.3404 -13.3342 -13.3289 -13.1491 -13.1395
   -13.0853 -13.0844 -13.0779 -13.0746 -13.0616 -13.0588 -13.0526 -13.0513
   -13.0273 -13.0273 -13.0027 -12.9963 -12.8763 -12.8744 -12.5778 -12.5772
   -12.3916 -12.3901 -12.3730 -12.3709 -12.2635 -12.2580 -12.2536 -12.2532
   -12.1991 -12.1941 -12.1573 -12.1546 -12.1419 -12.1380 -12.0723 -12.0704
   -12.0272 -12.0240 -12.0074 -12.0062 -11.9827 -11.9809 -11.9107 -11.9103
   -11.8891 -11.8864 -11.7035 -11.7004 -11.6579 -11.6547 -11.5930 -11.5889
   -11.5572 -11.5562 -11.5090 -11.4969 -11.4784 -11.4762 -11.4011 -11.3911
   -11.3799 -11.3626 -11.3568 -11.3506 -11.3265 -11.3210 -11.2921 -11.2871
   -11.2273 -11.2232 -11.1957 -11.1949 -11.1319 -11.1232 -11.1119 -11.1105
   -11.0586 -11.0582 -11.0385 -11.0339 -11.0260 -11.0238 -11.0213 -11.0168
   -10.9523 -10.9502 -10.9450 -10.9430 -10.8948 -10.8946 -10.8136 -10.8111
   -10.8096 -10.7410 -10.7364 -10.7364 -10.7276 -10.6448 -10.6432 -10.5731
   -10.5675 -10.5120 -10.5118 -10.5066 -10.5056 -10.5007 -10.4995 -10.4978
   -10.4802 -10.4773 -10.4679 -10.4375 -10.4293 -10.4229 -10.4173 -10.3147
   -10.3081 -10.3015 -10.2995 -10.2868 -10.2813 -10.2726 -10.2718 -10.2576
   -10.2526 -10.2124 -10.2013 -10.1380 -10.1310 -10.1064 -10.0860 -10.0748
   -10.0702 -10.0651 -10.0511 -10.0486 -10.0458 -10.0381 -10.0260 -10.0219
   -10.0163 -10.0034  -9.9850  -9.9841  -9.9792  -9.9789  -9.9778  -9.9725
    -9.9689  -9.9475  -9.9472  -9.9444  -9.9418  -9.9394  -9.9300  -9.9133
    -9.9019  -9.8847  -9.8840  -9.8818  -9.8809  -9.8705  -9.8702  -9.8641
    -9.8624  -9.8373  -9.8246  -9.8157  -9.8134  -9.7951  -9.7918  -9.7909
    -9.7854  -9.6985  -9.6856  -9.6774  -9.6743  -9.6509  -9.6448  -9.5813
    -9.5734  -9.5599  -9.5445  -9.5235  -9.5186  -9.5140  -9.5108  -9.4952
    -9.4137  -9.4039  -9.3918  -9.3886  -9.3776  -9.3642  -9.3626  -9.3543
    -9.3476  -9.3435  -9.3330  -9.3262  -9.2628  -9.2411  -9.2319  -9.2185
    -9.2131  -9.2054  -9.1952  -9.1935  -9.1829  -9.1553  -9.1473  -9.1374
    -9.1193  -9.1156  -9.0978  -9.0958  -9.0523  -9.0420  -9.0340  -9.0312
    -9.0192  -9.0159  -9.0043  -9.0013  -8.9981  -8.9950  -8.9919  -8.9848
    -8.9461  -8.9424  -8.9339  -8.9304  -8.8968  -8.8873  -8.7854  -8.7852
    -8.6905  -8.6659  -8.6093  -8.6000  -8.5962  -8.5937  -8.5819  -8.5637
    -8.5444  -8.5383  -8.5357  -8.5234  -8.5189  -8.5170  -8.4812  -8.4798
    -8.3686  -8.3680  -8.3402  -8.3289  -8.3073  -8.3031  -8.2383  -8.2268
    -8.2240  -8.2177  -8.2173  -8.2160  -8.1759  -8.1743  -8.1706  -8.1641
    -8.1477  -8.1382  -8.0967  -8.0934  -8.0388  -8.0342  -8.0256  -8.0244
    -8.0168  -8.0154  -8.0025  -8.0022  -7.9730  -7.9718  -7.9655  -7.9594
    -7.9374  -7.9350  -7.9229  -7.9171  -7.8464  -7.8433  -7.8345  -7.8326
    -7.7559  -7.7365  -7.7078  -7.7038  -7.6916  -7.6909  -7.6808  -7.6794
    -7.6760  -7.6723  -7.6654  -7.6646  -7.6268  -7.6232  -7.5956  -7.5940
    -7.5310  -7.5268  -7.4382  -7.4365  -7.3964  -7.3898  -7.3448  -7.3338
    -7.2646  -7.2494  -7.2420  -7.2397  -7.2302  -7.2202  -7.2092  -7.2073
    -7.1166  -7.0975  -7.0842  -7.0681  -7.0530  -7.0514  -7.0414  -7.0382
    -7.0220  -7.0133  -6.9861  -6.9814  -6.9595  -6.9333  -6.9314  -6.9276
    -6.9254  -6.9242  -6.8935  -6.8809  -6.8540  -6.8518  -6.8364  -6.8342
    -6.7844  -6.7756  -6.7612  -6.7601  -6.6738  -6.6700  -6.6644  -6.6629
    -6.6461  -6.6290  -6.5844  -6.5694  -6.5609  -6.5553  -6.5525  -6.5514
    -6.5450  -6.5404  -6.3595  -6.3567  -6.3394  -6.3113  -6.2993  -6.2938
    -6.2499  -6.2494  -6.2296  -6.2250  -6.2186  -6.2138  -6.2051  -6.2043
    -6.1772  -6.1241  -6.0869  -6.0458  -6.0400  -6.0248  -5.9903  -5.9537
    -5.9515  -5.9360  -5.8969  -5.8955  -5.8055  -5.7880  -5.7724  -5.7587
    -5.6317  -5.5760  -5.5336  -5.4929  -5.4761  -5.4752  -5.4540  -5.4142
    -5.3827  -5.3316  -5.3098  -5.3063  -5.2916  -5.2829  -5.2724  -5.2439
    -5.2219  -5.2205  -5.2117  -5.1947  -5.1772  -5.1167  -5.1149  -5.0844
    -5.0697  -5.0393  -5.0388  -5.0035  -4.9776  -4.9528  -4.9429  -4.9249
    -4.9249  -4.9141  -4.9093  -4.8075  -4.7800  -4.7430  -4.7121  -4.6279
    -4.6186  -4.6111  -4.5591  -4.3634  -4.3259  -4.2259  -4.1980  -4.1831
    -4.1032  -4.0719  -4.0223  -3.9915  -3.8569  -3.8555  -3.7818  -3.7392
    -3.6211  -3.3518  -3.2573  -2.6415

     occupation numbers 
     1.0000   1.0000   1.0000   1.0000   1.0000   1.0000   1.0000   1.0000
     1.0000   1.0000   1.0000   1.0000   1.0000   1.0000   1.0000   1.0000
     1.0000   1.0000   1.0000   1.0000   1.0000   1.0000   1.0000   1.0000
     1.0000   1.0000   1.0000   1.0000   1.0000   1.0000   1.0000   1.0000
     1.0000   1.0000   1.0000   1.0000   1.0000   1.0000   1.0000   1.0000
     1.0000   1.0000   1.0000   1.0000   1.0000   1.0000   1.0000   1.0000
     1.0000   1.0000   1.0000   1.0000   1.0000   1.0000   1.0000   1.0000
     1.0000   1.0000   1.0000   1.0000   1.0000   1.0000   1.0000   1.0000
     1.0000   1.0000   1.0000   1.0000   1.0000   1.0000   1.0000   1.0000
     1.0000   1.0000   1.0000   1.0000   1.0000   1.0000   1.0000   1.0000
     1.0000   1.0000   1.0000   1.0000   1.0000   1.0000   1.0000   1.0000
     1.0000   1.0000   1.0000   1.0000   1.0000   1.0000   1.0000   1.0000
     1.0000   1.0000   1.0000   1.0000   1.0000   1.0000   1.0000   1.0000
     1.0000   1.0000   1.0000   1.0000   1.0000   1.0000   1.0000   1.0000
     1.0000   1.0000   1.0000   1.0000   1.0000   1.0000   1.0000   1.0000
     1.0000   1.0000   1.0000   1.0000   1.0000   1.0000   1.0000   1.0000
     1.0000   1.0000   1.0000   1.0000   1.0000   1.0000   1.0000   1.0000
     1.0000   1.0000   1.0000   1.0000   1.0000   1.0000   1.0000   1.0000
     1.0000   1.0000   1.0000   1.0000   1.0000   1.0000   1.0000   1.0000
     1.0000   1.0000   1.0000   1.0000   1.0000   1.0000   1.0000   1.0000
     1.0000   1.0000   1.0000   1.0000   1.0000   1.0000   1.0000   1.0000
     1.0000   1.0000   1.0000   1.0000   1.0000   1.0000   1.0000   1.0000
     1.0000   1.0000   1.0000   1.0000   1.0000   1.0000   1.0000   1.0000
     1.0000   1.0000   1.0000   1.0000   1.0000   1.0000   1.0000   1.0000
     1.0000   1.0000   1.0000   1.0000   1.0000   1.0000   1.0000   1.0000
     1.0000   1.0000   1.0000   1.0000   1.0000   1.0000   1.0000   1.0000
     1.0000   1.0000   1.0000   1.0000   1.0000   1.0000   1.0000   1.0000
     1.0000   1.0000   1.0000   1.0000   1.0000   1.0000   1.0000   1.0000
     1.0000   1.0000   1.0000   1.0000   1.0000   1.0000   1.0000   1.0000
     1.0000   1.0000   1.0000   1.0000   1.0000   1.0000   1.0000   1.0000
     1.0000   1.0000   1.0000   1.0000   1.0000   1.0000   1.0000   1.0000
     1.0000   1.0000   1.0000   1.0000   1.0000   1.0000   1.0000   1.0000
     1.0000   1.0000   1.0000   1.0000   1.0000   1.0000   1.0000   1.0000
     1.0000   1.0000   1.0000   1.0000   1.0000   1.0000   1.0000   1.0000
     1.0000   1.0000   1.0000   1.0000   1.0000   1.0000   1.0000   1.0000
     1.0000   1.0000   1.0000   1.0000   1.0000   1.0000   1.0000   1.0000
     1.0000   1.0000   1.0000   1.0000   1.0000   1.0000   1.0000   1.0000
     1.0000   1.0000   1.0000   1.0000   1.0000   1.0000   1.0000   1.0000
     1.0000   1.0000   1.0000   1.0000   1.0000   1.0000   1.0000   1.0000
     1.0000   1.0000   1.0000   1.0000   1.0000   1.0000   1.0000   1.0000
     1.0000   1.0000   1.0000   1.0000   1.0000   1.0000   1.0000   1.0000
     1.0000   1.0000   1.0000   1.0000   1.0000   1.0000   1.0000   1.0000
     1.0000   1.0000   1.0000   1.0000   1.0000   1.0000   1.0000   1.0000
     1.0000   1.0000   1.0000   1.0000   1.0000   1.0000   1.0000   1.0000
     1.0000   1.0000   1.0000   1.0000   1.0000   1.0000   1.0000   1.0000
     1.0000   1.0000   1.0000   1.0000   1.0000   1.0000   1.0000   1.0000
     1.0000   1.0000   1.0000   1.0000   1.0000   1.0000   1.0000   1.0000
     1.0000   1.0000   1.0000   1.0000   1.0000   1.0000   1.0000   1.0000
     1.0000   1.0000   1.0000   1.0000   1.0000   1.0000   1.0000   1.0000
     1.0000   1.0000   1.0000   1.0000   1.0000   1.0000   1.0000   1.0000
     1.0000   1.0000   1.0000   1.0000   1.0000   1.0000   1.0000   1.0000
     1.0000   1.0000   1.0000   1.0000   1.0000   1.0000   1.0000   1.0000
     1.0000   1.0000   1.0000   1.0000   1.0000   1.0000   1.0000   1.0000
     1.0000   1.0000   1.0000   1.0000   1.0000   1.0000   1.0000   1.0000
     1.0000   1.0000   1.0000   1.0000   1.0000   1.0000   1.0000   1.0000
     1.0000   1.0000   1.0000   1.0000   1.0000   1.0000   1.0000   1.0000
     1.0000   1.0000   1.0000   1.0000   1.0000   1.0000   1.0000   1.0000
     1.0000   1.0000   1.0000   1.0000   1.0000   1.0000   1.0000   1.0000
     1.0000   1.0000   1.0000   1.0000   1.0000   1.0000   1.0000   1.0000
     1.0000   1.0000   1.0000   1.0000   1.0000   1.0000   1.0000   1.0000
     1.0000   1.0000   1.0000   1.0000   1.0000   1.0000   1.0000   1.0000
     1.0000   1.0000   1.0000   1.0000   1.0000   1.0000   1.0000   1.0000
     1.0000   1.0000   1.0000   1.0000   1.0000   1.0000   1.0000   1.0000
     1.0000   1.0000   1.0000   1.0000   1.0000   1.0000   1.0000   1.0000
     1.0000   1.0000   1.0000   1.0000   1.0000   1.0000   1.0000   1.0000
     1.0000   1.0000   1.0000   1.0000   1.0000   1.0000   1.0000   1.0000
     1.0000   1.0000   1.0000   1.0000   1.0000   1.0000   1.0000   1.0000
     1.0000   1.0000   1.0000   1.0000   1.0000   1.0000   1.0000   1.0000
     1.0000   1.0000   1.0000   1.0000   1.0000   1.0000   1.0000   1.0000
     1.0000   1.0000   1.0000   1.0000   1.0000   1.0000   1.0000   1.0000
     1.0000   1.0000   1.0000   1.0000   1.0000   1.0000   1.0000   1.0000
     1.0000   1.0000   1.0000   1.0000   1.0000   1.0000   1.0000   1.0000
     1.0000   1.0000   1.0000   1.0000   1.0000   1.0000   1.0000   1.0000
     1.0000   1.0000   1.0000   1.0000   1.0000   1.0000   1.0000   1.0000
     1.0000   1.0000   1.0000   1.0000   1.0000   1.0000   1.0000   1.0000
     1.0000   1.0000   1.0000   1.0000   1.0000   1.0000   1.0000   1.0000
     1.0000   1.0000   1.0000   1.0000   1.0000   1.0000   1.0000   1.0000
     1.0000   1.0000   1.0000   1.0000   1.0000   1.0000   1.0000   1.0000
     1.0000   1.0000   1.0000   1.0000   1.0000   1.0000   1.0000   1.0000
     1.0000   1.0000   1.0000   1.0000   1.0000   1.0000   1.0000   1.0000
     1.0000   1.0000   1.0000   1.0000   1.0000   1.0000   1.0000   1.0000
     1.0000   1.0000   1.0000   1.0000   1.0000   1.0000   1.0000   1.0000
     1.0000   1.0000   1.0000   1.0000   1.0000   1.0000   1.0000   1.0000
     1.0000   1.0000   1.0000   1.0000   1.0000   1.0000   1.0000   1.0000
     1.0000   1.0000   1.0000   1.0000   1.0000   1.0000   1.0000   1.0000
     1.0000   1.0000   1.0000   1.0000   1.0000   1.0000   1.0000   1.0000
     1.0000   1.0000   1.0000   1.0000   1.0000   1.0000   1.0000   1.0000
     1.0000   1.0000   1.0000   1.0000   1.0000   1.0000   1.0000   1.0000
     1.0000   1.0000   1.0000   1.0000   1.0000   1.0000   1.0000   1.0000
     1.0000   1.0000   1.0000   1.0000   1.0000   1.0000   1.0000   1.0000
     1.0000   1.0000   1.0000   1.0000   1.0000   1.0000   1.0000   1.0000
     1.0000   1.0000   1.0000   0.0000

          k = 0.0000 0.0000 0.4002 (****** PWs)   bands (ev):

   -22.6749 -22.6651 -22.5429 -22.5331 -22.4711 -22.4534 -22.4527 -22.4522
   -22.3368 -22.3230 -22.3223 -22.3193 -22.2760 -22.2702 -22.0739 -22.0605
   -22.0595 -22.0570 -21.8853 -21.8765 -21.8469 -21.8248 -21.8243 -21.8236
   -21.7164 -21.6955 -21.6941 -21.6930 -21.6743 -21.6682 -21.6661 -21.6644
   -21.4524 -21.4364 -21.4341 -21.4325 -21.3599 -21.3538 -21.1616 -21.1476
   -21.1449 -21.1437 -21.0625 -21.0483 -21.0452 -21.0434 -20.8403 -20.8095
   -20.8090 -20.8090 -20.7197 -20.7050 -20.6980 -20.6821 -20.6809 -20.6802
   -20.5522 -20.5339 -20.5296 -20.5280 -20.5090 -20.5014 -20.4982 -20.4971
   -20.4427 -20.4274 -20.4252 -20.4245 -20.0713 -20.0455 -20.0442 -20.0435
   -19.9471 -19.9361 -19.9072 -19.8951 -19.8910 -19.8885 -19.7507 -19.7352
   -19.7325 -19.7313 -19.5758 -19.5417 -19.5387 -19.5380 -19.4831 -19.4518
   -19.4507 -19.4506 -19.3559 -19.3279 -19.3263 -19.3262 -19.1645 -19.1409
   -19.1351 -19.1345 -19.1053 -19.0800 -19.0793 -19.0792 -19.0582 -19.0535
   -18.9386 -18.9197 -18.9151 -18.9146 -18.8675 -18.8574 -18.8556 -18.8538
   -18.7389 -18.7121 -18.7112 -18.7094 -18.3350 -18.2861 -18.2804 -18.2770
   -18.2575 -18.2284 -18.2260 -18.2235 -18.2007 -18.1927 -18.1887 -18.1879
   -18.0800 -18.0713 -17.9607 -17.8903 -17.8891 -17.8833 -17.8822 -17.8643
   -17.8607 -17.8591 -17.7869 -17.7525 -17.7440 -17.7366 -17.6616 -17.6383
   -17.6374 -17.6365 -17.5576 -17.5271 -17.5110 -17.4986 -17.4552 -17.4392
   -17.4320 -17.4312 -17.4233 -17.4204 -17.3916 -17.3818 -17.2237 -17.1903
   -17.1643 -17.1484 -17.0840 -17.0632 -17.0261 -17.0207 -16.9977 -16.9955
   -16.9537 -16.9536 -16.8829 -16.8686 -16.7776 -16.7466 -16.7160 -16.7005
   -16.3522 -16.2895 -16.2380 -16.2142 -16.0994 -16.0514 -16.0474 -16.0456
   -16.0428 -16.0421 -15.9665 -15.9273 -15.8752 -15.8745 -15.8392 -15.7870
   -15.7799 -15.7591 -15.6625 -15.5671 -15.5634 -15.5632 -15.5303 -15.4642
   -15.4577 -15.4574 -15.4425 -15.4035 -15.4029 -15.4027 -15.3899 -15.3717
   -15.3037 -15.2648 -15.2580 -15.2575 -15.2296 -15.2090 -15.1728 -15.1047
   -15.0972 -15.0953 -15.0898 -15.0836 -15.0573 -15.0435 -15.0139 -14.9706
   -14.9671 -14.9651 -14.9356 -14.9204 -14.9035 -14.8972 -14.8851 -14.8641
   -14.8035 -14.7274 -14.7243 -14.6981 -14.6732 -14.6718 -14.6352 -14.4498
   -14.4342 -14.3486 -14.3286 -13.9823 -13.9744 -13.9712 -13.9626 -13.9562
   -13.9426 -13.8963 -13.8885 -13.8484 -13.8366 -13.8154 -13.8098 -13.6734
   -13.6666 -13.5520 -13.5480 -13.5470 -13.5426 -13.5335 -13.5304 -13.5156
   -13.5100 -13.4832 -13.4788 -13.4184 -13.4113 -13.4078 -13.4019 -13.3725
   -13.3708 -13.2741 -13.2735 -13.2494 -13.2391 -13.0975 -13.0950 -13.0781
   -13.0689 -13.0540 -13.0464 -12.8992 -12.8941 -12.8605 -12.8599 -12.8422
   -12.8368 -12.8226 -12.8144 -12.7777 -12.7731 -12.7586 -12.7529 -12.7204
   -12.7198 -12.6193 -12.6173 -12.5406 -12.5392 -12.5128 -12.5119 -12.4418
   -12.4407 -12.2487 -12.2470 -12.1210 -12.1181 -12.0141 -12.0110 -11.9942
   -11.9918 -11.8666 -11.8657 -11.7887 -11.7874 -11.7599 -11.7464 -11.6866
   -11.6789 -11.6599 -11.6586 -11.6412 -11.6389 -11.6162 -11.6096 -11.5753
   -11.5716 -11.5331 -11.5316 -11.5078 -11.5047 -11.5025 -11.5011 -11.4582
   -11.4571 -11.4332 -11.4211 -11.3791 -11.3703 -11.3545 -11.3540 -11.3289
   -11.3233 -11.3024 -11.2967 -11.2658 -11.2637 -11.2455 -11.2430 -11.1843
   -11.1709 -11.1690 -11.1689 -11.1678 -11.1662 -11.1480 -11.1473 -10.7946
   -10.7883 -10.7839 -10.7722 -10.7644 -10.7620 -10.7570 -10.7550 -10.7327
   -10.7226 -10.7059 -10.7057 -10.6409 -10.6359 -10.5556 -10.5542 -10.5540
   -10.5411 -10.5031 -10.4949 -10.4942 -10.4838 -10.4698 -10.4669 -10.4444
   -10.4364 -10.4294 -10.4264 -10.4135 -10.4096 -10.4052 -10.4013 -10.3977
   -10.3897 -10.3446 -10.3383 -10.3274 -10.3247 -10.3136 -10.3095 -10.3024
   -10.2952 -10.2501 -10.2415 -10.2330 -10.2224 -10.2000 -10.1930 -10.1376
   -10.1362 -10.1256 -10.1210 -10.1165 -10.1085 -10.1001 -10.0975 -10.0869
   -10.0696 -10.0507 -10.0442 -10.0293 -10.0212  -9.9948  -9.9787  -9.9764
    -9.9703  -9.9530  -9.9461  -9.9407  -9.9320  -9.9044  -9.9037  -9.9011
    -9.8994  -9.8958  -9.8951  -9.8228  -9.8188  -9.8008  -9.7971  -9.7919
    -9.7892  -9.7818  -9.7773  -9.7467  -9.7394  -9.7240  -9.7169  -9.7126
    -9.6913  -9.6902  -9.6879  -9.6646  -9.6515  -9.6233  -9.6214  -9.6125
    -9.6048  -9.5598  -9.5541  -9.5145  -9.5062  -9.4998  -9.4823  -9.4795
    -9.4721  -9.4678  -9.4622  -9.4319  -9.4294  -9.3479  -9.3370  -9.3226
    -9.3081  -9.3024  -9.3013  -9.2970  -9.2946  -9.2849  -9.2763  -9.1984
    -9.1916  -9.1632  -9.1585  -9.1506  -9.1387  -9.1203  -9.1153  -9.1136
    -9.1079  -9.1053  -9.0995  -9.0956  -9.0892  -9.0830  -9.0821  -9.0628
    -9.0549  -9.0467  -9.0380  -9.0348  -9.0264  -9.0160  -9.0075  -8.9630
    -8.9592  -8.9482  -8.9438  -8.9289  -8.9211  -8.9126  -8.9122  -8.8255
    -8.8084  -8.6384  -8.6299  -8.6285  -8.6003  -8.5965  -8.5963  -8.5505
    -8.5373  -8.5150  -8.5083  -8.4744  -8.4688  -8.3818  -8.3780  -8.3316
    -8.3208  -8.3116  -8.3086  -8.2869  -8.2858  -8.2738  -8.2627  -8.2446
    -8.2375  -8.2320  -8.2299  -8.1835  -8.1809  -8.1578  -8.1508  -8.1370
    -8.1358  -8.1039  -8.0997  -8.0926  -8.0876  -8.0815  -8.0785  -8.0654
    -8.0649  -8.0555  -8.0534  -8.0490  -8.0438  -8.0391  -8.0371  -8.0294
    -8.0261  -7.9532  -7.9405  -7.8878  -7.8863  -7.8803  -7.8780  -7.8621
    -7.8618  -7.7764  -7.7706  -7.7012  -7.6994  -7.6139  -7.6074  -7.5875
    -7.5789  -7.5744  -7.5722  -7.5640  -7.5475  -7.4875  -7.4839  -7.4589
    -7.4584  -7.4169  -7.4099  -7.3851  -7.3787  -7.3703  -7.3629  -7.3357
    -7.3309  -7.3206  -7.3091  -7.2988  -7.2982  -7.2806  -7.2740  -7.2687
    -7.2674  -7.2663  -7.2645  -7.1901  -7.1841  -7.1309  -7.1182  -7.0052
    -6.9881  -6.9653  -6.9575  -6.9520  -6.9452  -6.9374  -6.9307  -6.9240
    -6.9204  -6.8518  -6.8328  -6.8144  -6.8141  -6.7777  -6.7638  -6.7572
    -6.7430  -6.7319  -6.7108  -6.6729  -6.6723  -6.6691  -6.6502  -6.6434
    -6.6371  -6.5989  -6.5913  -6.5346  -6.5226  -6.4710  -6.4687  -6.4570
    -6.4521  -6.4074  -6.4069  -6.3999  -6.3985  -6.3943  -6.3935  -6.3891
    -6.3877  -6.3798  -6.3695  -6.3430  -6.3425  -6.3277  -6.3117  -6.2140
    -6.2063  -6.0635  -6.0602  -6.0121  -6.0091  -6.0017  -5.9949  -5.9404
    -5.8881  -5.8648  -5.8557  -5.7664  -5.7625  -5.7279  -5.6814  -5.6114
    -5.6060  -5.5443  -5.5325  -5.5295  -5.5021  -5.4826  -5.4818  -5.4275
    -5.4109  -5.3653  -5.3485  -5.3186  -5.3071  -5.2927  -5.2916  -5.2900
    -5.2858  -5.2506  -5.2297  -5.2196  -5.2045  -5.1742  -5.1626  -5.1285
    -5.1159  -5.0815  -5.0736  -5.0219  -4.9731  -4.9423  -4.9418  -4.8791
    -4.8577  -4.8236  -4.8181  -4.8062  -4.7404  -4.6531  -4.5797  -4.5565
    -4.5457  -4.5200  -4.5166  -4.4762  -4.4674  -4.4056  -4.4026  -4.2109
    -4.0581  -4.0428  -3.9779  -3.9498  -3.8732  -3.8415  -3.7962  -3.5937
    -3.5337  -3.4679  -3.3392  -2.5868

     occupation numbers 
     1.0000   1.0000   1.0000   1.0000   1.0000   1.0000   1.0000   1.0000
     1.0000   1.0000   1.0000   1.0000   1.0000   1.0000   1.0000   1.0000
     1.0000   1.0000   1.0000   1.0000   1.0000   1.0000   1.0000   1.0000
     1.0000   1.0000   1.0000   1.0000   1.0000   1.0000   1.0000   1.0000
     1.0000   1.0000   1.0000   1.0000   1.0000   1.0000   1.0000   1.0000
     1.0000   1.0000   1.0000   1.0000   1.0000   1.0000   1.0000   1.0000
     1.0000   1.0000   1.0000   1.0000   1.0000   1.0000   1.0000   1.0000
     1.0000   1.0000   1.0000   1.0000   1.0000   1.0000   1.0000   1.0000
     1.0000   1.0000   1.0000   1.0000   1.0000   1.0000   1.0000   1.0000
     1.0000   1.0000   1.0000   1.0000   1.0000   1.0000   1.0000   1.0000
     1.0000   1.0000   1.0000   1.0000   1.0000   1.0000   1.0000   1.0000
     1.0000   1.0000   1.0000   1.0000   1.0000   1.0000   1.0000   1.0000
     1.0000   1.0000   1.0000   1.0000   1.0000   1.0000   1.0000   1.0000
     1.0000   1.0000   1.0000   1.0000   1.0000   1.0000   1.0000   1.0000
     1.0000   1.0000   1.0000   1.0000   1.0000   1.0000   1.0000   1.0000
     1.0000   1.0000   1.0000   1.0000   1.0000   1.0000   1.0000   1.0000
     1.0000   1.0000   1.0000   1.0000   1.0000   1.0000   1.0000   1.0000
     1.0000   1.0000   1.0000   1.0000   1.0000   1.0000   1.0000   1.0000
     1.0000   1.0000   1.0000   1.0000   1.0000   1.0000   1.0000   1.0000
     1.0000   1.0000   1.0000   1.0000   1.0000   1.0000   1.0000   1.0000
     1.0000   1.0000   1.0000   1.0000   1.0000   1.0000   1.0000   1.0000
     1.0000   1.0000   1.0000   1.0000   1.0000   1.0000   1.0000   1.0000
     1.0000   1.0000   1.0000   1.0000   1.0000   1.0000   1.0000   1.0000
     1.0000   1.0000   1.0000   1.0000   1.0000   1.0000   1.0000   1.0000
     1.0000   1.0000   1.0000   1.0000   1.0000   1.0000   1.0000   1.0000
     1.0000   1.0000   1.0000   1.0000   1.0000   1.0000   1.0000   1.0000
     1.0000   1.0000   1.0000   1.0000   1.0000   1.0000   1.0000   1.0000
     1.0000   1.0000   1.0000   1.0000   1.0000   1.0000   1.0000   1.0000
     1.0000   1.0000   1.0000   1.0000   1.0000   1.0000   1.0000   1.0000
     1.0000   1.0000   1.0000   1.0000   1.0000   1.0000   1.0000   1.0000
     1.0000   1.0000   1.0000   1.0000   1.0000   1.0000   1.0000   1.0000
     1.0000   1.0000   1.0000   1.0000   1.0000   1.0000   1.0000   1.0000
     1.0000   1.0000   1.0000   1.0000   1.0000   1.0000   1.0000   1.0000
     1.0000   1.0000   1.0000   1.0000   1.0000   1.0000   1.0000   1.0000
     1.0000   1.0000   1.0000   1.0000   1.0000   1.0000   1.0000   1.0000
     1.0000   1.0000   1.0000   1.0000   1.0000   1.0000   1.0000   1.0000
     1.0000   1.0000   1.0000   1.0000   1.0000   1.0000   1.0000   1.0000
     1.0000   1.0000   1.0000   1.0000   1.0000   1.0000   1.0000   1.0000
     1.0000   1.0000   1.0000   1.0000   1.0000   1.0000   1.0000   1.0000
     1.0000   1.0000   1.0000   1.0000   1.0000   1.0000   1.0000   1.0000
     1.0000   1.0000   1.0000   1.0000   1.0000   1.0000   1.0000   1.0000
     1.0000   1.0000   1.0000   1.0000   1.0000   1.0000   1.0000   1.0000
     1.0000   1.0000   1.0000   1.0000   1.0000   1.0000   1.0000   1.0000
     1.0000   1.0000   1.0000   1.0000   1.0000   1.0000   1.0000   1.0000
     1.0000   1.0000   1.0000   1.0000   1.0000   1.0000   1.0000   1.0000
     1.0000   1.0000   1.0000   1.0000   1.0000   1.0000   1.0000   1.0000
     1.0000   1.0000   1.0000   1.0000   1.0000   1.0000   1.0000   1.0000
     1.0000   1.0000   1.0000   1.0000   1.0000   1.0000   1.0000   1.0000
     1.0000   1.0000   1.0000   1.0000   1.0000   1.0000   1.0000   1.0000
     1.0000   1.0000   1.0000   1.0000   1.0000   1.0000   1.0000   1.0000
     1.0000   1.0000   1.0000   1.0000   1.0000   1.0000   1.0000   1.0000
     1.0000   1.0000   1.0000   1.0000   1.0000   1.0000   1.0000   1.0000
     1.0000   1.0000   1.0000   1.0000   1.0000   1.0000   1.0000   1.0000
     1.0000   1.0000   1.0000   1.0000   1.0000   1.0000   1.0000   1.0000
     1.0000   1.0000   1.0000   1.0000   1.0000   1.0000   1.0000   1.0000
     1.0000   1.0000   1.0000   1.0000   1.0000   1.0000   1.0000   1.0000
     1.0000   1.0000   1.0000   1.0000   1.0000   1.0000   1.0000   1.0000
     1.0000   1.0000   1.0000   1.0000   1.0000   1.0000   1.0000   1.0000
     1.0000   1.0000   1.0000   1.0000   1.0000   1.0000   1.0000   1.0000
     1.0000   1.0000   1.0000   1.0000   1.0000   1.0000   1.0000   1.0000
     1.0000   1.0000   1.0000   1.0000   1.0000   1.0000   1.0000   1.0000
     1.0000   1.0000   1.0000   1.0000   1.0000   1.0000   1.0000   1.0000
     1.0000   1.0000   1.0000   1.0000   1.0000   1.0000   1.0000   1.0000
     1.0000   1.0000   1.0000   1.0000   1.0000   1.0000   1.0000   1.0000
     1.0000   1.0000   1.0000   1.0000   1.0000   1.0000   1.0000   1.0000
     1.0000   1.0000   1.0000   1.0000   1.0000   1.0000   1.0000   1.0000
     1.0000   1.0000   1.0000   1.0000   1.0000   1.0000   1.0000   1.0000
     1.0000   1.0000   1.0000   1.0000   1.0000   1.0000   1.0000   1.0000
     1.0000   1.0000   1.0000   1.0000   1.0000   1.0000   1.0000   1.0000
     1.0000   1.0000   1.0000   1.0000   1.0000   1.0000   1.0000   1.0000
     1.0000   1.0000   1.0000   1.0000   1.0000   1.0000   1.0000   1.0000
     1.0000   1.0000   1.0000   1.0000   1.0000   1.0000   1.0000   1.0000
     1.0000   1.0000   1.0000   1.0000   1.0000   1.0000   1.0000   1.0000
     1.0000   1.0000   1.0000   1.0000   1.0000   1.0000   1.0000   1.0000
     1.0000   1.0000   1.0000   1.0000   1.0000   1.0000   1.0000   1.0000
     1.0000   1.0000   1.0000   1.0000   1.0000   1.0000   1.0000   1.0000
     1.0000   1.0000   1.0000   1.0000   1.0000   1.0000   1.0000   1.0000
     1.0000   1.0000   1.0000   1.0000   1.0000   1.0000   1.0000   1.0000
     1.0000   1.0000   1.0000   1.0000   1.0000   1.0000   1.0000   1.0000
     1.0000   1.0000   1.0000   1.0000   1.0000   1.0000   1.0000   1.0000
     1.0000   1.0000   1.0000   1.0000   1.0000   1.0000   1.0000   1.0000
     1.0000   1.0000   1.0000   1.0000   1.0000   1.0000   1.0000   1.0000
     1.0000   1.0000   1.0000   1.0000   1.0000   1.0000   1.0000   1.0000
     1.0000   1.0000   1.0000   1.0000   1.0000   1.0000   1.0000   1.0000
     1.0000   1.0000   1.0000   1.0000   1.0000   1.0000   1.0000   1.0000
     1.0000   1.0000   1.0000   1.0000   1.0000   1.0000   1.0000   1.0000
     1.0000   1.0000   1.0000   1.0000   1.0000   1.0000   1.0000   1.0000
     1.0000   1.0000   1.0000   1.0000   1.0000   1.0000   1.0000   1.0000
     1.0000   1.0000   1.0000   1.0000   1.0000   1.0000   1.0000   1.0000
     1.0000   1.0000   1.0000   1.0000   1.0000   1.0000   1.0000   1.0000
     1.0000   1.0000   1.0000   1.0000   1.0000   1.0000   1.0000   1.0000
     1.0000   1.0000   1.0000   0.0000

     highest occupied, lowest unoccupied level (ev):    -3.2573   -2.6415

!    total energy              =   -4165.39248829 Ry
     estimated scf accuracy    <       0.00000005 Ry

     The total energy is the sum of the following terms:
     one-electron contribution =  -74539.47680781 Ry
     hartree contribution      =   37451.30590035 Ry
     xc contribution           =   -1280.43266485 Ry
     ewald contribution        =   34203.21108403 Ry

     convergence has been achieved in  22 iterations

     Writing all to output data dir ./CNT_PBE.save/

     init_run     :     66.86s CPU     67.72s WALL (       1 calls)
     electrons    :   5731.52s CPU   5920.64s WALL (       1 calls)

     Called by init_run:
     wfcinit      :     59.17s CPU     58.86s WALL (       1 calls)
     wfcinit:wfcr :     58.87s CPU     58.51s WALL (       1 calls)
     potinit      :      0.54s CPU      1.10s WALL (       1 calls)
     hinit0       :      1.73s CPU      2.24s WALL (       1 calls)

     Called by electrons:
     c_bands      :   5667.68s CPU   5875.78s WALL (      22 calls)
     sum_band     :     61.49s CPU     40.99s WALL (      22 calls)
     v_of_rho     :      1.62s CPU      2.94s WALL (      23 calls)
     v_h          :      0.23s CPU      0.43s WALL (      23 calls)
     v_xc         :      1.39s CPU      2.51s WALL (      23 calls)
     mix_rho      :      0.45s CPU      0.44s WALL (      22 calls)

     Called by c_bands:
     init_us_2    :      8.63s CPU      4.52s WALL (      45 calls)
     init_us_2:cp :      8.63s CPU      4.52s WALL (      45 calls)
     cegterg      :   5657.10s CPU   5857.18s WALL (      22 calls)

     Called by sum_band:
     sum_band:wei :      0.00s CPU      0.00s WALL (      22 calls)
     sum_band:loo :     61.04s CPU     40.10s WALL (      22 calls)
     sum_band:buf :      0.00s CPU      0.00s WALL (      22 calls)
     sum_band:ini :      4.25s CPU      2.16s WALL (      22 calls)

     Called by *egterg:
     cdiaghg      :    294.62s CPU    488.07s WALL (     209 calls)
     cegterg:over :    853.02s CPU    909.44s WALL (     187 calls)
     cegterg:upda :    554.25s CPU    575.49s WALL (     187 calls)
     cegterg:last :    401.06s CPU    414.44s WALL (      25 calls)
     cdiaghg:chol :      9.17s CPU     47.10s WALL (     209 calls)
     cdiaghg:inve :      1.36s CPU      3.85s WALL (     209 calls)
     cdiaghg:para :    119.30s CPU    175.12s WALL (     418 calls)
     h_psi        :   3534.01s CPU   3440.07s WALL (     210 calls)
     g_psi        :      0.61s CPU      0.34s WALL (     187 calls)

     Called by h_psi:
     h_psi:calbec :   1594.02s CPU   1615.69s WALL (     210 calls)
     vloc_psi     :    355.73s CPU    239.20s WALL (     210 calls)
     add_vuspsi   :   1581.77s CPU   1582.71s WALL (     210 calls)

     General routines
     calbec       :   1594.02s CPU   1615.69s WALL (     210 calls)
     fft          :      2.45s CPU      4.39s WALL (     229 calls)
     ffts         :      0.16s CPU      0.16s WALL (      22 calls)
     fftw         :    399.76s CPU    269.94s WALL (  114420 calls)

     Parallel routines

     PWSCF        :      1h36m CPU      1h40m WALL


   This run was terminated on:  23: 0:57  16May2024            

=------------------------------------------------------------------------------=
   JOB DONE.
=------------------------------------------------------------------------------=
Note: The following floating-point exceptions are signalling: IEEE_DENORMAL
Note: The following floating-point exceptions are signalling: IEEE_DENORMAL
Note: The following floating-point exceptions are signalling: IEEE_DENORMAL
Note: The following floating-point exceptions are signalling: IEEE_DENORMAL
Note: The following floating-point exceptions are signalling: IEEE_UNDERFLOW_FLAG IEEE_DENORMAL
Note: The following floating-point exceptions are signalling: IEEE_UNDERFLOW_FLAG IEEE_DENORMAL
Note: The following floating-point exceptions are signalling: IEEE_DENORMAL
Note: The following floating-point exceptions are signalling: IEEE_DENORMAL
Note: The following floating-point exceptions are signalling: IEEE_DENORMAL
Note: The following floating-point exceptions are signalling: IEEE_DENORMAL
Note: The following floating-point exceptions are signalling: IEEE_DENORMAL
Note: The following floating-point exceptions are signalling: IEEE_DENORMAL
Note: The following floating-point exceptions are signalling: IEEE_DENORMAL
Note: The following floating-point exceptions are signalling: IEEE_DENORMAL
Note: The following floating-point exceptions are signalling: IEEE_INVALID_FLAG IEEE_DENORMAL
Note: The following floating-point exceptions are signalling: IEEE_INVALID_FLAG IEEE_DENORMAL
Note: The following floating-point exceptions are signalling: IEEE_DENORMAL
Note: The following floating-point exceptions are signalling: IEEE_DENORMAL
Note: The following floating-point exceptions are signalling: IEEE_DENORMAL
Note: The following floating-point exceptions are signalling: IEEE_DENORMAL
Note: The following floating-point exceptions are signalling: IEEE_DENORMAL
Note: The following floating-point exceptions are signalling: IEEE_DENORMAL
Note: The following floating-point exceptions are signalling: IEEE_DENORMAL
Note: The following floating-point exceptions are signalling: IEEE_DENORMAL
Note: The following floating-point exceptions are signalling: IEEE_DENORMAL
Note: The following floating-point exceptions are signalling: IEEE_DENORMAL
Note: The following floating-point exceptions are signalling: IEEE_DENORMAL
Note: The following floating-point exceptions are signalling: IEEE_DENORMAL
Note: The following floating-point exceptions are signalling: IEEE_DENORMAL
Note: The following floating-point exceptions are signalling: IEEE_DENORMAL
Note: The following floating-point exceptions are signalling: IEEE_DENORMAL
Note: The following floating-point exceptions are signalling: IEEE_DENORMAL
Note: The following floating-point exceptions are signalling: IEEE_DENORMAL
Note: The following floating-point exceptions are signalling: IEEE_DENORMAL
Note: The following floating-point exceptions are signalling: IEEE_DENORMAL
Note: The following floating-point exceptions are signalling: IEEE_DENORMAL
Note: The following floating-point exceptions are signalling: IEEE_DENORMAL
