&CONTROL
   pseudo_dir       = './'
   verbosity        = 'high'
   prefix           = 'CNT_PBE'
/
&SYSTEM
   nbnd             = 732
   ecutwfc          = 60.0
   ntyp             = 2
   nat              = 365
   ibrav            = 0
/
&ELECTRONS
   electron_maxstep = 100
   conv_thr         = 7.35e-08
   mixing_mode      = 'plain'
   mixing_beta      = 0.7
   mixing_ndim      = 8
   diagonalization  = 'david'
   diago_david_ndim = 4
   diago_full_acc   = .true.
/
&IONS
/
&CELL
/

ATOMIC_SPECIES
C 12.011 C_ONCV_PBE-1.2.upf
Se 78.96 Se_ONCV_PBE-1.2.upf

K_POINTS CRYSTAL
2
0.00000 0.00000 0.00000 1.0
0.00000 0.00000 0.50000 1.0

CELL_PARAMETERS angstrom
32.3722991943000 0.00000000000000 0.00000000000000
0.00000000000000 19.92218961916977 0.00000000000000
0.00000000000000 0.00000000000000 40.44962340753452

ATOMIC_POSITIONS angstrom
C     12.008579107        10.724297231         0.099515085
C     11.938378605        10.834028050         2.543900697
C     10.943712625        11.853667836         2.471203729
C     10.375061929        12.180774016         1.211115419
C      8.993334205        12.526856176         1.137832680
C     11.864120281        10.941148945         4.988175221
C     10.834983080        11.926229198         4.915651988
C     10.255495126        12.233435595         3.655712851
C      8.862548095        12.531506069         3.582261425
C      8.208092712        12.488631113         2.322186525
C      6.866199365        12.011094490         2.248960668
C      6.331644112        11.631196116         0.988666829
C      5.439548587        10.520666126         0.915282154
C     11.785044863        11.045309630         7.432527194
C     10.723213546        11.995053785         7.360254694
C     10.133843456        12.282036236         6.100137754
C      8.731696381        12.532068901         6.026711642
C      8.079197069        12.466497814         4.766630263
C      6.754582264        11.942649874         4.693549511
C      6.233500021        11.544531899         3.433335835
C      5.380296291        10.403897535         3.359765672
C      5.145321808         9.791708164         2.099542804
C      5.017094267         8.373123967         2.025860987
C      5.138594469         7.728529023         0.765661323
C      5.773914610         6.453671159         0.692342195
C     11.702115189        11.146747586         9.876191762
C     10.609593583        12.060034730         9.804589489
C     10.010700252        12.327198141         8.544692543
C      8.600437535        12.528917518         8.471362264
C      7.950868228        12.440506623         7.211356828
C      6.645076562        11.870764147         7.138247146
C      6.138262780        11.454627244         5.877965060
C      5.325037660        10.285201780         5.804220108
C      5.111427519         9.665189166         4.544018184
C      5.032103190         8.242953687         4.470545964
C      5.175745338         7.603099473         3.210121334
C      5.854416440         6.350890837         3.136582513
C      6.312581228         5.881394753         1.876523435
C      7.547512006         5.171617598         1.802678883
C      8.184171248         5.012483449         0.542782916
C      9.607884784         5.056722144         0.469756673
C     12.010930251        10.718468241        13.577512955
C     11.620352887        11.247585901        12.319919615
C     10.495264515        12.122897338        12.248994804
C      9.886952137        12.368318107        10.990451573
C      8.469545300        12.520418046        10.916882013
C      7.823517663        12.409600748         9.656336538
C      6.538413071        11.795239012         9.582907412
C      6.046283567        11.361707758         8.322525274
C      5.274318270        10.164540863         8.248694735
C      5.082330065         9.537457229         6.988574782
C      5.052298231         8.113311210         6.915324063
C      5.217252624         7.478831802         5.654741218
C      5.938522650         6.250626634         5.580935993
C      6.412563688         5.797446140         4.320837437
C      7.671228284         5.130734520         4.247004186
C      8.313014311         4.993890409         2.986937875
C      9.734250319         5.087368571         2.913795645
C     10.352557711         5.307488034         1.654012463
C     11.513517185         6.132830341         1.580502573
C     11.924586257         6.644434315         0.320759962
C     12.480489451         7.955922553         0.248038188
C     11.964072352        10.837711392        16.018594855
C     11.543722195        11.346516050        14.768584975
C     10.378428975        12.174087717        14.695888158
C      9.761794494        12.399605141        13.436671083
C      8.340832481        12.502657973        13.362550635
C      7.698127992        12.372903880        12.101219208
C      6.434117608        11.715783554        12.027435079
C      5.957206863        11.266034671        10.767218690
C      5.227253910        10.042466929        10.693311605
C      5.057699494         9.408939822         9.433042779
C      5.077437718         7.984733245         9.359922248
C      5.263981727         7.356224722         8.099592547
C      6.027003609         6.153336890         8.025731269
C      6.515753043         5.716773588         6.765222560
C      7.796221434         5.093506287         6.691457115
C      8.442195044         4.978940339         5.431186481
C      9.859387702         5.121272060         5.357774834
C     10.469876600         5.363024329         4.098196729
C     11.601705818         6.227851540         4.024678099
C     11.994934369         6.753679484         2.764960463
C     12.505398840         8.083407508         2.692363397
C     12.564814182         8.737109283         1.432538627
C     12.301156130        10.136949045         1.359330851
C     11.902659936        10.947629822        18.471121257
C     11.448962515        11.418084739        17.217057463
C     10.254716557        12.194407844        17.141225282
C      9.633791745        12.413792301        15.880116863
C      8.210754512        12.478330342        15.806530427
C      7.572938994        12.331146276        14.546153713
C      6.330049348        11.632999790        14.472018799
C      5.870670880        11.166516755        13.211466091
C      5.183983024         9.918706875        13.137614457
C      5.036883141         9.279752717        11.877331768
C      5.106554949         7.856902160        11.804379396
C      5.315400575         7.235293669        10.544258238
C      6.119391402         6.059509037        10.470522326
C      6.622412675         5.639454279         9.209726118
C      7.923130134         5.059494150         9.136134257
C      8.572182324         4.967348855         7.875817213
C      9.983656792         5.158235501         7.802081905
C     10.585019934         5.421894869         6.542203643
C     11.685973627         6.325376985         6.468658795
C     12.061237202         6.864715266         5.209090936
C     12.525266342         8.211472512         5.136407378
C     12.562498734         8.867036738         3.876945599
C     12.250968811        10.257061379         3.803747919
C     11.787083421        10.996211465        20.924681932
C     11.347862369        11.479607950        19.645094029
C     10.133077429        12.230157160        19.578579944
C      9.505373180        12.426051109        18.323010548
C      8.078163318        12.454387432        18.250094340
C      7.447091541        12.283671298        16.990082876
C      6.229013359        11.546190709        16.916108287
C      5.785526578        11.064804507        15.655265066
C      5.142497927         9.793486902        15.582022182
C      5.019093753         9.149828824        14.321863654
C      5.138404409         7.730224643        14.248928159
C      5.369997857         7.116300468        12.988615334
C      6.213881429         5.969002365        12.915019254
C      6.731387271         5.566058168        11.654828180
C      8.051484059         5.030254209        11.581860137
C      8.703238570         4.960290303        10.320791498
C     10.106795173         5.199275910        10.246599928
C     10.698668840         5.483074325         8.986401018
C     11.767459041         6.424847999         8.912613875
C     12.123146473         6.977504256         7.653322666
C     12.539798668         8.339717409         7.580241311
C     12.554421682         8.996493386         6.320917555
C     12.195263973        10.374773960         6.247978443
C     11.706548306        11.137661534        23.366068810
C     11.245385496        11.586859460        22.103472871
C     10.013913899        12.297924953        22.026613650
C      9.377791070        12.445458118        20.763106394
C      7.956239583        12.422357080        20.692240648
C      7.326075654        12.234100544        19.432411208
C      6.130870715        11.456667212        19.359953069
C      5.703414546        10.960833808        18.100277925
C      5.105326798         9.667090801        18.027413551
C      5.004971936         9.019282729        16.766491976
C      5.173109587         7.605206530        16.693376869
C      5.425396380         6.999150718        15.433289463
C      6.308604930         5.880978566        15.360057428
C      6.842211331         5.497342228        14.100091771
C      8.180084483         5.008722926        14.027758999
C      8.834224387         4.958885599        12.766194921
C     10.229143406         5.245702406        12.691894861
C     10.810676672         5.548497579        11.431706198
C     11.845651695         6.527351061        11.357115625
C     12.180915918         7.092377149        10.097060766
C     12.548980381         8.467976555        10.022968042
C     12.541569021         9.125048790         8.764255447
C     12.135240826        10.490570063         8.691852759
C     11.621653396        11.245777478        25.809772555
C     11.147372613        11.696462039        24.549327131
C      9.891035042        12.362255198        24.472434157
C      9.251142858        12.493213324        23.208938956
C      7.828465002        12.405406820        23.137099210
C      7.209085751        12.183961021        21.878326945
C      6.045037567        11.363841532        21.805452928
C      5.631471188        10.852511255        20.544964108
C      5.077314709         9.540521338        20.472362521
C      4.995544689         8.889994100        19.211833921
C      5.211573508         7.480412243        19.138920124
C      5.484656877         6.884216080        17.878557876
C      6.405009059         5.797223501        17.805676626
C      6.951789391         5.431984281        16.544905732
C      8.306838820         4.994469271        16.472453620
C      8.963735071         4.967235457        15.213325748
C     10.347928746         5.307612712        15.140524057
C     10.919121610         5.624595639        13.877008363
C     11.918547764         6.636064864        13.800533679
C     12.236141265         7.209235984        12.540410110
C     12.555009227         8.597894511        12.464246430
C     12.523876109         9.253683157        11.206843552
C     12.072023327        10.604649174        11.135663185
C     11.533171473        11.342965698        28.253059215
C     11.044682527        11.780661195        26.992715049
C      9.764497778        12.405299953        26.917815882
C      9.119307079        12.518923098        25.657346350
C      7.702380697        12.376209626        25.583809337
C      7.092719571        12.133263417        24.322585195
C      5.960229486        11.269368915        24.249976376
C      5.564770387        10.743988031        22.990261452
C      5.055019364         9.413465037        22.917734603
C      4.995395150         8.759545966        21.657602595
C      5.258553933         7.360050553        21.584219879
C      5.548380397         6.771868806        20.323480326
C      6.505776360         5.715869970        20.250806413
C      7.061633727         5.369590106        18.990939603
C      8.433925038         4.982716299        18.918927479
C      9.091226492         4.989479779        17.658778595
C     10.455124307         5.390973557        17.587124488
C     11.017620737         5.721458509        16.323097685
C     11.979792309         6.768466286        16.246641083
C     12.284892043         7.335756169        14.984147607
C     12.559061260         8.730360052        14.903861303
C     12.503161539         9.384179381        13.645651981
C     11.443073561        11.437495310        30.696803945
C     10.938829925        11.857512665        29.437224031
C      9.637539875        12.436974082        29.363436286
C      8.988142779        12.529545657        28.102875139
C      7.577320496        12.338016623        28.029058463
C      6.976297918        12.075816580        26.768241762
C      5.875520777        11.171383944        26.695237556
C      5.501054585        10.632368044        25.435175464
C      5.037338030         9.285803752        25.362475031
C      4.999736131         8.630411106        24.102217657
C      5.310842521         7.240232696        24.028813243
C      5.621323258         6.662821934        22.768828299
C      6.615078495         5.641838002        22.696147153
C      7.182077023         5.314469404        21.435185798
C      8.564501793         4.973340222        21.361489667
C      9.217669208         4.997254338        20.101333550
C     10.571546925         5.449357853        20.027942396
C     11.112024416         5.822408441        18.771659377
C     12.047274090         6.901447162        18.705486432
C     12.320419687         7.493864397        17.425545334
C     12.601758108         8.866149150        17.331887020
C     12.505778959         9.515066856        16.082745062
C     11.349439767        11.527871367        33.141108002
C     10.830613638        11.929969536        31.881255657
C      9.510087044        12.463334557        31.808048937
C      8.857731000        12.534112431        30.547791563
C      7.453734462        12.293921011        30.474042391
C      6.862155532        12.011347408        29.213910383
C      5.793663445        11.069668133        29.140551777
C      5.438519660        10.518425486        27.879807402
C      5.021397140         9.156535902        27.806834538
C      5.007350576         8.500633264        26.546830307
C      5.366617787         7.122188828        26.473327047
C      5.698086123         6.556177784        25.213190217
C      6.726582235         5.570821458        25.140072700
C      7.304486037         5.262721536        23.879567004
C      8.699012878         4.967258908        23.805338065
C      9.351611080         5.016018959        22.545061404
C     10.690740362         5.501632336        22.471384559
C     11.217928151         5.894794067        21.209569749
C     12.126814528         6.991478277        21.133848468
C     12.418796288         7.575171618        19.879234991
C     12.809833847         8.995134397        19.825186420
C     12.699427533         9.709029485        18.524163281
C     11.252807470        11.614903680        35.585484385
C     10.720616385        11.998914051        34.325494620
C      9.382050528        12.485923821        34.252507291
C      8.727519893        12.533600658        32.992621194
C      7.332706998        12.244924962        32.918838270
C      6.750807603        11.942072793        31.658665277
C      5.714996124        10.964590769        31.585364531
C      5.378855408        10.401807696        30.324815439
C      5.008990684         9.026196416        30.251439956
C      5.018175292         8.370468328        28.991295894
C      5.424892771         7.005457640        28.917758881
C      5.776369948         6.451592006        27.657491863
C      6.838757455         5.502317471        27.584333360
C      7.428323876         5.215312460        26.324273679
C      8.830785947         4.965402988        26.250097780
C      9.483008853         5.033021465        24.989020703
C     10.808615924         5.554965989        24.915126878
C     11.330447311         5.952907633        23.655510801
C     12.197078705         7.089504808        23.582634372
C     12.446724441         7.699445227        22.332131465
C     12.569692057         9.123623306        22.267480999
C     12.466591944         9.770984319        21.017807438
C     11.152834175        11.698243152        38.030010244
C     10.607722895        12.063671763        36.770013246
C      9.253138002        12.504138672        36.697004219
C      8.597381144        12.528916331        35.437026508
C      7.213522244        12.192181452        35.363277337
C      6.642282589        11.869494807        34.103176670
C      5.640360576        10.856990161        34.030006113
C      5.323367643        10.282815088        32.769816244
C      5.001213676         8.895381967        32.696074305
C      5.032880312         8.240391853        31.435732550
C      5.486537213         6.890109784        31.362407695
C      5.857166516         6.348970797        30.102145499
C      6.951521667         5.437042643        30.028965298
C      7.551184402         5.170655797        28.768758553
C      8.961056870         4.968291063        28.694818921
C      9.611066594         5.055176732        27.434525384
C     10.918494509         5.623285333        27.361518767
C     11.426393657         6.038100057        26.102838116
C     12.240146989         7.208508696        26.031451618
C     12.456126122         7.828976681        24.773612368
C     12.527631958         9.249470231        24.705179213
C     12.385950704         9.889159395        23.446218898
C     11.049745638        11.777741357         0.026646364
C     10.492566054        12.124337665        39.214565625
C      9.123648542        12.517861555        39.141423998
C      8.467478764        12.520224498        37.881427000
C      7.095923089        12.135888777        37.807793552
C      6.536260188        11.793506583        36.547719405
C      5.569940588        10.747021860        36.474577779
C      5.272914530        10.162182669        35.214436127
C      4.998566830         8.764581766        35.140564001
C      5.052345505         8.110896021        33.880378953
C      5.552376474         6.777140307        33.807179465
C      5.941347979         6.249069348        32.546871462
C      7.066791868         5.375946899        32.473544197
C      7.674812886         5.130168126        31.213376026
C      9.091235175         4.977066905        31.139884820
C      9.737752433         5.086769523        29.879940861
C     11.023339891         5.700618892        29.807344096
C     11.515836491         6.133624717        28.547477287
C     12.286437604         7.331040969        28.475222868
C     12.478761549         7.957762442        27.215638132
C     12.506810298         9.382056888        27.144352892
C     12.341364837        10.016105267        25.886299073
C      8.337756795        12.506708224        40.325858834
C      6.980238037        12.075378426        40.252432722
C      6.432818063        11.714013128        38.992189814
C      5.503066612        10.634931660        38.918963806
C      5.226393335        10.040164544        37.658896892
C      5.000491546         8.633856966        37.585031998
C      5.076964016         7.982452233        36.324928921
C      5.622726515         6.666850812        36.251794527
C      6.029504774         6.152509266        34.991508222
C      7.184490877         5.318825413        34.917992907
C      7.800732215         5.094535176        33.657974211
C      9.221382607         4.990842331        33.584779545
C      9.863596992         5.123246721        32.324567978
C     11.126841349         5.781015965        32.251787985
C     11.603858219         6.230671042        30.991752413
C     12.333770170         7.454037519        30.918803657
C     12.503257051         8.087265993        29.659416615
C     12.483710817         9.511800294        29.587171840
C     12.295309626        10.140136050        28.327953560
C      5.183905842         9.916626535        40.103249167
C      5.006710451         8.503335807        40.029425258
C      5.105776863         7.854868723        38.769290839
C      5.696587354         6.558846485        38.696139569
C      6.120983755         6.058783530        37.436026848
C      7.304093859         5.265503041        37.362337949
C      7.927820844         5.062829581        36.102312020
C      9.351117118         5.008601216        36.029240310
C      9.988355221         5.163159685        34.769067317
C     11.228442211         5.864180294        34.695998017
C     11.689441010         6.330432378        33.436133618
C     12.377153934         7.577945999        33.362999224
C     12.524693269         8.216956560        32.103110716
C     12.456408799         9.639651565        32.030504307
C     12.247251553        10.261632903        30.770866532
C      6.215564952         5.968552931        39.880379123
C      7.425251084         5.216590111        39.806569679
C      8.055667783         5.035344037        38.546577503
C      9.480123227         5.030388980        38.473619104
C     10.111673048         5.207331885        37.213595586
C     11.326712687         5.950777422        37.140282786
C     11.771527474         6.432712207        35.880329185
C     12.415863388         7.702984298        35.807235776
C     12.541773552         8.346726089        34.547190560
C     12.424313806         9.766392015        34.474400923
C     12.193855409        10.380626698        33.214734218
C     10.233408653         5.255180303        39.657904465
C     11.422026145         6.040160211        39.584447011
C     11.850033679         6.537307483        38.324541627
C     12.450589309         7.828958870        38.251621803
C     12.554171807         8.476823937        36.991629627
C     12.387985403         9.891586459        36.918659173
C     12.136329087        10.497661269        35.658838171
C     12.561945921         8.607005498        39.436075926
C     12.346857271        10.015073409        39.362965641
C     12.074721788        10.612239091        38.103118118
Se    14.683556491         9.645726942        19.171948132

