Ge Se                                   
    1.000000000000000     
     3.8000000000000003    0.0000000000000000    0.0000000000000000
     0.0000000000000000    4.2999999999999998    0.0000000000000000
     0.0000000000000000    0.0000000000000000   11.1422209999999993
   Ge   Se
     4     4
Selective dynamics
Direct
  0.2500000000000000  0.1056218225579570  0.1236995335262208   T   T   T
  0.7500000000000000  0.6056218225579570  0.3763004664737792   T   T   T
  0.7500000000000000  0.8943781774420430  0.8763004664737792   T   T   T
  0.2500000000000000  0.3943781774420430  0.6236995335262208   T   T   T
  0.2500000000000000  0.0062186052662483  0.3541532308325230   T   T   T
  0.7500000000000000  0.5062186052662483  0.1458467691674770   T   T   T
  0.7500000000000000  0.9937813947337517  0.6458467691674770   T   T   T
  0.2500000000000000  0.4937813947337517  0.8541532308325230   T   T   T
 
  0.00000000E+00  0.00000000E+00  0.00000000E+00
  0.00000000E+00  0.00000000E+00  0.00000000E+00
  0.00000000E+00  0.00000000E+00  0.00000000E+00
  0.00000000E+00  0.00000000E+00  0.00000000E+00
  0.00000000E+00  0.00000000E+00  0.00000000E+00
  0.00000000E+00  0.00000000E+00  0.00000000E+00
  0.00000000E+00  0.00000000E+00  0.00000000E+00
  0.00000000E+00  0.00000000E+00  0.00000000E+00
