Ge Se                                   
1.0
        3.8581001759         0.0000000000         0.0000000000
        0.0000000000         4.5265750885         0.0000000000
        0.0000000000         0.0000000000        11.0851764679
   Ge   Se
    4    4
Cartesian
     0.964525044         0.523461741         1.369465747
     2.893575132         4.003113381         9.715710638
     2.893575132         2.786749252         4.173122404
     0.964525044         1.739825837         6.912054064
     0.964525044         2.285689445         9.451554885
     2.893575132         2.240885374         1.633621252
     2.893575132         0.022402122         7.176209817
     0.964525044         4.504173188         3.908966982
