Ge Se                                   
    1.000000000000000     
     3.8000000000000003    0.0000000000000000    0.0000000000000000
     0.0000000000000000    4.6999999999999993    0.0000000000000000
     0.0000000000000000    0.0000000000000000   11.1422209999999993
   Ge   Se
     4     4
Selective dynamics
Direct
  0.2500000000000000  0.1144543527307746  0.1237488904404174   T   T   T
  0.7500000000000000  0.6144543527307746  0.3762511095595826   T   T   T
  0.7500000000000000  0.8855456472692254  0.8762511095595826   T   T   T
  0.2500000000000000  0.3855456472692254  0.6237488904404174   T   T   T
  0.2500000000000000  0.9819147168375437  0.3504863267544849   T   T   T
  0.7500000000000000  0.4819147168375437  0.1495136732455151   T   T   T
  0.7500000000000000  0.0180852831624563  0.6495136732455222   T   T   T
  0.2500000000000000  0.5180852831624563  0.8504863267544849   T   T   T
 
  0.00000000E+00  0.00000000E+00  0.00000000E+00
  0.00000000E+00  0.00000000E+00  0.00000000E+00
  0.00000000E+00  0.00000000E+00  0.00000000E+00
  0.00000000E+00  0.00000000E+00  0.00000000E+00
  0.00000000E+00  0.00000000E+00  0.00000000E+00
  0.00000000E+00  0.00000000E+00  0.00000000E+00
  0.00000000E+00  0.00000000E+00  0.00000000E+00
  0.00000000E+00  0.00000000E+00  0.00000000E+00
