Ge Se
 1.0000000000000000
     3.8000000000000003    0.0000000000000000    0.0000000000000000
     0.0000000000000000    4.6999999999999993    0.0000000000000000
     0.0000000000000000    0.0000000000000000   11.1422209999999993
 Ge  Se 
   4   4
Selective dynamics
Cartesian
  0.9500000000000001  0.5379354578346526  1.3788374857919101   T   T   T
  2.8500000000000001  2.8879354578346517  4.1922730142080908   T   T   T
  2.8500000000000001  4.1620645421653464  9.7633835142080869   T   T   T
  0.9500000000000001  1.8120645421653467  6.9499479857919075   T   T   T
  0.9500000000000001 -0.0850008308635501  3.9051961101766444   T   T   T
  2.8500000000000001  2.2649991691364493  1.6659143898233548   T   T   T
  2.8500000000000001  4.7850008308635497  7.2370248898233562   T   T   T
  0.9500000000000001  2.4350008308635500  9.4763066101766462   T   T   T
