 C  S  O 
 1.0000000000000000
    32.3722991942999982    0.0000000000000000    0.0000000000000000
     0.0000000000000000   19.9214134216000005    0.0000000000000000
     0.0000000000000000    0.0000000000000000   40.4480476378999967
 C   S   O  
 364   1   3
Cartesian
 12.0098877410264659 10.7241733765639964  0.0998589541706632
 11.9385299201287545 10.8341871194938903  2.5458299474169350
 10.9429967921176523 11.8530178000705479  2.4721583930574189
 10.3749380001845761 12.1794180549591307  1.2113045864903047
  8.9931022852271330 12.5247851380473634  1.1375465422243847
 11.8615366478418540 10.9419224832817612  4.9915301317603040
 10.8318018269230922 11.9261085392311497  4.9172873138891129
 10.2535755090015694 12.2325106793353076  3.6562875826346093
  8.8606396858664684 12.5299312647655476  3.5817751293832405
  8.2071703133523108 12.4867634855876162  2.3214372153623248
  6.8652263654733954 12.0094331219206456  2.2479601727365806
  6.3311087319738730 11.6294498646556406  0.9879435161044524
  5.4385951588557884 10.5193861192769536  0.9147648440998565
 11.7785673629390999 11.0472197424785694  7.4369045664022329
 10.7163902919500114 11.9961639606328436  7.3620519488193867
 10.1289939104581812 12.2822252501260358  6.1008420525108304
  8.7267546589499840 12.5317449614575889  6.0258260549428675
  8.0758665255136055 12.4653270699479926  4.7653277816612221
  6.7513556495097271 11.9417288081942203  4.6918137423586650
  6.2313395555155422 11.5433066953499672  3.4316817066513949
  5.3779148312010747 10.4030048509916604  3.3583105362325645
  5.1436170700294044  9.7905377946616774  2.0986150695745160
  5.0156762669501918  8.3719684149594666  2.0252965837693333
  5.1379189882408829  7.7271783260841422  0.7656738066965124
  5.7742054320079461  6.4528702005555569  0.6927103726987843
 11.6907420671992348 11.1503643143923110  9.8817675233667668
 10.5978780342592831 12.0636835081937743  9.8063804247108344
 10.0014609028416395 12.3291456401962964  8.5450318804855936
  8.5916429206839862 12.5307828706405804  8.4697986889963435
  7.9440253331160733 12.4408686243782647  7.2091005034430973
  6.6386587635149796 11.8710905203679804  7.1357229826873043
  6.1334215578442262 11.4542748189092158  5.8755657408068309
  5.3204149388908633 10.2847495364239752  5.8021477571147120
  5.1081019324728709  9.6643858366858701  4.5422821923008136
  5.0293041833930960  8.2422181801839756  4.4691522300204376
  5.1741422378618793  7.6021138416084684  3.2093185422736332
  5.8538123917505285  6.3504119837450901  3.1362550616255618
  6.3131842948201324  5.8811641477923686  1.8767911181731942
  7.5487226667736813  5.1724639535284824  1.8034553746105231
  8.1858601897245169  5.0136625191288422  0.5437538418113693
  9.6095671625700874  5.0583235136110662  0.4709770250403019
 11.9814249501133965 10.7223111237508331 13.5872949232652598
 11.5990388582255779 11.2516560119290467 12.3260401324116273
 10.4774742582811893 12.1293970552444357 12.2503671846061124
  9.8722960629606842 12.3737149218422040 10.9890396331813012
  8.4563240265250883 12.5270513249025921 10.9138943905373420
  7.8122737536918008 12.4136089960729361  9.6531107163402190
  6.5280012500665059 11.7977158613044075  9.5798995448081268
  6.0382904301908660 11.3624110509664042  8.3197228405645038
  5.2675794833001222 10.1645952259908334  8.2463998410580288
  5.0769075826071379  9.5371537260127184  6.9863970288403712
  5.0474449016473590  8.1130922364976286  6.9134524899243024
  5.2138459312002343  7.4783743853701301  5.6533933397870992
  5.9359417985737091  6.2506106570448576  5.5800566642645455
  6.4116697884242040  5.7976259596095359  4.3205444642118875
  7.6708448162482892  5.1318275777014914  4.2474919121896280
  8.3137422687373732  4.9952789926676067  2.9879838136901906
  9.7351005860655082  5.0890608835620021  2.9156722973061262
 10.3538904693609197  5.3091533332424650  1.6557929433107037
 11.5151274138178685  6.1341322564415437  1.5826535981484708
 11.9264965860686125  6.6452933641740222  0.3220443261284348
 12.4827157181084551  7.9566615543811947  0.2490973053478332
 11.9045009166474394 10.8339995553494965 16.0303918316385889
 11.5046618420763682 11.3508826521100978 14.7696908524566179
 10.3555013759009675 12.1923121567993658 14.6943629697637075
  9.7422874357539868 12.4161044668713565 13.4330719619409198
  8.3218118799906140 12.5203348101252132 13.3584155341881132
  7.6819621051441649 12.3831194560082380 12.0975881252444033
  6.4209415310888645 11.7208759440395127 12.0245003859227690
  5.9467841691795122 11.2680077052113070 10.7643710206625709
  5.2199134073280264 10.0429678886998630 10.6912512274396647
  5.0509182777795960  9.4091630667837265  9.4310828711121832
  5.0708682897679784  7.9849088674380519  9.3581921266338721
  5.2583068049371793  7.3562429101691587  8.0979482001166634
  6.0212487880206584  6.1534083532706401  8.0242632395594260
  6.5119256676340633  5.7169465891232996  6.7645098338620890
  7.7928675380027270  5.0941180086417654  6.6917045239078048
  8.4407246370927265  4.9803736560335983  5.4323196364502255
  9.8579608602535735  5.1231402165664051  5.3602954482154850
 10.4696712757189072  5.3648771080872955  4.1008963672516385
 11.6017367343531212  6.2295366946991129  4.0284019471276489
 11.9959777471412465  6.7547774481165330  2.7680792938937562
 12.5066744399151641  8.0845448882437818  2.6955662163563869
 12.5666028477101896  8.7376990890044635  1.4345669640944674
 12.3023410802351645 10.1373976643415276  1.3608099687464181
 11.8247740731320192 10.9412960259963672 18.4727491187169370
 11.4084652901648713 11.4465360907008602 17.2126736200335060
 10.2328613568704423 12.2502375893056712 17.1384453063604738
  9.6116487057013025 12.4543956802679201 15.8774434041968906
  8.1883859572538817 12.5091926016810078 15.8035153354882230
  7.5534210455789230 12.3490515493760373 14.5425959172296331
  6.3177246059595635 11.6403892785688878 14.4695175311628716
  5.8602751534821538 11.1701005282871897 13.2093873647813727
  5.1785197490711585  9.9194331852310285 13.1364849307690452
  5.0310960630724120  9.2802050732205590 11.8761126090167366
  5.0997068933224705  7.8574316004965539 11.8031947076995998
  5.3074508240005080  7.2354460809350476 10.5426923844224056
  6.1094864113613223  6.0583130140279193 10.4687012266583128
  6.6144825379784464  5.6387010988546722  9.2087001041867129
  7.9154559085371279  5.0587780682081167  9.1360108289121733
  8.5671135612757379  4.9681015239421935  7.8766417752734199
  9.9785650469467644  5.1600233044695010  7.8048479105017829
 10.5818834018331938  5.4238740708719071  6.5458489306516947
 11.6830048313829664  6.3277037147855619  6.4741134284487742
 12.0597961284155470  6.8665086259830685  5.2141190255716809
 12.5237982793070692  8.2132793487714189  5.1418138327201559
 12.5624078016035785  8.8681120426799414  3.8809875609915570
 12.2501645464161406 10.2579124310681937  3.8069346682936116
 11.7483333853134475 11.0473748751211822 20.9173908031467128
 11.3101324414679407 11.5351933595423848 19.6571648190308430
 10.1099486236831790 12.3006256944587840 19.5834700974072469
  9.4814816099479664 12.4848594518779379 18.3224614605169336
  8.0572424405044920 12.4904833960078179 18.2492329777737012
  7.4276037324765865 12.3093971076905930 16.9882372260242818
  6.2188656957511323 11.5556619245259498 16.9149966836088943
  5.7785560354243115 11.0691491220117495 15.6547087303500483
  5.1423037739909860  9.7946480500403119 15.5819207373241664
  5.0171106880114786  9.1505770452347228 14.3214899983633899
  5.1337736685109574  7.7309089188310338 14.2484211568502719
  5.3612868876577400  7.1161589660363438 12.9877300928403301
  6.2008187164597786  5.9654031349440082 12.9135631340922412
  6.7189420052709012  5.5627660960541405 11.6532274709257884
  8.0384649065252365  5.0261648716102947 11.5805362636189670
  8.6930875507917822  4.9584528136223236 10.3211757247562925
 10.0969489475210583  5.1999159281936036 10.2493958025660010
 10.6909686983976524  5.4856112808277215  8.9906881470458782
 11.7589704670674990  6.4283848801213432  8.9196274471765342
 12.1172952637366151  6.9803675713495918  7.6600146119994044
 12.5337311218901561  8.3426553189763677  7.5877705005671130
 12.5509536532686816  8.9983985040783150  6.3271158145882502
 12.1912216848050097 10.3766213195648138  6.2528772223810938
 11.6738042430336826 11.1514575758195758 23.3600847905511060
 11.2174240020518177 11.6256740855081340 22.1019009065988534
  9.9884591360782711 12.3455277805460941 22.0288592230086309
  9.3524026016055597 12.5082432695385464 20.7688108010858521
  7.9287478313843565 12.4640583025856859 20.6957745987039523
  7.3053690586030502 12.2617703115030530 19.4345942860629535
  6.1238391367363771 11.4661930498002640 19.3609009296548784
  5.7011968133260726 10.9648163594685073 18.1002224487811922
  5.1108013153296570  9.6685369226886788 18.0273671426642572
  5.0082530083769523  9.0204750142109020 16.7668817100468210
  5.1728869552773347  7.6055983949957895 16.6936418983473338
  5.4200039948230376  6.9985076442831353 15.4329349278786214
  6.2956913467774154  5.8750176478562821 15.3588822431860468
  6.8261425180991600  5.4894339752739807 14.0981205632266171
  8.1625762092453495  4.9966993104134731 14.0252988936539928
  8.8190705266515774  4.9519263149033055 12.7658458255741021
 10.2134998334740228  5.2430562266239678 12.6939707650887570
 10.7968123574528416  5.5506326045169878 11.4354144371424873
 11.8295031303843583  6.5318957205760393 11.3647060862940474
 12.1686614599035963  7.0963454924444784 10.1055494467204294
 12.5366639221547569  8.4724489624043891 10.0331692420762515
 12.5324420445484055  9.1283122333850333  8.7727430179410817
 12.1262449406130042 10.4935151233101625  8.6983825230298528
 11.5962685200074507 11.2496038931648101 25.8034518407658027
 11.1220853250782596 11.7079065443258781 24.5452883344791282
  9.8673995015237246 12.3824090537521272 24.4735934167292690
  9.2246514673545779 12.5246014060498574 23.2141945994063903
  7.8033830786375553 12.4299778550886764 23.1415428928391620
  7.1857437694135200 12.2084692543243847 21.8809307749464246
  6.0323938614011814 11.3724081443061102 21.8068739861597187
  5.6273070497126882 10.8571272479903058 20.5459999745246300
  5.0818819406263112  9.5412692738132492 20.4728604290633882
  5.0029065966494652  8.8901994358097784 19.2122746852441608
  5.2149318804856915  7.4816442267656971 19.1388631869486332
  5.4827823605526111  6.8830799350851573 17.8782908555390030
  6.3943334293875047  5.7885355033109809 17.8046790425244339
  6.9362191155468578  5.4195397372542464 16.5436394475826702
  8.2882406944981319  4.9709090778221441 16.4705157359106558
  8.9453911207824515  4.9489241839396909 15.2107665006855068
 10.3285514291519149  5.2899906021531180 15.1386321263834489
 10.9001574184009620  5.6189024417193476 13.8799755636658642
 11.8958695820912368  6.6377287943173204 13.8092137426199209
 12.2141067991221615  7.2144526508089761 12.5504553343373768
 12.5331122175346596  8.6026225866863193 12.4777710748769461
 12.5072177630414245  9.2579062824040008 11.2176595725880173
 12.0559775338682122 10.6087910038717972 11.1432266945598215
 11.5163557643721663 11.3448254989308204 28.2476211317403525
 11.0249714536529577 11.7847848032016760 26.9892575783908732
  9.7463851518987141 12.4127563922053223 26.9182894769695409
  9.0983575995490842 12.5323369314518089 25.6592891410280437
  7.6811101472490879 12.3886121946457948 25.5869179006439502
  7.0704725019668189 12.1475078710121949 24.3266004812149852
  5.9447951772445089 11.2745034628907188 24.2525551545016178
  5.5564318310933372 10.7466467169039408 22.9915607401996454
  5.0553358903206327  9.4133313806431200 22.9182122162708666
  4.9993355412036005  8.7598552578228261 21.6576698080541696
  5.2596845736961741  7.3594672893799595 21.5841900876690147
  5.5482468805599501  6.7701353705506770 20.3238336342747701
  6.4965044447116824  5.7070031991495132 20.2507947761426053
  7.0499276375919333  5.3553065769341677 18.9898286016692381
  8.4162644332021923  4.9520868840886623 18.9165077590547455
  9.0726699335402952  4.9509798111830783 17.6559525388420617
 10.4424322559995542  5.3416630878772171 17.5832040006644945
 11.0011703930739717  5.6907282044335181 16.3244179563097020
 11.9586167119476894  6.7459882696849194 16.2530845394335763
 12.2552857319875397  7.3342143474995236 14.9944248371402118
 12.5241384463282834  8.7327222924344472 14.9211861785301245
 12.4764894606159764  9.3868857310272169 13.6615824898538438
 11.4327123748763846 11.4376023386922956 30.6923914635984474
 10.9258013147220030 11.8587549847435909 29.4336619125532728
  9.6250371342551979 12.4395362627990629 29.3628781137655750
  8.9728711423939398 12.5353704252418350 28.1040365180008003
  7.5614535958156779 12.3432135259538764 28.0316883377688626
  6.9584350542632301 12.0818979729039171 26.7718261068791179
  5.8616616948031517 11.1730559074124756 26.6980232927031622
  5.4898247375651730 10.6332649854462016 25.4370900932866988
  5.0323016848103901  9.2843606734019399 25.3635626716415388
  4.9986789467222374  8.6294412977516437 24.1029820712831224
  5.3074003526377602  7.2388763667172853 24.0295539004695407
  5.6170884856291279  6.6600662942147908 22.7693530892562208
  6.6024761220935826  5.6314236794378676 22.6967951522921290
  7.1673722966068842  5.2981251800019225 21.4360547491005029
  8.5469484886180762  4.9430943171492174 21.3624939758153367
  9.2017645130619172  4.9610645602346608 20.1016407430522683
 10.5573210596985909  5.3993853413648285 20.0281399264455615
 11.1005646985027191  5.7675862040008576 18.7686668586701906
 12.0165039793309738  6.8582478185259799 18.6964341916473060
 12.2910821398434358  7.4560504784541584 17.4371029294433342
 12.5098799765144726  8.8626934495473275 17.3623243550890507
 12.4407531928124833  9.5149806332233062 16.1040493068310333
 11.3441839672662343 11.5273194330495503 33.1375856614725635
 10.8231688973411693 11.9298406910080601 31.8783648642717594
  9.5023942358311597 12.4633636894512669 31.8073625051263740
  8.8475195123095407 12.5353519669012083 30.5485064456510038
  7.4435706359278306 12.2947401215737795 30.4761018914298667
  6.8495903709912556 12.0130149175616232 29.2165746754529678
  5.7827601924548171 11.0692078102831246 29.1431804086715118
  5.4278323519225058 10.5176264427835378 27.8825315399163216
  5.0142028573836521  9.1546246900255230 27.8088722800985337
  5.0020628553413307  8.4989899875069543 26.5483415528495819
  5.3594080664775694  7.1201551240088454 26.4749646253189361
  5.6895229791879878  6.5528578522678540 25.2147967178584160
  6.7121953112753356  5.5612438801993473 25.1424306447859429
  7.2882783612302680  5.2480383110177646 23.8820053717966658
  8.6798256620904333  4.9435192444692904 23.8081261480066395
  9.3328130406984791  4.9830676329007106 22.5471382040247939
 10.6720068019898058  5.4679004311975010 22.4728140128021394
 11.2011265723341218  5.8512454837809162 21.2117126495104493
 12.0787319196335456  6.9726545399081239 21.1377183992373254
 12.3272800541650405  7.5768390758307396 19.8794238566962882
 12.5150545547603329  8.9936377176436508 19.8058603494260836
 12.4035304813576186  9.6423472785400186 18.5439788507299568
 11.2510808800204725 11.6141194384757416 35.5831699357102949
 10.7171398042056776 11.9978678265353000 34.3233747121517752
  9.3782988562849230 12.4843179901131318 34.2519071937782371
  8.7218075704803866 12.5325414539260063 32.9928333683838488
  7.3269667900085018 12.2436873014286522 32.9202209533092756
  6.7429171842116578 11.9414984430922146 31.6608953721548083
  5.7075784828453040 10.9632151264288584 31.5878873498770787
  5.3705949084058906 10.4001867386629190 30.3276064097537201
  5.0021963208694524  9.0242973293276574 30.2539523260210323
  5.0113498211061618  8.3686786343661641 28.9935435559532380
  5.4170980334910128  7.0032916331887645 28.9202830492351879
  5.7669309095384644  6.4484991983721240 27.6600247173405229
  6.8258846690076398  5.4957423063455000 27.5874691184607315
  7.4126883321647972  5.2041667299800167 26.3271744025889589
  8.8141914568339033  4.9506634744539637 26.2529110639815535
  9.4646521872636029  5.0126317300935721 24.9917587703741795
 10.7868100975156356  5.5422046850261761 24.9167993420818625
 11.3025893276826359  5.9418361698584565 23.6554645238261010
 12.1456950503523657  7.0901800665160550 23.5805676940724318
 12.3699992626541704  7.7047040657797261 22.3211902249625744
 12.4925169726593985  9.1232042866563496 22.2493968758374514
 12.3712766508888894  9.7690819167921479 20.9918265648583322
 11.1529638705425764 11.6972816370433161 38.0289035610545767
 10.6069137424273379 12.0622687894532863 36.7686600793804317
  9.2520192922922586 12.5019323056914544 36.6964752954640048
  8.5950416489457488 12.5268730024675197 35.4370422146860093
  7.2110865152441246 12.1900940579406321 35.3641770083631499
  6.6382008300023037 11.8676733629673556 34.1048544586413414
  5.6361779928217350 10.8553057694524622 34.0320904339390466
  5.3178560289883769 10.2810897551109317 32.7722575351174115
  4.9959232884530058  8.8935844799980242 32.6985724285514436
  5.0268253371448912  8.2385625741118993 31.4383906990885258
  5.4802588907658194  6.8882798348498735 31.3652712110155711
  5.8492995048590464  6.3466566546260470 30.1049299173186142
  6.9424254049989349  5.4334703189087463 30.0319124679645633
  7.5394247997698622  5.1643280517143575 28.7716490018334952
  8.9492149141446991  4.9615538780056943 28.6971539294876372
  9.5969034294951427  5.0467424349994516 27.4360699458527009
 10.9008751295037118  5.6196213468263716 27.3609509929419410
 11.4026708616365156  6.0363010024177139 26.0993479453735127
 12.2090876768583136  7.2102865692767901 26.0239108807239532
 12.4140625422338182  7.8314105895452757 24.7634513668666685
 12.4899508242313182  9.2534281853634965 24.6904993141849971
 12.3422738642695116  9.8940920106795751 23.4321043592064342
 11.0501697206974185 11.7767945925205346  0.0266267819305958
 10.4929014610094207 12.1229063962503343 39.2140572878731533
  9.1236845274811529 12.5156296700142526 39.1410622115238596
  8.4670678232514405 12.5178109393186858 37.8812921688797601
  7.0954858498439659 12.1336124483672041 37.8081420994568660
  6.5347679537099275 11.7913810027830195 36.5486614956003848
  5.5679803302185036 10.7453637546384808 36.4759215477142860
  5.2696872822187721 10.1605182263282625 35.2163545168984697
  4.9952528421671261  8.7629323854480461 35.1426832348680378
  5.0482036140577353  8.1091685947253538 33.8828138375981851
  5.5485455203559795  6.7756479465869184 33.8097489085763598
  5.9362305138814513  6.2474226390833971 32.5494981139776485
  7.0617100588545023  5.3744097118541125 32.4760808892810857
  7.6678753467816021  5.1276993877483816 31.2157437953142782
  9.0839449032921085  4.9750195711066754 31.1412776351680094
  9.7282249522661015  5.0837415574360110 29.8801984101365221
 11.0124793766227356  5.6993850627454510 29.8050679741092317
 11.5007661680495126  6.1325814855036507 28.5435451054168823
 12.2692631540529788  7.3317222093102723 28.4679604571555984
 12.4544025945092951  7.9590801889160474 27.2070890315565741
 12.4824633467487693  9.3831380279688297 27.1340475451870091
 12.3121020917895478 10.0180176980039466 25.8749245057581128
  8.3378205745322092 12.5043973212843369 40.3254590234212102
  6.9802959033405729 12.0732783886749235 40.2521116625158371
  6.4325100141130944 11.7120354706145484 38.9923502802697186
  5.5022627668276822 10.6334068251150882 38.9194339904020694
  5.2248723815628715 10.0385481828854672 37.6599884475289173
  4.9988417409930035  8.6323454272281808 37.5863920396857196
  5.0747516972908349  7.9808259775960533 36.3267074345051881
  5.6211704125271744  6.6655323701586644 36.2537421820501677
  6.0272762549738133  6.1513334266383488 34.9936775988974134
  7.1826944217453894  5.3184917065195281 34.9199655362681369
  7.7975960243835134  5.0940706881999978 33.6596352318063410
  9.2180962340278114  4.9909123726559006 33.5854376004379134
  9.8584023671009842  5.1226407697058587 32.3243966143901389
 11.1213952239762364  5.7809310661823909 32.2495029533900279
 11.5953376010418445  6.2306240489068605 30.9881362152134336
 12.3241930919693274  7.4543569041599032 30.9128201913944558
 12.4892797347354296  8.0876861253947094 29.6517840047739583
 12.4692020357666422  9.5120150698321151 29.5788470616913273
 12.2772402511748151 10.1405323198417925 28.3191428018334896
  5.1829346053108374  9.9151753666943936 40.1033067208038503
  5.0057191820346016  8.5019431137619961 40.0298119156444585
  5.1048514832974412  7.8533231418277776 38.7702388037746033
  5.6965228661502456  6.5577619493573707 38.6973290187878831
  6.1208532848626138  6.0579389505646191 37.4375015117412318
  7.3045613069973525  5.2657137226058897 37.3637243075967689
  7.9274678245231769  5.0632536993810673 36.1035613685482133
  9.3507700406178920  5.0095492807451505 36.0297746421532565
  9.9866214126959498  5.1639620639786212 34.7688922389751838
 11.2266275337764689  5.8648182248867204 34.6943550443343938
 11.6857101763412707  6.3307807025387008 33.4331219020458690
 12.3732329230009999  7.5782672170360312 33.3583452930068844
 12.5179738652740333  8.2169788156271846 32.0971876040041337
 12.4491776300604009  9.6398091677686928 32.0242489354785604
 12.2365710942732626 10.2615275467517133 30.7642564676089272
  6.2163994422044908  5.9679827692647445 39.8812044137421466
  7.4267419562985229  5.2170639791419653 39.8075827593491169
  8.0570063562356822  5.0362252275314443 38.5476251463106010
  9.4814045812725176  5.0317706260569297 38.4743733167336259
 10.1121860328644200  5.2086255177902006 37.2137485952046347
 11.3273613026662829  5.9517327709181052 37.1395611951575901
 11.7711122793084471  6.4332334074622484 35.8785133710930140
 12.4157480875020081  7.7034127603265494 35.8043702272747311
 12.5398107257082270  8.3468493529161005 34.5431386548907824
 12.4219748385255979  9.7664534085205048 34.4701565099760217
 12.1891121981687238 10.3803704202236222 33.2098065652244827
 10.2349576209836446  5.2566427456263058 39.6587735844667577
 11.4238987551657640  6.0412595605866048 39.5850462113925161
 11.8514717253778734  6.5380427844823448 38.3242181199636178
 12.4524131362383326  7.8294809732617505 38.2506946620828927
 12.5551464337923715  8.4769795907081473 36.9894820293610422
 12.3885421161718448  9.8917173177866733 36.9163031217370445
 12.1355135893244839 10.4973933098054584 35.6557417007093207
 12.5641621207186951  8.6072859503083539 39.4360115161059213
 12.3485607901315113 10.0153566266878222 39.3625499847460745
 12.0757465034040781 10.6120059449834763 38.1018231825072249
 15.5396363224537364  9.0716972310126707 19.8157745108395815
 15.5629052497378968  7.6344885217573708 19.8126830743399864
 15.5898670762542206  9.7862851444660492 21.0618363900799359
 15.5964424281732033  9.7923533064435819 18.5735148235085390
