Ge Se                                   
    1.000000000000000     
    12.4639400386677419   -0.0000081659571329    0.0000030699289260
    -0.0000081709338689   12.4715349324235092    0.0000000814299153
     0.0000034882007789    0.0000000924682284   11.0016755753367974
   Ge   Se
    36    36
Direct
  0.0635827546321011  0.0587056890772217  0.0974163338198011
  0.2134075876092965  0.8302697260116645  0.3498500904385651
  0.5871982855105102  0.1917183173617190  0.3492854771621978
  0.5333898999788076  0.5217706513838678  0.3750948438170880
  0.5705415836173842  0.8935279235805211  0.3832996426937640
  0.8923098192456891  0.2152177176441512  0.3614984828788579
  0.8843606304139158  0.5294096047889809  0.4064614199920413
  0.9224477311886901  0.8681969343793483  0.3741889785699328
  0.0537562689368869  0.1402215839400043  0.6170824707981879
  0.0630050008624039  0.4784174300055284  0.6355498777086197
  0.0720706802547113  0.8405048068832244  0.6318638065610500
  0.3918688482702279  0.1632141836040830  0.6467731389667151
  0.4219604075714471  0.4732537125922249  0.6210583162157448
  0.4033871817217758  0.8331368904317173  0.6352829249991387
  0.7444613227842751  0.1420283849327149  0.6270476005354411
  0.7451985645929327  0.4780206214659515  0.6208800411737343
  0.2232038009824322  0.5297689498289202  0.3746870589634668
  0.2181046913667402  0.2416810723561298  0.4274233022857246
  0.7263299855427547  0.8230519372599048  0.6146160110975671
  0.8809344491088709  0.6650348717718586  0.8829203935984538
  0.9257511185220366  0.0044540453290125  0.8769003661390613
  0.0820201948431460  0.3612267422900004  0.1181720233228916
  0.0752276892983588  0.6816119434469385  0.1409429828480953
  0.4191645549500720  0.0419663507543717  0.1339211340685367
  0.4151230785687758  0.3663410200876669  0.1284386839470386
  0.7743323401588924  0.0229630471379423  0.1292679579967526
  0.7324386950672448  0.3752356107628287  0.1086504260370305
  0.4103609203385972  0.7424155475060346  0.1337218699921721
  0.2689890677086808  0.3252450177479176  0.9670493868903733
  0.2297721389572231  0.6413691972136704  0.8659894303711582
  0.2396522251350532  0.9925060414918647  0.8802153777931707
  0.5777366125559240  0.3169836547785962  0.8909694187663462
  0.5795918971058072  0.6718359260925979  0.8699217723242825
  0.5719536947700306  0.9756392425927842  0.8823427712862042
  0.8959412583937478  0.3154430973623121  0.8793719255569954
  0.7753161262621120  0.6751380821313475  0.1380719327238324
  0.9008629823238650  0.0140799236628766  0.6554326158144690
  0.2445148859569173  0.3523036071082402  0.6242261451318001
  0.2421280443609319  0.7010605251029247  0.6260668875114064
  0.5834298853607152  0.0160574378179845  0.6603707335163307
  0.5800114763419160  0.3332120073144793  0.6623799207353187
  0.5762799106827359  0.6785666052210715  0.6482484936725896
  0.8973323263145545  0.3399170762993293  0.6265407637401665
  0.7240732445295350  0.0391963228399987  0.3563388496747706
  0.0763823491235911  0.0009286038716922  0.3746840181788684
  0.0626594442866732  0.3601629477363630  0.3513947786070446
  0.0302628225657600  0.6935397836504933  0.3672219766730294
  0.4079464590933100  0.0284080211328757  0.3561003656274977
  0.3693743161350014  0.3785933109569442  0.3402756567313219
  0.4121842249914351  0.6855867359639802  0.3430694523041424
  0.2521934133710602  0.0176806196023591  0.6519858436755115
  0.9002831145199792  0.6837492982776538  0.6209336338553371
  0.9133729952461707  0.8610667142112334  0.1389924388918899
  0.2244287050132527  0.1864095178935088  0.1586820493821932
  0.9062905023858079  0.1880677429086717  0.1331895257715914
  0.7470337972768988  0.3573497682992723  0.3445541341877743
  0.0710178774439072  0.1881928541721294  0.8478012946074429
  0.0813351299636693  0.4840446320936564  0.8502209996562584
  0.0754870325861532  0.8650123641064980  0.8622305424143093
  0.4100023520632732  0.2029385449568508  0.8758377262697152
  0.4097127755221308  0.5175440544485923  0.8483424587047210
  0.3954036071683547  0.8402601628533901  0.8698096503070687
  0.7432359605533776  0.1821917122742960  0.8743906190090058
  0.7363541171520112  0.5188593416917158  0.8510170965757027
  0.7468205457056669  0.8422155530012958  0.8598958596652935
  0.2169853837666196  0.5469557078347478  0.1504403550203364
  0.2355951237466627  0.8566491002978509  0.1299647727144020
  0.5525071552683372  0.2032378446233238  0.1365728691470167
  0.5549887005865983  0.5117636962540857  0.1500176276704792
  0.5726189520175993  0.8542124077536002  0.1527410263370115
  0.8862873035811631  0.5230372850101475  0.1567622098652279
  0.7402322273360724  0.6871932742550371  0.3612321407888146
 
  0.00000000E+00  0.00000000E+00  0.00000000E+00
  0.00000000E+00  0.00000000E+00  0.00000000E+00
  0.00000000E+00  0.00000000E+00  0.00000000E+00
  0.00000000E+00  0.00000000E+00  0.00000000E+00
  0.00000000E+00  0.00000000E+00  0.00000000E+00
  0.00000000E+00  0.00000000E+00  0.00000000E+00
  0.00000000E+00  0.00000000E+00  0.00000000E+00
  0.00000000E+00  0.00000000E+00  0.00000000E+00
  0.00000000E+00  0.00000000E+00  0.00000000E+00
  0.00000000E+00  0.00000000E+00  0.00000000E+00
  0.00000000E+00  0.00000000E+00  0.00000000E+00
  0.00000000E+00  0.00000000E+00  0.00000000E+00
  0.00000000E+00  0.00000000E+00  0.00000000E+00
  0.00000000E+00  0.00000000E+00  0.00000000E+00
  0.00000000E+00  0.00000000E+00  0.00000000E+00
  0.00000000E+00  0.00000000E+00  0.00000000E+00
  0.00000000E+00  0.00000000E+00  0.00000000E+00
  0.00000000E+00  0.00000000E+00  0.00000000E+00
  0.00000000E+00  0.00000000E+00  0.00000000E+00
  0.00000000E+00  0.00000000E+00  0.00000000E+00
  0.00000000E+00  0.00000000E+00  0.00000000E+00
  0.00000000E+00  0.00000000E+00  0.00000000E+00
  0.00000000E+00  0.00000000E+00  0.00000000E+00
  0.00000000E+00  0.00000000E+00  0.00000000E+00
  0.00000000E+00  0.00000000E+00  0.00000000E+00
  0.00000000E+00  0.00000000E+00  0.00000000E+00
  0.00000000E+00  0.00000000E+00  0.00000000E+00
  0.00000000E+00  0.00000000E+00  0.00000000E+00
  0.00000000E+00  0.00000000E+00  0.00000000E+00
  0.00000000E+00  0.00000000E+00  0.00000000E+00
  0.00000000E+00  0.00000000E+00  0.00000000E+00
  0.00000000E+00  0.00000000E+00  0.00000000E+00
  0.00000000E+00  0.00000000E+00  0.00000000E+00
  0.00000000E+00  0.00000000E+00  0.00000000E+00
  0.00000000E+00  0.00000000E+00  0.00000000E+00
  0.00000000E+00  0.00000000E+00  0.00000000E+00
  0.00000000E+00  0.00000000E+00  0.00000000E+00
  0.00000000E+00  0.00000000E+00  0.00000000E+00
  0.00000000E+00  0.00000000E+00  0.00000000E+00
  0.00000000E+00  0.00000000E+00  0.00000000E+00
  0.00000000E+00  0.00000000E+00  0.00000000E+00
  0.00000000E+00  0.00000000E+00  0.00000000E+00
  0.00000000E+00  0.00000000E+00  0.00000000E+00
  0.00000000E+00  0.00000000E+00  0.00000000E+00
  0.00000000E+00  0.00000000E+00  0.00000000E+00
  0.00000000E+00  0.00000000E+00  0.00000000E+00
  0.00000000E+00  0.00000000E+00  0.00000000E+00
  0.00000000E+00  0.00000000E+00  0.00000000E+00
  0.00000000E+00  0.00000000E+00  0.00000000E+00
  0.00000000E+00  0.00000000E+00  0.00000000E+00
  0.00000000E+00  0.00000000E+00  0.00000000E+00
  0.00000000E+00  0.00000000E+00  0.00000000E+00
  0.00000000E+00  0.00000000E+00  0.00000000E+00
  0.00000000E+00  0.00000000E+00  0.00000000E+00
  0.00000000E+00  0.00000000E+00  0.00000000E+00
  0.00000000E+00  0.00000000E+00  0.00000000E+00
  0.00000000E+00  0.00000000E+00  0.00000000E+00
  0.00000000E+00  0.00000000E+00  0.00000000E+00
  0.00000000E+00  0.00000000E+00  0.00000000E+00
  0.00000000E+00  0.00000000E+00  0.00000000E+00
  0.00000000E+00  0.00000000E+00  0.00000000E+00
  0.00000000E+00  0.00000000E+00  0.00000000E+00
  0.00000000E+00  0.00000000E+00  0.00000000E+00
  0.00000000E+00  0.00000000E+00  0.00000000E+00
  0.00000000E+00  0.00000000E+00  0.00000000E+00
  0.00000000E+00  0.00000000E+00  0.00000000E+00
  0.00000000E+00  0.00000000E+00  0.00000000E+00
  0.00000000E+00  0.00000000E+00  0.00000000E+00
  0.00000000E+00  0.00000000E+00  0.00000000E+00
  0.00000000E+00  0.00000000E+00  0.00000000E+00
  0.00000000E+00  0.00000000E+00  0.00000000E+00
  0.00000000E+00  0.00000000E+00  0.00000000E+00
