Ge Se 
 1.0000000000000000
    12.4639400386677419   -0.0000081659571329    0.0000030699289260
    -0.0000081709338689   12.4715349324235092    0.0000000814299153
     0.0000034882007789    0.0000000924682284   11.0016755753367974
 Ge  Se 
  36  36
Cartesian
  0.7924915013552603  0.7321495418524463  1.0717431003990605
  2.6598938120273119 10.3547361809609999  3.8489379177622527
  7.3188038732717144  2.3910169294238885  3.8427273211838280
  6.6481367756194638  6.5072765844925531  4.1266734616140210
  7.1111901238421638 11.1436600884552117  4.2169401413413334
 11.1216955854423123  2.6840880305388728  3.9770917864625641
 11.0226149620856138  6.6025431956200897  4.4717594346772440
 11.4973274216074461 10.8277408972670219  4.1167086486392677
  0.6700159194981223  1.7487780004766185  6.7889413233950879
  0.7852888606935911  5.9665992348662318  6.9921137988735600
  0.8982799735993821 10.4823845298152865  6.9515608972761562
  4.8842307503241367  2.0355282521070257  7.1155894620540510
  5.2592875181136405  5.9021968202106239  6.8326834422960232
  5.0277890538353418 10.3904925972108995  6.9891779456037746
  9.2789223150538618  1.7713059428268190  6.8985765683930484
  9.2881084858669585  5.9616448511835127  6.8307231108269759
  2.7819957701244289  6.6070301758786893  4.1221861933519932
  2.7184433115253892  3.0141321948845436  4.7023731943326181
  9.0529288068924227 10.2647151123886626  6.7618082543055475
 10.9799117975374330  8.2939985225516768  9.7136064877787280
 11.5385012834652638 12.5270762357763452  9.6473762639387868
  1.0222922511327295  4.5050512761490298  1.3000905438904371
  0.9376283308935514  8.5007465617821971  1.5506092583622606
  5.2244420034720696  0.5233813989231307  1.4733581599258978
  5.1740666146200409  4.5688314512022474  1.4130420363380025
  9.6512321210247656  0.2863781333242046  1.4221665151816529
  9.1290692902873154  4.6797580565016181  1.1953390174716403
  5.1147083055331644  9.2590580964712146  1.4711659512149504
  3.3526643266849994  4.0563024933079905 10.6391644721582637
  2.8638639426790102  7.9988565513978180  9.5273355222249378
  2.9870059248833480 12.3780718915093324  9.6838448394379899
  7.2008750148678331  3.9532680881925035  9.8021582922360029
  7.2239961973593116  8.3788205686384813  9.5705989490472323
  7.1287916624131187 12.1677143064784232  9.7072507512378507
 11.1669586127493652  3.9340523730419750  9.6745674111997904
  9.6634886738571009  8.4200018570795461  1.5190250450292082
 11.2283043659744894  0.1755909640056393  7.2108597674170385
  3.0476181759053165  4.3937648038922061  6.8675343137145548
  3.0178658821223121  8.7432989092483435  6.8877855852645604
  7.2718372802041902  0.2002561934721205  7.2651863619897075
  7.2292278507256844  4.1556605140257332  7.2872908032747183
  7.1827149689364802  8.4627624750559800  7.1318214439805692
 11.1842957180028399  4.2392804215521771  6.8930009998189394
  9.0248064261306364  0.4888324297205706  3.9203266450557113
  0.9520263188745665  0.0115805265355628  4.1221522458314901
  0.7809818393132403  4.4917843048772275  3.8659315747900580
  0.3771896199367763  8.6495054256540431  4.0400572008701650
  5.0846212151553054  0.3542883295743487  3.9177019495724807
  4.6038574216194759  4.7216367179512977  3.7436035463243824
  5.1374350599892056  8.5503155926253100  3.7743401352621935
  3.1433257121942004  0.2205024658850798  7.1729375074858508
 11.2210713362729440  8.5273959642331327  6.8313132129741927
 11.3842196948009828 10.7388161597202334  1.5291525942201283
  2.7972649526160298  2.3248109961429861  1.7457691310919765
 11.2959494072535271  2.3454860369339467  1.4653107501337854
  9.3109827381102122  4.4566940500521914  3.7906751249145447
  0.8851639857240950  2.3470532533059680  9.3272350289659922
  1.0137551935493074  6.0367789524474098  9.3538558946654540
  0.9408617875252233 10.7880313792375073  9.4859810009666070
  5.1102461287298047  2.5309518854901132  9.6356837962634252
  5.1066341975545715  6.4545654868714717  9.3331898073855779
  4.9282830191797613 10.4793308249307859  9.5693648672587948
  9.2636500082925526  2.2722043156473295  9.6197642129724006
  9.1778722923619256  6.4709664705784125  9.3626163083964151
  9.3083226191223432 10.5037146708945723  9.4602976378804442
  2.7044888681616825  6.8213754587670774  1.6550966900405248
  2.9364369495010170 10.6837272673517276  1.4298310586433602
  6.8864148699500136  2.5346833796891586  1.5025321114557377
  6.9173422279537879  6.3824742968369348  1.6504470156610231
  7.1370818360303918 10.6533352211505044  1.6804090462617225
 11.0466280819831031  6.5230705480754123  1.7246497388399828
  9.2262057412457246  8.5703489138960585  3.9741611487613810
