Ge Se
 1.0000000000000000
     4.0999999999999988    0.0000000000000000    0.0000000000000000
     0.0000000000000000    3.8500000000000010    0.0000000000000000
     0.0000000000000000    0.0000000000000000   11.1422209999999993
 Ge  Se 
   4   4
Selective dynamics
Cartesian
  0.4089045615323867  0.9625000000000004  1.4026912230269377   T   T   T
  2.4589045615323863  2.8875000000000006  4.1684192769730597   T   T   T
  3.6910954384676118  2.8875000000000006  9.7395297769730593   T   T   T
  1.6410954384676129  0.9625000000000004  6.9738017230269396   T   T   T
  0.0860026726946183  0.9625000000000004  3.9799572003153507   T   T   T
  2.1360026726946173  2.8875000000000006  1.5911532996846480   T   T   T
  4.0139973273053791  2.8875000000000006  7.1622637996846477   T   T   T
  1.9639973273053821  0.9625000000000004  9.5510677003153521   T   T   T
