Ge Se                                   
    1.000000000000000     
    12.4673185813027061    0.0000048229560088   -0.0000015882799302
     0.0000048323469293   12.4915955030867973    0.0000022482152044
    -0.0000018129067341    0.0000025611881819   11.0548257117290305
   Ge   Se
    36    36
Direct
  0.0937289665598442  0.0184873664830008  0.1209533498420612
  0.2596094269037152  0.8434695769951972  0.3639102467442541
  0.5889771393325418  0.1846559331121327  0.3774748638084233
  0.5927291783575157  0.5271473778206399  0.3615335953823617
  0.5597548758349689  0.8514873725315226  0.3699783798807061
  0.9299941224121397  0.1738711694198471  0.3640968669564941
  0.9052113548728755  0.5566268765773259  0.3672786149347260
  0.9119900731881003  0.8715871372343003  0.3727308344779274
  0.0704284245160309  0.1495986696288583  0.6030650756071836
  0.0779127290943933  0.4961095747382842  0.6331501829927930
  0.0560263787741562  0.8098436118789039  0.6232559878516781
  0.3888447842686489  0.1444058007300271  0.6175417099722296
  0.3965671095916861  0.5084558780794026  0.6235304053760942
  0.4107549609077381  0.8278794672971230  0.6408137339253059
  0.7669015192932989  0.1660850314400690  0.6300338419906595
  0.7270918591794668  0.4819865186270391  0.6236438759863248
  0.2456077928669131  0.5263167830627751  0.3775726731604152
  0.2343858127386298  0.1999591395568459  0.3862410405938519
  0.7409570256237714  0.8371225065801937  0.6091673844105472
  0.8946856479044243  0.6420687414626087  0.8668798417867905
  0.9261517304627773  0.9888780368271952  0.8832633359519804
  0.0564947660751329  0.3864498094697666  0.1220902873061149
  0.0824654901434556  0.6934882697772835  0.1236349443954339
  0.3974268386429500  0.0332863666310104  0.1243800432672515
  0.4174861827206513  0.3526852691905304  0.1383206029209916
  0.7302368059729218  0.0203231110449877  0.1480275572174818
  0.7650560343939290  0.3514369447889507  0.1268320179367208
  0.4137576432477275  0.6697039286308240  0.1425053868474890
  0.2223941754806660  0.3376722293808783  0.8625833992034018
  0.2599210393744613  0.6683480211548627  0.8694464166854914
  0.2126563216995550  0.9683786432436818  0.8717065038199863
  0.5778273526574367  0.3129877163687027  0.8600922878461219
  0.5813780238113395  0.6680190841113003  0.8675121066615574
  0.5769338896992195  0.9935283722490240  0.8652188219941053
  0.9268575088532742  0.3232114944266655  0.8737081535199778
  0.7375233325291148  0.7297883980590569  0.1088907530056389
  0.9100250678231490  0.0161269232027266  0.6555124862898367
  0.2288633840437626  0.3597107633618961  0.6359589154799394
  0.2236674401056504  0.6714158691563341  0.6322878920687245
  0.5553387095327267  0.0068020077102204  0.6306728527221779
  0.5624222770690182  0.3421388240831291  0.6317817332535114
  0.5737732758847045  0.6866688977432460  0.6325035246130568
  0.8829312111746219  0.3329236239240814  0.6394677562230271
  0.7146165168141181  0.0086202631306236  0.3792043028531822
  0.0709432261469942  0.0151658604870235  0.3467368265592725
  0.0610969828036048  0.3248821492443170  0.3524336633094549
  0.0484753780227436  0.7057278995375000  0.3507001592143908
  0.4026998323149940  0.9973914344125490  0.3667991486126141
  0.3776476790764676  0.3674376763749905  0.3569084979097497
  0.4119819580258053  0.6825675960593145  0.3742456218694699
  0.2149433690450593  0.0018002932101666  0.6434944422798168
  0.8892421388394425  0.6943078907412996  0.6432371903157730
  0.8746289931416129  0.8737625138015801  0.1408957333208889
  0.2360049995866760  0.1707890899695599  0.1438155300623194
  0.8807997017181606  0.1618132897070979  0.1410487781414602
  0.7336445765887945  0.3584694601499407  0.3506062128851184
  0.0672454484975873  0.1840128903772893  0.8353432150149871
  0.0614332630550436  0.5196160201635536  0.8679178716335798
  0.0633219682943249  0.8299461962876791  0.8563468433611305
  0.3896968510375203  0.1950463759639121  0.8492171085758855
  0.4064880424677497  0.5246629847335953  0.8581662371332897
  0.3783690388259302  0.8411723865269849  0.8612318504145122
  0.7169280050265883  0.1651450103058352  0.8667226357780038
  0.7228495786242135  0.5165057648224618  0.8562503219491902
  0.7399229067969699  0.8538492748044675  0.8582713368144610
  0.2190055137318652  0.5343074434126081  0.1485189648736949
  0.2257367801465975  0.8483190449514879  0.1364837898926723
  0.5516355680253540  0.1895317742773344  0.1539245671314475
  0.5550994140389278  0.5008402675344215  0.1368010250039120
  0.5540083048906510  0.8333581254237075  0.1393480100392210
  0.8956188875746349  0.5115471084329783  0.1401772044145204
  0.7282623523920861  0.6902724647308318  0.3475438698079003
 
  0.00000000E+00  0.00000000E+00  0.00000000E+00
  0.00000000E+00  0.00000000E+00  0.00000000E+00
  0.00000000E+00  0.00000000E+00  0.00000000E+00
  0.00000000E+00  0.00000000E+00  0.00000000E+00
  0.00000000E+00  0.00000000E+00  0.00000000E+00
  0.00000000E+00  0.00000000E+00  0.00000000E+00
  0.00000000E+00  0.00000000E+00  0.00000000E+00
  0.00000000E+00  0.00000000E+00  0.00000000E+00
  0.00000000E+00  0.00000000E+00  0.00000000E+00
  0.00000000E+00  0.00000000E+00  0.00000000E+00
  0.00000000E+00  0.00000000E+00  0.00000000E+00
  0.00000000E+00  0.00000000E+00  0.00000000E+00
  0.00000000E+00  0.00000000E+00  0.00000000E+00
  0.00000000E+00  0.00000000E+00  0.00000000E+00
  0.00000000E+00  0.00000000E+00  0.00000000E+00
  0.00000000E+00  0.00000000E+00  0.00000000E+00
  0.00000000E+00  0.00000000E+00  0.00000000E+00
  0.00000000E+00  0.00000000E+00  0.00000000E+00
  0.00000000E+00  0.00000000E+00  0.00000000E+00
  0.00000000E+00  0.00000000E+00  0.00000000E+00
  0.00000000E+00  0.00000000E+00  0.00000000E+00
  0.00000000E+00  0.00000000E+00  0.00000000E+00
  0.00000000E+00  0.00000000E+00  0.00000000E+00
  0.00000000E+00  0.00000000E+00  0.00000000E+00
  0.00000000E+00  0.00000000E+00  0.00000000E+00
  0.00000000E+00  0.00000000E+00  0.00000000E+00
  0.00000000E+00  0.00000000E+00  0.00000000E+00
  0.00000000E+00  0.00000000E+00  0.00000000E+00
  0.00000000E+00  0.00000000E+00  0.00000000E+00
  0.00000000E+00  0.00000000E+00  0.00000000E+00
  0.00000000E+00  0.00000000E+00  0.00000000E+00
  0.00000000E+00  0.00000000E+00  0.00000000E+00
  0.00000000E+00  0.00000000E+00  0.00000000E+00
  0.00000000E+00  0.00000000E+00  0.00000000E+00
  0.00000000E+00  0.00000000E+00  0.00000000E+00
  0.00000000E+00  0.00000000E+00  0.00000000E+00
  0.00000000E+00  0.00000000E+00  0.00000000E+00
  0.00000000E+00  0.00000000E+00  0.00000000E+00
  0.00000000E+00  0.00000000E+00  0.00000000E+00
  0.00000000E+00  0.00000000E+00  0.00000000E+00
  0.00000000E+00  0.00000000E+00  0.00000000E+00
  0.00000000E+00  0.00000000E+00  0.00000000E+00
  0.00000000E+00  0.00000000E+00  0.00000000E+00
  0.00000000E+00  0.00000000E+00  0.00000000E+00
  0.00000000E+00  0.00000000E+00  0.00000000E+00
  0.00000000E+00  0.00000000E+00  0.00000000E+00
  0.00000000E+00  0.00000000E+00  0.00000000E+00
  0.00000000E+00  0.00000000E+00  0.00000000E+00
  0.00000000E+00  0.00000000E+00  0.00000000E+00
  0.00000000E+00  0.00000000E+00  0.00000000E+00
  0.00000000E+00  0.00000000E+00  0.00000000E+00
  0.00000000E+00  0.00000000E+00  0.00000000E+00
  0.00000000E+00  0.00000000E+00  0.00000000E+00
  0.00000000E+00  0.00000000E+00  0.00000000E+00
  0.00000000E+00  0.00000000E+00  0.00000000E+00
  0.00000000E+00  0.00000000E+00  0.00000000E+00
  0.00000000E+00  0.00000000E+00  0.00000000E+00
  0.00000000E+00  0.00000000E+00  0.00000000E+00
  0.00000000E+00  0.00000000E+00  0.00000000E+00
  0.00000000E+00  0.00000000E+00  0.00000000E+00
  0.00000000E+00  0.00000000E+00  0.00000000E+00
  0.00000000E+00  0.00000000E+00  0.00000000E+00
  0.00000000E+00  0.00000000E+00  0.00000000E+00
  0.00000000E+00  0.00000000E+00  0.00000000E+00
  0.00000000E+00  0.00000000E+00  0.00000000E+00
  0.00000000E+00  0.00000000E+00  0.00000000E+00
  0.00000000E+00  0.00000000E+00  0.00000000E+00
  0.00000000E+00  0.00000000E+00  0.00000000E+00
  0.00000000E+00  0.00000000E+00  0.00000000E+00
  0.00000000E+00  0.00000000E+00  0.00000000E+00
  0.00000000E+00  0.00000000E+00  0.00000000E+00
  0.00000000E+00  0.00000000E+00  0.00000000E+00
