Ge Se                                   
    1.000000000000000     
    12.4376200602826916   -0.0000023820553316    0.0000009839092648
    -0.0000023932339649   12.4959880515520538   -0.0000002811560282
     0.0000011252315328   -0.0000003200375457   11.0498014128493747
   Ge   Se
    36    36
Direct
  0.0672711129005279  0.0077392071456686  0.1267171842170498
  0.2502902145517325  0.8653632350289797  0.3709735591105883
  0.5651728234345441  0.2170577866882084  0.3698859009678088
  0.5877165654204362  0.5356191760814042  0.3727994644669579
  0.5905229056861359  0.8726988924847845  0.3593671394186018
  0.9264182578026094  0.1944217215404933  0.3597046138386872
  0.9146745855912783  0.5385559922166436  0.3658717422535531
  0.8944113404303806  0.8671212862944060  0.3577587606593085
  0.0672314231164322  0.1446485569690594  0.6225581984637358
  0.0822212007401006  0.4969078644110994  0.6452765419716044
  0.0886434914126610  0.8231628166410161  0.6344840869515664
  0.4150690950175786  0.1752893648547698  0.6386644360330251
  0.3964736428098803  0.4883453220964142  0.6251883422370312
  0.4070197965408227  0.8299967684502505  0.6339927243418089
  0.7457772313398792  0.1681312878467196  0.6350994002586603
  0.7482987247677002  0.4980774136683692  0.6475799169637213
  0.2305973308399984  0.5607564236405480  0.3833167734015817
  0.2506352071117064  0.2052304226884658  0.3838623382180870
  0.7330049319162910  0.8066697255159809  0.6137357462688584
  0.9016326390674365  0.6416637455870742  0.8887171391248714
  0.9036176271824345  0.9810639598591990  0.8478866785241408
  0.0817741585975753  0.3524021453751089  0.1262661502729472
  0.0630733835071950  0.7100869086063852  0.1193178820713356
  0.4015163917210174  0.0382309386700967  0.1312373572297645
  0.3667144865875116  0.3685860376129995  0.1320338551766369
  0.7230191610440073  0.0379100546015039  0.1374945009529398
  0.7591166459967624  0.3617930003412368  0.1458577385022508
  0.4288533287451628  0.6856084238098035  0.1295846162063796
  0.2330544414645814  0.3097057764883360  0.8679387475846596
  0.2351219653123593  0.6610968115653932  0.8611765833103462
  0.2454628562750756  0.9755318188207482  0.8838830235383526
  0.5826314448128684  0.3234401061317627  0.8723796764274425
  0.5660228099420834  0.6582865274520771  0.8801181902385409
  0.5920706925559216  0.0100571153988369  0.8508746572853880
  0.9102532263869776  0.3103098816286192  0.8554899536187932
  0.7332248243452142  0.6854070703664306  0.1347247302902090
  0.8945323474915412  0.0237368769801591  0.6175047743003788
  0.2334142259425889  0.3641309715780707  0.6457201908640684
  0.2500042047670235  0.6763164487228934  0.6309728866071396
  0.5561886571758166  0.0287807109231863  0.6261942526301638
  0.5551305768758041  0.3471611385805886  0.6501875979024518
  0.5625068110494027  0.6891451478771415  0.6431585016770285
  0.8926570898376980  0.3458433272522612  0.6353078677168540
  0.7374540287345255  0.0125319844420275  0.3570535166686213
  0.0438650494771551  0.0181901553423387  0.3491644818410151
  0.0786598562603800  0.3336719218576931  0.3648867822015518
  0.0659234270063109  0.6852899309910114  0.3502733402363916
  0.4066548764962263  0.0012620823163019  0.3665187792375093
  0.4132405074641099  0.3424941211360064  0.3460572836526623
  0.3857032099912132  0.6863996701661463  0.3488517673838913
  0.2224551212680410  0.9919544373250986  0.6414985566101947
  0.8839692423823919  0.6702078814830585  0.6563400411541451
  0.8972176030619039  0.8346769719609526  0.1304836952074453
  0.2428358014001901  0.1663428033973844  0.1595144376876405
  0.8753850400673002  0.1848520853729312  0.1390063603270661
  0.7321724123705451  0.3579255885878183  0.3600027709654512
  0.0702855084840834  0.1746376531489489  0.8569770089420103
  0.0701392591994150  0.5143723632828952  0.8717796150058845
  0.0524023718176849  0.8319412603117655  0.8560800866434235
  0.3739198154512380  0.1773095741200592  0.8618793121234347
  0.4026100839253601  0.5172915907667743  0.8551822758367251
  0.4150557996862148  0.8564436877416952  0.8692180342630564
  0.7404085716620870  0.1901672372619458  0.8672794265893913
  0.7102275660961510  0.5026371608004254  0.8770291828533772
  0.7394028756280093  0.8594471508522332  0.8363016903679892
  0.2175939526481230  0.5074545164310962  0.1513116131963983
  0.2104627275170543  0.8687955092202770  0.1389353920738188
  0.5555673782056587  0.1732301405101779  0.1442275110078626
  0.5564674083431171  0.5195329447671142  0.1479755986206186
  0.5763195498607985  0.8201090360445917  0.1278022787721440
  0.9190853136096138  0.5020732735055873  0.1417664652889457
  0.7462903654066722  0.6674702486277724  0.3658313399556334
 
  0.00000000E+00  0.00000000E+00  0.00000000E+00
  0.00000000E+00  0.00000000E+00  0.00000000E+00
  0.00000000E+00  0.00000000E+00  0.00000000E+00
  0.00000000E+00  0.00000000E+00  0.00000000E+00
  0.00000000E+00  0.00000000E+00  0.00000000E+00
  0.00000000E+00  0.00000000E+00  0.00000000E+00
  0.00000000E+00  0.00000000E+00  0.00000000E+00
  0.00000000E+00  0.00000000E+00  0.00000000E+00
  0.00000000E+00  0.00000000E+00  0.00000000E+00
  0.00000000E+00  0.00000000E+00  0.00000000E+00
  0.00000000E+00  0.00000000E+00  0.00000000E+00
  0.00000000E+00  0.00000000E+00  0.00000000E+00
  0.00000000E+00  0.00000000E+00  0.00000000E+00
  0.00000000E+00  0.00000000E+00  0.00000000E+00
  0.00000000E+00  0.00000000E+00  0.00000000E+00
  0.00000000E+00  0.00000000E+00  0.00000000E+00
  0.00000000E+00  0.00000000E+00  0.00000000E+00
  0.00000000E+00  0.00000000E+00  0.00000000E+00
  0.00000000E+00  0.00000000E+00  0.00000000E+00
  0.00000000E+00  0.00000000E+00  0.00000000E+00
  0.00000000E+00  0.00000000E+00  0.00000000E+00
  0.00000000E+00  0.00000000E+00  0.00000000E+00
  0.00000000E+00  0.00000000E+00  0.00000000E+00
  0.00000000E+00  0.00000000E+00  0.00000000E+00
  0.00000000E+00  0.00000000E+00  0.00000000E+00
  0.00000000E+00  0.00000000E+00  0.00000000E+00
  0.00000000E+00  0.00000000E+00  0.00000000E+00
  0.00000000E+00  0.00000000E+00  0.00000000E+00
  0.00000000E+00  0.00000000E+00  0.00000000E+00
  0.00000000E+00  0.00000000E+00  0.00000000E+00
  0.00000000E+00  0.00000000E+00  0.00000000E+00
  0.00000000E+00  0.00000000E+00  0.00000000E+00
  0.00000000E+00  0.00000000E+00  0.00000000E+00
  0.00000000E+00  0.00000000E+00  0.00000000E+00
  0.00000000E+00  0.00000000E+00  0.00000000E+00
  0.00000000E+00  0.00000000E+00  0.00000000E+00
  0.00000000E+00  0.00000000E+00  0.00000000E+00
  0.00000000E+00  0.00000000E+00  0.00000000E+00
  0.00000000E+00  0.00000000E+00  0.00000000E+00
  0.00000000E+00  0.00000000E+00  0.00000000E+00
  0.00000000E+00  0.00000000E+00  0.00000000E+00
  0.00000000E+00  0.00000000E+00  0.00000000E+00
  0.00000000E+00  0.00000000E+00  0.00000000E+00
  0.00000000E+00  0.00000000E+00  0.00000000E+00
  0.00000000E+00  0.00000000E+00  0.00000000E+00
  0.00000000E+00  0.00000000E+00  0.00000000E+00
  0.00000000E+00  0.00000000E+00  0.00000000E+00
  0.00000000E+00  0.00000000E+00  0.00000000E+00
  0.00000000E+00  0.00000000E+00  0.00000000E+00
  0.00000000E+00  0.00000000E+00  0.00000000E+00
  0.00000000E+00  0.00000000E+00  0.00000000E+00
  0.00000000E+00  0.00000000E+00  0.00000000E+00
  0.00000000E+00  0.00000000E+00  0.00000000E+00
  0.00000000E+00  0.00000000E+00  0.00000000E+00
  0.00000000E+00  0.00000000E+00  0.00000000E+00
  0.00000000E+00  0.00000000E+00  0.00000000E+00
  0.00000000E+00  0.00000000E+00  0.00000000E+00
  0.00000000E+00  0.00000000E+00  0.00000000E+00
  0.00000000E+00  0.00000000E+00  0.00000000E+00
  0.00000000E+00  0.00000000E+00  0.00000000E+00
  0.00000000E+00  0.00000000E+00  0.00000000E+00
  0.00000000E+00  0.00000000E+00  0.00000000E+00
  0.00000000E+00  0.00000000E+00  0.00000000E+00
  0.00000000E+00  0.00000000E+00  0.00000000E+00
  0.00000000E+00  0.00000000E+00  0.00000000E+00
  0.00000000E+00  0.00000000E+00  0.00000000E+00
  0.00000000E+00  0.00000000E+00  0.00000000E+00
  0.00000000E+00  0.00000000E+00  0.00000000E+00
  0.00000000E+00  0.00000000E+00  0.00000000E+00
  0.00000000E+00  0.00000000E+00  0.00000000E+00
  0.00000000E+00  0.00000000E+00  0.00000000E+00
  0.00000000E+00  0.00000000E+00  0.00000000E+00
