Ge Se                                   
    1.000000000000000     
     3.8581001759000002    0.0000000000000000    0.0000000000000000
     0.0000000000000000    4.5265750884999996    0.0000000000000000
     0.0000000000000000    0.0000000000000000   11.5851764679000002
   Ge   Se
     4     4
Direct
  0.6847826118672202  0.9513158211158270  0.1319717445072186
  0.1847825759722213  0.4513158084282622  0.3680282282876917
  0.7499998549169717  0.9037565484439227  0.8680282493168505
  0.2499997814687589  0.4037565014541187  0.6319717590821057
  0.6847825956920701  0.8345381684561985  0.3511099272482383
  0.1847826121785161  0.3345381891726191  0.1488900489974512
  0.7499997605040534  0.0205341518219768  0.6488900756728953
  0.2499998376634309  0.5205341758546211  0.8511099464221417
 
  0.00000000E+00  0.00000000E+00  0.00000000E+00
  0.00000000E+00  0.00000000E+00  0.00000000E+00
  0.00000000E+00  0.00000000E+00  0.00000000E+00
  0.00000000E+00  0.00000000E+00  0.00000000E+00
  0.00000000E+00  0.00000000E+00  0.00000000E+00
  0.00000000E+00  0.00000000E+00  0.00000000E+00
  0.00000000E+00  0.00000000E+00  0.00000000E+00
  0.00000000E+00  0.00000000E+00  0.00000000E+00
