Ge Se                                   
    1.000000000000000     
    12.4089955146808197    0.0000059512560090   -0.0000024879208592
     0.0000060036370869   12.5182067764272205   -0.0000025191622246
    -0.0000028588279244   -0.0000028694706751   11.0768996440340004
   Ge   Se
    36    36
Direct
  0.0786712104203602  0.0448505196341600  0.1414953317050092
  0.2522638134396971  0.8610524433806148  0.3834728045663951
  0.5609023948112579  0.2114894383620154  0.3676296761239328
  0.5800538413305603  0.5458642197051873  0.3654959746471249
  0.5691859089131626  0.8967644657289355  0.3780078705776830
  0.8954286821751580  0.1942412047915525  0.3532967705825030
  0.9171416942513133  0.5339643492564861  0.3672982012063883
  0.9035719112011051  0.8655363873326962  0.3610718558922841
  0.0668059335439466  0.1623416772380750  0.6224195252307183
  0.0633908210595564  0.4760343478140427  0.6274039809179328
  0.0896036533079680  0.8142322171473282  0.6199141317266950
  0.4157840512974715  0.1659090345518095  0.6146881215125930
  0.4209421080363072  0.4788499588829609  0.6196772406194455
  0.3922507594618949  0.8093144877716583  0.6127583159755048
  0.7278965656021228  0.1328041526726480  0.6141749106246479
  0.7474414005203656  0.4879490574332408  0.6436483575829541
  0.2408691169173025  0.5404757689657202  0.3737430766437626
  0.2386395775092467  0.2176634696004953  0.3539139855229152
  0.7632543658632756  0.8259771386400914  0.6257426425576753
  0.9042650713875346  0.6671257548878557  0.8887997664038068
  0.9469009640758586  0.0090145000772068  0.8849509263122499
  0.0796555499688054  0.3786618211791506  0.1087257983291181
  0.0658898111843200  0.7034680361622918  0.1296575423731454
  0.4034476744792457  0.0427400399127436  0.1359789354692325
  0.4003032247475176  0.3849762963740133  0.1430509478561675
  0.7316172410828088  0.0351491994700268  0.1371960860680019
  0.7410083098334823  0.3887224574506760  0.1212146690905840
  0.3961623246027415  0.7106603431605691  0.1188321699737642
  0.2556590714973552  0.3259350429143311  0.8606986875673286
  0.2383270372450284  0.6328064874233661  0.8711922381768176
  0.2548197677023154  0.9925896495720750  0.8751104766366495
  0.5745838452056233  0.2958340226288527  0.8856920722862753
  0.5854001481047746  0.6630068898894592  0.8571910704274117
  0.5802389083882105  0.9698846346724181  0.8873812237827181
  0.8829335127196316  0.3154074766569792  0.8813460806381954
  0.7633246896700143  0.7005737067886457  0.1506610377324549
  0.8989392818296551  0.0104107499680595  0.6512073886935923
  0.2277807011317066  0.3338887542401423  0.6251548103504163
  0.2260579770981153  0.6683841422637613  0.6305715994484018
  0.5618346829033101  0.0084899788884059  0.6385673469753215
  0.5845720905750440  0.3479606630888412  0.6559833378070721
  0.5538565031113549  0.6676030601571128  0.6268016933549205
  0.8952702817983891  0.3525127027922821  0.6590874926533914
  0.7507784928538612  0.0177216198774488  0.3566231954572956
  0.0800606630563223  0.0052361087976891  0.3685815956796148
  0.0594808857516256  0.3403982161794161  0.3350944524201935
  0.0698971539952211  0.6647501908804117  0.3598862569455932
  0.4055423431449015  0.0249946217077124  0.3659135987014963
  0.4037742944751841  0.3522655866204261  0.3686435796181868
  0.3991807852282321  0.6789158581341113  0.3333721883362344
  0.2458153552671760  0.0284181968848216  0.6469712647113184
  0.9106960512947992  0.6865067475958995  0.6604410467038804
  0.9182882500204670  0.8462106864531052  0.1224803584614165
  0.2509958867330795  0.1910065343866094  0.1247861472928804
  0.8897804900492901  0.1654296666260393  0.1233771452666943
  0.7337050863604091  0.3447326523105403  0.3539957662611712
  0.0498593043203357  0.1796598187735299  0.8601293084814685
  0.0617364506611366  0.5140804189544710  0.8598250244006849
  0.0913598985228745  0.8522155374043976  0.8626622181598123
  0.4040126395563988  0.1801697400866331  0.8473096110291749
  0.3816274466077729  0.4958700290718880  0.8552392189640443
  0.3962154114887966  0.8409816753980266  0.8396494824771423
  0.7346563319014834  0.1659555836254185  0.8514578132687589
  0.7524678817737041  0.5306618390760107  0.8695225077828823
  0.7196483448131943  0.8364850235447179  0.8525555324157281
  0.2241148016837826  0.5188936082778497  0.1520069689566412
  0.2368753808878452  0.8475873507189888  0.1600275830883291
  0.5738150938791335  0.1763707161701120  0.1389140377946987
  0.5777290001793602  0.5213634979977897  0.1407171740403825
  0.5594570422769607  0.8242742601839552  0.1347208868471625
  0.8982045987296914  0.5168851947647966  0.1412831380785491
  0.7464257307423168  0.6934440595718598  0.3724974157720169
 
  0.00000000E+00  0.00000000E+00  0.00000000E+00
  0.00000000E+00  0.00000000E+00  0.00000000E+00
  0.00000000E+00  0.00000000E+00  0.00000000E+00
  0.00000000E+00  0.00000000E+00  0.00000000E+00
  0.00000000E+00  0.00000000E+00  0.00000000E+00
  0.00000000E+00  0.00000000E+00  0.00000000E+00
  0.00000000E+00  0.00000000E+00  0.00000000E+00
  0.00000000E+00  0.00000000E+00  0.00000000E+00
  0.00000000E+00  0.00000000E+00  0.00000000E+00
  0.00000000E+00  0.00000000E+00  0.00000000E+00
  0.00000000E+00  0.00000000E+00  0.00000000E+00
  0.00000000E+00  0.00000000E+00  0.00000000E+00
  0.00000000E+00  0.00000000E+00  0.00000000E+00
  0.00000000E+00  0.00000000E+00  0.00000000E+00
  0.00000000E+00  0.00000000E+00  0.00000000E+00
  0.00000000E+00  0.00000000E+00  0.00000000E+00
  0.00000000E+00  0.00000000E+00  0.00000000E+00
  0.00000000E+00  0.00000000E+00  0.00000000E+00
  0.00000000E+00  0.00000000E+00  0.00000000E+00
  0.00000000E+00  0.00000000E+00  0.00000000E+00
  0.00000000E+00  0.00000000E+00  0.00000000E+00
  0.00000000E+00  0.00000000E+00  0.00000000E+00
  0.00000000E+00  0.00000000E+00  0.00000000E+00
  0.00000000E+00  0.00000000E+00  0.00000000E+00
  0.00000000E+00  0.00000000E+00  0.00000000E+00
  0.00000000E+00  0.00000000E+00  0.00000000E+00
  0.00000000E+00  0.00000000E+00  0.00000000E+00
  0.00000000E+00  0.00000000E+00  0.00000000E+00
  0.00000000E+00  0.00000000E+00  0.00000000E+00
  0.00000000E+00  0.00000000E+00  0.00000000E+00
  0.00000000E+00  0.00000000E+00  0.00000000E+00
  0.00000000E+00  0.00000000E+00  0.00000000E+00
  0.00000000E+00  0.00000000E+00  0.00000000E+00
  0.00000000E+00  0.00000000E+00  0.00000000E+00
  0.00000000E+00  0.00000000E+00  0.00000000E+00
  0.00000000E+00  0.00000000E+00  0.00000000E+00
  0.00000000E+00  0.00000000E+00  0.00000000E+00
  0.00000000E+00  0.00000000E+00  0.00000000E+00
  0.00000000E+00  0.00000000E+00  0.00000000E+00
  0.00000000E+00  0.00000000E+00  0.00000000E+00
  0.00000000E+00  0.00000000E+00  0.00000000E+00
  0.00000000E+00  0.00000000E+00  0.00000000E+00
  0.00000000E+00  0.00000000E+00  0.00000000E+00
  0.00000000E+00  0.00000000E+00  0.00000000E+00
  0.00000000E+00  0.00000000E+00  0.00000000E+00
  0.00000000E+00  0.00000000E+00  0.00000000E+00
  0.00000000E+00  0.00000000E+00  0.00000000E+00
  0.00000000E+00  0.00000000E+00  0.00000000E+00
  0.00000000E+00  0.00000000E+00  0.00000000E+00
  0.00000000E+00  0.00000000E+00  0.00000000E+00
  0.00000000E+00  0.00000000E+00  0.00000000E+00
  0.00000000E+00  0.00000000E+00  0.00000000E+00
  0.00000000E+00  0.00000000E+00  0.00000000E+00
  0.00000000E+00  0.00000000E+00  0.00000000E+00
  0.00000000E+00  0.00000000E+00  0.00000000E+00
  0.00000000E+00  0.00000000E+00  0.00000000E+00
  0.00000000E+00  0.00000000E+00  0.00000000E+00
  0.00000000E+00  0.00000000E+00  0.00000000E+00
  0.00000000E+00  0.00000000E+00  0.00000000E+00
  0.00000000E+00  0.00000000E+00  0.00000000E+00
  0.00000000E+00  0.00000000E+00  0.00000000E+00
  0.00000000E+00  0.00000000E+00  0.00000000E+00
  0.00000000E+00  0.00000000E+00  0.00000000E+00
  0.00000000E+00  0.00000000E+00  0.00000000E+00
  0.00000000E+00  0.00000000E+00  0.00000000E+00
  0.00000000E+00  0.00000000E+00  0.00000000E+00
  0.00000000E+00  0.00000000E+00  0.00000000E+00
  0.00000000E+00  0.00000000E+00  0.00000000E+00
  0.00000000E+00  0.00000000E+00  0.00000000E+00
  0.00000000E+00  0.00000000E+00  0.00000000E+00
  0.00000000E+00  0.00000000E+00  0.00000000E+00
  0.00000000E+00  0.00000000E+00  0.00000000E+00
