Ge Se
 1.0000000000000000
     4.5999999999999996    0.0000000000000000    0.0000000000000000
     0.0000000000000000    4.4500000000000011    0.0000000000000000
     0.0000000000000000    0.0000000000000000   11.1422210000000010
 Ge  Se 
   4   4
Selective dynamics
Cartesian
  0.4876483734333498  1.1125000000000003  1.4881165140435328   T   T   T
  2.7876483734333504  3.3375000000000008  4.0829939859564623   T   T   T
  4.1123516265666487  3.3375000000000008  9.6541044859564646   T   T   T
  1.8123516265666502  1.1125000000000003  7.0592270140435351   T   T   T
 -0.2093452143041670  1.1125000000000003  3.9274719437032375   T   T   T
  2.0906547856958331  3.3375000000000008  1.6436385562967588   T   T   T
  4.8093452143041686  3.3375000000000008  7.2147490562967578   T   T   T
  2.5093452143041666  1.1125000000000003  9.4985824437032367   T   T   T
