Ge Se
 1.0000000000000000
     3.8000000000000003    0.0000000000000000    0.0000000000000000
     0.0000000000000000    4.5000000000000000    0.0000000000000000
     0.0000000000000000    0.0000000000000000   11.1422209999999993
 Ge  Se 
   4   4
Selective dynamics
Cartesian
  0.9500000000000001  0.4969600019174627  1.3771255875813975   T   T   T
  2.8500000000000001  2.7469600019174623  4.1939849124186006   T   T   T
  2.8500000000000001  4.0030399980825386  9.7650954124186029   T   T   T
  0.9500000000000001  1.7530399980825373  6.9482360875813987   T   T   T
  0.9500000000000001 -0.0253154335008515  3.9255165107996901   T   T   T
  2.8500000000000001  2.2246845664991488  1.6455939892003089   T   T   T
  2.8500000000000001  4.5253154335008512  7.2167044892003078   T   T   T
  0.9500000000000001  2.2753154335008512  9.4966270107996920   T   T   T
