Ge Se 
 1.0000000000000000
    12.4293196494667750   -0.0000010755990227   -0.0000024379419025
    -0.0000010832099985   12.5172698159975830    0.0000014473284121
    -0.0000027973737703    0.0000016490429723   11.0791108358325783
 Ge  Se 
  36  36
Cartesian
  0.7814055242638637  0.3093143030096033  1.5849699557812436
  3.0413316080690871 10.8877830060378162  4.1152380189323692
  7.1902340304455556  2.7430126423856827  4.0086805480428698
  7.0004787245652560  6.5103703698090030  4.0588135976485429
  7.0736053550192990 10.9340597774654249  4.3618713230362651
 11.1555148513555071  2.4789827505116837  4.2699717769651437
 11.3108855959263082  6.9439336825603144  4.2973801279788804
 10.9873780789488009 10.6966309145113989  4.0808590502950857
  1.0482275123768658  1.7498893399855637  7.0621666666792340
  0.8591507974165455  5.7537852864753312  6.7508093340788093
  0.4445852568452923 10.7423699039138274  6.6680073014307801
  4.9224607689768654  2.0073673138996266  7.0234164269699226
  4.8376586219751010  6.4382672444496967  6.9213544702575724
  4.9936373010912574  9.8545944316301330  6.7931545212792690
  8.6516135210665563  2.2957425458816965  7.0020223914070367
  9.2788845091851027  6.0401811192104793  6.9812329051580351
  3.1062796220420301  6.7022578884929676  3.9061828570044628
  2.6351115166690859  2.4060774009285115  4.1079037774478202
  9.1063989566644867 10.1531702601191647  6.9674266100924180
 11.5224865868982249  8.0511449571735092  9.6850517318122993
 11.0251191397996617 12.3443537973190214  9.6146543107739397
  0.8041999723022792  4.5107997203597492  1.5325452028728841
  0.6508440562275473  8.7118296149491474  1.3948852511281020
  5.1098846934360900  0.5814302653845445  1.2643177727435226
  4.9022041524530371  4.6430299675451447  1.5296100526477363
  9.0797931404190440  0.2962258116208891  1.5562511669675758
  9.3814908140580737  4.5940697422145949  1.0172526677540219
  4.8991756841279193  8.8110978659106713  1.3436109598796717
  3.0109749954817224  3.9473735019507084  9.5730685817409231
  2.6288064492435730  8.4287518271987363  9.8425138745450287
  3.0606723522720953 11.9689669792210687  9.6354819473178974
  6.7391571794204337  4.1050885464009435  9.8290767078808710
  7.1137810493989679  8.1928072581919817  9.7521987384877082
  7.0562464178212112 12.2540296573562468  9.5676841393133731
 11.4245429411858126  3.7769150316179236  9.6773909587349731
  8.8509752341196162  8.7139482377495874  1.3347270237164934
 11.3861045834516226  0.2431697155344042  7.0856883820982448
  2.9825780202074754  4.2605269917202122  6.9622611847158327
  2.9724757760543863  8.2631717752383338  7.2526960156080023
  7.1431648376347914  0.2538046155745220  7.1034594030964522
  6.9793111062678657  4.2540211950507159  7.4281289163067870
  7.2233370105930996  8.3265572714917617  7.1624483534285712
 11.2197819625936024  4.1544537793438208  7.1351618448944585
  9.2526034362987382  0.1549948605976590  4.1458024964482387
  1.0878819714857102  0.1590519098087365  4.1335224528469858
  0.8660982098884352  4.1533016869934016  4.0588310774435108
  0.9466640800491334  8.4360046702456835  3.9376586726753580
  5.1125909941757701  0.0258834286086013  3.8517349499328213
  5.0979927996102630  4.6242503649846682  4.0172729314987867
  5.2757122737569766  8.4911362581730252  3.9100294242294122
  3.1185901496521962  0.0899685221358346  7.1130978976187604
 11.2211079574764589  8.7043503197636003  7.1478178870531641
 11.3925486975790751 10.6169981443770070  1.5824637603735090
  3.0171590711856568  2.3624907105224979  1.6031714807986603
 11.3586896971365157  2.0643559791810078  1.6137355351529332
  9.4028584302604958  4.3326567661383715  3.8588188028500365
  1.0747401437235704  2.1537006780870906  9.5725466802567354
  0.8627612680479504  6.4192880744694021  9.2836622746881403
  1.1196136880795302 10.4460699688807281  9.3849486437410885
  4.9589361395029377  2.2685930370255560  9.7377438095167275
  5.1865288642598522  6.4684282983971784  9.6204219714569721
  5.2198695704379769 10.3632469398957276  9.2523086583034448
  9.4262331044192926  2.0100723202068593  9.5806870802947142
  9.4303534986203594  6.3782661880387286  9.5243039063526496
  9.1858039131333644 10.5205726109524829  9.5030412591011881
  3.1080662180015692  6.3489436229707534  1.4813001775490369
  2.9945320276850502 10.4818846666705614  1.7064136075938960
  7.2738395805046796  2.1792266786467613  1.6447795888943453
  7.4025029168313869  6.4316604988237467  1.5835240940228430
  7.1167170655902785 10.6382735282066090  1.7698750544783799
 11.2549930669562102  6.3948284736135372  1.7149491663838061
  9.4947953319128491  8.7266867077698862  3.8668384148007338
