Ge Se                                   
    1.000000000000000     
    12.4565591484434872   -0.0000052920230674   -0.0000042767956530
    -0.0000053135534570   12.5072377002098012    0.0000018376601903
    -0.0000048877843628    0.0000020916808449   11.0591545806380331
   Ge   Se
    36    36
Direct
  0.0538192115741580  0.0226836396323833  0.1437536437751064
  0.2711900100322495  0.8351999091579074  0.3893638436374260
  0.5756375157335398  0.1977727119536326  0.3816154666695226
  0.5907596067208800  0.5048379768001823  0.3500841252644307
  0.5796428144406178  0.8852086061857634  0.3683916252168586
  0.9314517064341246  0.1852103939134437  0.4060515159799678
  0.9162963624116287  0.5576007991142475  0.3754393466040185
  0.9198564472629513  0.8494217887962137  0.3635092391537285
  0.1094155636773948  0.1678143500002136  0.6239186739436064
  0.0603583691173597  0.4797175086074716  0.6201758210260735
  0.0842708560311536  0.8414082749436460  0.6343904372914722
  0.4047190775045237  0.1689489811303417  0.6223378177449064
  0.4190747569943056  0.5025231612623102  0.6227963626730926
  0.4136975818109860  0.7961402143100287  0.6282310973553180
  0.7309756356891768  0.1480998030844631  0.6460687197363626
  0.7431913929573639  0.4967873553583289  0.6325241940263595
  0.2524966589332180  0.5234648942883808  0.3878303656169422
  0.2297484281656779  0.2095105952198537  0.3809364595705844
  0.7593381989373498  0.8394188553884518  0.6272855486156033
  0.9150839572003235  0.6561512817893629  0.8827978653886603
  0.9316587825036180  0.9879198000773002  0.8774237124560429
  0.0814156247580158  0.3832084902838417  0.1259726799084788
  0.1024859416236552  0.7011379017063746  0.1273562541580446
  0.3904662215773413  0.0563750541372983  0.1300410104912544
  0.4124260262064183  0.3700315917843326  0.1070695649747648
  0.7716704561523642  0.0234438720219075  0.1294851426712071
  0.7470631428240893  0.3635632718082249  0.1267452100558160
  0.4087362086654522  0.7074474345099802  0.1251827980267635
  0.2492087070464777  0.3450448920561016  0.8894697432019072
  0.2230251070422895  0.6369620116868973  0.8543655347174450
  0.2439981487776421  0.9848835906195603  0.8787807611006215
  0.5649980339147120  0.3192418517228077  0.8743729984205615
  0.5950895418244144  0.6766876695020869  0.8595000765702139
  0.5573188338052688  0.9683538800564193  0.8823348909890427
  0.9024793399529401  0.3109202332838805  0.8553870945702258
  0.7323093767545501  0.7010749071185884  0.1412188221251967
  0.8940528516211401  0.0091955089315476  0.6574504980478793
  0.2299343454025689  0.3353245583948379  0.6447608139562462
  0.2273785677841289  0.6829182308748685  0.6345560266905608
  0.5627575619960723  0.0224708280557593  0.6575182424325945
  0.5689699712305796  0.3616095211789627  0.6494485912354619
  0.5640830345687249  0.6707673247049541  0.6276229942921177
  0.9054722610008099  0.3486033862406686  0.6245325397535240
  0.7082006413567115  0.0471909819678942  0.3574081309762676
  0.0631983756721937  0.9985596135788697  0.3653990456141116
  0.0653171442934166  0.3409779523853302  0.3554927086596109
  0.0556282040243374  0.7048146565515978  0.3599722041994085
  0.4002165877674813  0.0068090964502261  0.3582531331484162
  0.3724205175185915  0.3717412387207304  0.3405482595875426
  0.3965588071292103  0.6683737859327721  0.3614192554992215
  0.2415914652408588  0.0148626023685168  0.6462116218533680
  0.9094699177079661  0.6901140327643418  0.6327257223040448
  0.8883856574130391  0.8494073378777358  0.1330713807027593
  0.2220108772382616  0.1806260917343820  0.1462814284249916
  0.9099486901009186  0.1705217913461539  0.1676451430646821
  0.7299299116238700  0.3491632524082675  0.3428162583900374
  0.0514695196055399  0.1719991798526195  0.8605673497240005
  0.0529840564670963  0.4968380311484850  0.8687344946207816
  0.0792562680154063  0.8522712712595535  0.8557943438923274
  0.3984024559931072  0.1949675575843912  0.8473620793962979
  0.3784773915405353  0.5098662511488357  0.8506350626670880
  0.3948004595364267  0.8379729888716199  0.8578305731565408
  0.7266501030754213  0.1726850927478907  0.8768120418751195
  0.7475688674243770  0.5289188402471297  0.8586787337992163
  0.7239326481073363  0.8271307845449485  0.8661248040034195
  0.2192754754365964  0.5347116596879715  0.1621403806644892
  0.2517197344759410  0.8510434876712196  0.1509141734651820
  0.5370276287484685  0.2004174916742656  0.1490298656108706
  0.5626446325958270  0.5103297751269622  0.1101751068235259
  0.5657520058126124  0.8569889963025190  0.1425202880593943
  0.8907589574843797  0.5064034051474238  0.1462485589590727
  0.7366957846731168  0.6609588120215477  0.3598705875899881
 
  0.00000000E+00  0.00000000E+00  0.00000000E+00
  0.00000000E+00  0.00000000E+00  0.00000000E+00
  0.00000000E+00  0.00000000E+00  0.00000000E+00
  0.00000000E+00  0.00000000E+00  0.00000000E+00
  0.00000000E+00  0.00000000E+00  0.00000000E+00
  0.00000000E+00  0.00000000E+00  0.00000000E+00
  0.00000000E+00  0.00000000E+00  0.00000000E+00
  0.00000000E+00  0.00000000E+00  0.00000000E+00
  0.00000000E+00  0.00000000E+00  0.00000000E+00
  0.00000000E+00  0.00000000E+00  0.00000000E+00
  0.00000000E+00  0.00000000E+00  0.00000000E+00
  0.00000000E+00  0.00000000E+00  0.00000000E+00
  0.00000000E+00  0.00000000E+00  0.00000000E+00
  0.00000000E+00  0.00000000E+00  0.00000000E+00
  0.00000000E+00  0.00000000E+00  0.00000000E+00
  0.00000000E+00  0.00000000E+00  0.00000000E+00
  0.00000000E+00  0.00000000E+00  0.00000000E+00
  0.00000000E+00  0.00000000E+00  0.00000000E+00
  0.00000000E+00  0.00000000E+00  0.00000000E+00
  0.00000000E+00  0.00000000E+00  0.00000000E+00
  0.00000000E+00  0.00000000E+00  0.00000000E+00
  0.00000000E+00  0.00000000E+00  0.00000000E+00
  0.00000000E+00  0.00000000E+00  0.00000000E+00
  0.00000000E+00  0.00000000E+00  0.00000000E+00
  0.00000000E+00  0.00000000E+00  0.00000000E+00
  0.00000000E+00  0.00000000E+00  0.00000000E+00
  0.00000000E+00  0.00000000E+00  0.00000000E+00
  0.00000000E+00  0.00000000E+00  0.00000000E+00
  0.00000000E+00  0.00000000E+00  0.00000000E+00
  0.00000000E+00  0.00000000E+00  0.00000000E+00
  0.00000000E+00  0.00000000E+00  0.00000000E+00
  0.00000000E+00  0.00000000E+00  0.00000000E+00
  0.00000000E+00  0.00000000E+00  0.00000000E+00
  0.00000000E+00  0.00000000E+00  0.00000000E+00
  0.00000000E+00  0.00000000E+00  0.00000000E+00
  0.00000000E+00  0.00000000E+00  0.00000000E+00
  0.00000000E+00  0.00000000E+00  0.00000000E+00
  0.00000000E+00  0.00000000E+00  0.00000000E+00
  0.00000000E+00  0.00000000E+00  0.00000000E+00
  0.00000000E+00  0.00000000E+00  0.00000000E+00
  0.00000000E+00  0.00000000E+00  0.00000000E+00
  0.00000000E+00  0.00000000E+00  0.00000000E+00
  0.00000000E+00  0.00000000E+00  0.00000000E+00
  0.00000000E+00  0.00000000E+00  0.00000000E+00
  0.00000000E+00  0.00000000E+00  0.00000000E+00
  0.00000000E+00  0.00000000E+00  0.00000000E+00
  0.00000000E+00  0.00000000E+00  0.00000000E+00
  0.00000000E+00  0.00000000E+00  0.00000000E+00
  0.00000000E+00  0.00000000E+00  0.00000000E+00
  0.00000000E+00  0.00000000E+00  0.00000000E+00
  0.00000000E+00  0.00000000E+00  0.00000000E+00
  0.00000000E+00  0.00000000E+00  0.00000000E+00
  0.00000000E+00  0.00000000E+00  0.00000000E+00
  0.00000000E+00  0.00000000E+00  0.00000000E+00
  0.00000000E+00  0.00000000E+00  0.00000000E+00
  0.00000000E+00  0.00000000E+00  0.00000000E+00
  0.00000000E+00  0.00000000E+00  0.00000000E+00
  0.00000000E+00  0.00000000E+00  0.00000000E+00
  0.00000000E+00  0.00000000E+00  0.00000000E+00
  0.00000000E+00  0.00000000E+00  0.00000000E+00
  0.00000000E+00  0.00000000E+00  0.00000000E+00
  0.00000000E+00  0.00000000E+00  0.00000000E+00
  0.00000000E+00  0.00000000E+00  0.00000000E+00
  0.00000000E+00  0.00000000E+00  0.00000000E+00
  0.00000000E+00  0.00000000E+00  0.00000000E+00
  0.00000000E+00  0.00000000E+00  0.00000000E+00
  0.00000000E+00  0.00000000E+00  0.00000000E+00
  0.00000000E+00  0.00000000E+00  0.00000000E+00
  0.00000000E+00  0.00000000E+00  0.00000000E+00
  0.00000000E+00  0.00000000E+00  0.00000000E+00
  0.00000000E+00  0.00000000E+00  0.00000000E+00
  0.00000000E+00  0.00000000E+00  0.00000000E+00
