&CONTROL
   calculation      = 'bands'
   verbosity        = 'high'
   wf_collect       = .true.
   outdir           = './'
   wfcdir           = './'
   prefix           = 'CNT_PBE'
   pseudo_dir       = './'
/
&SYSTEM
   nbnd             = 800
   ecutwfc          = 60.0
   ntyp             = 1
   nat              = 364
   ibrav            = 0
/
&ELECTRONS
   electron_maxstep = 100
   conv_thr         = 7.35e-08
   mixing_mode      = 'plain'
   mixing_beta      = 0.7
   mixing_ndim      = 8
   diagonalization  = 'david'
   diago_david_ndim = 2
   diago_full_acc   = .true.
   startingwfc      = 'random'
/
&IONS
/
&CELL
/

ATOMIC_SPECIES
C 12.011 C_ONCV_PBE-1.2.upf

K_POINTS CRYSTAL
4
   0       0       0         1
   0       0       0.25      1
   0       0       0.5       1
   0       0       0.75      1

CELL_PARAMETERS angstrom
32.3722991943000 0.00000000000000 0.00000000000000
0.00000000000000 19.92218961916977 0.00000000000000
0.00000000000000 0.00000000000000 40.44962340753452

ATOMIC_POSITIONS angstrom
C    12.009908560        10.724856501         0.099603129
C    11.939886540        10.834771368         2.542371288
C    10.944795096        11.854208107         2.469587076
C    10.375754633        12.181276290         1.210316133
C     8.993962270        12.527321641         1.137117775
C    11.865863620        10.942204552         4.985366532
C    10.836204478        11.926662602         4.912605525
C    10.256272730        12.233846439         3.653219387
C     8.863294827        12.531747113         3.579814069
C     8.208410122        12.489089453         2.320578159
C     6.866372058        12.011619325         2.247522873
C     6.331431381        11.631503655         0.988136960
C     5.439293888        10.520927356         0.915029011
C    11.787679649        11.046955378         7.428933760
C    10.724728234        11.995255645         7.356097111
C    10.134926892        12.282191787         6.096411721
C     8.732536696        12.531856355         6.022908461
C     8.079684760        12.466496626         4.763442160
C     6.754965278        11.943001347         4.690519623
C     6.233426216        11.544835876         3.430995763
C     5.380143375        10.404230010         3.357749865
C     5.145034789         9.791623264         2.098429725
C     5.017189780         8.372831271         2.025135007
C     5.138837108         7.727904446         0.765799497
C     5.774635293         6.453092891         0.692842756
C    11.706001281        11.149011975         9.873177545
C    10.610980922        12.060019294         9.800155860
C    10.011689141        12.326423951         8.540166697
C     8.601628060        12.527700424         8.466585686
C     7.951607724        12.439819114         7.206741779
C     6.645749006        11.870886450         7.133897295
C     6.138357327        11.454989404         5.874205275
C     5.324928158        10.285606686         5.800786999
C     5.111347443         9.665218851         4.541287247
C     5.032479932         8.242907972         4.468132662
C     5.176306834         7.602651226         3.208568118
C     5.855516278         6.350515616         3.135477421
C     6.313858583         5.880823015         1.876243621
C     7.549059979         5.171221597         1.802712635
C     8.185814250         5.011914681         0.543503283
C     9.609617510         5.056200872         0.470583722
C    12.009658684        10.720445277        13.578911272
C    11.620901841        11.248385027        12.318203061
C    10.495249079        12.121196969        12.244911959
C     9.887146056        12.366495435        10.984595518
C     8.470977983        12.519077462        10.911035601
C     7.824476162        12.408841994         9.650820418
C     6.538975050        11.795306695         9.577907223
C     6.046554667        11.361901306         8.317966278
C     5.274269549        10.165053823         8.244379842
C     5.082215257         9.537727959         6.984657686
C     5.052500350         8.113612812         6.911602851
C     5.217983920         7.478770650         5.651842724
C     5.940008396         6.250857585         5.578495569
C     6.414367325         5.797415267         4.319085623
C     7.673322316         5.131067588         4.245626060
C     8.315118474         4.993766325         2.986261921
C     9.736521387         5.087269422         2.913283029
C    10.354822990         5.307249365         1.654084790
C    11.515774746         6.132638574         1.580507395
C    11.926851537         6.644358915         0.321332209
C    12.482558882         7.955937395         0.248472845
C    11.939537293        10.830705681        16.024928267
C    11.532554985        11.344726625        14.763969323
C    10.377603132        12.178285207        14.690433516
C     9.761529182        12.402521417        13.429789193
C     8.340980090        12.506077710        13.356379958
C     7.698743998        12.373448900        12.095763361
C     6.435233847        11.715945042        12.022694061
C     5.957892332        11.266088105        10.762434276
C     5.227542858        10.043175812        10.688793595
C     5.057418264         9.409585773         9.428725475
C     5.077129474         7.985338824         9.355725489
C     5.264439993         7.356627847         8.095746572
C     6.028311837         6.154374092         8.022181232
C     6.517664734         5.717547779         6.762423515
C     7.798762155         5.094972737         6.689120961
C     8.444844302         4.980040473         5.429447023
C     9.862096775         5.122554461         5.356328299
C    10.472578920         5.363599629         4.096994899
C    11.604452517         6.228417341         4.023444325
C    11.997611605         6.753960306         2.764125089
C    12.507923642         8.083860504         2.691354137
C    12.566915450         8.737628181         1.432100749
C    12.302855090        10.137429946         1.358727978
C    11.865652336        10.938578205        18.471318950
C    11.441554048        11.438435738        17.210193655
C    10.258480123        12.231655669        17.136507167
C     9.634870357        12.434333285        15.875616934
C     8.211584214        12.488606178        15.802382488
C     7.574263141        12.333999619        14.541446448
C     6.334326654        11.633021163        14.468163784
C     5.873096793        11.166833793        13.207555625
C     5.185452368         9.919488190        13.133994503
C     5.037157136         9.280653960        11.873447822
C     5.106079800         7.857953017        11.800467725
C     5.314937968         7.236155728        10.540171777
C     6.119824584         6.060965987        10.466497343
C     6.623959200         5.641282888         9.206396677
C     7.925667961         5.063029660         9.133260474
C     8.575056373         4.970509143         7.873177287
C     9.986511546         5.161927155         7.799937417
C    10.588040628         5.424067827         6.540280957
C    11.689468023         6.327375988         6.466891611
C    12.064436378         6.865974513         5.207270713
C    12.528425963         8.212712761         5.134447926
C    12.565066951         8.868016351         3.875067514
C    12.252912822        10.257875942         3.801601622
C    11.788144668        11.043713753        20.917806069
C    11.346881198        11.528566001        19.656694034
C    10.137300226        12.280574536        19.582962944
C     9.507234220        12.461648436        18.321878634
C     8.082886831        12.466647427        18.248841881
C     7.451541058        12.289955065        16.987723819
C     6.236689067        11.546446002        16.914206093
C     5.791826041        11.064793820        15.653329120
C     5.147354578         9.794619096        15.579904214
C     5.021244224         9.151097570        14.319000720
C     5.139127986         7.731618661        14.245900079
C     5.369529462         7.117619085        12.985285893
C     6.214417841         5.970877284        12.911588556
C     6.732549336         5.568791583        11.651084065
C     8.053408292         5.035687792        11.578079859
C     8.705585854         4.965546962        10.317697119
C    10.109560202         5.205794785        10.244269801
C    10.701512981         5.488376699         8.984182998
C    11.771064385         6.429211726         8.911000989
C    12.127057650         6.980320790         7.650984101
C    12.544244327         8.342304773         7.578035948
C    12.558173672         8.998309528         6.318371051
C    12.198091713        10.376480267         6.244931076
C    11.707379937        11.146252437        23.364214834
C    11.249739502        11.615720617        22.103219727
C    10.014848761        12.325498959        22.029598333
C     9.378743298        12.484552364        20.768460984
C     7.955139745        12.440219270        20.695447134
C     7.330150358        12.241908944        19.434307374
C     6.141597506        11.456951003        19.360638967
C     5.713859143        10.960122550        18.099576355
C     5.113644077         9.668493724        18.026329855
C     5.009906251         9.021060280        16.765182862
C     5.176890037         7.606557207        16.691867651
C     5.428001741         7.000857025        15.430994294
C     6.312041439         5.884065235        15.357383749
C     6.843644979         5.500237131        14.096526063
C     8.182007269         5.013015408        14.023519446
C     8.836103758         4.965355492        12.762857042
C    10.230891569         5.253890183        12.689266990
C    10.812687252         5.556716823        11.428862551
C    11.849086275         6.533949491        11.355836647
C    12.185704070         7.096854868        10.095429195
C    12.555506084         8.472415682        10.022279130
C    12.546793249         9.128298134         8.762231504
C    12.139310225        10.493210861         8.688864459
C    11.622994426        11.245976962        25.810295718
C    11.149212429        11.699150332        24.549498304
C     9.890505384        12.365682060        24.476093890
C     9.249465123        12.502887143        23.214992704
C     7.828260953        12.409360891        23.141937870
C     7.210689680        12.189480097        21.880880079
C     6.049933290        11.364044579        21.807155017
C     5.639422819        10.852819982        20.546061063
C     5.084134184         9.541267030        20.472967655
C     5.002805063         8.890704170        19.211747129
C     5.218342814         7.482803090        19.138222171
C     5.490592140         6.886330261        17.877213804
C     6.412533298         5.800645019        17.803757556
C     6.957049797         5.435430141        16.542626234
C     8.311413758         4.994685973        16.469491840
C     8.966612979         4.969670536        15.208608839
C    10.350565461         5.306212163        15.134966952
C    10.921369523         5.628910682        13.874218962
C    11.923229791         6.641377925        13.801285877
C    12.240278198         7.215460974        12.540618652
C    12.562215092         8.602943966        12.467199772
C    12.530808944         9.257994638        11.206801361
C    12.076515295        10.607952545        11.133536779
C    11.535395267        11.342833896        28.255860671
C    11.045997508        11.779261240        26.995371851
C     9.765018754        12.402054765        26.922203705
C     9.119530905        12.516811886        25.661319499
C     7.702370567        12.374306210        25.588105545
C     7.092695452        12.133282415        24.327243038
C     5.960910614        11.268497357        24.253619233
C     5.568567721        10.743251837        22.992563853
C     5.058723115         9.413381918        22.919554826
C     5.000095990         8.760303533        21.658458461
C     5.264083510         7.360707190        21.584784028
C     5.556568880         6.773861871        20.323716594
C     6.515577937         5.720772781        20.250480942
C     7.072332058         5.374450170        18.989226665
C     8.441097136         4.980673956        18.915929535
C     9.096775847         4.978285186        17.654878978
C    10.468325251         5.362297042        17.581273255
C    11.027611892         5.704661425        16.320256450
C    11.993804624         6.751162771        16.247317338
C    12.290596726         7.335856505        14.986421077
C    12.564385824         8.733558931        14.912804505
C    12.510327848         9.387058253        13.652096294
C    11.444721387        11.436899231        30.700757807
C    10.940264538        11.856069964        29.440579992
C     9.638499821        12.434288164        29.367648113
C     8.989151928        12.526656692        28.107125541
C     7.577718463        12.335451820        28.033771756
C     6.976618221        12.073220905        26.773188911
C     5.875455655        11.169807065        26.699803785
C     5.501187241        10.631405056        25.438883415
C     5.037522301         9.284702430        25.365809294
C     5.001570641         8.629893989        24.104929910
C     5.313854049         7.240277817        24.031207258
C     5.626608748         6.663889414        22.770243493
C     6.621298848         5.644393899        22.697179014
C     7.189801452         5.317738934        21.436000680
C     8.571249392         4.971242071        21.362502241
C     9.226604905         4.991445534        20.101393822
C    10.584046481         5.422466606        20.027947218
C    11.131189566         5.783778471        18.766715843
C    12.060636150         6.863111670        18.693671858
C    12.336929791         7.457802792        17.432690011
C    12.562253683         8.864160241        17.359007139
C    12.485657722         9.515269309        16.098013237
C    11.350656342        11.527527018        33.144929265
C    10.831929584        11.929227405        31.885062455
C     9.510951478        12.462099652        31.812284873
C     8.858630166        12.531959659        30.552205905
C     7.454570918        12.292095963        30.478818367
C     6.862777809        12.009402433        29.218556171
C     5.793493163        11.068366733        29.145433832
C     5.437895454        10.517261825        27.884814824
C     5.020851081         9.155347900        27.811600871
C     5.007517481         8.499632873        26.550957754
C     5.367730648         7.121647963        26.477305018
C     5.700206687         6.556319085        25.216502782
C     6.729336171         5.571575463        25.143525096
C     7.308867539         5.264586361        23.882604727
C     8.701545399         4.966174507        23.808947170
C     9.355885009         5.009025715        22.547983404
C    10.697693457         5.486648425        22.474733287
C    11.232055273         5.866467243        21.213460928
C    12.123518875         6.977302397        21.140172237
C    12.379016904         7.581198905        19.879137350
C    12.555521520         8.994518725        19.805506313
C    12.456648062         9.642691332        18.544373785
C    11.253815654        11.614957113        35.588592025
C    10.721453806        11.998626698        34.328992824
C     9.382785683        12.485485667        34.256220063
C     8.728239612        12.532725538        32.996555769
C     7.333309979        12.244313447        32.923103137
C     6.751280340        11.941306915        31.663258025
C     5.715013490        10.963950756        31.590321324
C     5.378766649        10.400839958        30.330049485
C     5.008867194         9.025326046        30.256690878
C     5.017956289         8.369535024        28.996368410
C     5.425327882         7.004671575        28.922910956
C     5.777385369         6.451247658        27.662328112
C     6.839961006         5.502709910        27.589304619
C     7.429750288         5.215812359        26.328704898
C     8.831929200         4.965752087        26.255059395
C     9.484389439         5.031170889        24.994278857
C    10.808844574         5.555005767        24.921190270
C    11.329863625         5.953031124        23.660146945
C    12.182696883         7.093830538        23.586612343
C    12.417016288         7.705999129        22.325581073
C    12.544709346         9.124560171        22.252116387
C    12.423214933         9.768865388        20.990933231
C    11.153808592        11.698487758        38.031806358
C    10.608431036        12.063821377        36.772424138
C     9.253762208        12.504259788        36.699538066
C     8.597873177        12.528936517        35.440170310
C     7.213821805        12.192316817        35.366705624
C     6.642508345        11.869307196        34.107188394
C     5.640420874        10.856884482        34.034326431
C     5.323364749        10.282386433        32.774556056
C     5.001257573         8.894850601        32.701004578
C     5.032941574         8.239607569        31.441077496
C     5.487063977         6.889547545        31.367839434
C     5.857911318         6.348546299        30.107543485
C     6.952627776         5.437226097        30.034358463
C     7.552273627         5.171115918        28.774142074
C     8.962308176         4.969879816        28.700520680
C     9.612330443         5.057833559        27.440046325
C    10.917937837         5.627082667        27.367015600
C    11.424874145         6.042879971        26.106292923
C    12.238085276         7.212271594        26.032613668
C    12.451306133         7.832285989        24.771821076
C    12.529903025         9.254450223        24.698558905
C    12.386168742         9.894099016        23.437469773
C    11.050773118        11.778141513         0.026722500
C    10.493301209        12.124792442        39.215476942
C     9.124218721        12.518293772        39.142441394
C     8.467749864        12.520532037        37.883268921
C     7.096095300        12.136313870        37.809869329
C     6.536202302        11.793702505        36.550547381
C     5.569778507        10.747202346        36.477656487
C     5.272689256        10.162049679        35.218279088
C     4.998583231         8.764287289        35.144621531
C     5.052639760         8.110310035        33.885085013
C     5.553011292         6.776706903        33.811991605
C     5.942191670         6.248588447        32.552115151
C     7.067990112         5.375884560        32.478742079
C     7.676330951         5.130658526        31.218846339
C     9.092541473         4.978437768        31.145362365
C     9.739088639         5.088989384        29.885172496
C    11.024327816         5.702853001        29.812069444
C    11.516758811         6.136063655        28.551792782
C    12.289215176         7.332757962        28.478079774
C    12.481034546         7.959725823        27.217571667
C    12.510633680         9.383764382        27.144492724
C    12.344823536        10.018081115        25.883721830
C     8.337970974        12.507174876        40.325993844
C     6.980377929        12.075925822        40.252760604
C     6.432578800        11.714372913        38.993472408
C     5.502778146        10.635178641        38.920485078
C     5.226063384        10.040029179        37.661334303
C     5.000387350         8.633592174        37.587705677
C     5.077122720         7.981902463        36.328395783
C     5.623237361         6.666327758        36.255447027
C     6.030406352         6.151927436        34.995891223
C     7.185601327         5.318568933        34.922373497
C     7.802189982         5.094566049        33.662767064
C     9.222803713         4.991206272        33.589504892
C     9.865136765         5.124070189        32.329587454
C    11.128615561         5.781702287        32.256421718
C    11.605621818         6.231935633        30.996506691
C    12.336300761         7.454660909        30.922911816
C    12.506366504         8.088100741        29.662753289
C    12.487026731         9.512358970        29.589823821
C    12.299283512        10.140626450        28.329407328
C     5.183519452         9.916477515        40.103931449
C     5.006554158         8.503009863        40.030428189
C     5.105826548         7.854248895        38.771197854
C     5.697089516         6.558253968        38.698306960
C     6.121807668         6.058112644        37.438977779
C     7.305133880         5.264996611        37.365416657
C     7.929145473         5.062409238        36.106010328
C     9.352570061         5.008245587        36.032991657
C     9.990031026         5.163204213        34.773337006
C    11.230153712         5.864120330        34.700098943
C    11.691360901         6.330719137        33.440470812
C    12.379246519         7.578052866        33.367076041
C    12.527344456         8.217159606        32.107185123
C    12.458931672         9.639963854        32.034277353
C    12.249817840        10.261757581        30.774309285
C     6.216463153         5.967830393        39.881700291
C     7.426422315         5.215926350        39.808134348
C     8.057049333         5.034717085        38.548865439
C     9.481588712         5.029808931        38.476013119
C    10.113376831         5.206924010        37.216575448
C    11.328426118         5.950381421        37.143207198
C    11.773450260         6.432540626        35.883796047
C    12.417807399         7.702897024        35.810615846
C    12.543725281         8.346884015        34.550982892
C    12.426032061         9.766485227        34.478024493
C    12.195587171        10.380693193        33.218372253
C    10.235295743         5.254647750        39.659420916
C    11.424001028         6.039682873        39.585920066
C    11.852050048         6.537126404        38.326684910
C    12.452504376         7.828819943        38.253695169
C    12.556005834         8.476968801        36.994284018
C    12.389500091         9.891708168        36.921180966
C    12.137743439        10.497857191        35.661875894
C    12.563912122         8.607248917        39.437235565
C    12.348477119        10.015386885        39.364004735
C    12.075968271        10.612615499        38.104887713

