Ge Se                                   
    1.000000000000000     
     3.8581001759000002    0.0000000000000000    0.0000000000000000
     0.0000000000000000    4.5265750884999996    0.0000000000000000
     0.0000000000000000    0.0000000000000000   25.0851764678999984
   Ge   Se
     4     4
Direct
  0.2500000000064801  0.1156418993976018  0.0545926295855423
  0.7500000000194404  0.8843581080031413  0.6663581043326587
  0.7500000000194404  0.6156418920520892  0.1663581043306621
  0.2500000000064801  0.3843581080583647  0.5545926328962594
  0.2500000000064801  0.5049489736306185  0.6558277517422297
  0.7500000000194404  0.4950509668320962  0.0651229722896502
  0.7500000000194404  0.0049490225086330  0.5651229854866884
  0.2500000000064801  0.9950510264246120  0.1558277649352817
 
  0.00000000E+00  0.00000000E+00  0.00000000E+00
  0.00000000E+00  0.00000000E+00  0.00000000E+00
  0.00000000E+00  0.00000000E+00  0.00000000E+00
  0.00000000E+00  0.00000000E+00  0.00000000E+00
  0.00000000E+00  0.00000000E+00  0.00000000E+00
  0.00000000E+00  0.00000000E+00  0.00000000E+00
  0.00000000E+00  0.00000000E+00  0.00000000E+00
  0.00000000E+00  0.00000000E+00  0.00000000E+00
