Ge Se
 1.0000000000000000
     4.1500000000000004    0.0000000000000000    0.0000000000000000
     0.0000000000000000    3.8000000000000003    0.0000000000000000
     0.0000000000000000    0.0000000000000000   11.1422210000000010
 Ge  Se 
   4   4
Selective dynamics
Cartesian
  0.4212058928230584  0.9500000000000002  1.3832222477783895   T   T   T
  2.4962058928230597  2.8500000000000001  4.1878882522216125   T   T   T
  3.7287941071769417  2.8500000000000001  9.7589987522216131   T   T   T
  1.6537941071769415  0.9500000000000002  6.9543327477783929   T   T   T
  0.0774763418645152  0.9500000000000002  3.9641253894572239   T   T   T
  2.1524763418645154  2.8500000000000001  1.6069851105427804   T   T   T
  4.0725236581354851  2.8500000000000001  7.1780956105427824   T   T   T
  1.9975236581354852  0.9500000000000002  9.5352358894572298   T   T   T
