Ge Se                                   
    1.000000000000000     
     4.7500000000000000    0.0000000000000000    0.0000000000000000
     0.0000000000000000    4.4500000000000002    0.0000000000000000
     0.0000000000000000    0.0000000000000000   11.1422209999999993
   Ge   Se
     4     4
Selective dynamics
Direct
  0.1106750800858052  0.2500000000000000  0.1337639170462239   T   T   T
  0.6106750800858052  0.7500000000000000  0.3662360829537761   T   T   T
  0.8893249199141948  0.7500000000000000  0.8662360829537761   T   T   T
  0.3893249199141948  0.2500000000000000  0.6337639170462239   T   T   T
  0.9488632940871682  0.2500000000000000  0.3506666929070192   T   T   T
  0.4488632940871682  0.7500000000000000  0.1493333070929808   T   T   T
  0.0511367059128318  0.7500000000000000  0.6493333070929808   T   T   T
  0.5511367059128318  0.2500000000000000  0.8506666929070192   T   T   T
 
  0.00000000E+00  0.00000000E+00  0.00000000E+00
  0.00000000E+00  0.00000000E+00  0.00000000E+00
  0.00000000E+00  0.00000000E+00  0.00000000E+00
  0.00000000E+00  0.00000000E+00  0.00000000E+00
  0.00000000E+00  0.00000000E+00  0.00000000E+00
  0.00000000E+00  0.00000000E+00  0.00000000E+00
  0.00000000E+00  0.00000000E+00  0.00000000E+00
  0.00000000E+00  0.00000000E+00  0.00000000E+00
