 C Se 
 1.0000000000000000
    32.3722991942999982    0.0000000000000000    0.0000000000000000
     0.0000000000000000   19.9214134216000005    0.0000000000000000
     0.0000000000000000    0.0000000000000000   40.4480476378999967
 C   Se 
 364   1
Cartesian
 12.0090660601828532 10.7244942634843525  0.0993076021076281
 11.9386330797059319 10.8345515120906821  2.5438644319600576
 10.9434894377041498 11.8537935082515045  2.4706688341151581
 10.3750026242644218 12.1806020105273305  1.2104821617114208
  8.9933007864550731 12.5264681987613642  1.1369935195780558
 11.8635940499744859 10.9424150198524668  4.9882121226525715
 10.8338381807620774 11.9265743565224103  4.9148768768206930
 10.2546872209353701 12.2333711436123949  3.6546778261984207
  8.8617994894722365 12.5311259762754030  3.5808662602505237
  8.2077001223493422 12.4882813406866440  2.3209407454111313
  6.8658172124389383 12.0106847678990309  2.2477064940445133
  6.3315435373768780 11.6305679676100020  0.9877057560626664
  5.4396263487436691 10.5199867679363397  0.9145674540392736
 11.7836328803326040 11.0483097745382022  7.4322898126317822
 10.7208631202613791 11.9966091584018670  7.3588369825616153
 10.1319582439832434 12.2825494120830676  6.0986450456644103
  8.7296339946827164 12.5319758097112679  6.0247199427687352
  8.0777625054952402 12.4660553033354180  4.7647005323693934
  6.7532785243758102 11.9424439911767202  4.6916366200589570
  6.2326318620538572 11.5441653639296646  3.4316059953714948
  5.3795941606673665 10.4035539867908913  3.3583252567900836
  5.1451894244297485  9.7910031144664362  2.0986144964759132
  5.0174662651598023  8.3723656246293032  2.0253521491558306
  5.1394016678796044  7.7275745736876420  0.7655907067711959
  5.7751793767077872  6.4529527402894438  0.6926950726051659
 11.7000352014172542 11.1529559228881894  9.8762164279736204
 10.6055833760371563 12.0648940170600376  9.8028734268324360
 10.0070086873350075 12.3290719035442073  8.5424449706340067
  8.5971028595970989 12.5296271258620902  8.4686213525850231
  7.9480610213232623 12.4404090181726286  7.2084413303517918
  6.6425462243930840 11.8711252690466296  7.1356600812112863
  6.1361562834950911 11.4547982283530434  5.8756715414983764
  5.3230314405953134 10.2853567585623118  5.8023328952284130
  5.1103761974426796  9.6648951235459108  4.5424535831412696
  5.0317479909606391  8.2427566804759227  4.4693590991878080
  5.1761224352617861  7.6025501410102594  3.2095143943938873
  5.8554219225835480  6.3505612059189795  3.1365206579599847
  6.3140830278385947  5.8809991669424404  1.8769005274637185
  7.5492669741415206  5.1716157918025560  1.8034999685857902
  8.1859784613362852  5.0123823960068590  0.5436485554116448
  9.6096914594739964  5.0568816120330400  0.4707402456174032
 12.0001647646370770 10.7274510365084659 13.5799188459398561
 11.6130825016724657 11.2556093478845245 12.3200505807942715
 10.4887513342671905 12.1299547865872057 12.2474182960857689
  9.8811520133557256 12.3734219434523567 10.9864410985744012
  8.4650636333437532 12.5245532321526039 10.9129274991333975
  7.8193315433432584 12.4117426536031044  9.6527057530539331
  6.5345809192555198 11.7967684459650393  9.5800433110948440
  6.0430779202172271 11.3624018163888305  8.3200113875841861
  5.2714269313496800 10.1652985717939526  8.2466599333622863
  5.0799001210085741  9.5378783095530455  6.9866665810478921
  5.0504954855040065  8.1138132622899377  6.9137031781038649
  5.2166679364973181  7.4790032423357680  5.6537631918652975
  5.9388096811378679  6.2512507334921885  5.5804984283803805
  6.4136979617905894  5.7978521946188843  4.3208325546463557
  7.6726995063948253  5.1317004400830841  4.2476273394975221
  8.3147414840754053  4.9944139501599576  2.9878754508051837
  9.7361487213271136  5.0880782700984595  2.9151265700880358
 10.3543500263803079  5.3079829340354445  1.6551786591963853
 11.5151992335124849  6.1334384265372810  1.5816528572826019
 11.9260734291638588  6.6448409611837924  0.3214783857032276
 12.4816749659421067  7.9564129511384003  0.2484621655968807
 11.9238859962078383 10.8263003666875850 16.0233395202991140
 11.5215641785224303 11.3489843795880514 14.7637935514464136
 10.3693544241794591 12.1849553363544416 14.6925657821468914
  9.7546878365585528 12.4127690132025670 13.4317274838266503
  8.3338260437966820 12.5153263479745824 13.3584238751535320
  7.6924175317872807 12.3794528839959632 12.0976481748436928
  6.4307725365251267 11.7186767897357313 12.0247478874680205
  5.9541192612289784 11.2673549169244378 10.7646908159571240
  5.2250968897297492 10.0436675645015026 10.6913820712045506
  5.0547891651479890  9.4100103929399861  9.4313697216024401
  5.0745812798798715  7.9857695780579219  9.3584117285563213
  5.2620653787223954  7.3571044433911501  8.0982113125253949
  6.0257038948902952  6.1548814067306354  8.0245820660955456
  6.5155740074801960  5.7180574197878746  6.7648920070174530
  7.7967090624183726  5.0953835819003013  6.6918798471497647
  8.4434591682292925  4.9808247341750400  5.4321572690475115
  9.8606846409975120  5.1233876162576113  5.3593847288857770
 10.4715103452195137  5.3644055588317521  4.0996321837570413
 11.6034025765914457  6.2292162619410618  4.0263294927893556
 11.9966198961795669  6.7544673293226243  2.7662223132950481
 12.5068274307244671  8.0844131163160391  2.6933615406447857
 12.5658277233702762  8.7377410894899281  1.4330806560894129
 12.3017010618025111 10.1374102993798623  1.3594445490821292
 11.8513222928768442 10.9012405315285470 18.4670081733756604
 11.4210562312541946 11.4155741532495991 17.2099928681116126
 10.2458803565196792 12.2185104319871165 17.1389816940749142
  9.6262296569330363 12.4373387870345304 15.8782413852730322
  8.2036147970360922 12.4966540701629647 15.8045960346642040
  7.5667058707908517 12.3425024585784744 14.5429406633063287
  6.3292869098101283 11.6371118419605981 14.4696300863485874
  5.8697193875518918 11.1686867024053971 13.2096033119971565
  5.1846212711536293  9.9198680054186443 13.1363293100355687
  5.0359275359578399  9.2808610951266903 11.8760337228409742
  5.1040284601069112  7.8583132323240195 11.8029734397384853
  5.3119198818910158  7.2363903885993768 10.5427142698502188
  6.1155188882052851  6.0603203438272573 10.4688707294326093
  6.6202317233692627  5.6410058708240207  9.2090784893125530
  7.9214791413060768  5.0618723110053114  9.1361572278128200
  8.5719632592944546  4.9703282634831307  7.8762990854749928
  9.9833865205770334  5.1619090296698023  7.8034392386174414
 10.5857552186592745  5.4246152736885334  6.5440545527967018
 11.6871973303641532  6.3281820475979220  6.4710255844965410
 12.0626987792133544  6.8666616239043732  5.2109934794171524
 12.5265278389912034  8.2134547368227100  5.1380992656639446
 12.5635832934984073  8.8683421686570600  3.8778503998346543
 12.2512279005868336 10.2580979867580133  3.8040240952623776
 11.7712768940708692 11.0003725771178917 20.9225237215592799
 11.3285383484812279 11.4869710070605624 19.6573741611392627
 10.1282229752454160 12.2424930485901662 19.5838172995372304
  9.4976754847939802 12.4448543747313547 18.3234158482163103
  8.0751503580335395 12.4670497506123503 18.2500554495341767
  7.4427120889271521 12.2970185974061472 16.9889275271053322
  6.2293327087391210 11.5508888405964196 16.9150997553236557
  5.7877154310665277 11.0668075542153428 15.6542877308311699
  5.1472895313556819  9.7950256908774112 15.5810530330382093
  5.0212236034434774  9.1510800513636372 14.3207033536596366
  5.1368428869563925  7.7314399226159702 14.2475391712831083
  5.3660976369081403  7.1169270502899735 12.9874787917183916
  6.2079694649738357  5.9679732581057374 12.9137067893341779
  6.7267492707848682  5.5661611198092515 11.6533899291605376
  8.0465916112214924  5.0312114319681926 11.5804998306983187
  8.7000081789905508  4.9621837959280013 10.3209214998780325
 10.1042601450490768  5.2033536851224778 10.2477782317973389
 10.6970741746415623  5.4880991344152212  8.9884044358004722
 11.7656217691707443  6.4301454029208767  8.9154260650640698
 12.1231505883108142  6.9813510742880434  7.6556191647799405
 12.5399688034066514  8.3435824519478743  7.5825548929311575
 12.5553524633009435  8.9991034174409510  6.3224867668008828
 12.1950541295057597 10.3773071295126105  6.2486052780334820
 11.6908590200324056 11.1387429581672386 23.3641540732162341
 11.2277672198861094 11.5869155364159120 22.1033281238307140
 10.0016936861999142 12.3088663756133467 22.0278367237437891
  9.3682475061611612 12.4654595264675034 20.7682550654562093
  7.9470677160333070 12.4393793658127620 20.6951407238585219
  7.3199579942414283 12.2435095049184977 19.4342018377312620
  6.1338849662593340 11.4600578082388278 19.3604298771559229
  5.7076192687743781 10.9621457101577562 18.0991365671511772
  5.1119600654539763  9.6689537818263691 18.0261599475363994
  5.0090638959623242  9.0210005503176589 16.7658493809932914
  5.1724535937251845  7.6062097387298797 16.6925468652015745
  5.4230393371878503  6.9991993089401356 15.4321464830860524
  6.3028322341954768  5.8794726878775556 15.3585668663195776
  6.8349904033242250  5.4946032100691049 14.0985067132286392
  8.1733868521083224  5.0064926534999765 14.0257803658108013
  8.8284679939969966  4.9592068125980129 12.7661770054808041
 10.2230643823924652  5.2495003190618155 12.6923829256447185
 10.8054037313880045  5.5546193191879381 11.4324342080047145
 11.8388662279670118  6.5351756277960300 11.3588979544468227
 12.1773363995055401  7.0985677827580460 10.0999053312948686
 12.5463738134759524  8.4748287689349979 10.0264949063277005
 12.5403484898441455  9.1301593805456918  8.7665493958504701
 12.1336882522982474 10.4952615743208177  8.6928586859998216
 11.6136002977007387 11.2536086921343763 25.8080290206806779
 11.1375450035847887 11.7023687338517774 24.5483625430555925
  9.8813711438415268 12.3711955470762831 24.4735922386641072
  9.2398471733131693 12.5047256534264264 23.2126540414810236
  7.8184798868807768 12.4174946245710256 23.1401237409522267
  7.2001605356624756 12.1961789657184418 21.8806209631087896
  6.0412855270002019 11.3681560304367135 21.8068985005989511
  5.6332037618656470 10.8537582441099829 20.5465243517825265
  5.0831346297708677  9.5418459984688084 20.4732163633350339
  5.0019530751994354  8.8907186039387742 19.2114349549525976
  5.2129364726534586  7.4838618239808996 19.1377684179942307
  5.4823995946611737  6.8849839612385590 17.8775211299900327
  6.4024675786946732  5.7977922822085928 17.8042074945797566
  6.9473647557530569  5.4311400104392549 16.5446311638025882
  8.3036224694427059  4.9971455502787343 16.4720832400669792
  8.9583162435578192  4.9685778684912050 15.2113418390764998
 10.3402071681593934  5.3086032749191201 15.1363745210192544
 10.9118725278731663  5.6263168468632827 13.8766804944178102
 11.9104105911655118  6.6437495293937312 13.8018247016011930
 12.2260663802285379  7.2189680260228721 12.5425462484791108
 12.5471594714745809  8.6062979552882446 12.4686543752165200
 12.5193904648250651  9.2614534382074307 11.2093483216277150
 12.0684228357982946 10.6126203511078376 11.1364519986251320
 11.5283672997630369 11.3486076400735101 28.2522527652872668
 11.0385388374964961 11.7876486935116951 26.9924074204045006
  9.7579278156446616 12.4116148588557582 26.9190155496628911
  9.1113567983456676 12.5270280074668783 25.6592518858633554
  7.6939865720771561 12.3830008839724126 25.5862535608001913
  7.0835772831824553 12.1409821169008367 24.3261867206856479
  5.9555721582969099 11.2717831682064027 24.2524512323253170
  5.5636087156213296 10.7450965275728318 22.9918717156303245
  5.0576608424894225  9.4138710911544319 22.9187785054591124
  4.9983562181826935  8.7605755503604943 21.6585325061129765
  5.2583178447983610  7.3607180770753891 21.5851239826371746
  5.5494921479351200  6.7733831931303463 20.3239203380900122
  6.5071256052948803  5.7229687444213564 20.2506699749176136
  7.0667081314166067  5.3787445348743947 18.9896985895160242
  8.4377627563466575  5.0039956784581179 18.9163609800263472
  9.0901584580834918  5.0000606172868078 17.6568527679936089
 10.4558085603354147  5.3988870951570433 17.5814196031643917
 11.0148803230386978  5.7194189549994441 16.3205668881348309
 11.9844648432418843  6.7601691977882101 16.2437471359774932
 12.2776629243359174  7.3405638989744340 14.9815451456031834
 12.5511337585930924  8.7363745959518777 14.9072758956432345
 12.4968093108583478  9.3914141250713801 13.6513617183757301
 11.4402028457932712 11.4394981753915861 30.6962238693061096
 10.9350737264409368 11.8610964316536869 29.4369563336034084
  9.6330568860236561 12.4397823463247850 29.3642981392039459
  8.9824860704718432 12.5336486669774079 28.1047346438027148
  7.5716499616793378 12.3399079184179001 28.0313900398575413
  6.9698857300632451 12.0781575470930225 26.7710568476423525
  5.8715064000444386 11.1713662857210547 26.6974094294099160
  5.4983471890947371 10.6322061769411338 25.4370754254446680
  5.0372881532612768  9.2846237844867403 25.3638389913822557
  5.0014568198040577  8.6295558110066075 24.1035455207168958
  5.3101608648816949  7.2395377348237711 24.0299366169834272
  5.6196200973110750  6.6619582416981817 22.7691359547586707
  6.6129222687082452  5.6409641541682056 22.6958013911548058
  7.1843029607987834  5.3208670688555095 21.4347541347270933
  8.5683794965744813  4.9922178533687287 21.3610073157670222
  9.2293498889064622  5.0332862205027702 20.1006964577331004
 10.5783086092627876  5.4709361874393041 20.0275034625525805
 11.1267295795976580  5.8339803163273585 18.7622233884079428
 12.1125276200869774  6.8448641278251454 18.6741079582621872
 12.3668465649800936  7.4485864694455239 17.4241440798414260
 12.5925212022797410  8.8684841104151069 17.3494620675644526
 12.4745570684718778  9.5146547715141825 16.0928699985160684
 11.3482505325990903 11.5283243466183851 33.1405090477592594
 10.8284863728216099 11.9308576561085662 31.8811581849141028
  9.5074147037735415 12.4633569715331234 31.8086798746311814
  8.8539957089405092 12.5344189578214991 30.5490503139894010
  7.4502699315098582 12.2931762954366786 30.4756949430217006
  6.8578446700165321 12.0110217766071976 29.2159156927741606
  5.7898671644453454 11.0685362027185441 29.1423864427448578
  5.4352430747014475 10.5170848492806215 27.8819016375486370
  5.0194981017559623  9.1549817331235666 27.8084473308294129
  5.0066972318014926  8.4991204752432044 26.5481520361964023
  5.3647239746546349  7.1204871803619181 26.4746374844696142
  5.6954954022525079  6.5537956462423912 25.2145413980598896
  6.7218096730584511  5.5661184390562353 25.1415285207675510
  7.3013070458431013  5.2602019302212186 23.8800629481460120
  8.6947127250920602  4.9674517160915528 23.8060160290746801
  9.3492318114405641  5.0274144326446848 22.5453726027238268
 10.6855408200613837  5.5171527676232932 22.4748327598220392
 11.2290623197460739  5.9103111367936849 21.2178276889122941
 12.1760385938005431  6.9605468512195552 21.1621950062821504
 12.6249426395883848  7.4852514182114280 19.8796010951868496
 12.8178783516026371  9.0316444813418428 19.8051568700804275
 12.5113807357287410  9.6505746102388112 18.5224726857573927
 11.2526227932253260 11.6148830186963039 35.5850386081567009
 10.7196743965513139 11.9986625850976889 34.3252191232139268
  9.3809155826160211 12.4850687540398066 34.2526806956705556
  8.7255799898021476 12.5327249821947717 32.9932049167543866
  7.3307212927076399 12.2437768360326515 32.9198074141695969
  6.7480370414596358 11.9408882803276910 31.6602530643255413
  5.7122642821037619 10.9632969292010163 31.5870121963476862
  5.3757950098726868 10.4003211999989098 30.3266653607205683
  5.0063023884067528  9.0247315299185065 30.2531400759213014
  5.0157514630133511  8.3689394760751501 28.9930123924142649
  5.4223046574007983  7.0038537475023848 28.9196726174591880
  5.7736208123812309  6.4494950857759887 27.6594478921371163
  6.8341896287455093  5.4989005786876879 27.5865736426132528
  7.4226357376604479  5.2096761917137213 26.3260043697523685
  8.8249651129741391  4.9591422170160371 26.2524500085939003
  9.4770278331168534  5.0288604772664636 24.9917024955353853
 10.7992386291102331  5.5561435930866097 24.9209900895065211
 11.3177171421518494  5.9643787209228414 23.6615691178216245
 12.1733872256568958  7.1008798031938278 23.5916969484635928
 12.4466813564830954  7.6985591903533193 22.3352611268409298
 12.5768758860102885  9.1304833321901491 22.2609112958108106
 12.4787907370232762  9.7783427447031670 21.0108134077211908
 11.1530802448310773 11.6981060754172166 38.0295907978661134
 10.6076893390080773 12.0633886179517980 36.7695705257015533
  9.2529456162383195 12.5035315149594410 36.6967876621547191
  8.5967152197231158 12.5281150609222589 35.4371931785829872
  7.2128011855246399 12.1912254537189337 35.3637928831828177
  6.6409491062603809 11.8682922235233441 34.1041738032768933
  5.6390023149388577 10.8558671513804175 34.0312397409070968
  5.3212774027179233 10.2815831323328659 32.7713901982102840
  4.9991668029762044  8.8941122773865864 32.6977713358969382
  5.0305203317153824  8.2390143475835185 31.4376597783246545
  5.4844767440191085  6.8890283145212088 31.3645100465976547
  5.8545793464202518  6.3476519448460555 30.1042313680160198
  6.9486435024964930  5.4355859008929475 30.0313067754198677
  7.5471654182615922  5.1676786283330154 28.7712511022479518
  8.9568765201740419  4.9654997777693444 28.6977288995757505
  9.6060178382846910  5.0523633874220479 27.4368152477688270
 10.9105956562003001  5.6238754780016667 27.3645955405842827
 11.4157338341715615  6.0409755008963675 26.1049142821493660
 12.2249641187114424  7.2144059577050967 26.0331320081584039
 12.4383710754719630  7.8364223326572944 24.7773471527236318
 12.5162077932319402  9.2566639765315681 24.7035460343641766
 12.3749623256258605  9.8916371501293074 23.4413190567261225
 11.0499877009747109 11.7776721003587657  0.0261679064168506
 10.4928335371056018 12.1241683969212453 39.2140858332752487
  9.1237878849520477 12.5174685988398107 39.1409405888157025
  8.4674516522727874 12.5196053295611573 37.8811609033092438
  7.0959472422209080 12.1351605278737260 37.8077624344293568
  6.5359101472043291 11.7926232685624459 36.5480922078009840
  5.5695763837674006 10.7461031905260089 36.4752650838325536
  5.2720484444769546 10.1611114584860154 35.2156127848381573
  4.9978752834053459  8.7635128347212152 35.1419723695239057
  5.0511752313467548  8.1097409381742835 33.8820424781846938
  5.5515800951080498  6.7762415730783276 33.8090200403304095
  5.9400339344400130  6.2482138431824836 32.5488666534833584
  7.0657628624319262  5.3756094658717331 32.4756524029667801
  7.6731477884776318  5.1297579841862575 31.2155148890659859
  9.0891501322601407  4.9772987533334314 31.1418981965487482
  9.7346322468153836  5.0863334664493101 29.8814416792617514
 11.0194128660255597  5.7017358495083688 29.8082618993328801
 11.5095607129251203  6.1353117564863586 28.5482797692801320
 12.2787188330818413  7.3343562580256014 28.4750984536905563
 12.4666952552151109  7.9628720662285586 27.2158844669070916
 12.4965067055900896  9.3866159084466805 27.1425161709902767
 12.3315660546580830 10.0220546392055407 25.8833318072758694
  8.3378157298066515 12.5062680464204590 40.3251236299025848
  6.9803463630857410 12.0748346653501155 40.2517707920332910
  6.4328639635125482 11.7133211334825909 38.9919470502729268
  5.5032240510053310 10.6341187407981224 38.9190151021586601
  5.2264174469571190 10.0391594144608405 37.6594062019382179
  5.0007310915353100  8.6328566017466510 37.5858454523442305
  5.0769522292828126  7.9813686202045320 36.3261054898241511
  5.6230504392792344  6.6659168086907048 36.2531734691189840
  6.0296205119827064  6.1517456408155358 34.9931060221571144
  7.1848499931002854  5.3186784783691934 34.9195609401826488
  7.8006247786763039  5.0946769392909932 33.6594784602996100
  9.2212159442641433  4.9915636555887426 33.5859314700737031
  9.8626226050766928  5.1240392573489277 32.3256318184105353
 11.1258009708087435  5.7821561984989032 32.2521020392779931
 11.6011983073131830  6.2324855320832198 30.9917252701073380
 12.3307915744580221  7.4559006141730553 30.9179449589370847
 12.4979940451575864  8.0899017160058069 29.6580794682415494
 12.4789711065881317  9.5147066918438270 29.5850971366654569
 12.2892937912676903 10.1442895920697058 28.3262496391409044
  5.1841335678408127  9.9157166994925650 40.1030058753106999
  5.0072176724553241  8.5023641927653326 40.0295659506063402
  5.1064177362571703  7.8537915157572229 38.7698782845582670
  5.6976114545635950  6.5579633773878232 38.6970094488180010
  6.1219611475054947  6.0579832240191749 37.4371053538452330
  7.3053085582888446  5.2651275496999439 37.3634379837174890
  7.9287824766161101  5.0627528307989698 36.1034437720791672
  9.3521239030160022  5.0089007943351689 36.0300984809551608
  9.9888865822644970  5.1639491410039291 34.7697808638086130
 11.2288974768495091  5.8649036941453518 34.6961353363749296
 11.6893118697907035  6.3313800592361424 33.4358731453827716
 12.3771965666765844  7.5788866163112871 33.3621039243540665
 12.5237688265936011  8.2182240939373497 32.1020251103899028
 12.4553579036478599  9.6411929361360933 32.0291439783331739
 12.2444821648985105 10.2637614490028213 30.7695886918276145
  6.2169619440857957  5.9678064388456731 39.8810624551817483
  7.4268997149886653  5.2161248986732476 39.8074734267799499
  8.0572471221018027  5.0351070063913861 38.5475298681799785
  9.4816664864739479  5.0304424130792791 38.4744582558764776
 10.1129570490132910  5.2075852553380120 37.2142137133293076
 11.3279178562828147  5.9511265636979731 37.1405325709373315
 11.7724776086509948  6.4331286966472527 35.8803445935020804
 12.4168488495515899  7.7034734914248908 35.8068342035351108
 12.5423238745261312  8.3473954299308026 34.5465074800987182
 12.4245906516409867  9.7670083816101361 34.4735615261239516
 12.1934455517513349 10.3814998933123199 33.2137038306351258
 10.2350502018536655  5.2552732958290003 39.6587484243254096
 11.4236159783337428  6.0404450644393552 39.5850955613920661
 11.8513163930397347  6.5376390870742966 38.3248962514570053
 12.4516867960450384  7.8293037654264861 38.2516621531679419
 12.5551444791285451  8.4771437512086845 36.9913135705077352
 12.3886398263666777  9.8918812139756618 36.9181574545440512
 12.1367447038623961 10.4979716673404706 35.6582165869375345
 12.5630028980707458  8.6073080675226503 39.4362083082305404
 12.3475654665115417 10.0153618166698610 39.3628092424863354
 12.0752169326390817 10.6123611804952933 38.1027622776382984
 14.6109546304392026  8.0223806645886881 19.8420489066814660
