 running  256 mpi-ranks, with    1 threads/rank, on    7 nodes
 distrk:  each k-point on  128 cores,    2 groups
 distr:  one band on    4 cores,   32 groups
 vasp.6.4.1 05Apr23 (build May 18 2023 13:19:41) complex                         
 POSCAR found type information on POSCAR C Se
 POSCAR found :  2 types and     365 ions
 Reading from existing POTCAR
 scaLAPACK will be used
 Reading from existing POTCAR
 -----------------------------------------------------------------------------
|                                                                             |
|               ----> ADVICE to this user running VASP <----                  |
|                                                                             |
|     You have a (more or less) 'large supercell' and for larger cells it     |
|     might be more efficient to use real-space projection operators.         |
|     Therefore, try LREAL= Auto in the INCAR file.                           |
|     Mind: If you want to do very accurate calculations, keep the            |
|     reciprocal projection scheme (i.e. LREAL=.FALSE.).                      |
|                                                                             |
 -----------------------------------------------------------------------------

 LDA part: xc-table for Pade appr. of Perdew
 POSCAR, INCAR and KPOINTS ok, starting setup
 FFT: planning ... GRIDC
 FFT: planning ... GRID_SOFT
 FFT: planning ... GRID
 WAVECAR not read
 WARNING: random wavefunctions but no delay for mixing, default for NELMDL
 entering main loop
       N       E                     dE             d eps       ncg     rms          rms(c)
DAV:   1     0.130897980973E+05    0.13090E+05   -0.45126E+05  4544   0.932E+02
DAV:   2     0.709590657594E+02   -0.13019E+05   -0.12236E+05  5280   0.239E+02
DAV:   3    -0.335563230247E+04   -0.34266E+04   -0.33810E+04  4544   0.130E+02
DAV:   4    -0.353892765777E+04   -0.18330E+03   -0.18052E+03  4416   0.387E+01
DAV:   5    -0.354382246502E+04   -0.48948E+01   -0.48394E+01  4832   0.561E+00    0.746E+01
DAV:   6    -0.337332690158E+04    0.17050E+03   -0.17234E+02  4096   0.126E+01    0.395E+01
DAV:   7    -0.331144204823E+04    0.61885E+02   -0.17750E+02  4192   0.123E+01    0.795E+00
DAV:   8    -0.331065872862E+04    0.78332E+00   -0.95062E+00  4288   0.304E+00    0.433E+00
DAV:   9    -0.331018747029E+04    0.47126E+00   -0.96398E-01  4096   0.108E+00    0.153E+00
DAV:  10    -0.331002615896E+04    0.16131E+00   -0.26710E-01  4064   0.512E-01    0.669E-01
DAV:  11    -0.331001373061E+04    0.12428E-01   -0.72962E-02  4000   0.263E-01    0.409E-01
DAV:  12    -0.331004361892E+04   -0.29888E-01   -0.57888E-02  4032   0.208E-01    0.219E-01
DAV:  13    -0.331007597810E+04   -0.32359E-01   -0.19977E-02  3872   0.126E-01    0.123E-01
DAV:  14    -0.331010288841E+04   -0.26910E-01   -0.69955E-03  3968   0.703E-02    0.729E-02
DAV:  15    -0.331012789069E+04   -0.25002E-01   -0.16549E-03  3968   0.402E-02    0.509E-02
DAV:  16    -0.331015882754E+04   -0.30937E-01   -0.30568E-03  3904   0.374E-02    0.275E-02
DAV:  17    -0.331016795242E+04   -0.91249E-02   -0.54829E-04  4160   0.223E-02    0.156E-02
DAV:  18    -0.331017453607E+04   -0.65837E-02   -0.45547E-04  4000   0.140E-02    0.916E-03
DAV:  19    -0.331017628745E+04   -0.17514E-02   -0.58508E-05  4384   0.760E-03    0.568E-03
DAV:  20    -0.331017800459E+04   -0.17171E-02   -0.62336E-05  3968   0.559E-03    0.409E-03
DAV:  21    -0.331017871694E+04   -0.71235E-03   -0.23322E-05  3424   0.311E-03    0.252E-03
DAV:  22    -0.331017911665E+04   -0.39970E-03   -0.13976E-05  3360   0.282E-03    0.174E-03
DAV:  23    -0.331017922617E+04   -0.10952E-03   -0.11986E-06  3040   0.148E-03    0.850E-04
DAV:  24    -0.331017926111E+04   -0.34938E-04    0.32099E-07  2688   0.770E-04    0.496E-04
DAV:  25    -0.331017928865E+04   -0.27537E-04    0.54800E-07  2560   0.598E-04    0.253E-04
DAV:  26    -0.331017930590E+04   -0.17256E-04    0.60160E-07  2464   0.387E-04    0.222E-04
DAV:  27    -0.331017931709E+04   -0.11185E-04    0.71090E-07  2400   0.306E-04    0.112E-04
DAV:  28    -0.331017932386E+04   -0.67768E-05    0.72632E-07  2400   0.221E-04    0.123E-04
DAV:  29    -0.331017932641E+04   -0.25453E-05    0.74948E-07  2528   0.145E-04    0.853E-05
DAV:  30    -0.331017932744E+04   -0.10282E-05    0.75090E-07  2272   0.102E-04    0.716E-05
DAV:  31    -0.331017932760E+04   -0.16566E-06    0.75684E-07  2272   0.581E-05
   1 F= -.33242578E+04 E0= -.33242578E+04  d E =-.153671E-27
 writing wavefunctions
 PROFILE, used timers:     342
