
     Program PWSCF v.7.2 starts on 29May2024 at  6:28: 5 

     This program is part of the open-source Quantum ESPRESSO suite
     for quantum simulation of materials; please cite
         "P. Giannozzi et al., J. Phys.:Condens. Matter 21 395502 (2009);
         "P. Giannozzi et al., J. Phys.:Condens. Matter 29 465901 (2017);
         "P. Giannozzi et al., J. Chem. Phys. 152 154105 (2020);
          URL http://www.quantum-espresso.org", 
     in publications or presentations arising from this work. More details at
     http://www.quantum-espresso.org/quote

     Parallel version (MPI & OpenMP), running on    6144 processor cores
     Number of MPI processes:              1536
     Threads/MPI process:                     4

     MPI processes distributed on    24 nodes
     483616 MiB available memory on the printing compute node when the environment starts

     Reading input from espresso.pwi
Warning: card &IONS ignored
Warning: card / ignored
Warning: card &CELL ignored
Warning: card / ignored

     Current dimensions of program PWSCF are:
     Max number of different atomic species (ntypx) = 10
     Max number of k-points (npk) =  40000
     Max angular momentum in pseudopotentials (lmaxx) =  4

     Atomic positions and unit cell read from directory:
     ./CNT_PBE.save/
     Atomic positions from file used, from input discarded


     R & G space division:  proc/nbgrp/npool/nimage =    1536
     WARNING: too many processors for an effective parallelization!
     Subspace diagonalization in iterative solution of the eigenvalue problem:
     one sub-group per band group will be used
     custom distributed-memory algorithm (size of sub-group: 39* 39 procs)


     Parallelization info
     --------------------
     sticks:   dense  smooth     PW     G-vecs:    dense   smooth      PW
     Min          28      28      7                 7176     7176     901
     Max          29      29      8                 7217     7217     924
     Sum       43977   43977  11115             11053081 11053081 1403663

     Using Pencil Decomposition



     bravais-lattice index     =            0
     lattice parameter (alat)  =      61.1748  a.u.
     unit-cell volume          =  176044.1909 (a.u.)^3
     number of atoms/cell      =          365
     number of atomic types    =            2
     number of electrons       =      1462.00
     number of Kohn-Sham states=         5000
     kinetic-energy cutoff     =      60.0000  Ry
     charge density cutoff     =     240.0000  Ry
     Exchange-correlation= PBE
                           (   1   4   3   4   0   0   0)

     celldm(1)=  61.174780  celldm(2)=   0.000000  celldm(3)=   0.000000
     celldm(4)=   0.000000  celldm(5)=   0.000000  celldm(6)=   0.000000

     crystal axes: (cart. coord. in units of alat)
               a(1) = (   1.000000   0.000000   0.000000 )  
               a(2) = (   0.000000   0.615409   0.000000 )  
               a(3) = (   0.000000   0.000000   1.249513 )  

     reciprocal axes: (cart. coord. in units 2 pi/alat)
               b(1) = (  1.000000  0.000000  0.000000 )  
               b(2) = (  0.000000  1.624937  0.000000 )  
               b(3) = (  0.000000  0.000000  0.800312 )  


     PseudoPot. # 1 for C  read from file:
     ./C_ONCV_PBE-1.2.upf
     MD5 check sum: 1a5f83a7b1f58d24996abe00ed223ac6
     Pseudo is Norm-conserving, Zval =  4.0
     Generated using ONCVPSP code by D. R. Hamann
     Using radial grid of  602 points,  4 beta functions with: 
                l(1) =   0
                l(2) =   0
                l(3) =   1
                l(4) =   1

     PseudoPot. # 2 for Se read from file:
     ./Se_ONCV_PBE-1.2.upf
     MD5 check sum: e78e48a4f5d8ce1f8dc76ec1271f249c
     Pseudo is Norm-conserving, Zval =  6.0
     Generated using ONCVPSP code by D. R. Hamann
     Using radial grid of  602 points,  6 beta functions with: 
                l(1) =   0
                l(2) =   0
                l(3) =   1
                l(4) =   1
                l(5) =   2
                l(6) =   2

     atomic species   valence    mass     pseudopotential
        C              4.00    12.01100     C ( 1.00)
        Se             6.00    78.96000     Se( 1.00)

     No symmetry found


                                    s                        frac. trans.

      isym =  1     identity                                     

 cryst.   s( 1) = (     1          0          0      )
                  (     0          1          0      )
                  (     0          0          1      )

 cart.    s( 1) = (  1.0000000  0.0000000  0.0000000 )
                  (  0.0000000  1.0000000  0.0000000 )
                  (  0.0000000  0.0000000  1.0000000 )


   Cartesian axes

     site n.     atom                  positions (alat units)
         1           C   tau(   1) = (   0.3709674   0.3312861   0.0030677  )
         2           C   tau(   2) = (   0.3687916   0.3346859   0.0785815  )
         3           C   tau(   3) = (   0.3380511   0.3661709   0.0763205  )
         4           C   tau(   4) = (   0.3204902   0.3762662   0.0373925  )
         5           C   tau(   5) = (   0.2778085   0.3869502   0.0351224  )
         6           C   tau(   6) = (   0.3664736   0.3380178   0.1540889  )
         7           C   tau(   7) = (   0.3346638   0.3684191   0.1518235  )
         8           C   tau(   8) = (   0.3167735   0.3778963   0.1128952  )
         9           C   tau(   9) = (   0.2737464   0.3870941   0.1106151  )
        10           C   tau(  10) = (   0.2535408   0.3857706   0.0716953  )
        11           C   tau(  11) = (   0.2120893   0.3710174   0.0694330  )
        12           C   tau(  12) = (   0.1955852   0.3592753   0.0305108  )
        13           C   tau(  13) = (   0.1680334   0.3249688   0.0282515  )
        14           C   tau(  14) = (   0.3640036   0.3412890   0.2295879  )
        15           C   tau(  15) = (   0.3311740   0.3705826   0.2273190  )
        16           C   tau(  16) = (   0.3129824   0.3794154   0.1883908  )
        17           C   tau(  17) = (   0.2696637   0.3871204   0.1861073  )
        18           C   tau(  18) = (   0.2495270   0.3850840   0.1471845  )
        19           C   tau(  19) = (   0.2086129   0.3689094   0.1449275  )
        20           C   tau(  20) = (   0.1925298   0.3566063   0.1060044  )
        21           C   tau(  21) = (   0.1661789   0.3213721   0.1037407  )
        22           C   tau(  22) = (   0.1589380   0.3024500   0.0648275  )
        23           C   tau(  23) = (   0.1549926   0.2586275   0.0625644  )
        24           C   tau(  24) = (   0.1587592   0.2387095   0.0236496  )
        25           C   tau(  25) = (   0.1783988   0.1993356   0.0213978  )
        26           C   tau(  26) = (   0.3614212   0.3445216   0.3050823  )
        27           C   tau(  27) = (   0.3276129   0.3726919   0.3028167  )
        28           C   tau(  28) = (   0.3091226   0.3808525   0.2638813  )
        29           C   tau(  29) = (   0.2655697   0.3870478   0.2616009  )
        30           C   tau(  30) = (   0.2455204   0.3842918   0.2226731  )
        31           C   tau(  31) = (   0.2051923   0.3667063   0.2204249  )
        32           C   tau(  32) = (   0.1895496   0.3538457   0.1815031  )
        33           C   tau(  33) = (   0.1644317   0.3177209   0.1792376  )
        34           C   tau(  34) = (   0.1578626   0.2985545   0.1403192  )
        35           C   tau(  35) = (   0.1554338   0.2546238   0.1380612  )
        36           C   tau(  36) = (   0.1598936   0.2348474   0.0991439  )
        37           C   tau(  37) = (   0.1808775   0.1961727   0.0968890  )
        38           C   tau(  38) = (   0.1950459   0.1816676   0.0579786  )
        39           C   tau(  39) = (   0.2332014   0.1597544   0.0557112  )
        40           C   tau(  40) = (   0.2528698   0.1548355   0.0167936  )
        41           C   tau(  41) = (   0.2968492   0.1562102   0.0145415  )
        42           C   tau(  42) = (   0.3706924   0.3313775   0.4194920  )
        43           C   tau(  43) = (   0.3587352   0.3476926   0.3805739  )
        44           C   tau(  44) = (   0.3240039   0.3747017   0.3783302  )
        45           C   tau(  45) = (   0.3052348   0.3822225   0.3393778  )
        46           C   tau(  46) = (   0.2614910   0.3868911   0.3371069  )
        47           C   tau(  47) = (   0.2415439   0.3834063   0.2981779  )
        48           C   tau(  48) = (   0.2018572   0.3644093   0.2959334  )
        49           C   tau(  49) = (   0.1866744   0.3509915   0.2570102  )
        50           C   tau(  50) = (   0.1628376   0.3140122   0.2547443  )
        51           C   tau(  51) = (   0.1569212   0.2946309   0.2158224  )
        52           C   tau(  52) = (   0.1560129   0.2506406   0.2135685  )
        53           C   tau(  53) = (   0.1611460   0.2310310   0.1746482  )
        54           C   tau(  54) = (   0.1834534   0.1931049   0.1723850  )
        55           C   tau(  55) = (   0.1981230   0.1790992   0.1334731  )
        56           C   tau(  56) = (   0.2370144   0.1585213   0.1312118  )
        57           C   tau(  57) = (   0.2568474   0.1542805   0.0922973  )
        58           C   tau(  58) = (   0.3007556   0.1571738   0.0900500  )
        59           C   tau(  59) = (   0.3198522   0.1639668   0.0511295  )
        60           C   tau(  60) = (   0.3557115   0.1894656   0.0488582  )
        61           C   tau(  61) = (   0.3684036   0.2052632   0.0099307  )
        62           C   tau(  62) = (   0.3855665   0.2457784   0.0076751  )
        63           C   tau(  63) = (   0.3683361   0.3344310   0.4949707  )
        64           C   tau(  64) = (   0.3559081   0.3505770   0.4560626  )
        65           C   tau(  65) = (   0.3203157   0.3764007   0.4538623  )
        66           C   tau(  66) = (   0.3013282   0.3834380   0.4149142  )
        67           C   tau(  67) = (   0.2574370   0.3866060   0.4126498  )
        68           C   tau(  68) = (   0.2376235   0.3824088   0.3737037  )
        69           C   tau(  69) = (   0.1986505   0.3619971   0.3714518  )
        70           C   tau(  70) = (   0.1839264   0.3480554   0.3325278  )
        71           C   tau(  71) = (   0.1614064   0.3102550   0.3302633  )
        72           C   tau(  72) = (   0.1561455   0.2906809   0.2913407  )
        73           C   tau(  73) = (   0.1567569   0.2466853   0.2890870  )
        74           C   tau(  74) = (   0.1625484   0.2272654   0.2501587  )
        75           C   tau(  75) = (   0.1861377   0.1901280   0.2478842  )
        76           C   tau(  76) = (   0.2012700   0.1766343   0.2089716  )
        77           C   tau(  77) = (   0.2408451   0.1573995   0.2067162  )
        78           C   tau(  78) = (   0.2608236   0.1538607   0.1678026  )
        79           C   tau(  79) = (   0.3046025   0.1582646   0.1655547  )
        80           C   tau(  80) = (   0.3234713   0.1657097   0.1266401  )
        81           C   tau(  81) = (   0.3584362   0.1924243   0.1243758  )
        82           C   tau(  82) = (   0.3705829   0.2086496   0.0854503  )
        83           C   tau(  83) = (   0.3863435   0.2497324   0.0831996  )
        84           C   tau(  84) = (   0.3881661   0.2699141   0.0442687  )
        85           C   tau(  85) = (   0.3800070   0.3131507   0.0419941  )
        86           C   tau(  86) = (   0.3660946   0.3367459   0.5704571  )
        87           C   tau(  87) = (   0.3528034   0.3526340   0.5316271  )
        88           C   tau(  88) = (   0.3165015   0.3774372   0.5294336  )
        89           C   tau(  89) = (   0.2973601   0.3841970   0.4904885  )
        90           C   tau(  90) = (   0.2534147   0.3860293   0.4882136  )
        91           C   tau(  91) = (   0.2337402   0.3812674   0.4492403  )
        92           C   tau(  92) = (   0.1955155   0.3594775   0.4469757  )
        93           C   tau(  93) = (   0.1813192   0.3450075   0.4080527  )
        94           C   tau(  94) = (   0.1601561   0.3064308   0.4057892  )
        95           C   tau(  95) = (   0.1555629   0.2866914   0.3668579  )
        96           C   tau(  96) = (   0.1576665   0.2427481   0.3646010  )
        97           C   tau(  97) = (   0.1640884   0.2235365   0.3256708  )
        98           C   tau(  98) = (   0.1889121   0.1872070   0.3233898  )
        99           C   tau(  99) = (   0.2045030   0.1742541   0.2844740  )
       100           C   tau( 100) = (   0.2446993   0.1563643   0.2822214  )
       101           C   tau( 101) = (   0.2647932   0.1535365   0.2433037  )
       102           C   tau( 102) = (   0.3083929   0.1594545   0.2410530  )
       103           C   tau( 103) = (   0.3270004   0.1675697   0.2021498  )
       104           C   tau( 104) = (   0.3610246   0.1954814   0.1998939  )
       105           C   tau( 105) = (   0.3726241   0.2121153   0.1609708  )
       106           C   tau( 106) = (   0.3869521   0.2537186   0.1587190  )
       107           C   tau( 107) = (   0.3880967   0.2739485   0.1197892  )
       108           C   tau( 108) = (   0.3784479   0.3168789   0.1175086  )
       109           C   tau( 109) = (   0.3636219   0.3398082   0.6463095  )
       110           C   tau( 110) = (   0.3499454   0.3548395   0.6072282  )
       111           C   tau( 111) = (   0.3128670   0.3781781   0.6049560  )
       112           C   tau( 112) = (   0.2933890   0.3844291   0.5660214  )
       113           C   tau( 113) = (   0.2494463   0.3851148   0.5637553  )
       114           C   tau( 114) = (   0.2299099   0.3798624   0.5247983  )
       115           C   tau( 115) = (   0.1924279   0.3568140   0.5225177  )
       116           C   tau( 116) = (   0.1787861   0.3418604   0.4835705  )
       117           C   tau( 117) = (   0.1590029   0.3025743   0.4813082  )
       118           C   tau( 118) = (   0.1551086   0.2826824   0.4423752  )
       119           C   tau( 119) = (   0.1586802   0.2388289   0.4401152  )
       120           C   tau( 120) = (   0.1657620   0.2198462   0.4011911  )
       121           C   tau( 121) = (   0.1917679   0.1843543   0.3989122  )
       122           C   tau( 122) = (   0.2077934   0.1719421   0.3599803  )
       123           C   tau( 123) = (   0.2485641   0.1554172   0.3577287  )
       124           C   tau( 124) = (   0.2687486   0.1532849   0.3188195  )
       125           C   tau( 125) = (   0.3121267   0.1607348   0.3165601  )
       126           C   tau( 126) = (   0.3304391   0.1695307   0.2776573  )
       127           C   tau( 127) = (   0.3634472   0.1986311   0.2754029  )
       128           C   tau( 128) = (   0.3744915   0.2156582   0.2364867  )
       129           C   tau( 129) = (   0.3873672   0.2577383   0.2342297  )
       130           C   tau( 130) = (   0.3878425   0.2779878   0.1953055  )
       131           C   tau( 131) = (   0.3767126   0.3205613   0.1930232  )
       132           C   tau( 132) = (   0.3611377   0.3440826   0.7217329  )
       133           C   tau( 133) = (   0.3468325   0.3579269   0.6827852  )
       134           C   tau( 134) = (   0.3089584   0.3802284   0.6804532  )
       135           C   tau( 135) = (   0.2893909   0.3850656   0.6415441  )
       136           C   tau( 136) = (   0.2454897   0.3842600   0.6392855  )
       137           C   tau( 137) = (   0.2261180   0.3782095   0.6003343  )
       138           C   tau( 138) = (   0.1894794   0.3540081   0.5980555  )
       139           C   tau( 139) = (   0.1763118   0.3386274   0.5590933  )
       140           C   tau( 140) = (   0.1579116   0.2986799   0.5568390  )
       141           C   tau( 141) = (   0.1547330   0.2786642   0.5179073  )
       142           C   tau( 142) = (   0.1597802   0.2349604   0.5156429  )
       143           C   tau( 143) = (   0.1675210   0.2162095   0.4767084  )
       144           C   tau( 144) = (   0.1946983   0.1816205   0.4744354  )
       145           C   tau( 145) = (   0.2111370   0.1697316   0.4355114  )
       146           C   tau( 146) = (   0.2524809   0.1546536   0.4332649  )
       147           C   tau( 147) = (   0.2727167   0.1531929   0.3943550  )
       148           C   tau( 148) = (   0.3157967   0.1621603   0.3920754  )
       149           C   tau( 149) = (   0.3337855   0.1715856   0.3531548  )
       150           C   tau( 150) = (   0.3657098   0.2018755   0.3508833  )
       151           C   tau( 151) = (   0.3761653   0.2192791   0.3119922  )
       152           C   tau( 152) = (   0.3875651   0.2617926   0.3097245  )
       153           C   tau( 153) = (   0.3873790   0.2820362   0.2708040  )
       154           C   tau( 154) = (   0.3748170   0.3242050   0.2685277  )
       155           C   tau( 155) = (   0.3587512   0.3476308   0.7972257  )
       156           C   tau( 156) = (   0.3440455   0.3614933   0.7583138  )
       157           C   tau( 157) = (   0.3052416   0.3821537   0.7560041  )
       158           C   tau( 158) = (   0.2854245   0.3862786   0.7170530  )
       159           C   tau( 159) = (   0.2415176   0.3835840   0.7148125  )
       160           C   tau( 160) = (   0.2224173   0.3767474   0.6759057  )
       161           C   tau( 161) = (   0.1866190   0.3511693   0.6736284  )
       162           C   tau( 162) = (   0.1740131   0.3352792   0.6346946  )
       163           C   tau( 163) = (   0.1570211   0.2947534   0.6324301  )
       164           C   tau( 164) = (   0.1545134   0.2746397   0.5934529  )
       165           C   tau( 165) = (   0.1610308   0.2311810   0.5911773  )
       166           C   tau( 166) = (   0.1693547   0.2126813   0.5522475  )
       167           C   tau( 167) = (   0.1977761   0.1790973   0.5499828  )
       168           C   tau( 168) = (   0.2146083   0.1677712   0.5110737  )
       169           C   tau( 169) = (   0.2565039   0.1543649   0.5088327  )
       170           C   tau( 170) = (   0.2767278   0.1534824   0.4698876  )
       171           C   tau( 171) = (   0.3194153   0.1639860   0.4675718  )
       172           C   tau( 172) = (   0.3370744   0.1738003   0.4286591  )
       173           C   tau( 173) = (   0.3679198   0.2052295   0.4263468  )
       174           C   tau( 174) = (   0.3776706   0.2229983   0.3874469  )
       175           C   tau( 175) = (   0.3875894   0.2658538   0.3851643  )
       176           C   tau( 176) = (   0.3867316   0.2860919   0.3462636  )
       177           C   tau( 177) = (   0.3728009   0.3278303   0.3440118  )
       178           C   tau( 178) = (   0.3561183   0.3505654   0.8727292  )
       179           C   tau( 179) = (   0.3409872   0.3641276   0.8338118  )
       180           C   tau( 180) = (   0.3014283   0.3834023   0.8315448  )
       181           C   tau( 181) = (   0.2814553   0.3869675   0.7926299  )
       182           C   tau( 182) = (   0.2376719   0.3825184   0.7903749  )
       183           C   tau( 183) = (   0.2188160   0.3750423   0.7514507  )
       184           C   tau( 184) = (   0.1839712   0.3481922   0.7491730  )
       185           C   tau( 185) = (   0.1718633   0.3319226   0.7102329  )
       186           C   tau( 186) = (   0.1562342   0.2908002   0.7079750  )
       187           C   tau( 187) = (   0.1544023   0.2706195   0.6690453  )
       188           C   tau( 188) = (   0.1624326   0.2273770   0.6667776  )
       189           C   tau( 189) = (   0.1714272   0.2092339   0.6278183  )
       190           C   tau( 190) = (   0.2010091   0.1767860   0.6255555  )
       191           C   tau( 191) = (   0.2182949   0.1661527   0.5866033  )
       192           C   tau( 192) = (   0.2606476   0.1545765   0.5843379  )
       193           C   tau( 193) = (   0.2808005   0.1544549   0.5454309  )
       194           C   tau( 194) = (   0.3229863   0.1667749   0.5431007  )
       195           C   tau( 195) = (   0.3402564   0.1766763   0.5041522  )
       196           C   tau( 196) = (   0.3702074   0.2088257   0.5017792  )
       197           C   tau( 197) = (   0.3792645   0.2267545   0.4627890  )
       198           C   tau( 198) = (   0.3877122   0.2698719   0.4604948  )
       199           C   tau( 199) = (   0.3860340   0.2901065   0.4216989  )
       200           C   tau( 200) = (   0.3533948   0.3533731   0.9482250  )
       201           C   tau( 201) = (   0.3377911   0.3663965   0.9093255  )
       202           C   tau( 202) = (   0.2975710   0.3842724   0.9070810  )
       203           C   tau( 203) = (   0.2774745   0.3871720   0.8681723  )
       204           C   tau( 204) = (   0.2338929   0.3811873   0.8659067  )
       205           C   tau( 205) = (   0.2153040   0.3731016   0.8269742  )
       206           C   tau( 206) = (   0.1813744   0.3450903   0.8246992  )
       207           C   tau( 207) = (   0.1698473   0.3284353   0.7857667  )
       208           C   tau( 208) = (   0.1556049   0.2868077   0.7835044  )
       209           C   tau( 209) = (   0.1544980   0.2665722   0.7445732  )
       210           C   tau( 210) = (   0.1640341   0.2236337   0.7422994  )
       211           C   tau( 211) = (   0.1735935   0.2057919   0.7033525  )
       212           C   tau( 212) = (   0.2042772   0.1742528   0.7010871  )
       213           C   tau( 213) = (   0.2219275   0.1643648   0.6621326  )
       214           C   tau( 214) = (   0.2646824   0.1542126   0.6598545  )
       215           C   tau( 215) = (   0.2851002   0.1554813   0.6209227  )
       216           C   tau( 216) = (   0.3267704   0.1690005   0.6186618  )
       217           C   tau( 217) = (   0.3437114   0.1802152   0.5795765  )
       218           C   tau( 218) = (   0.3741633   0.2114420   0.5768545  )
       219           C   tau( 219) = (   0.3820194   0.2300914   0.5382424  )
       220           C   tau( 220) = (   0.3889906   0.2739529   0.5359354  )
       221           C   tau( 221) = (   0.3853467   0.2939135   0.4971185  )
       222           C   tau( 222) = (   0.3505543   0.3561169   1.0237305  )
       223           C   tau( 223) = (   0.3344985   0.3685514   0.9848284  )
       224           C   tau( 224) = (   0.2936898   0.3850007   0.9825895  )
       225           C   tau( 225) = (   0.2735053   0.3871958   0.9436787  )
       226           C   tau( 226) = (   0.2301434   0.3797437   0.9414127  )
       227           C   tau( 227) = (   0.2118430   0.3710278   0.9024974  )
       228           C   tau( 228) = (   0.1788525   0.3419138   0.9002260  )
       229           C   tau( 229) = (   0.1678980   0.3248791   0.8612889  )
       230           C   tau( 230) = (   0.1550553   0.2828029   0.8590198  )
       231           C   tau( 231) = (   0.1546599   0.2625430   0.8200885  )
       232           C   tau( 232) = (   0.1657196   0.2199562   0.8178177  )
       233           C   tau( 233) = (   0.1759373   0.2024507   0.7788925  )
       234           C   tau( 234) = (   0.2076408   0.1719408   0.7766371  )
       235           C   tau( 235) = (   0.2255418   0.1624908   0.7376697  )
       236           C   tau( 236) = (   0.2685850   0.1534476   0.7353823  )
       237           C   tau( 237) = (   0.2888035   0.1552999   0.6964403  )
       238           C   tau( 238) = (   0.3300829   0.1704282   0.6942612  )
       239           C   tau( 239) = (   0.3468726   0.1825731   0.6554316  )
       240           C   tau( 240) = (   0.3761252   0.2150155   0.6537131  )
       241           C   tau( 241) = (   0.3899921   0.2312240   0.6140930  )
       242           C   tau( 242) = (   0.3959520   0.2789930   0.6117933  )
       243           C   tau( 243) = (   0.3864841   0.2981121   0.5721705  )
       244           C   tau( 244) = (   0.3476004   0.3587908   1.0992435  )
       245           C   tau( 245) = (   0.3311373   0.3706460   1.0603269  )
       246           C   tau( 246) = (   0.2897822   0.3856714   1.0580861  )
       247           C   tau( 247) = (   0.2695385   0.3871435   1.0191801  )
       248           C   tau( 248) = (   0.2264504   0.3782177   1.0169129  )
       249           C   tau( 249) = (   0.2084510   0.3688613   0.9780045  )
       250           C   tau( 250) = (   0.1764553   0.3386629   0.9757420  )
       251           C   tau( 251) = (   0.1660616   0.3212722   0.9368091  )
       252           C   tau( 252) = (   0.1546477   0.2787794   0.9345379  )
       253           C   tau( 253) = (   0.1549396   0.2585216   0.8956118  )
       254           C   tau( 254) = (   0.1674983   0.2163533   0.8933463  )
       255           C   tau( 255) = (   0.1783507   0.1992288   0.8544171  )
       256           C   tau( 256) = (   0.2111123   0.1698644   0.8521660  )
       257           C   tau( 257) = (   0.2292897   0.1609301   0.8132263  )
       258           C   tau( 258) = (   0.2726085   0.1531909   0.8109542  )
       259           C   tau( 259) = (   0.2927512   0.1553445   0.7720089  )
       260           C   tau( 260) = (   0.3335950   0.1716326   0.7698245  )
       261           C   tau( 261) = (   0.3496112   0.1842433   0.7309203  )
       262           C   tau( 262) = (   0.3760433   0.2193505   0.7287619  )
       263           C   tau( 263) = (   0.3844855   0.2378132   0.6899498  )
       264           C   tau( 264) = (   0.3885073   0.2820462   0.6876531  )
       265           C   tau( 265) = (   0.3854774   0.3020589   0.6490368  )
       266           C   tau( 266) = (   0.3445254   0.3613616   1.1747572  )
       267           C   tau( 267) = (   0.3276780   0.3726454   1.1358344  )
       268           C   tau( 268) = (   0.2858291   0.3862417   1.1335861  )
       269           C   tau( 269) = (   0.2655578   0.3870011   1.0946764  )
       270           C   tau( 270) = (   0.2228078   0.3765944   1.0924091  )
       271           C   tau( 271) = (   0.2051430   0.3666188   1.0534987  )
       272           C   tau( 272) = (   0.1741922   0.3353443   1.0512457  )
       273           C   tau( 273) = (   0.1643775   0.3176043   1.0123282  )
       274           C   tau( 274) = (   0.1544273   0.2747445   1.0100540  )
       275           C   tau( 275) = (   0.1553958   0.2545082   0.9711284  )
       276           C   tau( 276) = (   0.1694188   0.2128063   0.9688688  )
       277           C   tau( 277) = (   0.1808515   0.1960828   0.9299380  )
       278           C   tau( 278) = (   0.2146478   0.1679085   0.9276853  )
       279           C   tau( 279) = (   0.2331365   0.1596327   0.8887614  )
       280           C   tau( 280) = (   0.2766834   0.1533873   0.8864903  )
       281           C   tau( 281) = (   0.2967357   0.1560706   0.8475399  )
       282           C   tau( 282) = (   0.3370349   0.1737249   0.8453090  )
       283           C   tau( 283) = (   0.3526390   0.1866094   0.8063967  )
       284           C   tau( 284) = (   0.3776366   0.2228574   0.8041793  )
       285           C   tau( 285) = (   0.3842289   0.2420718   0.7653873  )
       286           C   tau( 286) = (   0.3866333   0.2859440   0.7631076  )
       287           C   tau( 287) = (   0.3822701   0.3055587   0.7241166  )
       288           C   tau( 288) = (   0.3413408   0.3638195   0.0008083  )
       289           C   tau( 289) = (   0.3241300   0.3745229   1.2113469  )
       290           C   tau( 290) = (   0.2818393   0.3866722   1.2090874  )
       291           C   tau( 291) = (   0.2615647   0.3867382   1.1701721  )
       292           C   tau( 292) = (   0.2191981   0.3748625   1.1679048  )
       293           C   tau( 293) = (   0.2018982   0.3642813   1.1289928  )
       294           C   tau( 294) = (   0.1720476   0.3319536   1.1267431  )
       295           C   tau( 295) = (   0.1628568   0.3138829   1.0878317  )
       296           C   tau( 296) = (   0.1543874   0.2707102   1.0855569  )
       297           C   tau( 297) = (   0.1560339   0.2505148   1.0466369  )
       298           C   tau( 298) = (   0.1714917   0.2093222   1.0443811  )
       299           C   tau( 299) = (   0.1834913   0.1930111   1.0054543  )
       300           C   tau( 300) = (   0.2182657   0.1660559   1.0031926  )
       301           C   tau( 301) = (   0.2370282   0.1584613   0.9642662  )
       302           C   tau( 302) = (   0.2807694   0.1537518   0.9619922  )
       303           C   tau( 303) = (   0.3007087   0.1571199   0.9230559  )
       304           C   tau( 304) = (   0.3403964   0.1761301   0.9207954  )
       305           C   tau( 305) = (   0.3555373   0.1895235   0.8818737  )
       306           C   tau( 306) = (   0.3792971   0.2265627   0.8796131  )
       307           C   tau( 307) = (   0.3851038   0.2459780   0.8407152  )
       308           C   tau( 308) = (   0.3860247   0.2899583   0.8384488  )
       309           C   tau( 309) = (   0.3809296   0.3095873   0.7995518  )
       310           C   tau( 310) = (   0.2575602   0.3863262   1.2456676  )
       311           C   tau( 311) = (   0.2156271   0.3729990   1.2434016  )
       312           C   tau( 312) = (   0.1987151   0.3618316   1.2044849  )
       313           C   tau( 313) = (   0.1699979   0.3284944   1.2022320  )
       314           C   tau( 314) = (   0.1614472   0.3101158   1.1633219  )
       315           C   tau( 315) = (   0.1544756   0.2666742   1.1610496  )
       316           C   tau( 316) = (   0.1568301   0.2465493   1.1221355  )
       317           C   tau( 317) = (   0.1736995   0.2059142   1.1198826  )
       318           C   tau( 318) = (   0.1862586   0.1900312   1.0809583  )
       319           C   tau( 319) = (   0.2219444   0.1642972   1.0786864  )
       320           C   tau( 320) = (   0.2409660   0.1573777   1.0397618  )
       321           C   tau( 321) = (   0.2848490   0.1541924   1.0374899  )
       322           C   tau( 322) = (   0.3046624   0.1582847   0.9985584  )
       323           C   tau( 323) = (   0.3436828   0.1786143   0.9962870  )
       324           C   tau( 324) = (   0.3583681   0.1925253   0.9573533  )
       325           C   tau( 325) = (   0.3809057   0.2303173   0.9550741  )
       326           C   tau( 326) = (   0.3860706   0.2499020   0.9161561  )
       327           C   tau( 327) = (   0.3854830   0.2939151   0.9139016  )
       328           C   tau( 328) = (   0.3796237   0.3133633   0.8750151  )
       329           C   tau( 329) = (   0.1601410   0.3063025   1.2388062  )
       330           C   tau( 330) = (   0.1546760   0.2626432   1.2365376  )
       331           C   tau( 331) = (   0.1577404   0.2426084   1.1976251  )
       332           C   tau( 332) = (   0.1760027   0.2025795   1.1953742  )
       333           C   tau( 333) = (   0.1891111   0.1871348   1.1564549  )
       334           C   tau( 334) = (   0.2256654   0.1626430   1.1541793  )
       335           C   tau( 335) = (   0.2449249   0.1563915   1.1152573  )
       336           C   tau( 336) = (   0.2888928   0.1547280   1.1129916  )
       337           C   tau( 337) = (   0.3085628   0.1595175   1.0740597  )
       338           C   tau( 338) = (   0.3468675   0.1811704   1.0717847  )
       339           C   tau( 339) = (   0.3610899   0.1955802   1.0328544  )
       340           C   tau( 340) = (   0.3823391   0.2341164   1.0305757  )
       341           C   tau( 341) = (   0.3868668   0.2538659   0.9916511  )
       342           C   tau( 342) = (   0.3847536   0.2978223   0.9893997  )
       343           C   tau( 343) = (   0.3782395   0.3170538   0.9504913  )
       344           C   tau( 344) = (   0.1920457   0.1843492   1.2319502  )
       345           C   tau( 345) = (   0.2294215   0.1611293   1.2296771  )
       346           C   tau( 346) = (   0.2488933   0.1555375   1.1907566  )
       347           C   tau( 347) = (   0.2928945   0.1553934   1.1884994  )
       348           C   tau( 348) = (   0.3123954   0.1608655   1.1495697  )
       349           C   tau( 349) = (   0.3499263   0.1838339   1.1472937  )
       350           C   tau( 350) = (   0.3636590   0.1987233   1.1083656  )
       351           C   tau( 351) = (   0.3835640   0.2379650   1.1060948  )
       352           C   tau( 352) = (   0.3874400   0.2578561   1.0671626  )
       353           C   tau( 353) = (   0.3838032   0.3017088   1.0649093  )
       354           C   tau( 354) = (   0.3766629   0.3206908   1.0259915  )
       355           C   tau( 355) = (   0.3161669   0.1623386   1.2250828  )
       356           C   tau( 356) = (   0.3528824   0.1865930   1.2228077  )
       357           C   tau( 357) = (   0.3660944   0.2019517   1.1838793  )
       358           C   tau( 358) = (   0.3846402   0.2418520   1.1816171  )
       359           C   tau( 359) = (   0.3878360   0.2618641   1.1426842  )
       360           C   tau( 360) = (   0.3826926   0.3055662   1.1404243  )
       361           C   tau( 361) = (   0.3749114   0.3242887   1.1015040  )
       362           C   tau( 362) = (   0.3880788   0.2658850   1.2182085  )
       363           C   tau( 363) = (   0.3814238   0.3093806   1.2159411  )
       364           C   tau( 364) = (   0.3730108   0.3278223   1.1770175  )
       365           Se  tau( 365) = (   0.4513413   0.2478162   0.6129330  )

   Crystallographic axes

     site n.     atom                  positions (cryst. coord.)
         1           C   tau(   1) = (  0.3709674  0.5383191  0.0024551  )
         2           C   tau(   2) = (  0.3687916  0.5438434  0.0628897  )
         3           C   tau(   3) = (  0.3380511  0.5950046  0.0610801  )
         4           C   tau(   4) = (  0.3204902  0.6114088  0.0299257  )
         5           C   tau(   5) = (  0.2778085  0.6287696  0.0281089  )
         6           C   tau(   6) = (  0.3664736  0.5492576  0.1233191  )
         7           C   tau(   7) = (  0.3346638  0.5986578  0.1215061  )
         8           C   tau(   8) = (  0.3167735  0.6140576  0.0903513  )
         9           C   tau(   9) = (  0.2737464  0.6290035  0.0885266  )
        10           C   tau(  10) = (  0.2535408  0.6268528  0.0573785  )
        11           C   tau(  11) = (  0.2120893  0.6028798  0.0555680  )
        12           C   tau(  12) = (  0.1955852  0.5837997  0.0244182  )
        13           C   tau(  13) = (  0.1680334  0.5280537  0.0226100  )
        14           C   tau(  14) = (  0.3640036  0.5545731  0.1837419  )
        15           C   tau(  15) = (  0.3311740  0.6021732  0.1819260  )
        16           C   tau(  16) = (  0.3129824  0.6165261  0.1507714  )
        17           C   tau(  17) = (  0.2696637  0.6290461  0.1489438  )
        18           C   tau(  18) = (  0.2495270  0.6257372  0.1177934  )
        19           C   tau(  19) = (  0.2086129  0.5994544  0.1159872  )
        20           C   tau(  20) = (  0.1925298  0.5794627  0.0848365  )
        21           C   tau(  21) = (  0.1661789  0.5222094  0.0830249  )
        22           C   tau(  22) = (  0.1589380  0.4914622  0.0518822  )
        23           C   tau(  23) = (  0.1549926  0.4202533  0.0500710  )
        24           C   tau(  24) = (  0.1587592  0.3878878  0.0189270  )
        25           C   tau(  25) = (  0.1783988  0.3239078  0.0171249  )
        26           C   tau(  26) = (  0.3614212  0.5598258  0.2441609  )
        27           C   tau(  27) = (  0.3276129  0.6056008  0.2423477  )
        28           C   tau(  28) = (  0.3091226  0.6188613  0.2111873  )
        29           C   tau(  29) = (  0.2655697  0.6289282  0.2093622  )
        30           C   tau(  30) = (  0.2455204  0.6244499  0.1782079  )
        31           C   tau(  31) = (  0.2051923  0.5958745  0.1764086  )
        32           C   tau(  32) = (  0.1895496  0.5749769  0.1452590  )
        33           C   tau(  33) = (  0.1644317  0.5162764  0.1434459  )
        34           C   tau(  34) = (  0.1578626  0.4851322  0.1122990  )
        35           C   tau(  35) = (  0.1554338  0.4137475  0.1104920  )
        36           C   tau(  36) = (  0.1598936  0.3816122  0.0793460  )
        37           C   tau(  37) = (  0.1808775  0.3187682  0.0775414  )
        38           C   tau(  38) = (  0.1950459  0.2951984  0.0464009  )
        39           C   tau(  39) = (  0.2332014  0.2595907  0.0445863  )
        40           C   tau(  40) = (  0.2528698  0.2515980  0.0134401  )
        41           C   tau(  41) = (  0.2968492  0.2538316  0.0116377  )
        42           C   tau(  42) = (  0.3706924  0.5384675  0.3357242  )
        43           C   tau(  43) = (  0.3587352  0.5649785  0.3045776  )
        44           C   tau(  44) = (  0.3240039  0.6088666  0.3027820  )
        45           C   tau(  45) = (  0.3052348  0.6210874  0.2716080  )
        46           C   tau(  46) = (  0.2614910  0.6286736  0.2697906  )
        47           C   tau(  47) = (  0.2415439  0.6230110  0.2386352  )
        48           C   tau(  48) = (  0.2018572  0.5921422  0.2368389  )
        49           C   tau(  49) = (  0.1866744  0.5703390  0.2056882  )
        50           C   tau(  50) = (  0.1628376  0.5102501  0.2038748  )
        51           C   tau(  51) = (  0.1569212  0.4787565  0.1727251  )
        52           C   tau(  52) = (  0.1560129  0.4072752  0.1709213  )
        53           C   tau(  53) = (  0.1611460  0.3754107  0.1397729  )
        54           C   tau(  54) = (  0.1834534  0.3137833  0.1379617  )
        55           C   tau(  55) = (  0.1981230  0.2910248  0.1068201  )
        56           C   tau(  56) = (  0.2370144  0.2575872  0.1050103  )
        57           C   tau(  57) = (  0.2568474  0.2506960  0.0738666  )
        58           C   tau(  58) = (  0.3007556  0.2553975  0.0720681  )
        59           C   tau(  59) = (  0.3198522  0.2664357  0.0409195  )
        60           C   tau(  60) = (  0.3557115  0.3078697  0.0391018  )
        61           C   tau(  61) = (  0.3684036  0.3335397  0.0079476  )
        62           C   tau(  62) = (  0.3855665  0.3993744  0.0061425  )
        63           C   tau(  63) = (  0.3683361  0.5434292  0.3961307  )
        64           C   tau(  64) = (  0.3559081  0.5696655  0.3649921  )
        65           C   tau(  65) = (  0.3203157  0.6116273  0.3632312  )
        66           C   tau(  66) = (  0.3013282  0.6230625  0.3320606  )
        67           C   tau(  67) = (  0.2574370  0.6282104  0.3302484  )
        68           C   tau(  68) = (  0.2376235  0.6213902  0.2990794  )
        69           C   tau(  69) = (  0.1986505  0.5882224  0.2972771  )
        70           C   tau(  70) = (  0.1839264  0.5655681  0.2661259  )
        71           C   tau(  71) = (  0.1614064  0.5041448  0.2643135  )
        72           C   tau(  72) = (  0.1561455  0.4723382  0.2331633  )
        73           C   tau(  73) = (  0.1567569  0.4008480  0.2313597  )
        74           C   tau(  74) = (  0.1625484  0.3692920  0.2002049  )
        75           C   tau(  75) = (  0.1861377  0.3089460  0.1983846  )
        76           C   tau(  76) = (  0.2012700  0.2870195  0.1672424  )
        77           C   tau(  77) = (  0.2408451  0.2557642  0.1654374  )
        78           C   tau(  78) = (  0.2608236  0.2500139  0.1342944  )
        79           C   tau(  79) = (  0.3046025  0.2571699  0.1324953  )
        80           C   tau(  80) = (  0.3234713  0.2692679  0.1013516  )
        81           C   tau(  81) = (  0.3584362  0.3126773  0.0995394  )
        82           C   tau(  82) = (  0.3705829  0.3390424  0.0683868  )
        83           C   tau(  83) = (  0.3863435  0.4057994  0.0665856  )
        84           C   tau(  84) = (  0.3881661  0.4385934  0.0354288  )
        85           C   tau(  85) = (  0.3800070  0.5088502  0.0336083  )
        86           C   tau(  86) = (  0.3660946  0.5471909  0.4565434  )
        87           C   tau(  87) = (  0.3528034  0.5730080  0.4254673  )
        88           C   tau(  88) = (  0.3165015  0.6133116  0.4237118  )
        89           C   tau(  89) = (  0.2973601  0.6242958  0.3925436  )
        90           C   tau(  90) = (  0.2534147  0.6272731  0.3907229  )
        91           C   tau(  91) = (  0.2337402  0.6195354  0.3595322  )
        92           C   tau(  92) = (  0.1955155  0.5841282  0.3577198  )
        93           C   tau(  93) = (  0.1813192  0.5606154  0.3265693  )
        94           C   tau(  94) = (  0.1601561  0.4979306  0.3247578  )
        95           C   tau(  95) = (  0.1555629  0.4658555  0.2936006  )
        96           C   tau(  96) = (  0.1576665  0.3944503  0.2917944  )
        97           C   tau(  97) = (  0.1640884  0.3632327  0.2606381  )
        98           C   tau(  98) = (  0.1889121  0.3041995  0.2588126  )
        99           C   tau(  99) = (  0.2045030  0.2831519  0.2276678  )
       100           C   tau( 100) = (  0.2446993  0.2540821  0.2258651  )
       101           C   tau( 101) = (  0.2647932  0.2494871  0.1947187  )
       102           C   tau( 102) = (  0.3083929  0.2591035  0.1929175  )
       103           C   tau( 103) = (  0.3270004  0.2722901  0.1617828  )
       104           C   tau( 104) = (  0.3610246  0.3176449  0.1599774  )
       105           C   tau( 105) = (  0.3726241  0.3446740  0.1288268  )
       106           C   tau( 106) = (  0.3869521  0.4122767  0.1270246  )
       107           C   tau( 107) = (  0.3880967  0.4451490  0.0958686  )
       108           C   tau( 108) = (  0.3784479  0.5149082  0.0940435  )
       109           C   tau( 109) = (  0.3636219  0.5521668  0.5172489  )
       110           C   tau( 110) = (  0.3499454  0.5765918  0.4859717  )
       111           C   tau( 111) = (  0.3128670  0.6145154  0.4841533  )
       112           C   tau( 112) = (  0.2933890  0.6246730  0.4529935  )
       113           C   tau( 113) = (  0.2494463  0.6257871  0.4511799  )
       114           C   tau( 114) = (  0.2299099  0.6172524  0.4200021  )
       115           C   tau( 115) = (  0.1924279  0.5798002  0.4181769  )
       116           C   tau( 116) = (  0.1787861  0.5555016  0.3870070  )
       117           C   tau( 117) = (  0.1590029  0.4916641  0.3851965  )
       118           C   tau( 118) = (  0.1551086  0.4593411  0.3540380  )
       119           C   tau( 119) = (  0.1586802  0.3880818  0.3522292  )
       120           C   tau( 120) = (  0.1657620  0.3572362  0.3210779  )
       121           C   tau( 121) = (  0.1917679  0.2995641  0.3192541  )
       122           C   tau( 122) = (  0.2077934  0.2793950  0.2880964  )
       123           C   tau( 123) = (  0.2485641  0.2525431  0.2862944  )
       124           C   tau( 124) = (  0.2687486  0.2490782  0.2551550  )
       125           C   tau( 125) = (  0.3121267  0.2611838  0.2533467  )
       126           C   tau( 126) = (  0.3304391  0.2754767  0.2222123  )
       127           C   tau( 127) = (  0.3634472  0.3227630  0.2204081  )
       128           C   tau( 128) = (  0.3744915  0.3504309  0.1892630  )
       129           C   tau( 129) = (  0.3873672  0.4188085  0.1874568  )
       130           C   tau( 130) = (  0.3878425  0.4517126  0.1563052  )
       131           C   tau( 131) = (  0.3767126  0.5208919  0.1544787  )
       132           C   tau( 132) = (  0.3611377  0.5591124  0.5776112  )
       133           C   tau( 133) = (  0.3468325  0.5816085  0.5464409  )
       134           C   tau( 134) = (  0.3089584  0.6178471  0.5445746  )
       135           C   tau( 135) = (  0.2893909  0.6257073  0.5134351  )
       136           C   tau( 136) = (  0.2454897  0.6243982  0.5116275  )
       137           C   tau( 137) = (  0.2261180  0.6145665  0.4804544  )
       138           C   tau( 138) = (  0.1894794  0.5752408  0.4786307  )
       139           C   tau( 139) = (  0.1763118  0.5502480  0.4474488  )
       140           C   tau( 140) = (  0.1579116  0.4853359  0.4456447  )
       141           C   tau( 141) = (  0.1547330  0.4528117  0.4144872  )
       142           C   tau( 142) = (  0.1597802  0.3817959  0.4126749  )
       143           C   tau( 143) = (  0.1675210  0.3513268  0.3815152  )
       144           C   tau( 144) = (  0.1946983  0.2951218  0.3796962  )
       145           C   tau( 145) = (  0.2111370  0.2758032  0.3485448  )
       146           C   tau( 146) = (  0.2524809  0.2513023  0.3467469  )
       147           C   tau( 147) = (  0.2727167  0.2489288  0.3156068  )
       148           C   tau( 148) = (  0.3157967  0.2635002  0.3137825  )
       149           C   tau( 149) = (  0.3337855  0.2788157  0.2826339  )
       150           C   tau( 150) = (  0.3657098  0.3280350  0.2808159  )
       151           C   tau( 151) = (  0.3761653  0.3563146  0.2496910  )
       152           C   tau( 152) = (  0.3875651  0.4253964  0.2478761  )
       153           C   tau( 153) = (  0.3873790  0.4582910  0.2167276  )
       154           C   tau( 154) = (  0.3748170  0.5268127  0.2149058  )
       155           C   tau( 155) = (  0.3587512  0.5648781  0.6380289  )
       156           C   tau( 156) = (  0.3440455  0.5874037  0.6068873  )
       157           C   tau( 157) = (  0.3052416  0.6209757  0.6050388  )
       158           C   tau( 158) = (  0.2854245  0.6276783  0.5738658  )
       159           C   tau( 159) = (  0.2415176  0.6232997  0.5720727  )
       160           C   tau( 160) = (  0.2224173  0.6121907  0.5409351  )
       161           C   tau( 161) = (  0.1866190  0.5706279  0.5391125  )
       162           C   tau( 162) = (  0.1740131  0.5448075  0.5079534  )
       163           C   tau( 163) = (  0.1570211  0.4789557  0.5061411  )
       164           C   tau( 164) = (  0.1545134  0.4462722  0.4749472  )
       165           C   tau( 165) = (  0.1610308  0.3756546  0.4731260  )
       166           C   tau( 166) = (  0.1693547  0.3455937  0.4419700  )
       167           C   tau( 167) = (  0.1977761  0.2910218  0.4401576  )
       168           C   tau( 168) = (  0.2146083  0.2726176  0.4090182  )
       169           C   tau( 169) = (  0.2565039  0.2508332  0.4072246  )
       170           C   tau( 170) = (  0.2767278  0.2493992  0.3760564  )
       171           C   tau( 171) = (  0.3194153  0.2664668  0.3742031  )
       172           C   tau( 172) = (  0.3370744  0.2824146  0.3430608  )
       173           C   tau( 173) = (  0.3679198  0.3334849  0.3412102  )
       174           C   tau( 174) = (  0.3776706  0.3623582  0.3100782  )
       175           C   tau( 175) = (  0.3875894  0.4319956  0.3082514  )
       176           C   tau( 176) = (  0.3867316  0.4648813  0.2771187  )
       177           C   tau( 177) = (  0.3728009  0.5327035  0.2753166  )
       178           C   tau( 178) = (  0.3561183  0.5696466  0.6984552  )
       179           C   tau( 179) = (  0.3409872  0.5916844  0.6673092  )
       180           C   tau( 180) = (  0.3014283  0.6230045  0.6654949  )
       181           C   tau( 181) = (  0.2814553  0.6287978  0.6343508  )
       182           C   tau( 182) = (  0.2376719  0.6215682  0.6325462  )
       183           C   tau( 183) = (  0.2188160  0.6094200  0.6013946  )
       184           C   tau( 184) = (  0.1839712  0.5657904  0.5995718  )
       185           C   tau( 185) = (  0.1718633  0.5393532  0.5684076  )
       186           C   tau( 186) = (  0.1562342  0.4725320  0.5666005  )
       187           C   tau( 187) = (  0.1544023  0.4397396  0.5354446  )
       188           C   tau( 188) = (  0.1624326  0.3694733  0.5336298  )
       189           C   tau( 189) = (  0.1714272  0.3399919  0.5024502  )
       190           C   tau( 190) = (  0.2010091  0.2872661  0.5006392  )
       191           C   tau( 191) = (  0.2182949  0.2699876  0.4694654  )
       192           C   tau( 192) = (  0.2606476  0.2511770  0.4676523  )
       193           C   tau( 193) = (  0.2808005  0.2509795  0.4365146  )
       194           C   tau( 194) = (  0.3229863  0.2709987  0.4346498  )
       195           C   tau( 195) = (  0.3402564  0.2870879  0.4034788  )
       196           C   tau( 196) = (  0.3702074  0.3393286  0.4015797  )
       197           C   tau( 197) = (  0.3792645  0.3684617  0.3703754  )
       198           C   tau( 198) = (  0.3877122  0.4385248  0.3685393  )
       199           C   tau( 199) = (  0.3860340  0.4714047  0.3374905  )
       200           C   tau( 200) = (  0.3533948  0.5742089  0.7588754  )
       201           C   tau( 201) = (  0.3377911  0.5953711  0.7277436  )
       202           C   tau( 202) = (  0.2975710  0.6244184  0.7259474  )
       203           C   tau( 203) = (  0.2774745  0.6291301  0.6948083  )
       204           C   tau( 204) = (  0.2338929  0.6194052  0.6929951  )
       205           C   tau( 205) = (  0.2153040  0.6062665  0.6618370  )
       206           C   tau( 206) = (  0.1813744  0.5607499  0.6600163  )
       207           C   tau( 207) = (  0.1698473  0.5336866  0.6288581  )
       208           C   tau( 208) = (  0.1556049  0.4660444  0.6270476  )
       209           C   tau( 209) = (  0.1544980  0.4331630  0.5958905  )
       210           C   tau( 210) = (  0.1640341  0.3633907  0.5940707  )
       211           C   tau( 211) = (  0.1735935  0.3343989  0.5629011  )
       212           C   tau( 212) = (  0.2042772  0.2831498  0.5610881  )
       213           C   tau( 213) = (  0.2219275  0.2670824  0.5299123  )
       214           C   tau( 214) = (  0.2646824  0.2505858  0.5280892  )
       215           C   tau( 215) = (  0.2851002  0.2526472  0.4969316  )
       216           C   tau( 216) = (  0.3267704  0.2746152  0.4951221  )
       217           C   tau( 217) = (  0.3437114  0.2928383  0.4638417  )
       218           C   tau( 218) = (  0.3741633  0.3435799  0.4616633  )
       219           C   tau( 219) = (  0.3820194  0.3738839  0.4307616  )
       220           C   tau( 220) = (  0.3889906  0.4451561  0.4289153  )
       221           C   tau( 221) = (  0.3853467  0.4775908  0.3978497  )
       222           C   tau( 222) = (  0.3505543  0.5786675  0.8193033  )
       223           C   tau( 223) = (  0.3344985  0.5988728  0.7881695  )
       224           C   tau( 224) = (  0.2936898  0.6256018  0.7863777  )
       225           C   tau( 225) = (  0.2735053  0.6291687  0.7552369  )
       226           C   tau( 226) = (  0.2301434  0.6170595  0.7534234  )
       227           C   tau( 227) = (  0.2118430  0.6028967  0.7222791  )
       228           C   tau( 228) = (  0.1788525  0.5555884  0.7204613  )
       229           C   tau( 229) = (  0.1678980  0.5279081  0.6892994  )
       230           C   tau( 230) = (  0.1550553  0.4595369  0.6874835  )
       231           C   tau( 231) = (  0.1546599  0.4266158  0.6563263  )
       232           C   tau( 232) = (  0.1657196  0.3574149  0.6545089  )
       233           C   tau( 233) = (  0.1759373  0.3289697  0.6233566  )
       234           C   tau( 234) = (  0.2076408  0.2793929  0.6215516  )
       235           C   tau( 235) = (  0.2255418  0.2640373  0.5903655  )
       236           C   tau( 236) = (  0.2685850  0.2493427  0.5885349  )
       237           C   tau( 237) = (  0.2888035  0.2523525  0.5573692  )
       238           C   tau( 238) = (  0.3300829  0.2769351  0.5556253  )
       239           C   tau( 239) = (  0.3468726  0.2966698  0.5245494  )
       240           C   tau( 240) = (  0.3761252  0.3493866  0.5231741  )
       241           C   tau( 241) = (  0.3899921  0.3757243  0.4914657  )
       242           C   tau( 242) = (  0.3959520  0.4533460  0.4896252  )
       243           C   tau( 243) = (  0.3864841  0.4844133  0.4579146  )
       244           C   tau( 244) = (  0.3476004  0.5830124  0.8797372  )
       245           C   tau( 245) = (  0.3311373  0.6022763  0.8485918  )
       246           C   tau( 246) = (  0.2897822  0.6266916  0.8467985  )
       247           C   tau( 247) = (  0.2695385  0.6290837  0.8156616  )
       248           C   tau( 248) = (  0.2264504  0.6145799  0.8138471  )
       249           C   tau( 249) = (  0.2084510  0.5993763  0.7827083  )
       250           C   tau( 250) = (  0.1764553  0.5503058  0.7808975  )
       251           C   tau( 251) = (  0.1660616  0.5220471  0.7497391  )
       252           C   tau( 252) = (  0.1546477  0.4529990  0.7479214  )
       253           C   tau( 253) = (  0.1549396  0.4200813  0.7167684  )
       254           C   tau( 254) = (  0.1674983  0.3515604  0.7149553  )
       255           C   tau( 255) = (  0.1783507  0.3237342  0.6837999  )
       256           C   tau( 256) = (  0.2111123  0.2760189  0.6819983  )
       257           C   tau( 257) = (  0.2292897  0.2615012  0.6508344  )
       258           C   tau( 258) = (  0.2726085  0.2489256  0.6490160  )
       259           C   tau( 259) = (  0.2927512  0.2524251  0.6178476  )
       260           C   tau( 260) = (  0.3335950  0.2788922  0.6160994  )
       261           C   tau( 261) = (  0.3496112  0.2993837  0.5849639  )
       262           C   tau( 262) = (  0.3760433  0.3564307  0.5832365  )
       263           C   tau( 263) = (  0.3844855  0.3864314  0.5521748  )
       264           C   tau( 264) = (  0.3885073  0.4583072  0.5503367  )
       265           C   tau( 265) = (  0.3854774  0.4908267  0.5194316  )
       266           C   tau( 266) = (  0.3445254  0.5871898  0.9401717  )
       267           C   tau( 267) = (  0.3276780  0.6055253  0.9090213  )
       268           C   tau( 268) = (  0.2858291  0.6276184  0.9072220  )
       269           C   tau( 269) = (  0.2655578  0.6288523  0.8760821  )
       270           C   tau( 270) = (  0.2228078  0.6119421  0.8742676  )
       271           C   tau( 271) = (  0.2051430  0.5957323  0.8431271  )
       272           C   tau( 272) = (  0.1741922  0.5449133  0.8413240  )
       273           C   tau( 273) = (  0.1643775  0.5160870  0.8101779  )
       274           C   tau( 274) = (  0.1544273  0.4464425  0.8083579  )
       275           C   tau( 275) = (  0.1553958  0.4135597  0.7772052  )
       276           C   tau( 276) = (  0.1694188  0.3457967  0.7753968  )
       277           C   tau( 277) = (  0.1808515  0.3186222  0.7442401  )
       278           C   tau( 278) = (  0.2146478  0.2728408  0.7424372  )
       279           C   tau( 279) = (  0.2331365  0.2593931  0.7112860  )
       280           C   tau( 280) = (  0.2766834  0.2492447  0.7094684  )
       281           C   tau( 281) = (  0.2967357  0.2536048  0.6782959  )
       282           C   tau( 282) = (  0.3370349  0.2822920  0.6765105  )
       283           C   tau( 283) = (  0.3526390  0.3032285  0.6453685  )
       284           C   tau( 284) = (  0.3776366  0.3621292  0.6435939  )
       285           C   tau( 285) = (  0.3842289  0.3933515  0.6125483  )
       286           C   tau( 286) = (  0.3866333  0.4646409  0.6107238  )
       287           C   tau( 287) = (  0.3822701  0.4965135  0.5795189  )
       288           C   tau( 288) = (  0.3413408  0.5911836  0.0006469  )
       289           C   tau( 289) = (  0.3241300  0.6085761  0.9694549  )
       290           C   tau( 290) = (  0.2818393  0.6283179  0.9676466  )
       291           C   tau( 291) = (  0.2615647  0.6284252  0.9365022  )
       292           C   tau( 292) = (  0.2191981  0.6091279  0.9346876  )
       293           C   tau( 293) = (  0.2018982  0.5919341  0.9035459  )
       294           C   tau( 294) = (  0.1720476  0.5394037  0.9017455  )
       295           C   tau( 295) = (  0.1628568  0.5100399  0.8706042  )
       296           C   tau( 296) = (  0.1543874  0.4398870  0.8687837  )
       297           C   tau( 297) = (  0.1560339  0.4070708  0.8376355  )
       298           C   tau( 298) = (  0.1714917  0.3401354  0.8358303  )
       299           C   tau( 299) = (  0.1834913  0.3136309  0.8046767  )
       300           C   tau( 300) = (  0.2182657  0.2698303  0.8028666  )
       301           C   tau( 301) = (  0.2370282  0.2574897  0.7717134  )
       302           C   tau( 302) = (  0.2807694  0.2498369  0.7698934  )
       303           C   tau( 303) = (  0.3007087  0.2553100  0.7387323  )
       304           C   tau( 304) = (  0.3403964  0.2862003  0.7369231  )
       305           C   tau( 305) = (  0.3555373  0.3079637  0.7057737  )
       306           C   tau( 306) = (  0.3792971  0.3681501  0.7039645  )
       307           C   tau( 307) = (  0.3851038  0.3996986  0.6728341  )
       308           C   tau( 308) = (  0.3860247  0.4711639  0.6710202  )
       309           C   tau( 309) = (  0.3809296  0.5030599  0.6398905  )
       310           C   tau( 310) = (  0.2575602  0.6277557  0.9969221  )
       311           C   tau( 311) = (  0.2156271  0.6060998  0.9951086  )
       312           C   tau( 312) = (  0.1987151  0.5879535  0.9639631  )
       313           C   tau( 313) = (  0.1699979  0.5337826  0.9621601  )
       314           C   tau( 314) = (  0.1614472  0.5039185  0.9310199  )
       315           C   tau( 315) = (  0.1544756  0.4333287  0.9292013  )
       316           C   tau( 316) = (  0.1568301  0.4006271  0.8980579  )
       317           C   tau( 317) = (  0.1736995  0.3345976  0.8962549  )
       318           C   tau( 318) = (  0.1862586  0.3087886  0.8651034  )
       319           C   tau( 319) = (  0.2219444  0.2669726  0.8632852  )
       320           C   tau( 320) = (  0.2409660  0.2557288  0.8321333  )
       321           C   tau( 321) = (  0.2848490  0.2505530  0.8303151  )
       322           C   tau( 322) = (  0.3046624  0.2572026  0.7991578  )
       323           C   tau( 323) = (  0.3436828  0.2902370  0.7973400  )
       324           C   tau( 324) = (  0.3583681  0.3128414  0.7661808  )
       325           C   tau( 325) = (  0.3809057  0.3742511  0.7643568  )
       326           C   tau( 326) = (  0.3860706  0.4060749  0.7332103  )
       327           C   tau( 327) = (  0.3854830  0.4775934  0.7314060  )
       328           C   tau( 328) = (  0.3796237  0.5091955  0.7002846  )
       329           C   tau( 329) = (  0.1601410  0.4977222  0.9914309  )
       330           C   tau( 330) = (  0.1546760  0.4267786  0.9896153  )
       331           C   tau( 331) = (  0.1577404  0.3942233  0.9584732  )
       332           C   tau( 332) = (  0.1760027  0.3291789  0.9566717  )
       333           C   tau( 333) = (  0.1891111  0.3040822  0.9255242  )
       334           C   tau( 334) = (  0.2256654  0.2642846  0.9237030  )
       335           C   tau( 335) = (  0.2449249  0.2541263  0.8925532  )
       336           C   tau( 336) = (  0.2888928  0.2514232  0.8907400  )
       337           C   tau( 337) = (  0.3085628  0.2592059  0.8595823  )
       338           C   tau( 338) = (  0.3468675  0.2943905  0.8577616  )
       339           C   tau( 339) = (  0.3610899  0.3178054  0.8266053  )
       340           C   tau( 340) = (  0.3823391  0.3804244  0.8247816  )
       341           C   tau( 341) = (  0.3868668  0.4125161  0.7936298  )
       342           C   tau( 342) = (  0.3847536  0.4839424  0.7918280  )
       343           C   tau( 343) = (  0.3782395  0.5151925  0.7606891  )
       344           C   tau( 344) = (  0.1920457  0.2995558  0.9859439  )
       345           C   tau( 345) = (  0.2294215  0.2618249  0.9841247  )
       346           C   tau( 346) = (  0.2488933  0.2527386  0.9529762  )
       347           C   tau( 347) = (  0.2928945  0.2525045  0.9511697  )
       348           C   tau( 348) = (  0.3123954  0.2613962  0.9200138  )
       349           C   tau( 349) = (  0.3499263  0.2987185  0.9181923  )
       350           C   tau( 350) = (  0.3636590  0.3229127  0.8870378  )
       351           C   tau( 351) = (  0.3835640  0.3866781  0.8852204  )
       352           C   tau( 352) = (  0.3874400  0.4189999  0.8540625  )
       353           C   tau( 353) = (  0.3838032  0.4902578  0.8522592  )
       354           C   tau( 354) = (  0.3766629  0.5211023  0.8211128  )
       355           C   tau( 355) = (  0.3161669  0.2637900  0.9804479  )
       356           C   tau( 356) = (  0.3528824  0.3032019  0.9786270  )
       357           C   tau( 357) = (  0.3660944  0.3281587  0.9474723  )
       358           C   tau( 358) = (  0.3846402  0.3929941  0.9456618  )
       359           C   tau( 359) = (  0.3878360  0.4255127  0.9145033  )
       360           C   tau( 360) = (  0.3826926  0.4965258  0.9126947  )
       361           C   tau( 361) = (  0.3749114  0.5269487  0.8815463  )
       362           C   tau( 362) = (  0.3880788  0.4320463  0.9749462  )
       363           C   tau( 363) = (  0.3814238  0.5027240  0.9731317  )
       364           C   tau( 364) = (  0.3730108  0.5326905  0.9419806  )
       365           Se  tau( 365) = (  0.4513413  0.4026857  0.4905373  )

     number of k points=     1
                       cart. coord. in units 2pi/alat
        k(    1) = (   0.0000000   0.0000000   0.4001558), wk =   2.0000000

                       cryst. coord.
        k(    1) = (   0.0000000   0.0000000   0.5000000), wk =   2.0000000

     Dense  grid: 11053081 G-vectors     FFT dimensions: ( 320, 192, 384)

     Dynamical RAM for                 wfc:      68.59 MB

     Dynamical RAM for     wfc (w. buffer):      68.59 MB

     Dynamical RAM for           str. fact:       0.22 MB

     Dynamical RAM for           local pot:       0.00 MB

     Dynamical RAM for          nlocal pot:      40.19 MB

     Dynamical RAM for                qrad:       2.49 MB

     Dynamical RAM for          rho,v,vnew:       1.74 MB

     Dynamical RAM for           G-vectors:       0.47 MB

     Dynamical RAM for          h,s,v(r/c):      12.00 MB

     Dynamical RAM for          <psi|beta>:     223.54 MB

     Dynamical RAM for                 psi:     274.35 MB

     Dynamical RAM for                hpsi:     274.35 MB

     Dynamical RAM for      wfcinit/wfcrot:     709.42 MB

     Estimated static dynamical RAM per process >     116.36 MB

     Estimated max dynamical RAM per process >     900.61 MB

     Estimated total dynamical RAM >    1350.92 GB

     The potential is recalculated from file :
     ./CNT_PBE.save/charge-density

     Starting wfcs are random

     Band Structure Calculation
     Davidson diagonalization with overlap

     Computing kpt #:     1  of     1
     total cpu time spent up to now is    13935.2 secs

     ethr =  5.03E-12,  avg # of iterations = 52.0

     total cpu time spent up to now is    13935.2 secs

     End of band structure calculation

          k = 0.0000 0.0000 0.4002 (****** PWs)   bands (ev):

   -22.6680 -22.6542 -22.5347 -22.5234 -22.4625 -22.4465 -22.4418 -22.4412
   -22.3280 -22.3137 -22.3112 -22.3111 -22.2659 -22.2610 -22.0653 -22.0498
   -22.0497 -22.0493 -21.8778 -21.8674 -21.8350 -21.8188 -21.8137 -21.8135
   -21.7073 -21.6869 -21.6844 -21.6843 -21.6637 -21.6574 -21.6570 -21.6561
   -21.4432 -21.4258 -21.4253 -21.4243 -21.3498 -21.3451 -21.1539 -21.1368
   -21.1365 -21.1350 -21.0527 -21.0377 -21.0362 -21.0348 -20.8270 -20.8072
   -20.7982 -20.7980 -20.7117 -20.6970 -20.6825 -20.6769 -20.6715 -20.6705
   -20.5450 -20.5227 -20.5212 -20.5189 -20.4979 -20.4909 -20.4907 -20.4890
   -20.4286 -20.4192 -20.4181 -20.4144 -20.0618 -20.0387 -20.0359 -20.0319
   -19.9387 -19.9268 -19.8978 -19.8839 -19.8832 -19.8803 -19.7436 -19.7247
   -19.7239 -19.7232 -19.5587 -19.5347 -19.5303 -19.5265 -19.4628 -19.4530
   -19.4399 -19.4397 -19.3397 -19.3259 -19.3172 -19.3157 -19.1597 -19.1286
   -19.1283 -19.1258 -19.0881 -19.0768 -19.0714 -19.0681 -19.0480 -19.0439
   -18.9307 -18.9120 -18.9069 -18.9030 -18.8600 -18.8475 -18.8467 -18.8450
   -18.7197 -18.7067 -18.7044 -18.6989 -18.3332 -18.2743 -18.2737 -18.2686
   -18.2379 -18.2215 -18.2205 -18.2133 -18.1924 -18.1832 -18.1798 -18.1760
   -18.0743 -18.0617 -17.9256 -17.8808 -17.8781 -17.8734 -17.8682 -17.8560
   -17.8496 -17.8487 -17.7567 -17.7516 -17.7330 -17.7291 -17.6594 -17.6341
   -17.6291 -17.6257 -17.5350 -17.5243 -17.5028 -17.4916 -17.4604 -17.4334
   -17.4276 -17.4198 -17.4133 -17.4106 -17.3821 -17.3724 -17.1928 -17.1858
   -17.1553 -17.1411 -17.0855 -17.0525 -17.0313 -17.0113 -16.9972 -16.9837
   -16.9532 -16.9421 -16.8748 -16.8591 -16.7442 -16.7399 -16.7047 -16.6926
   -16.3489 -16.2818 -16.2268 -16.2065 -16.1196 -16.0435 -16.0392 -16.0350
   -16.0344 -16.0325 -15.9376 -15.9178 -15.8868 -15.8642 -15.8464 -15.7777
   -15.7664 -15.7514 -15.7449 -15.5670 -15.5525 -15.5524 -15.5106 -15.4590
   -15.4485 -15.4475 -15.3987 -15.3980 -15.3943 -15.3907 -15.3640 -15.3632
   -15.3470 -15.2594 -15.2494 -15.2466 -15.2030 -15.2011 -15.1637 -15.0951
   -15.0907 -15.0847 -15.0816 -15.0767 -15.0539 -15.0364 -14.9963 -14.9643
   -14.9560 -14.9557 -14.9203 -14.9123 -14.8932 -14.8865 -14.8639 -14.8528
   -14.7970 -14.7179 -14.6926 -14.6888 -14.6839 -14.6618 -14.5733 -14.4408
   -14.4285 -14.3395 -14.3224 -13.9711 -13.9669 -13.9606 -13.9531 -13.9460
   -13.9382 -13.8861 -13.8763 -13.8390 -13.8357 -13.8032 -13.7966 -13.6640
   -13.6595 -13.5687 -13.5352 -13.5347 -13.5327 -13.5323 -13.5189 -13.5121
   -13.4951 -13.4793 -13.4626 -13.4166 -13.4023 -13.3980 -13.3832 -13.3643
   -13.3544 -13.2666 -13.2584 -13.2420 -13.2210 -13.0904 -13.0848 -13.0678
   -13.0558 -13.0442 -13.0328 -12.8886 -12.8877 -12.8543 -12.8472 -12.8320
   -12.8282 -12.8086 -12.8053 -12.7680 -12.7624 -12.7480 -12.7433 -12.7139
   -12.7019 -12.6089 -12.6072 -12.5307 -12.5281 -12.5045 -12.5011 -12.4322
   -12.4303 -12.2416 -12.2358 -12.1116 -12.1084 -12.0037 -12.0017 -11.9872
   -11.9800 -11.8557 -11.8552 -11.7812 -11.7779 -11.7458 -11.7422 -11.6819
   -11.6712 -11.6503 -11.6478 -11.6307 -11.6296 -11.6039 -11.6011 -11.5637
   -11.5623 -11.5255 -11.5207 -11.4991 -11.4964 -11.4911 -11.4910 -11.4497
   -11.4450 -11.4312 -11.4147 -11.3761 -11.3624 -11.3439 -11.3427 -11.3250
   -11.3142 -11.2905 -11.2891 -11.2568 -11.2549 -11.2412 -11.2324 -11.1700
   -11.1653 -11.1636 -11.1602 -11.1594 -11.1581 -11.1415 -11.1367 -10.7836
   -10.7790 -10.7692 -10.7650 -10.7541 -10.7516 -10.7457 -10.7434 -10.7190
   -10.7166 -10.6991 -10.6978 -10.6316 -10.6256 -10.5502 -10.5436 -10.5427
   -10.5312 -10.4907 -10.4903 -10.4792 -10.4772 -10.4632 -10.4557 -10.4350
   -10.4292 -10.4194 -10.4165 -10.4007 -10.3984 -10.3951 -10.3923 -10.3908
   -10.3781 -10.3335 -10.3245 -10.3177 -10.3136 -10.3012 -10.2987 -10.2937
   -10.2920 -10.2430 -10.2337 -10.2172 -10.2163 -10.1897 -10.1839 -10.1309
   -10.1223 -10.1151 -10.1093 -10.1021 -10.1004 -10.0910 -10.0828 -10.0677
   -10.0660 -10.0472 -10.0353 -10.0216 -10.0131  -9.9803  -9.9747  -9.9660
    -9.9640  -9.9444  -9.9356  -9.9328  -9.9240  -9.9034  -9.8966  -9.8951
    -9.8919  -9.8875  -9.8771  -9.8108  -9.7997  -9.7964  -9.7883  -9.7818
    -9.7813  -9.7724  -9.7690  -9.7377  -9.7297  -9.7093  -9.7091  -9.6946
    -9.6933  -9.6804  -9.6784  -9.6459  -9.6426  -9.6126  -9.6095  -9.6071
    -9.5947  -9.5480  -9.5431  -9.5090  -9.4961  -9.4944  -9.4783  -9.4696
    -9.4685  -9.4575  -9.4503  -9.4212  -9.4201  -9.3336  -9.3225  -9.3116
    -9.2980  -9.2909  -9.2904  -9.2857  -9.2847  -9.2807  -9.2648  -9.1858
    -9.1840  -9.1573  -9.1412  -9.1280  -9.1279  -9.1136  -9.1046  -9.0997
    -9.0976  -9.0909  -9.0893  -9.0864  -9.0830  -9.0755  -9.0711  -9.0459
    -9.0444  -9.0414  -9.0285  -9.0276  -9.0117  -9.0065  -8.9992  -8.9517
    -8.9499  -8.9340  -8.9299  -8.9188  -8.9171  -8.9062  -8.9059  -8.8169
    -8.7957  -8.6594  -8.6192  -8.6189  -8.6027  -8.5898  -8.5831  -8.5459
    -8.5341  -8.5073  -8.5018  -8.4586  -8.4561  -8.3871  -8.3669  -8.3543
    -8.3080  -8.3002  -8.2984  -8.2879  -8.2718  -8.2604  -8.2559  -8.2382
    -8.2302  -8.2238  -8.2226  -8.1789  -8.1737  -8.1626  -8.1489  -8.1290
    -8.1259  -8.1124  -8.0865  -8.0784  -8.0754  -8.0716  -8.0669  -8.0599
    -8.0554  -8.0486  -8.0410  -8.0388  -8.0309  -8.0283  -8.0261  -8.0174
    -8.0101  -7.9410  -7.9322  -7.8886  -7.8802  -7.8684  -7.8626  -7.8522
    -7.8519  -7.7639  -7.7602  -7.6911  -7.6859  -7.6496  -7.5963  -7.5858
    -7.5679  -7.5660  -7.5611  -7.5295  -7.5242  -7.4830  -7.4703  -7.4539
    -7.4474  -7.3967  -7.3874  -7.3870  -7.3651  -7.3614  -7.3552  -7.3211
    -7.3199  -7.3144  -7.2945  -7.2899  -7.2894  -7.2722  -7.2680  -7.2615
    -7.2577  -7.2566  -7.2445  -7.1834  -7.1747  -7.1215  -7.1090  -7.0478
    -7.0067  -6.9521  -6.9462  -6.9364  -6.9332  -6.9296  -6.9263  -6.9203
    -6.9078  -6.8742  -6.8205  -6.8034  -6.8032  -6.7632  -6.7515  -6.7475
    -6.7328  -6.7223  -6.6908  -6.6626  -6.6611  -6.6432  -6.6372  -6.6324
    -6.6314  -6.5821  -6.5758  -6.5197  -6.5100  -6.4762  -6.4759  -6.4411
    -6.4202  -6.4120  -6.4005  -6.3878  -6.3874  -6.3866  -6.3818  -6.3765
    -6.3718  -6.3670  -6.3614  -6.3368  -6.3344  -6.3087  -6.3027  -6.2147
    -6.1949  -6.1160  -6.0164  -6.0152  -5.9957  -5.9911  -5.9767  -5.8908
    -5.8774  -5.8494  -5.8479  -5.8077  -5.7463  -5.7132  -5.6806  -5.6500
    -5.5709  -5.5466  -5.5282  -5.5098  -5.4935  -5.4731  -5.4712  -5.4448
    -5.3982  -5.3863  -5.3237  -5.3033  -5.2929  -5.2832  -5.2817  -5.2789
    -5.2743  -5.2353  -5.2268  -5.2098  -5.1922  -5.1644  -5.1521  -5.1420
    -5.1007  -5.0709  -5.0658  -5.0083  -4.9493  -4.9333  -4.9305  -4.8666
    -4.8566  -4.8302  -4.7923  -4.7460  -4.7308  -4.6466  -4.5745  -4.5461
    -4.5310  -4.5120  -4.5045  -4.4635  -4.4548  -4.4416  -4.3766  -4.2143
    -4.0716  -4.0094  -3.9543  -3.9367  -3.8631  -3.8624  -3.7626  -3.6081
    -3.5762  -3.4492  -3.3809  -2.3995  -2.2881  -2.2230  -2.2005  -2.0867
    -1.9592  -1.9513  -1.7799  -1.7747  -1.7541  -1.6473  -1.5993  -1.5930
    -1.5723  -1.5689  -1.5644  -1.5639  -1.5439  -1.5375  -1.4869  -1.4828
    -1.4448  -1.4402  -1.4161  -1.4095  -1.3917  -1.3900  -1.3665  -1.3637
    -1.3584  -1.2963  -1.2897  -1.2880  -1.1584  -1.1385  -1.0830  -1.0740
    -1.0631  -1.0406  -1.0145  -1.0090  -1.0076  -1.0072  -1.0019  -0.9949
    -0.9938  -0.9913  -0.9742  -0.9737  -0.9711  -0.9336  -0.9232  -0.8849
    -0.8843  -0.8297  -0.8241  -0.6589  -0.6514  -0.6433  -0.6379  -0.4255
    -0.4203  -0.4002  -0.3365  -0.3216  -0.3190  -0.1517  -0.1340  -0.0845
    -0.0527  -0.0174   0.0280   0.0458   0.0509   0.0771   0.1769   0.1774
     0.1799   0.1995   0.2061   0.2472   0.2847   0.3285   0.3402   0.3466
     0.3551   0.3622   0.5013   0.5617   0.5959   0.6522   0.6781   0.6990
     0.6997   0.7076   0.7092   0.7453   0.7675   0.8161   0.8243   0.8352
     0.8379   0.8479   0.8506   0.8627   0.8634   0.8867   0.8868   0.8954
     0.9069   0.9494   0.9554   0.9714   0.9752   1.0230   1.0274   1.0665
     1.0677   1.0871   1.0895   1.1478   1.1617   1.1668   1.2338   1.2391
     1.2395   1.2589   1.2592   1.2671   1.3004   1.3321   1.3431   1.3454
     1.3835   1.3858   1.4160   1.4237   1.4244   1.4273   1.4415   1.4431
     1.5309   1.5349   1.5388   1.5792   1.5930   1.6840   1.6906   1.6982
     1.7034   1.7037   1.7101   1.7153   1.7159   1.7181   1.7192   1.7287
     1.7346   1.7378   1.7395   1.7542   1.7633   1.7665   1.7699   1.7832
     1.7953   1.7993   1.8074   1.8116   1.8122   1.8293   1.8723   1.8736
     1.9011   1.9019   1.9100   1.9196   1.9216   1.9268   1.9357   1.9378
     1.9446   1.9474   1.9581   1.9616   1.9979   1.9981   2.0673   2.0683
     2.0752   2.0761   2.0823   2.0846   2.0867   2.1119   2.1208   2.1257
     2.1371   2.1758   2.1856   2.2064   2.2234   2.2263   2.2389   2.2406
     2.2514   2.2536   2.2561   2.2590   2.2593   2.2642   2.2734   2.2949
     2.2991   2.3047   2.3072   2.3202   2.3264   2.3288   2.3411   2.3609
     2.3626   2.3634   2.3641   2.3659   2.3862   2.3880   2.3935   2.4206
     2.4604   2.4787   2.4808   2.4814   2.4824   2.4971   2.5023   2.5074
     2.5102   2.5148   2.5379   2.5533   2.5543   2.5561   2.5825   2.6056
     2.6112   2.6144   2.6150   2.6172   2.6192   2.6235   2.6252   2.6279
     2.6289   2.6331   2.6587   2.6652   2.6691   2.6725   2.6748   2.6765
     2.6821   2.6871   2.6907   2.6935   2.6984   2.7028   2.7067   2.7108
     2.7251   2.7268   2.7352   2.7447   2.7502   2.7662   2.7713   2.7844
     2.7937   2.8003   2.8045   2.8055   2.8090   2.8197   2.8207   2.8270
     2.8326   2.8357   2.8500   2.8571   2.8589   2.8676   2.8867   2.8961
     2.8981   2.9006   2.9099   2.9122   2.9136   2.9234   2.9260   2.9272
     2.9319   2.9372   2.9482   2.9521   2.9600   2.9601   2.9647   2.9677
     2.9788   2.9811   3.0056   3.0133   3.0146   3.0210   3.0238   3.0247
     3.0250   3.0347   3.0453   3.0482   3.0490   3.0546   3.0579   3.0709
     3.0845   3.0873   3.0933   3.1120   3.1129   3.1254   3.1333   3.1471
     3.1496   3.1604   3.1655   3.1659   3.1686   3.1791   3.1966   3.2145
     3.2261   3.2294   3.2317   3.2354   3.2443   3.2495   3.2570   3.2730
     3.2740   3.2816   3.2853   3.2894   3.2897   3.2963   3.3089   3.3212
     3.3234   3.3307   3.3479   3.3515   3.3559   3.3581   3.3602   3.3637
     3.3668   3.3707   3.3807   3.3811   3.3844   3.3852   3.3889   3.3951
     3.3997   3.4077   3.4252   3.4358   3.4464   3.4536   3.4569   3.4668
     3.4804   3.4820   3.4841   3.4853   3.4857   3.4918   3.4968   3.4975
     3.5038   3.5044   3.5097   3.5133   3.5152   3.5195   3.5214   3.5239
     3.5312   3.5407   3.5457   3.5469   3.5480   3.5565   3.5650   3.5652
     3.5766   3.5950   3.6009   3.6027   3.6048   3.6108   3.6208   3.6287
     3.6370   3.6449   3.6453   3.6472   3.6512   3.6551   3.6579   3.6644
     3.6790   3.6810   3.7012   3.7141   3.7163   3.7202   3.7294   3.7317
     3.7352   3.7400   3.7464   3.7511   3.7529   3.7541   3.7580   3.7589
     3.7600   3.7647   3.7683   3.7698   3.7761   3.7799   3.7812   3.7888
     3.7904   3.7977   3.8092   3.8177   3.8188   3.8341   3.8440   3.8449
     3.8474   3.8560   3.8593   3.8610   3.8719   3.8726   3.8751   3.8759
     3.8886   3.8905   3.8913   3.8941   3.8948   3.8982   3.9007   3.9033
     3.9210   3.9214   3.9233   3.9299   3.9314   3.9371   3.9381   3.9420
     3.9478   3.9533   3.9556   3.9694   3.9721   3.9784   3.9845   3.9857
     4.0009   4.0026   4.0128   4.0160   4.0181   4.0231   4.0244   4.0330
     4.0415   4.0420   4.0591   4.0647   4.0743   4.0858   4.0870   4.1090
     4.1215   4.1283   4.1320   4.1363   4.1620   4.1728   4.1751   4.1856
     4.1958   4.1975   4.2075   4.2359   4.2429   4.2469   4.2497   4.2524
     4.2612   4.2650   4.2658   4.2717   4.2727   4.2762   4.2856   4.2899
     4.2912   4.2954   4.3010   4.3028   4.3116   4.3138   4.3248   4.3367
     4.3409   4.3467   4.3527   4.3608   4.3633   4.3669   4.3789   4.3806
     4.3913   4.4094   4.4103   4.4175   4.4252   4.4261   4.4268   4.4304
     4.4384   4.4388   4.4422   4.4505   4.4528   4.4540   4.4758   4.4775
     4.4823   4.4919   4.4936   4.4956   4.5157   4.5214   4.5525   4.5556
     4.5580   4.5598   4.5624   4.5629   4.5646   4.5760   4.5785   4.5793
     4.5802   4.6050   4.6108   4.6124   4.6142   4.6158   4.6199   4.6217
     4.6238   4.6260   4.6313   4.6367   4.6402   4.6421   4.6429   4.6522
     4.6527   4.6584   4.6634   4.6694   4.6771   4.6775   4.6925   4.7020
     4.7043   4.7080   4.7105   4.7185   4.7194   4.7232   4.7414   4.7511
     4.7534   4.7612   4.7641   4.7683   4.7697   4.7750   4.7813   4.7886
     4.7910   4.7937   4.7958   4.7981   4.8016   4.8053   4.8151   4.8191
     4.8233   4.8327   4.8347   4.8456   4.8494   4.8519   4.8647   4.8655
     4.8840   4.8867   4.8957   4.9083   4.9106   4.9127   4.9146   4.9167
     4.9227   4.9280   4.9366   4.9400   4.9543   4.9562   4.9581   4.9662
     4.9689   4.9703   4.9724   4.9755   4.9835   4.9880   4.9889   4.9985
     5.0057   5.0085   5.0101   5.0134   5.0157   5.0167   5.0176   5.0191
     5.0260   5.0299   5.0335   5.0369   5.0391   5.0437   5.0488   5.0576
     5.0597   5.0674   5.0683   5.0716   5.0755   5.0761   5.0792   5.0833
     5.0876   5.0953   5.0956   5.0967   5.0969   5.1013   5.1056   5.1095
     5.1166   5.1198   5.1211   5.1237   5.1242   5.1290   5.1317   5.1342
     5.1380   5.1395   5.1412   5.1455   5.1481   5.1524   5.1559   5.1570
     5.1642   5.1671   5.1736   5.1825   5.1841   5.1899   5.1952   5.1977
     5.2005   5.2032   5.2080   5.2120   5.2151   5.2212   5.2268   5.2334
     5.2351   5.2379   5.2385   5.2502   5.2513   5.2544   5.2771   5.2779
     5.2818   5.2860   5.2871   5.2896   5.2923   5.2978   5.3030   5.3080
     5.3100   5.3128   5.3228   5.3274   5.3298   5.3448   5.3616   5.3628
     5.3664   5.3683   5.3697   5.3725   5.3752   5.3800   5.3841   5.3923
     5.3949   5.4005   5.4083   5.4122   5.4170   5.4193   5.4227   5.4271
     5.4337   5.4362   5.4377   5.4401   5.4404   5.4464   5.4494   5.4519
     5.4560   5.4678   5.4721   5.4768   5.4823   5.4841   5.4884   5.4893
     5.4903   5.4945   5.4958   5.4980   5.4989   5.5028   5.5032   5.5067
     5.5119   5.5123   5.5231   5.5241   5.5327   5.5370   5.5402   5.5434
     5.5446   5.5498   5.5539   5.5586   5.5602   5.5673   5.5737   5.5767
     5.5832   5.5886   5.5948   5.5994   5.6045   5.6093   5.6188   5.6232
     5.6292   5.6334   5.6412   5.6418   5.6471   5.6519   5.6547   5.6591
     5.6621   5.6676   5.6702   5.6785   5.6806   5.6816   5.6876   5.6924
     5.6943   5.6971   5.6986   5.7001   5.7033   5.7054   5.7082   5.7098
     5.7103   5.7163   5.7240   5.7298   5.7325   5.7366   5.7377   5.7423
     5.7435   5.7457   5.7618   5.7686   5.7777   5.7842   5.7860   5.7944
     5.8002   5.8025   5.8090   5.8104   5.8114   5.8145   5.8175   5.8211
     5.8239   5.8288   5.8362   5.8393   5.8419   5.8519   5.8564   5.8579
     5.8592   5.8614   5.8658   5.8727   5.8746   5.8792   5.8833   5.8898
     5.8942   5.9040   5.9139   5.9195   5.9228   5.9252   5.9280   5.9317
     5.9427   5.9470   5.9477   5.9498   5.9590   5.9671   5.9710   5.9725
     5.9736   5.9811   5.9829   5.9885   5.9895   5.9973   5.9983   6.0032
     6.0088   6.0154   6.0170   6.0191   6.0254   6.0282   6.0317   6.0346
     6.0370   6.0400   6.0421   6.0428   6.0450   6.0481   6.0504   6.0528
     6.0585   6.0608   6.0631   6.0642   6.0693   6.0730   6.0765   6.0781
     6.0838   6.0847   6.0875   6.0919   6.0935   6.1021   6.1071   6.1149
     6.1156   6.1206   6.1227   6.1351   6.1431   6.1440   6.1477   6.1519
     6.1556   6.1623   6.1684   6.1703   6.1772   6.1809   6.1813   6.1856
     6.1884   6.1901   6.1929   6.1952   6.2043   6.2101   6.2169   6.2192
     6.2216   6.2269   6.2325   6.2359   6.2397   6.2419   6.2442   6.2471
     6.2501   6.2543   6.2564   6.2594   6.2649   6.2671   6.2678   6.2712
     6.2736   6.2766   6.2786   6.2915   6.2951   6.3008   6.3017   6.3031
     6.3085   6.3094   6.3108   6.3128   6.3207   6.3210   6.3321   6.3334
     6.3371   6.3413   6.3477   6.3537   6.3570   6.3693   6.3705   6.3761
     6.3816   6.3874   6.3912   6.3947   6.3975   6.4020   6.4074   6.4099
     6.4123   6.4140   6.4159   6.4181   6.4216   6.4264   6.4296   6.4332
     6.4377   6.4422   6.4431   6.4472   6.4513   6.4555   6.4567   6.4617
     6.4643   6.4703   6.4741   6.4767   6.4842   6.4852   6.4947   6.4959
     6.4985   6.5018   6.5031   6.5055   6.5073   6.5159   6.5198   6.5216
     6.5249   6.5307   6.5382   6.5455   6.5475   6.5492   6.5532   6.5550
     6.5611   6.5708   6.5741   6.5756   6.5798   6.5833   6.5922   6.6030
     6.6115   6.6142   6.6200   6.6233   6.6260   6.6318   6.6369   6.6408
     6.6421   6.6443   6.6480   6.6507   6.6521   6.6668   6.6724   6.6752
     6.6796   6.6815   6.6845   6.6887   6.6971   6.6995   6.7015   6.7047
     6.7061   6.7102   6.7183   6.7290   6.7318   6.7331   6.7371   6.7402
     6.7416   6.7441   6.7481   6.7504   6.7527   6.7554   6.7582   6.7604
     6.7633   6.7666   6.7699   6.7728   6.7774   6.7821   6.7845   6.7858
     6.7936   6.7982   6.8064   6.8103   6.8124   6.8166   6.8214   6.8234
     6.8258   6.8298   6.8312   6.8370   6.8377   6.8401   6.8404   6.8442
     6.8486   6.8532   6.8548   6.8580   6.8608   6.8634   6.8637   6.8658
     6.8674   6.8728   6.8757   6.8819   6.8833   6.8882   6.8953   6.8984
     6.9028   6.9098   6.9123   6.9137   6.9153   6.9190   6.9208   6.9229
     6.9242   6.9327   6.9328   6.9364   6.9386   6.9393   6.9400   6.9480
     6.9500   6.9536   6.9558   6.9569   6.9597   6.9644   6.9666   6.9682
     6.9695   6.9773   6.9831   6.9916   7.0017   7.0164   7.0242   7.0292
     7.0317   7.0422   7.0485   7.0504   7.0577   7.0595   7.0632   7.0690
     7.0708   7.0731   7.0757   7.0819   7.0832   7.0876   7.0893   7.0914
     7.0956   7.0990   7.1022   7.1070   7.1085   7.1162   7.1170   7.1262
     7.1324   7.1339   7.1413   7.1459   7.1478   7.1509   7.1538   7.1575
     7.1608   7.1625   7.1661   7.1697   7.1753   7.1832   7.1876   7.1922
     7.1958   7.1967   7.1988   7.2002   7.2018   7.2054   7.2059   7.2072
     7.2134   7.2194   7.2218   7.2228   7.2266   7.2297   7.2323   7.2356
     7.2367   7.2375   7.2390   7.2419   7.2435   7.2459   7.2541   7.2622
     7.2757   7.2827   7.2901   7.2953   7.3021   7.3108   7.3177   7.3202
     7.3209   7.3293   7.3327   7.3350   7.3354   7.3379   7.3409   7.3484
     7.3513   7.3540   7.3596   7.3602   7.3619   7.3751   7.3810   7.3855
     7.3884   7.3890   7.3913   7.3924   7.3976   7.4028   7.4082   7.4138
     7.4144   7.4178   7.4245   7.4336   7.4398   7.4434   7.4495   7.4527
     7.4536   7.4665   7.4689   7.4741   7.4756   7.4771   7.4896   7.4901
     7.4946   7.4968   7.5007   7.5060   7.5133   7.5259   7.5272   7.5341
     7.5370   7.5437   7.5460   7.5482   7.5564   7.5635   7.5665   7.5699
     7.5749   7.5765   7.5777   7.5798   7.5868   7.5887   7.5904   7.5913
     7.5926   7.5949   7.5970   7.6030   7.6039   7.6067   7.6074   7.6079
     7.6127   7.6133   7.6183   7.6215   7.6291   7.6317   7.6321   7.6348
     7.6438   7.6479   7.6498   7.6510   7.6561   7.6605   7.6611   7.6658
     7.6699   7.6731   7.6749   7.6786   7.6830   7.6861   7.6878   7.6892
     7.6924   7.6960   7.6984   7.6997   7.7033   7.7078   7.7106   7.7157
     7.7209   7.7301   7.7381   7.7391   7.7460   7.7464   7.7522   7.7643
     7.7660   7.7681   7.7703   7.7719   7.7765   7.7770   7.7795   7.7848
     7.7856   7.7877   7.7920   7.7945   7.7972   7.7997   7.8040   7.8069
     7.8120   7.8154   7.8214   7.8239   7.8279   7.8321   7.8364   7.8381
     7.8389   7.8414   7.8466   7.8509   7.8537   7.8584   7.8601   7.8638
     7.8698   7.8704   7.8740   7.8805   7.8830   7.8853   7.8876   7.8892
     7.8944   7.8985   7.9025   7.9141   7.9254   7.9312   7.9364   7.9398
     7.9476   7.9537   7.9581   7.9600   7.9626   7.9699   7.9707   7.9741
     7.9777   7.9817   7.9820   7.9841   7.9866   7.9910   7.9959   7.9977
     8.0014   8.0039   8.0111   8.0146   8.0172   8.0214   8.0251   8.0264
     8.0288   8.0313   8.0333   8.0340   8.0364   8.0426   8.0435   8.0456
     8.0466   8.0511   8.0541   8.0551   8.0597   8.0639   8.0654   8.0701
     8.0815   8.0903   8.0952   8.1003   8.1031   8.1055   8.1083   8.1110
     8.1179   8.1193   8.1223   8.1267   8.1284   8.1305   8.1333   8.1350
     8.1365   8.1385   8.1410   8.1463   8.1471   8.1496   8.1531   8.1566
     8.1587   8.1662   8.1683   8.1709   8.1753   8.1842   8.1879   8.1892
     8.1915   8.1966   8.2011   8.2061   8.2119   8.2139   8.2155   8.2187
     8.2217   8.2276   8.2292   8.2308   8.2328   8.2373   8.2406   8.2411
     8.2458   8.2494   8.2523   8.2573   8.2592   8.2645   8.2696   8.2737
     8.2775   8.2806   8.2830   8.2854   8.2865   8.2889   8.2927   8.2933
     8.2954   8.3015   8.3040   8.3098   8.3105   8.3139   8.3149   8.3225
     8.3283   8.3344   8.3359   8.3408   8.3436   8.3478   8.3503   8.3516
     8.3597   8.3603   8.3648   8.3725   8.3744   8.3756   8.3770   8.3798
     8.3814   8.3824   8.3866   8.3904   8.3920   8.3927   8.3984   8.4025
     8.4061   8.4129   8.4193   8.4200   8.4234   8.4252   8.4311   8.4365
     8.4400   8.4419   8.4526   8.4551   8.4608   8.4624   8.4688   8.4726
     8.4729   8.4801   8.4829   8.4882   8.4911   8.4967   8.4995   8.5014
     8.5032   8.5049   8.5064   8.5101   8.5132   8.5135   8.5190   8.5211
     8.5238   8.5242   8.5311   8.5353   8.5370   8.5407   8.5485   8.5508
     8.5521   8.5553   8.5564   8.5660   8.5698   8.5732   8.5763   8.5790
     8.5871   8.5947   8.5997   8.6031   8.6046   8.6064   8.6135   8.6173
     8.6196   8.6284   8.6347   8.6382   8.6414   8.6434   8.6469   8.6489
     8.6504   8.6572   8.6612   8.6649   8.6657   8.6689   8.6717   8.6722
     8.6768   8.6792   8.6793   8.6823   8.6871   8.6925   8.6956   8.6966
     8.7000   8.7007   8.7034   8.7054   8.7073   8.7094   8.7119   8.7173
     8.7188   8.7236   8.7250   8.7294   8.7312   8.7367   8.7385   8.7392
     8.7407   8.7444   8.7502   8.7521   8.7554   8.7586   8.7622   8.7653
     8.7676   8.7729   8.7743   8.7808   8.7877   8.7895   8.7914   8.7957
     8.8018   8.8066   8.8164   8.8175   8.8206   8.8235   8.8292   8.8320
     8.8417   8.8469   8.8553   8.8577   8.8678   8.8695   8.8769   8.8781
     8.8837   8.8869   8.8902   8.8979   8.9037   8.9046   8.9070   8.9100
     8.9122   8.9193   8.9225   8.9278   8.9383   8.9437   8.9456   8.9481
     8.9549   8.9577   8.9604   8.9660   8.9668   8.9709   8.9742   8.9788
     8.9806   8.9815   8.9848   8.9920   8.9936   8.9950   8.9969   8.9988
     9.0025   9.0045   9.0052   9.0104   9.0123   9.0152   9.0160   9.0168
     9.0194   9.0215   9.0221   9.0244   9.0254   9.0284   9.0308   9.0316
     9.0354   9.0406   9.0443   9.0455   9.0480   9.0545   9.0561   9.0578
     9.0674   9.0705   9.0721   9.0725   9.0737   9.0820   9.0837   9.0874
     9.0895   9.0915   9.0936   9.0961   9.0983   9.1005   9.1034   9.1052
     9.1066   9.1098   9.1170   9.1256   9.1268   9.1427   9.1469   9.1492
     9.1508   9.1530   9.1533   9.1549   9.1560   9.1609   9.1631   9.1642
     9.1758   9.1833   9.1844   9.1894   9.1930   9.1986   9.2013   9.2039
     9.2052   9.2103   9.2138   9.2180   9.2202   9.2263   9.2267   9.2291
     9.2310   9.2334   9.2371   9.2384   9.2417   9.2448   9.2465   9.2485
     9.2534   9.2552   9.2637   9.2659   9.2765   9.2794   9.2835   9.2856
     9.2888   9.2965   9.2997   9.3075   9.3108   9.3145   9.3174   9.3228
     9.3282   9.3304   9.3348   9.3412   9.3521   9.3550   9.3596   9.3637
     9.3643   9.3682   9.3690   9.3712   9.3740   9.3766   9.3773   9.3832
     9.3869   9.3890   9.3928   9.3956   9.4011   9.4058   9.4080   9.4086
     9.4119   9.4145   9.4166   9.4189   9.4215   9.4235   9.4285   9.4321
     9.4330   9.4358   9.4387   9.4410   9.4457   9.4476   9.4486   9.4519
     9.4609   9.4652   9.4673   9.4746   9.4776   9.4788   9.4807   9.4848
     9.4859   9.4889   9.4918   9.4938   9.4975   9.5013   9.5053   9.5099
     9.5188   9.5197   9.5268   9.5299   9.5323   9.5336   9.5366   9.5383
     9.5400   9.5425   9.5492   9.5520   9.5560   9.5590   9.5620   9.5636
     9.5663   9.5667   9.5676   9.5717   9.5803   9.5881   9.5909   9.5935
     9.5972   9.6069   9.6096   9.6102   9.6162   9.6177   9.6222   9.6267
     9.6299   9.6398   9.6489   9.6547   9.6568   9.6614   9.6630   9.6666
     9.6760   9.6790   9.6836   9.6874   9.6905   9.6924   9.6928   9.6998
     9.7025   9.7055   9.7069   9.7107   9.7122   9.7171   9.7209   9.7280
     9.7338   9.7358   9.7364   9.7430   9.7434   9.7446   9.7472   9.7495
     9.7525   9.7543   9.7551   9.7584   9.7591   9.7614   9.7638   9.7667
     9.7686   9.7695   9.7776   9.7804   9.7854   9.7883   9.7909   9.7925
     9.7983   9.8004   9.8036   9.8070   9.8108   9.8201   9.8219   9.8265
     9.8297   9.8358   9.8393   9.8448   9.8456   9.8526   9.8568   9.8679
     9.8682   9.8717   9.8732   9.8737   9.8758   9.8806   9.8843   9.8848
     9.8886   9.8908   9.8934   9.8969   9.9023   9.9036   9.9055   9.9109
     9.9145   9.9178   9.9184   9.9274   9.9317   9.9393   9.9425   9.9449
     9.9500   9.9505   9.9562   9.9605   9.9625   9.9637   9.9677   9.9733
     9.9781   9.9830   9.9849   9.9873   9.9912   9.9961   9.9973  10.0021
    10.0033  10.0047  10.0084  10.0115  10.0143  10.0175  10.0186  10.0196
    10.0245  10.0261  10.0274  10.0317  10.0363  10.0401  10.0420  10.0501
    10.0511  10.0557  10.0604  10.0618  10.0656  10.0676  10.0713  10.0744
    10.0784  10.0837  10.0851  10.0890  10.0929  10.0998  10.1032  10.1035
    10.1056  10.1112  10.1132  10.1202  10.1237  10.1247  10.1285  10.1364
    10.1400  10.1419  10.1458  10.1481  10.1501  10.1507  10.1535  10.1584
    10.1611  10.1655  10.1720  10.1736  10.1807  10.1837  10.1858  10.1902
    10.1950  10.1989  10.2052  10.2067  10.2090  10.2126  10.2135  10.2167
    10.2209  10.2229  10.2251  10.2287  10.2326  10.2380  10.2404  10.2444
    10.2458  10.2517  10.2546  10.2563  10.2576  10.2591  10.2596  10.2635
    10.2644  10.2660  10.2675  10.2692  10.2756  10.2775  10.2780  10.2828
    10.2843  10.2855  10.2906  10.2944  10.2955  10.2988  10.3008  10.3026
    10.3107  10.3108  10.3157  10.3194  10.3220  10.3239  10.3272  10.3298
    10.3338  10.3400  10.3439  10.3473  10.3493  10.3523  10.3575  10.3597
    10.3636  10.3666  10.3753  10.3784  10.3830  10.3898  10.3918  10.3934
    10.3969  10.4040  10.4071  10.4104  10.4126  10.4177  10.4192  10.4208
    10.4258  10.4303  10.4320  10.4366  10.4386  10.4420  10.4458  10.4477
    10.4495  10.4522  10.4539  10.4544  10.4570  10.4626  10.4638  10.4678
    10.4727  10.4730  10.4740  10.4779  10.4802  10.4815  10.4847  10.4869
    10.4886  10.4905  10.4965  10.4975  10.5012  10.5082  10.5085  10.5161
    10.5171  10.5200  10.5205  10.5299  10.5347  10.5378  10.5394  10.5471
    10.5480  10.5498  10.5515  10.5523  10.5545  10.5557  10.5601  10.5626
    10.5685  10.5715  10.5725  10.5756  10.5762  10.5811  10.5820  10.5829
    10.5884  10.5909  10.5923  10.5983  10.6007  10.6011  10.6054  10.6094
    10.6106  10.6123  10.6138  10.6152  10.6164  10.6238  10.6277  10.6320
    10.6326  10.6367  10.6397  10.6475  10.6514  10.6582  10.6657  10.6668
    10.6747  10.6796  10.6837  10.6858  10.6913  10.6923  10.6946  10.6969
    10.7007  10.7035  10.7094  10.7180  10.7195  10.7232  10.7270  10.7289
    10.7312  10.7346  10.7390  10.7409  10.7429  10.7452  10.7472  10.7513
    10.7534  10.7561  10.7630  10.7654  10.7673  10.7716  10.7758  10.7810
    10.7842  10.7849  10.7886  10.7904  10.7917  10.7946  10.7990  10.8031
    10.8086  10.8103  10.8131  10.8154  10.8168  10.8196  10.8205  10.8241
    10.8270  10.8314  10.8348  10.8381  10.8435  10.8438  10.8458  10.8546
    10.8552  10.8573  10.8612  10.8643  10.8680  10.8687  10.8746  10.8790
    10.8829  10.8910  10.8949  10.8987  10.8993  10.9053  10.9071  10.9080
    10.9132  10.9157  10.9201  10.9252  10.9307  10.9318  10.9380  10.9388
    10.9426  10.9442  10.9466  10.9487  10.9517  10.9539  10.9545  10.9596
    10.9651  10.9660  10.9704  10.9727  10.9741  10.9790  10.9828  10.9871
    10.9888  10.9913  10.9928  10.9954  10.9976  11.0044  11.0080  11.0123
    11.0126  11.0148  11.0167  11.0181  11.0205  11.0207  11.0231  11.0331
    11.0360  11.0386  11.0410  11.0450  11.0490  11.0514  11.0532  11.0537
    11.0575  11.0584  11.0663  11.0674  11.0721  11.0747  11.0769  11.0770
    11.0836  11.0845  11.0863  11.0933  11.0978  11.1006  11.1011  11.1041
    11.1059  11.1122  11.1146  11.1149  11.1189  11.1236  11.1262  11.1300
    11.1328  11.1355  11.1400  11.1420  11.1422  11.1451  11.1488  11.1513
    11.1516  11.1558  11.1622  11.1643  11.1679  11.1703  11.1720  11.1763
    11.1769  11.1809  11.1838  11.1872  11.1904  11.1950  11.1977  11.1989
    11.2047  11.2091  11.2115  11.2172  11.2242  11.2273  11.2273  11.2321
    11.2361  11.2392  11.2420  11.2501  11.2544  11.2585  11.2638  11.2681
    11.2720  11.2759  11.2767  11.2786  11.2830  11.2877  11.2887  11.2895
    11.2914  11.2933  11.2948  11.2984  11.3022  11.3038  11.3093  11.3099
    11.3131  11.3162  11.3178  11.3197  11.3226  11.3251  11.3278  11.3293
    11.3299  11.3356  11.3381  11.3415  11.3441  11.3509  11.3567  11.3584
    11.3593  11.3639  11.3655  11.3716  11.3748  11.3777  11.3802  11.3828
    11.3852  11.3890  11.3941  11.3954  11.3976  11.4031  11.4043  11.4081
    11.4092  11.4142  11.4196  11.4244  11.4284  11.4313  11.4326  11.4334
    11.4385  11.4389  11.4405  11.4421  11.4493  11.4497  11.4514  11.4568
    11.4592  11.4608  11.4646  11.4704  11.4742  11.4756  11.4774  11.4802
    11.4843  11.4850  11.4895  11.4906  11.4946  11.5015  11.5042  11.5075
    11.5080  11.5094  11.5147  11.5154  11.5190  11.5224  11.5276  11.5306
    11.5342  11.5349  11.5386  11.5416  11.5450  11.5457  11.5483  11.5512
    11.5540  11.5576  11.5619  11.5633  11.5684  11.5731  11.5733  11.5795
    11.5829  11.5853  11.5877  11.5884  11.5936  11.5996  11.6018  11.6068
    11.6082  11.6099  11.6130  11.6148  11.6191  11.6212  11.6264  11.6280
    11.6294  11.6321  11.6324  11.6340  11.6384  11.6390  11.6401  11.6432
    11.6462  11.6496  11.6512  11.6533  11.6558  11.6590  11.6624  11.6631
    11.6659  11.6721  11.6754  11.6772  11.6794  11.6811  11.6835  11.6890
    11.6917  11.6944  11.6954  11.6989  11.7030  11.7033  11.7061  11.7073
    11.7102  11.7104  11.7147  11.7174  11.7203  11.7221  11.7262  11.7298
    11.7342  11.7363  11.7369  11.7402  11.7435  11.7443  11.7469  11.7474
    11.7518  11.7537  11.7572  11.7582  11.7591  11.7605  11.7659  11.7666
    11.7671  11.7684  11.7720  11.7734  11.7749  11.7792  11.7803  11.7823
    11.7825  11.7857  11.7880  11.7885  11.7918  11.7936  11.7960  11.8003
    11.8008  11.8038  11.8069  11.8079  11.8103  11.8117  11.8172  11.8183
    11.8201  11.8242  11.8280  11.8296  11.8313  11.8339  11.8399  11.8438
    11.8464  11.8511  11.8545  11.8553  11.8569  11.8625  11.8674  11.8683
    11.8714  11.8723  11.8747  11.8759  11.8793  11.8826  11.8832  11.8854
    11.8896  11.8912  11.8930  11.8953  11.8977  11.8995  11.9041  11.9064
    11.9100  11.9147  11.9168  11.9207  11.9250  11.9280  11.9313  11.9391
    11.9435  11.9470  11.9475  11.9490  11.9527  11.9547  11.9570  11.9594
    11.9616  11.9652  11.9667  11.9685  11.9727  11.9773  11.9785  11.9830
    11.9871  11.9893  11.9931  11.9942  11.9964  11.9965  11.9991  11.9999
    12.0024  12.0048  12.0081  12.0108  12.0149  12.0164  12.0199  12.0226
    12.0266  12.0284  12.0303  12.0328  12.0347  12.0358  12.0384  12.0397
    12.0432  12.0444  12.0488  12.0507  12.0532  12.0558  12.0574  12.0589
    12.0605  12.0627  12.0646  12.0650  12.0665  12.0712  12.0715  12.0751
    12.0794  12.0831  12.0839  12.0863  12.0869  12.0908  12.0924  12.0930
    12.0969  12.0995  12.1012  12.1024  12.1042  12.1071  12.1097  12.1108
    12.1148  12.1163  12.1176  12.1230  12.1234  12.1254  12.1300  12.1309
    12.1362  12.1368  12.1415  12.1434  12.1444  12.1474  12.1491  12.1519
    12.1549  12.1585  12.1617  12.1647  12.1683  12.1710  12.1727  12.1771
    12.1807  12.1842  12.1871  12.1896  12.1966  12.1983  12.2017  12.2059
    12.2064  12.2075  12.2135  12.2154  12.2163  12.2205  12.2237  12.2313
    12.2325  12.2351  12.2396  12.2415  12.2464  12.2485  12.2494  12.2518
    12.2524  12.2556  12.2591  12.2628  12.2648  12.2674  12.2684  12.2701
    12.2729  12.2740  12.2752  12.2775  12.2824  12.2857  12.2879  12.2915
    12.2926  12.2936  12.3001  12.3049  12.3063  12.3127  12.3144  12.3192
    12.3222  12.3235  12.3284  12.3295  12.3328  12.3427  12.3452  12.3513
    12.3560  12.3613  12.3616  12.3646  12.3679  12.3694  12.3721  12.3744
    12.3787  12.3841  12.3869  12.3898  12.3985  12.4035  12.4037  12.4084
    12.4108  12.4170  12.4238  12.4248  12.4308  12.4331  12.4361  12.4391
    12.4419  12.4442  12.4457  12.4463  12.4497  12.4523  12.4532  12.4576
    12.4612  12.4672  12.4679  12.4746  12.4790  12.4803  12.4807  12.4878
    12.4918  12.4925  12.4958  12.5000  12.5020  12.5059  12.5086  12.5122
    12.5141  12.5178  12.5217  12.5263  12.5274  12.5324  12.5327  12.5361
    12.5405  12.5452  12.5475  12.5548  12.5559  12.5570  12.5610  12.5634
    12.5677  12.5728  12.5762  12.5771  12.5810  12.5820  12.5846  12.5900
    12.5974  12.5998  12.6036  12.6044  12.6093  12.6108  12.6131  12.6176
    12.6206  12.6238  12.6264  12.6300  12.6350  12.6354  12.6411  12.6422
    12.6477  12.6503  12.6546  12.6562  12.6587  12.6621  12.6625  12.6697
    12.6710  12.6716  12.6732  12.6760  12.6798  12.6821  12.6891  12.6936
    12.6952  12.6981  12.6998  12.7029  12.7035  12.7072  12.7082  12.7095
    12.7115  12.7169  12.7225  12.7282  12.7301  12.7320  12.7334  12.7388
    12.7401  12.7419  12.7441  12.7489  12.7523  12.7549  12.7575  12.7589
    12.7623  12.7664  12.7699  12.7720  12.7746  12.7785  12.7802  12.7836
    12.7869  12.7885  12.7916  12.7977  12.8010  12.8030  12.8053  12.8104
    12.8126  12.8144  12.8161  12.8227  12.8262  12.8279  12.8309  12.8317
    12.8379  12.8394  12.8432  12.8467  12.8507  12.8518  12.8591  12.8592
    12.8624  12.8649  12.8681  12.8692  12.8730  12.8798  12.8846  12.8865
    12.8910  12.8948  12.8958  12.9050  12.9076  12.9100  12.9124  12.9152
    12.9172  12.9201  12.9227  12.9242  12.9274  12.9289  12.9312  12.9375
    12.9405  12.9470  12.9481  12.9546  12.9559  12.9563  12.9573  12.9647
    12.9660  12.9675  12.9719  12.9762  12.9767  12.9809  12.9853  12.9875
    12.9918  12.9933  12.9977  12.9993  13.0010  13.0095  13.0126  13.0137
    13.0163  13.0181  13.0197  13.0213  13.0243  13.0276  13.0313  13.0328
    13.0370  13.0392  13.0422  13.0454  13.0491  13.0518  13.0529  13.0548
    13.0576  13.0595  13.0675  13.0705  13.0715  13.0778  13.0797  13.0837
    13.0880  13.0906  13.0945  13.0979  13.0997  13.1025  13.1051  13.1055
    13.1077  13.1088  13.1135  13.1153  13.1187  13.1207  13.1256  13.1258
    13.1311  13.1325  13.1338  13.1346  13.1406  13.1423  13.1450  13.1459
    13.1486  13.1497  13.1523  13.1549  13.1579  13.1596  13.1611  13.1635
    13.1645  13.1648  13.1676  13.1696  13.1736  13.1762  13.1796  13.1814
    13.1837  13.1854  13.1901  13.1928  13.1949  13.1987  13.2011  13.2036
    13.2086  13.2110  13.2160  13.2184  13.2218  13.2259  13.2288  13.2314
    13.2323  13.2346  13.2355  13.2377  13.2418  13.2437  13.2466  13.2491
    13.2504  13.2523  13.2543  13.2576  13.2616  13.2643  13.2650  13.2709
    13.2751  13.2757  13.2782  13.2805  13.2846  13.2864  13.2905  13.2939
    13.2958  13.2979  13.2997  13.3057  13.3086  13.3141  13.3168  13.3207
    13.3225  13.3307  13.3323  13.3352  13.3362  13.3371  13.3408  13.3431
    13.3467  13.3490  13.3511  13.3519  13.3574  13.3588  13.3621  13.3635
    13.3675  13.3726  13.3752  13.3762  13.3807  13.3835  13.3870  13.3884
    13.3901  13.3913  13.3961  13.3996  13.4005  13.4022  13.4025  13.4066
    13.4071  13.4105  13.4137  13.4163  13.4183  13.4207  13.4264  13.4305
    13.4324  13.4335  13.4402  13.4439  13.4453  13.4487  13.4537  13.4552
    13.4563  13.4578  13.4597  13.4647  13.4661  13.4693  13.4719  13.4723
    13.4746  13.4789  13.4824  13.4854  13.4916  13.4944  13.4953  13.5003
    13.5022  13.5055  13.5063  13.5124  13.5163  13.5166  13.5202  13.5219
    13.5249  13.5302  13.5309  13.5346  13.5362  13.5398  13.5426  13.5437
    13.5479  13.5524  13.5565  13.5596  13.5643  13.5653  13.5715  13.5724
    13.5749  13.5781  13.5812  13.5834  13.5859  13.5862  13.5868  13.5915
    13.5933  13.5942  13.5957  13.5968  13.5987  13.6021  13.6029  13.6061
    13.6087  13.6149  13.6159  13.6209  13.6212  13.6250  13.6294  13.6299
    13.6308  13.6356  13.6392  13.6398  13.6451  13.6457  13.6526  13.6543
    13.6551  13.6600  13.6606  13.6634  13.6677  13.6702  13.6750  13.6764
    13.6809  13.6862  13.6889  13.6931  13.6948  13.6952  13.6982  13.7009
    13.7049  13.7080  13.7114  13.7136  13.7158  13.7188  13.7199  13.7218
    13.7282  13.7300  13.7339  13.7361  13.7389  13.7451  13.7472  13.7508
    13.7547  13.7589  13.7595  13.7652  13.7684  13.7731  13.7742  13.7790
    13.7801  13.7842  13.7865  13.7889  13.7905  13.7943  13.7992  13.8031
    13.8041  13.8062  13.8079  13.8093  13.8137  13.8190  13.8197  13.8204
    13.8234  13.8272  13.8296  13.8334  13.8361  13.8369  13.8403  13.8452
    13.8486  13.8526  13.8553  13.8572  13.8591  13.8654  13.8696  13.8743
    13.8795  13.8827  13.8856  13.8888  13.8913  13.8933  13.8952  13.8978
    13.9032  13.9062  13.9101  13.9136  13.9172  13.9191  13.9204  13.9244
    13.9280  13.9307  13.9356  13.9361  13.9389  13.9413  13.9416  13.9439
    13.9479  13.9482  13.9501  13.9533  13.9561  13.9576  13.9610  13.9618
    13.9669  13.9672  13.9692  13.9719  13.9725  13.9767  13.9780  13.9788
    13.9814  13.9835  13.9860  13.9881  13.9918  13.9969  13.9982  13.9992
    14.0026  14.0054  14.0096  14.0123  14.0203  14.0218  14.0301  14.0320
    14.0378  14.0420  14.0439  14.0515  14.0546  14.0578  14.0596  14.0613
    14.0628  14.0650  14.0686  14.0739  14.0748  14.0758  14.0785  14.0854
    14.0865  14.0890  14.0923  14.0947  14.0997  14.1018  14.1036  14.1053
    14.1065  14.1076  14.1104  14.1114  14.1155  14.1191  14.1201  14.1225
    14.1239  14.1276  14.1283  14.1348  14.1365  14.1415  14.1440  14.1454
    14.1492  14.1500  14.1517  14.1555  14.1568  14.1611  14.1633  14.1688
    14.1730  14.1745  14.1785  14.1793  14.1822  14.1877  14.1898  14.1911
    14.1925  14.1940  14.1950  14.1966  14.1995  14.2038  14.2065  14.2107
    14.2136  14.2141  14.2175  14.2210  14.2251  14.2263  14.2289  14.2294
    14.2332  14.2364  14.2409  14.2435  14.2454  14.2475  14.2486  14.2532
    14.2542  14.2608  14.2615  14.2652  14.2673  14.2703  14.2718  14.2732
    14.2756  14.2801  14.2818  14.2854  14.2910  14.2919  14.2962  14.2978
    14.2984  14.3001  14.3043  14.3069  14.3097  14.3113  14.3156  14.3169
    14.3205  14.3225  14.3267  14.3283  14.3321  14.3345  14.3374  14.3405
    14.3425  14.3460  14.3471  14.3532  14.3572  14.3604  14.3626  14.3673
    14.3694  14.3715  14.3749  14.3779  14.3796  14.3825  14.3838  14.3891
    14.3920  14.3927  14.3989  14.4024  14.4043  14.4072  14.4086  14.4097
    14.4120  14.4149  14.4160  14.4204  14.4218  14.4250  14.4298  14.4342
    14.4365  14.4373  14.4417  14.4432  14.4460  14.4497  14.4548  14.4588
    14.4601  14.4640  14.4671  14.4708  14.4725  14.4764  14.4800  14.4813
    14.4868  14.4906  14.4918  14.4956  14.4980  14.5062  14.5082  14.5144
    14.5153  14.5214  14.5242  14.5270  14.5294  14.5365  14.5412  14.5458
    14.5487  14.5532  14.5541  14.5576  14.5625  14.5639  14.5663  14.5705
    14.5728  14.5753  14.5797  14.5815  14.5840  14.5870  14.5881  14.5899
    14.5925  14.5961  14.5988  14.6018  14.6047  14.6059  14.6093  14.6107
    14.6150  14.6166  14.6186  14.6205  14.6219  14.6333  14.6365  14.6409
    14.6435  14.6467  14.6503  14.6533  14.6567  14.6625  14.6633  14.6661
    14.6677  14.6708  14.6736  14.6770  14.6789  14.6811  14.6832  14.6849
    14.6945  14.6959  14.6982  14.7003  14.7037  14.7062  14.7085  14.7107
    14.7141  14.7174  14.7228  14.7260  14.7282  14.7291  14.7349  14.7384
    14.7395  14.7464  14.7483  14.7506  14.7511  14.7553  14.7584  14.7597
    14.7613  14.7666  14.7730  14.7751  14.7786  14.7800  14.7814  14.7862
    14.7884  14.7905  14.7936  14.7971  14.7981  14.8009  14.8043  14.8065
    14.8119  14.8128  14.8153  14.8227  14.8253  14.8274  14.8297  14.8333
    14.8367  14.8382  14.8406  14.8450  14.8454  14.8473  14.8501  14.8535
    14.8583  14.8615  14.8663  14.8673  14.8703  14.8751  14.8803  14.8819
    14.8847  14.8865  14.8878  14.8928  14.8953  14.8960  14.8997  14.9059
    14.9066  14.9093  14.9172  14.9181  14.9206  14.9247  14.9272  14.9282
    14.9294  14.9314  14.9384  14.9404  14.9421  14.9456  14.9497  14.9503
    14.9518  14.9534  14.9576  14.9601  14.9642  14.9673  14.9705  14.9730
    14.9767  14.9808  14.9829  14.9855  14.9863  14.9903  14.9920  14.9942
    14.9966  14.9991  15.0016  15.0045  15.0081  15.0129  15.0144  15.0176
    15.0229  15.0265  15.0277  15.0302  15.0315  15.0342  15.0354  15.0427
    15.0463  15.0473  15.0486  15.0500  15.0520  15.0552  15.0563  15.0583
    15.0594  15.0626  15.0664  15.0686  15.0695  15.0715  15.0721  15.0748
    15.0778  15.0799  15.0811  15.0822  15.0866  15.0897  15.0915  15.0935
    15.0958  15.0965  15.0991  15.0996  15.1019  15.1051  15.1075  15.1084
    15.1112  15.1150  15.1167  15.1177  15.1228  15.1241  15.1285  15.1290
    15.1331  15.1347  15.1370  15.1393  15.1416  15.1431  15.1452  15.1461
    15.1489  15.1523  15.1550  15.1581  15.1598  15.1636  15.1713  15.1767
    15.1813  15.1819  15.1860  15.1872  15.1889  15.1928  15.1964  15.1983
    15.1991  15.2049  15.2058  15.2075  15.2102  15.2154  15.2158  15.2191
    15.2215  15.2227  15.2255  15.2274  15.2306  15.2336  15.2369  15.2382
    15.2464  15.2482  15.2510  15.2534  15.2568  15.2615  15.2628  15.2665
    15.2748  15.2763  15.2779  15.2804  15.2873  15.2898  15.2913  15.2930
    15.2942  15.2980  15.2991  15.3014  15.3052  15.3064  15.3070  15.3118
    15.3144  15.3189  15.3199  15.3227  15.3246  15.3267  15.3304  15.3323
    15.3361  15.3383  15.3397  15.3419  15.3449  15.3458  15.3497  15.3509
    15.3541  15.3578  15.3617  15.3647  15.3658  15.3667  15.3685  15.3725
    15.3748  15.3770  15.3790  15.3826  15.3852  15.3863  15.3892  15.3900
    15.3928  15.3957  15.3983  15.4038  15.4076  15.4094  15.4122  15.4167
    15.4202  15.4205  15.4256  15.4293  15.4319  15.4366  15.4383  15.4439
    15.4467  15.4487  15.4518  15.4533  15.4580  15.4594  15.4654  15.4684
    15.4712  15.4732  15.4752  15.4773  15.4796  15.4829  15.4865  15.4890
    15.4906  15.4914  15.4949  15.4992  15.5010  15.5032  15.5043  15.5076
    15.5110  15.5133  15.5181  15.5187  15.5209  15.5246  15.5278  15.5375
    15.5398  15.5431  15.5446  15.5474  15.5534  15.5545  15.5571  15.5588
    15.5596  15.5637  15.5684  15.5690  15.5710  15.5763  15.5789  15.5813
    15.5850  15.5869  15.5904  15.5921  15.5941  15.5981  15.5997  15.6032
    15.6050  15.6099  15.6104  15.6115  15.6144  15.6170  15.6193  15.6234
    15.6277  15.6319  15.6362  15.6365  15.6389  15.6403  15.6426  15.6450
    15.6497  15.6540  15.6545  15.6563  15.6584  15.6593  15.6622  15.6640
    15.6645  15.6665  15.6701  15.6715  15.6736  15.6757  15.6772  15.6808
    15.6829  15.6844  15.6877  15.6900  15.6927  15.6935  15.6971  15.6982
    15.6989  15.7009  15.7039  15.7059  15.7081  15.7119  15.7158  15.7168
    15.7193  15.7235  15.7248  15.7272  15.7298  15.7327  15.7355  15.7377
    15.7392  15.7398  15.7418  15.7438  15.7456  15.7476  15.7489  15.7539
    15.7555  15.7568  15.7611  15.7628  15.7652  15.7677  15.7708  15.7727
    15.7753  15.7770  15.7778  15.7813  15.7836  15.7868  15.7887  15.7901
    15.7928  15.7989  15.8015  15.8024  15.8048  15.8087  15.8114  15.8126
    15.8191  15.8195  15.8227  15.8257  15.8269  15.8325  15.8346  15.8362
    15.8376  15.8401  15.8410  15.8438  15.8475  15.8497  15.8514  15.8541
    15.8571  15.8617  15.8627  15.8688  15.8706  15.8725  15.8763  15.8788
    15.8814  15.8836  15.8869  15.8892  15.8917  15.8925  15.8950  15.8965
    15.8974  15.9014  15.9053  15.9061  15.9074  15.9116  15.9132  15.9146
    15.9164  15.9177  15.9222  15.9244  15.9281  15.9335  15.9350  15.9364
    15.9391  15.9402  15.9414  15.9474  15.9494  15.9528  15.9561  15.9590
    15.9641  15.9648  15.9668  15.9682  15.9698  15.9747  15.9773  15.9800
    15.9834  15.9870  15.9891  15.9929  15.9954  15.9978  16.0007  16.0016
    16.0070  16.0078  16.0103  16.0105  16.0140  16.0146  16.0170  16.0180
    16.0212  16.0238  16.0246  16.0293  16.0298  16.0349  16.0393  16.0402
    16.0439  16.0464  16.0473  16.0486  16.0491  16.0513  16.0531  16.0561
    16.0615  16.0620  16.0649  16.0676  16.0725  16.0749  16.0780  16.0800
    16.0827  16.0888  16.0926  16.0926  16.0960  16.0968  16.0991  16.1009
    16.1015  16.1021  16.1040  16.1065  16.1094  16.1120  16.1125  16.1175
    16.1214  16.1237  16.1277  16.1289  16.1330  16.1364  16.1367  16.1395
    16.1405  16.1442  16.1464  16.1490  16.1538  16.1541  16.1553  16.1591
    16.1610  16.1626  16.1664  16.1693  16.1703  16.1736  16.1768  16.1803
    16.1805  16.1823  16.1888  16.1906  16.1915  16.1944  16.1959  16.1994
    16.2011  16.2044  16.2066  16.2110  16.2119  16.2132  16.2153  16.2186
    16.2217  16.2239  16.2269  16.2315  16.2331  16.2342  16.2358  16.2373
    16.2421  16.2435  16.2456  16.2473  16.2519  16.2536  16.2566  16.2613
    16.2678  16.2700  16.2706  16.2744  16.2763  16.2770  16.2785  16.2829
    16.2839  16.2850  16.2903  16.2938  16.2950  16.2974  16.3033  16.3041
    16.3079  16.3114  16.3135  16.3177  16.3219  16.3251  16.3257  16.3284
    16.3316  16.3325  16.3368  16.3384  16.3395  16.3403  16.3444  16.3492
    16.3514  16.3564  16.3626  16.3673  16.3705  16.3742  16.3784  16.3817
    16.3830  16.3863  16.3877  16.3891  16.3961  16.3979  16.3995  16.4029
    16.4043  16.4085  16.4087  16.4142  16.4169  16.4187  16.4224  16.4265
    16.4274  16.4289  16.4300  16.4341  16.4380  16.4419  16.4435  16.4456
    16.4471  16.4491  16.4511  16.4559  16.4604  16.4618  16.4660  16.4680
    16.4716  16.4739  16.4762  16.4797  16.4842  16.4866  16.4903  16.4915
    16.4971  16.4977  16.4993  16.5021  16.5057  16.5104  16.5136  16.5166
    16.5176  16.5240  16.5257  16.5298  16.5342  16.5357  16.5374  16.5389
    16.5424  16.5442  16.5467  16.5502  16.5522  16.5531  16.5588  16.5617
    16.5643  16.5664  16.5721  16.5765  16.5795  16.5800  16.5828  16.5846
    16.5911  16.5938  16.5960  16.6004  16.6011  16.6055  16.6095  16.6132
    16.6167  16.6178  16.6214  16.6224  16.6262  16.6272  16.6299  16.6336

     Writing all to output data dir ./CNT_PBE.save/

     init_run     :      7.22s CPU     12.83s WALL (       1 calls)
     electrons    :  13144.98s CPU  13919.87s WALL (       1 calls)

     Called by init_run:
     wfcinit      :      0.01s CPU      0.01s WALL (       1 calls)
     wfcinit:wfcr :    245.90s CPU    184.90s WALL (       1 calls)
     potinit      :      1.22s CPU      5.97s WALL (       1 calls)
     hinit0       :      1.30s CPU      2.08s WALL (       1 calls)

     Called by electrons:
     c_bands      :  13144.97s CPU  13919.75s WALL (       1 calls)
     v_of_rho     :      0.35s CPU      1.26s WALL (       1 calls)
     v_h          :      0.04s CPU      0.41s WALL (       1 calls)
     v_xc         :      0.32s CPU      0.85s WALL (       1 calls)

     Called by c_bands:
     init_us_2    :      0.04s CPU      0.06s WALL (       1 calls)
     init_us_2:cp :      0.04s CPU      0.06s WALL (       1 calls)
     cegterg      :  12898.68s CPU  13734.10s WALL (       3 calls)

     Called by sum_band:

     Called by *egterg:
     cdiaghg      :   2201.06s CPU   4695.80s WALL (      53 calls)
     cegterg:over :   2567.90s CPU   2681.54s WALL (      52 calls)
     cegterg:upda :   1991.79s CPU   2083.12s WALL (      52 calls)
     cegterg:last :   1388.08s CPU   1449.88s WALL (      10 calls)
     cdiaghg:chol :     33.36s CPU    178.01s WALL (      53 calls)
     cdiaghg:inve :      0.60s CPU      2.01s WALL (      53 calls)
     cdiaghg:para :    519.50s CPU   1713.64s WALL (     106 calls)
     h_psi        :   4864.23s CPU   2868.64s WALL (      56 calls)
     g_psi        :      2.20s CPU      0.60s WALL (      52 calls)

     Called by h_psi:
     h_psi:calbec :    851.35s CPU    881.92s WALL (      56 calls)
     vloc_psi     :   3173.44s CPU   1147.73s WALL (      56 calls)
     add_vuspsi   :    835.10s CPU    837.63s WALL (      56 calls)

     General routines
     calbec       :    851.35s CPU    881.92s WALL (      56 calls)
     fft          :      1.34s CPU      3.22s WALL (      10 calls)
     fftw         :   3139.44s CPU   1138.60s WALL (  262588 calls)
     davcio       :      0.00s CPU      0.25s WALL (       2 calls)

     Parallel routines
     fft_scatt_xy :     57.33s CPU     16.19s WALL (  262598 calls)
     fft_scatt_yz :   2765.70s CPU   1034.11s WALL (  262598 calls)

     PWSCF        :      3h41m CPU      4h 0m WALL


   This run was terminated on:  10:28:59  29May2024            

=------------------------------------------------------------------------------=
   JOB DONE.
=------------------------------------------------------------------------------=
Note: The following floating-point exceptions are signalling: IEEE_DENORMAL
Note: The following floating-point exceptions are signalling: IEEE_UNDERFLOW_FLAG IEEE_DENORMAL
Note: The following floating-point exceptions are signalling: IEEE_DENORMAL
Note: The following floating-point exceptions are signalling: IEEE_DENORMAL
Note: The following floating-point exceptions are signalling: IEEE_DENORMAL
Note: The following floating-point exceptions are signalling: IEEE_DENORMAL
Note: The following floating-point exceptions are signalling: IEEE_DENORMAL
Note: The following floating-point exceptions are signalling: IEEE_DENORMAL
Note: The following floating-point exceptions are signalling: IEEE_DENORMAL
Note: The following floating-point exceptions are signalling: IEEE_DENORMAL
Note: The following floating-point exceptions are signalling: IEEE_DENORMAL
Note: The following floating-point exceptions are signalling: IEEE_DENORMAL
Note: The following floating-point exceptions are signalling: IEEE_DENORMAL
Note: The following floating-point exceptions are signalling: IEEE_DENORMAL
Note: The following floating-point exceptions are signalling: IEEE_DENORMAL
Note: The following floating-point exceptions are signalling: IEEE_DENORMAL
Note: The following floating-point exceptions are signalling: IEEE_DENORMAL
Note: The following floating-point exceptions are signalling: IEEE_DENORMAL
Note: The following floating-point exceptions are signalling: IEEE_DENORMAL
Note: The following floating-point exceptions are signalling: IEEE_DENORMAL
Note: The following floating-point exceptions are signalling: IEEE_DENORMAL
Note: The following floating-point exceptions are signalling: IEEE_DENORMAL
Note: The following floating-point exceptions are signalling: IEEE_DENORMAL
Note: The following floating-point exceptions are signalling: IEEE_DENORMAL
Note: The following floating-point exceptions are signalling: IEEE_DENORMAL
Note: The following floating-point exceptions are signalling: IEEE_DENORMAL
Note: The following floating-point exceptions are signalling: IEEE_DENORMAL
Note: The following floating-point exceptions are signalling: IEEE_DENORMAL
Note: The following floating-point exceptions are signalling: IEEE_DENORMAL
Note: The following floating-point exceptions are signalling: IEEE_DENORMAL
Note: The following floating-point exceptions are signalling: IEEE_DENORMAL
Note: The following floating-point exceptions are signalling: IEEE_DENORMAL
Note: The following floating-point exceptions are signalling: IEEE_DENORMAL
Note: The following floating-point exceptions are signalling: IEEE_DENORMAL
Note: The following floating-point exceptions are signalling: IEEE_DENORMAL
Note: The following floating-point exceptions are signalling: IEEE_DENORMAL
Note: The following floating-point exceptions are signalling: IEEE_DENORMAL
Note: The following floating-point exceptions are signalling: IEEE_DENORMAL
Note: The following floating-point exceptions are signalling: IEEE_DENORMAL
Note: The following floating-point exceptions are signalling: IEEE_DENORMAL
Note: The following floating-point exceptions are signalling: IEEE_DENORMAL
Note: The following floating-point exceptions are signalling: IEEE_DENORMAL
Note: The following floating-point exceptions are signalling: IEEE_DENORMAL
Note: The following floating-point exceptions are signalling: IEEE_DENORMAL
Note: The following floating-point exceptions are signalling: IEEE_DENORMAL
Note: The following floating-point exceptions are signalling: IEEE_DENORMAL
Note: The following floating-point exceptions are signalling: IEEE_DENORMAL
Note: The following floating-point exceptions are signalling: IEEE_DENORMAL
Note: The following floating-point exceptions are signalling: IEEE_DENORMAL
Note: The following floating-point exceptions are signalling: IEEE_DENORMAL
Note: The following floating-point exceptions are signalling: IEEE_DENORMAL
Note: The following floating-point exceptions are signalling: IEEE_DENORMAL
Note: The following floating-point exceptions are signalling: IEEE_DENORMAL
Note: The following floating-point exceptions are signalling: IEEE_DENORMAL
Note: The following floating-point exceptions are signalling: IEEE_DENORMAL
Note: The following floating-point exceptions are signalling: IEEE_DENORMAL
Note: The following floating-point exceptions are signalling: IEEE_DENORMAL
Note: The following floating-point exceptions are signalling: IEEE_DENORMAL
Note: The following floating-point exceptions are signalling: IEEE_DENORMAL
Note: The following floating-point exceptions are signalling: IEEE_DENORMAL
Note: The following floating-point exceptions are signalling: IEEE_DENORMAL
Note: The following floating-point exceptions are signalling: IEEE_DENORMAL
Note: The following floating-point exceptions are signalling: IEEE_DENORMAL
Note: The following floating-point exceptions are signalling: IEEE_DENORMAL
Note: The following floating-point exceptions are signalling: IEEE_DENORMAL
Note: The following floating-point exceptions are signalling: IEEE_DENORMAL
Note: The following floating-point exceptions are signalling: IEEE_DENORMAL
Note: The following floating-point exceptions are signalling: IEEE_DENORMAL
Note: The following floating-point exceptions are signalling: IEEE_DENORMAL
Note: The following floating-point exceptions are signalling: IEEE_DENORMAL
Note: The following floating-point exceptions are signalling: IEEE_DENORMAL
Note: The following floating-point exceptions are signalling: IEEE_DENORMAL
Note: The following floating-point exceptions are signalling: IEEE_DENORMAL
Note: The following floating-point exceptions are signalling: IEEE_DENORMAL
Note: The following floating-point exceptions are signalling: IEEE_DENORMAL
Note: The following floating-point exceptions are signalling: IEEE_DENORMAL
Note: The following floating-point exceptions are signalling: IEEE_DENORMAL
Note: The following floating-point exceptions are signalling: IEEE_DENORMAL
Note: The following floating-point exceptions are signalling: IEEE_DENORMAL
Note: The following floating-point exceptions are signalling: IEEE_DENORMAL
Note: The following floating-point exceptions are signalling: IEEE_DENORMAL
Note: The following floating-point exceptions are signalling: IEEE_DENORMAL
Note: The following floating-point exceptions are signalling: IEEE_DENORMAL
Note: The following floating-point exceptions are signalling: IEEE_DENORMAL
Note: The following floating-point exceptions are signalling: IEEE_DENORMAL
Note: The following floating-point exceptions are signalling: IEEE_DENORMAL
Note: The following floating-point exceptions are signalling: IEEE_DENORMAL
Note: The following floating-point exceptions are signalling: IEEE_DENORMAL
Note: The following floating-point exceptions are signalling: IEEE_DENORMAL
Note: The following floating-point exceptions are signalling: IEEE_DENORMAL
Note: The following floating-point exceptions are signalling: IEEE_DENORMAL
Note: The following floating-point exceptions are signalling: IEEE_INVALID_FLAG IEEE_DENORMAL
Note: The following floating-point exceptions are signalling: IEEE_DENORMAL
Note: The following floating-point exceptions are signalling: IEEE_DENORMAL
Note: The following floating-point exceptions are signalling: IEEE_DENORMAL
Note: The following floating-point exceptions are signalling: IEEE_DENORMAL
Note: The following floating-point exceptions are signalling: IEEE_DENORMAL
Note: The following floating-point exceptions are signalling: IEEE_DENORMAL
Note: The following floating-point exceptions are signalling: IEEE_DENORMAL
Note: The following floating-point exceptions are signalling: IEEE_DENORMAL
Note: The following floating-point exceptions are signalling: IEEE_DENORMAL
Note: The following floating-point exceptions are signalling: IEEE_DENORMAL
Note: The following floating-point exceptions are signalling: IEEE_DENORMAL
Note: The following floating-point exceptions are signalling: IEEE_DENORMAL
Note: The following floating-point exceptions are signalling: IEEE_DENORMAL
Note: The following floating-point exceptions are signalling: IEEE_DENORMAL
Note: The following floating-point exceptions are signalling: IEEE_DENORMAL
Note: The following floating-point exceptions are signalling: IEEE_DENORMAL
Note: The following floating-point exceptions are signalling: IEEE_DENORMAL
Note: The following floating-point exceptions are signalling: IEEE_DENORMAL
Note: The following floating-point exceptions are signalling: IEEE_DENORMAL
Note: The following floating-point exceptions are signalling: IEEE_DENORMAL
Note: The following floating-point exceptions are signalling: IEEE_DENORMAL
Note: The following floating-point exceptions are signalling: IEEE_DENORMAL
Note: The following floating-point exceptions are signalling: IEEE_DENORMAL
Note: The following floating-point exceptions are signalling: IEEE_DENORMAL
Note: The following floating-point exceptions are signalling: IEEE_DENORMAL
Note: The following floating-point exceptions are signalling: IEEE_DENORMAL
Note: The following floating-point exceptions are signalling: IEEE_DENORMAL
Note: The following floating-point exceptions are signalling: IEEE_DENORMAL
Note: The following floating-point exceptions are signalling: IEEE_DENORMAL
Note: The following floating-point exceptions are signalling: IEEE_DENORMAL
Note: The following floating-point exceptions are signalling: IEEE_DENORMAL
Note: The following floating-point exceptions are signalling: IEEE_DENORMAL
Note: The following floating-point exceptions are signalling: IEEE_DENORMAL
Note: The following floating-point exceptions are signalling: IEEE_DENORMAL
Note: The following floating-point exceptions are signalling: IEEE_DENORMAL
Note: The following floating-point exceptions are signalling: IEEE_DENORMAL
Note: The following floating-point exceptions are signalling: IEEE_DENORMAL
Note: The following floating-point exceptions are signalling: IEEE_DENORMAL
Note: The following floating-point exceptions are signalling: IEEE_DENORMAL
Note: The following floating-point exceptions are signalling: IEEE_DENORMAL
Note: The following floating-point exceptions are signalling: IEEE_DENORMAL
Note: The following floating-point exceptions are signalling: IEEE_DENORMAL
Note: The following floating-point exceptions are signalling: IEEE_DENORMAL
Note: The following floating-point exceptions are signalling: IEEE_DENORMAL
Note: The following floating-point exceptions are signalling: IEEE_DENORMAL
Note: The following floating-point exceptions are signalling: IEEE_DENORMAL
Note: The following floating-point exceptions are signalling: IEEE_DENORMAL
Note: The following floating-point exceptions are signalling: IEEE_DENORMAL
Note: The following floating-point exceptions are signalling: IEEE_DENORMAL
Note: The following floating-point exceptions are signalling: IEEE_DENORMAL
Note: The following floating-point exceptions are signalling: IEEE_DENORMAL
Note: The following floating-point exceptions are signalling: IEEE_DENORMAL
Note: The following floating-point exceptions are signalling: IEEE_DENORMAL
Note: The following floating-point exceptions are signalling: IEEE_DENORMAL
Note: The following floating-point exceptions are signalling: IEEE_DENORMAL
Note: The following floating-point exceptions are signalling: IEEE_DENORMAL
Note: The following floating-point exceptions are signalling: IEEE_DENORMAL
Note: The following floating-point exceptions are signalling: IEEE_DENORMAL
Note: The following floating-point exceptions are signalling: IEEE_DENORMAL
Note: The following floating-point exceptions are signalling: IEEE_DENORMAL
Note: The following floating-point exceptions are signalling: IEEE_DENORMAL
Note: The following floating-point exceptions are signalling: IEEE_DENORMAL
Note: The following floating-point exceptions are signalling: IEEE_DENORMAL
Note: The following floating-point exceptions are signalling: IEEE_DENORMAL
Note: The following floating-point exceptions are signalling: IEEE_DENORMAL
Note: The following floating-point exceptions are signalling: IEEE_DENORMAL
Note: The following floating-point exceptions are signalling: IEEE_DENORMAL
Note: The following floating-point exceptions are signalling: IEEE_DENORMAL
Note: The following floating-point exceptions are signalling: IEEE_DENORMAL
Note: The following floating-point exceptions are signalling: IEEE_DENORMAL
Note: The following floating-point exceptions are signalling: IEEE_DENORMAL
Note: The following floating-point exceptions are signalling: IEEE_DENORMAL
Note: The following floating-point exceptions are signalling: IEEE_DENORMAL
Note: The following floating-point exceptions are signalling: IEEE_DENORMAL
Note: The following floating-point exceptions are signalling: IEEE_DENORMAL
Note: The following floating-point exceptions are signalling: IEEE_DENORMAL
Note: The following floating-point exceptions are signalling: IEEE_DENORMAL
Note: The following floating-point exceptions are signalling: IEEE_DENORMAL
Note: The following floating-point exceptions are signalling: IEEE_DENORMAL
Note: The following floating-point exceptions are signalling: IEEE_DENORMAL
Note: The following floating-point exceptions are signalling: IEEE_DENORMAL
Note: The following floating-point exceptions are signalling: IEEE_DENORMAL
Note: The following floating-point exceptions are signalling: IEEE_DENORMAL
Note: The following floating-point exceptions are signalling: IEEE_DENORMAL
Note: The following floating-point exceptions are signalling: IEEE_DENORMAL
Note: The following floating-point exceptions are signalling: IEEE_DENORMAL
Note: The following floating-point exceptions are signalling: IEEE_DENORMAL
Note: The following floating-point exceptions are signalling: IEEE_DENORMAL
Note: The following floating-point exceptions are signalling: IEEE_DENORMAL
Note: The following floating-point exceptions are signalling: IEEE_DENORMAL
Note: The following floating-point exceptions are signalling: IEEE_DENORMAL
Note: The following floating-point exceptions are signalling: IEEE_DENORMAL
Note: The following floating-point exceptions are signalling: IEEE_DENORMAL
Note: The following floating-point exceptions are signalling: IEEE_DENORMAL
Note: The following floating-point exceptions are signalling: IEEE_DENORMAL
Note: The following floating-point exceptions are signalling: IEEE_DENORMAL
Note: The following floating-point exceptions are signalling: IEEE_DENORMAL
Note: The following floating-point exceptions are signalling: IEEE_DENORMAL
Note: The following floating-point exceptions are signalling: IEEE_DENORMAL
Note: The following floating-point exceptions are signalling: IEEE_DENORMAL
Note: The following floating-point exceptions are signalling: IEEE_DENORMAL
Note: The following floating-point exceptions are signalling: IEEE_DENORMAL
Note: The following floating-point exceptions are signalling: IEEE_DENORMAL
Note: The following floating-point exceptions are signalling: IEEE_DENORMAL
Note: The following floating-point exceptions are signalling: IEEE_DENORMAL
Note: The following floating-point exceptions are signalling: IEEE_DENORMAL
Note: The following floating-point exceptions are signalling: IEEE_DENORMAL
Note: The following floating-point exceptions are signalling: IEEE_DENORMAL
Note: The following floating-point exceptions are signalling: IEEE_DENORMAL
Note: The following floating-point exceptions are signalling: IEEE_DENORMAL
Note: The following floating-point exceptions are signalling: IEEE_DENORMAL
Note: The following floating-point exceptions are signalling: IEEE_DENORMAL
Note: The following floating-point exceptions are signalling: IEEE_DENORMAL
Note: The following floating-point exceptions are signalling: IEEE_DENORMAL
Note: The following floating-point exceptions are signalling: IEEE_DENORMAL
Note: The following floating-point exceptions are signalling: IEEE_DENORMAL
Note: The following floating-point exceptions are signalling: IEEE_DENORMAL
Note: The following floating-point exceptions are signalling: IEEE_DENORMAL
Note: The following floating-point exceptions are signalling: IEEE_DENORMAL
Note: The following floating-point exceptions are signalling: IEEE_DENORMAL
Note: The following floating-point exceptions are signalling: IEEE_DENORMAL
Note: The following floating-point exceptions are signalling: IEEE_DENORMAL
Note: The following floating-point exceptions are signalling: IEEE_DENORMAL
Note: The following floating-point exceptions are signalling: IEEE_DENORMAL
Note: The following floating-point exceptions are signalling: IEEE_DENORMAL
Note: The following floating-point exceptions are signalling: IEEE_DENORMAL
Note: The following floating-point exceptions are signalling: IEEE_DENORMAL
Note: The following floating-point exceptions are signalling: IEEE_DENORMAL
Note: The following floating-point exceptions are signalling: IEEE_DENORMAL
Note: The following floating-point exceptions are signalling: IEEE_DENORMAL
Note: The following floating-point exceptions are signalling: IEEE_DENORMAL
Note: The following floating-point exceptions are signalling: IEEE_DENORMAL
Note: The following floating-point exceptions are signalling: IEEE_DENORMAL
Note: The following floating-point exceptions are signalling: IEEE_DENORMAL
Note: The following floating-point exceptions are signalling: IEEE_DENORMAL
Note: The following floating-point exceptions are signalling: IEEE_DENORMAL
Note: The following floating-point exceptions are signalling: IEEE_DENORMAL
Note: The following floating-point exceptions are signalling: IEEE_DENORMAL
Note: The following floating-point exceptions are signalling: IEEE_DENORMAL
Note: The following floating-point exceptions are signalling: IEEE_DENORMAL
Note: The following floating-point exceptions are signalling: IEEE_DENORMAL
Note: The following floating-point exceptions are signalling: IEEE_DENORMAL
Note: The following floating-point exceptions are signalling: IEEE_INVALID_FLAG IEEE_DENORMAL
Note: The following floating-point exceptions are signalling: IEEE_DENORMAL
Note: The following floating-point exceptions are signalling: IEEE_DENORMAL
Note: The following floating-point exceptions are signalling: IEEE_DENORMAL
Note: The following floating-point exceptions are signalling: IEEE_DENORMAL
Note: The following floating-point exceptions are signalling: IEEE_DENORMAL
Note: The following floating-point exceptions are signalling: IEEE_DENORMAL
Note: The following floating-point exceptions are signalling: IEEE_DENORMAL
Note: The following floating-point exceptions are signalling: IEEE_DENORMAL
Note: The following floating-point exceptions are signalling: IEEE_DENORMAL
Note: The following floating-point exceptions are signalling: IEEE_DENORMAL
Note: The following floating-point exceptions are signalling: IEEE_DENORMAL
Note: The following floating-point exceptions are signalling: IEEE_DENORMAL
Note: The following floating-point exceptions are signalling: IEEE_DENORMAL
Note: The following floating-point exceptions are signalling: IEEE_DENORMAL
Note: The following floating-point exceptions are signalling: IEEE_DENORMAL
Note: The following floating-point exceptions are signalling: IEEE_DENORMAL
Note: The following floating-point exceptions are signalling: IEEE_DENORMAL
Note: The following floating-point exceptions are signalling: IEEE_DENORMAL
Note: The following floating-point exceptions are signalling: IEEE_DENORMAL
Note: The following floating-point exceptions are signalling: IEEE_DENORMAL
Note: The following floating-point exceptions are signalling: IEEE_DENORMAL
Note: The following floating-point exceptions are signalling: IEEE_DENORMAL
Note: The following floating-point exceptions are signalling: IEEE_DENORMAL
Note: The following floating-point exceptions are signalling: IEEE_DENORMAL
Note: The following floating-point exceptions are signalling: IEEE_DENORMAL
Note: The following floating-point exceptions are signalling: IEEE_DENORMAL
Note: The following floating-point exceptions are signalling: IEEE_DENORMAL
Note: The following floating-point exceptions are signalling: IEEE_DENORMAL
Note: The following floating-point exceptions are signalling: IEEE_DENORMAL
Note: The following floating-point exceptions are signalling: IEEE_DENORMAL
Note: The following floating-point exceptions are signalling: IEEE_DENORMAL
Note: The following floating-point exceptions are signalling: IEEE_DENORMAL
Note: The following floating-point exceptions are signalling: IEEE_DENORMAL
Note: The following floating-point exceptions are signalling: IEEE_DENORMAL
Note: The following floating-point exceptions are signalling: IEEE_DENORMAL
Note: The following floating-point exceptions are signalling: IEEE_DENORMAL
Note: The following floating-point exceptions are signalling: IEEE_DENORMAL
Note: The following floating-point exceptions are signalling: IEEE_DENORMAL
Note: The following floating-point exceptions are signalling: IEEE_DENORMAL
Note: The following floating-point exceptions are signalling: IEEE_DENORMAL
Note: The following floating-point exceptions are signalling: IEEE_DENORMAL
Note: The following floating-point exceptions are signalling: IEEE_DENORMAL
Note: The following floating-point exceptions are signalling: IEEE_DENORMAL
Note: The following floating-point exceptions are signalling: IEEE_DENORMAL
Note: The following floating-point exceptions are signalling: IEEE_DENORMAL
Note: The following floating-point exceptions are signalling: IEEE_DENORMAL
Note: The following floating-point exceptions are signalling: IEEE_DENORMAL
Note: The following floating-point exceptions are signalling: IEEE_DENORMAL
Note: The following floating-point exceptions are signalling: IEEE_DENORMAL
Note: The following floating-point exceptions are signalling: IEEE_DENORMAL
Note: The following floating-point exceptions are signalling: IEEE_DENORMAL
Note: The following floating-point exceptions are signalling: IEEE_DENORMAL
Note: The following floating-point exceptions are signalling: IEEE_DENORMAL
Note: The following floating-point exceptions are signalling: IEEE_DENORMAL
Note: The following floating-point exceptions are signalling: IEEE_DENORMAL
Note: The following floating-point exceptions are signalling: IEEE_DENORMAL
Note: The following floating-point exceptions are signalling: IEEE_DENORMAL
Note: The following floating-point exceptions are signalling: IEEE_DENORMAL
Note: The following floating-point exceptions are signalling: IEEE_DENORMAL
Note: The following floating-point exceptions are signalling: IEEE_DENORMAL
Note: The following floating-point exceptions are signalling: IEEE_DENORMAL
Note: The following floating-point exceptions are signalling: IEEE_DENORMAL
Note: The following floating-point exceptions are signalling: IEEE_DENORMAL
Note: The following floating-point exceptions are signalling: IEEE_DENORMAL
Note: The following floating-point exceptions are signalling: IEEE_DENORMAL
Note: The following floating-point exceptions are signalling: IEEE_DENORMAL
Note: The following floating-point exceptions are signalling: IEEE_DENORMAL
Note: The following floating-point exceptions are signalling: IEEE_DENORMAL
Note: The following floating-point exceptions are signalling: IEEE_DENORMAL
Note: The following floating-point exceptions are signalling: IEEE_DENORMAL
Note: The following floating-point exceptions are signalling: IEEE_DENORMAL
Note: The following floating-point exceptions are signalling: IEEE_DENORMAL
Note: The following floating-point exceptions are signalling: IEEE_DENORMAL
Note: The following floating-point exceptions are signalling: IEEE_DENORMAL
Note: The following floating-point exceptions are signalling: IEEE_DENORMAL
Note: The following floating-point exceptions are signalling: IEEE_DENORMAL
Note: The following floating-point exceptions are signalling: IEEE_DENORMAL
Note: The following floating-point exceptions are signalling: IEEE_DENORMAL
Note: The following floating-point exceptions are signalling: IEEE_DENORMAL
Note: The following floating-point exceptions are signalling: IEEE_DENORMAL
Note: The following floating-point exceptions are signalling: IEEE_DENORMAL
Note: The following floating-point exceptions are signalling: IEEE_DENORMAL
Note: The following floating-point exceptions are signalling: IEEE_DENORMAL
Note: The following floating-point exceptions are signalling: IEEE_DENORMAL
Note: The following floating-point exceptions are signalling: IEEE_DENORMAL
Note: The following floating-point exceptions are signalling: IEEE_DENORMAL
Note: The following floating-point exceptions are signalling: IEEE_DENORMAL
Note: The following floating-point exceptions are signalling: IEEE_DENORMAL
Note: The following floating-point exceptions are signalling: IEEE_DENORMAL
Note: The following floating-point exceptions are signalling: IEEE_DENORMAL
Note: The following floating-point exceptions are signalling: IEEE_DENORMAL
Note: The following floating-point exceptions are signalling: IEEE_DENORMAL
Note: The following floating-point exceptions are signalling: IEEE_DENORMAL
Note: The following floating-point exceptions are signalling: IEEE_DENORMAL
Note: The following floating-point exceptions are signalling: IEEE_DENORMAL
Note: The following floating-point exceptions are signalling: IEEE_DENORMAL
Note: The following floating-point exceptions are signalling: IEEE_DENORMAL
Note: The following floating-point exceptions are signalling: IEEE_DENORMAL
Note: The following floating-point exceptions are signalling: IEEE_DENORMAL
Note: The following floating-point exceptions are signalling: IEEE_DENORMAL
Note: The following floating-point exceptions are signalling: IEEE_DENORMAL
Note: The following floating-point exceptions are signalling: IEEE_DENORMAL
Note: The following floating-point exceptions are signalling: IEEE_DENORMAL
Note: The following floating-point exceptions are signalling: IEEE_DENORMAL
Note: The following floating-point exceptions are signalling: IEEE_DENORMAL
Note: The following floating-point exceptions are signalling: IEEE_DENORMAL
Note: The following floating-point exceptions are signalling: IEEE_DENORMAL
Note: The following floating-point exceptions are signalling: IEEE_DENORMAL
Note: The following floating-point exceptions are signalling: IEEE_DENORMAL
Note: The following floating-point exceptions are signalling: IEEE_DENORMAL
Note: The following floating-point exceptions are signalling: IEEE_DENORMAL
Note: The following floating-point exceptions are signalling: IEEE_DENORMAL
Note: The following floating-point exceptions are signalling: IEEE_DENORMAL
Note: The following floating-point exceptions are signalling: IEEE_DENORMAL
Note: The following floating-point exceptions are signalling: IEEE_DENORMAL
Note: The following floating-point exceptions are signalling: IEEE_DENORMAL
Note: The following floating-point exceptions are signalling: IEEE_DENORMAL
Note: The following floating-point exceptions are signalling: IEEE_DENORMAL
Note: The following floating-point exceptions are signalling: IEEE_DENORMAL
Note: The following floating-point exceptions are signalling: IEEE_DENORMAL
Note: The following floating-point exceptions are signalling: IEEE_DENORMAL
Note: The following floating-point exceptions are signalling: IEEE_DENORMAL
Note: The following floating-point exceptions are signalling: IEEE_DENORMAL
Note: The following floating-point exceptions are signalling: IEEE_DENORMAL
Note: The following floating-point exceptions are signalling: IEEE_DENORMAL
Note: The following floating-point exceptions are signalling: IEEE_DENORMAL
Note: The following floating-point exceptions are signalling: IEEE_DENORMAL
Note: The following floating-point exceptions are signalling: IEEE_DENORMAL
Note: The following floating-point exceptions are signalling: IEEE_DENORMAL
Note: The following floating-point exceptions are signalling: IEEE_DENORMAL
Note: The following floating-point exceptions are signalling: IEEE_DENORMAL
Note: The following floating-point exceptions are signalling: IEEE_DENORMAL
Note: The following floating-point exceptions are signalling: IEEE_DENORMAL
Note: The following floating-point exceptions are signalling: IEEE_DENORMAL
Note: The following floating-point exceptions are signalling: IEEE_DENORMAL
Note: The following floating-point exceptions are signalling: IEEE_DENORMAL
Note: The following floating-point exceptions are signalling: IEEE_DENORMAL
Note: The following floating-point exceptions are signalling: IEEE_DENORMAL
Note: The following floating-point exceptions are signalling: IEEE_DENORMAL
Note: The following floating-point exceptions are signalling: IEEE_DENORMAL
Note: The following floating-point exceptions are signalling: IEEE_DENORMAL
Note: The following floating-point exceptions are signalling: IEEE_DENORMAL
Note: The following floating-point exceptions are signalling: IEEE_DENORMAL
Note: The following floating-point exceptions are signalling: IEEE_DENORMAL
Note: The following floating-point exceptions are signalling: IEEE_DENORMAL
Note: The following floating-point exceptions are signalling: IEEE_DENORMAL
Note: The following floating-point exceptions are signalling: IEEE_DENORMAL
Note: The following floating-point exceptions are signalling: IEEE_DENORMAL
Note: The following floating-point exceptions are signalling: IEEE_DENORMAL
Note: The following floating-point exceptions are signalling: IEEE_DENORMAL
Note: The following floating-point exceptions are signalling: IEEE_DENORMAL
Note: The following floating-point exceptions are signalling: IEEE_DENORMAL
Note: The following floating-point exceptions are signalling: IEEE_DENORMAL
Note: The following floating-point exceptions are signalling: IEEE_DENORMAL
Note: The following floating-point exceptions are signalling: IEEE_DENORMAL
Note: The following floating-point exceptions are signalling: IEEE_DENORMAL
Note: The following floating-point exceptions are signalling: IEEE_DENORMAL
Note: The following floating-point exceptions are signalling: IEEE_DENORMAL
Note: The following floating-point exceptions are signalling: IEEE_DENORMAL
Note: The following floating-point exceptions are signalling: IEEE_DENORMAL
Note: The following floating-point exceptions are signalling: IEEE_DENORMAL
Note: The following floating-point exceptions are signalling: IEEE_DENORMAL
Note: The following floating-point exceptions are signalling: IEEE_DENORMAL
Note: The following floating-point exceptions are signalling: IEEE_DENORMAL
Note: The following floating-point exceptions are signalling: IEEE_DENORMAL
Note: The following floating-point exceptions are signalling: IEEE_DENORMAL
Note: The following floating-point exceptions are signalling: IEEE_DENORMAL
Note: The following floating-point exceptions are signalling: IEEE_DENORMAL
Note: The following floating-point exceptions are signalling: IEEE_DENORMAL
Note: The following floating-point exceptions are signalling: IEEE_DENORMAL
Note: The following floating-point exceptions are signalling: IEEE_DENORMAL
Note: The following floating-point exceptions are signalling: IEEE_DENORMAL
Note: The following floating-point exceptions are signalling: IEEE_DENORMAL
Note: The following floating-point exceptions are signalling: IEEE_DENORMAL
Note: The following floating-point exceptions are signalling: IEEE_DENORMAL
Note: The following floating-point exceptions are signalling: IEEE_DENORMAL
Note: The following floating-point exceptions are signalling: IEEE_DENORMAL
Note: The following floating-point exceptions are signalling: IEEE_DENORMAL
Note: The following floating-point exceptions are signalling: IEEE_DENORMAL
Note: The following floating-point exceptions are signalling: IEEE_DENORMAL
Note: The following floating-point exceptions are signalling: IEEE_DENORMAL
Note: The following floating-point exceptions are signalling: IEEE_DENORMAL
Note: The following floating-point exceptions are signalling: IEEE_DENORMAL
Note: The following floating-point exceptions are signalling: IEEE_DENORMAL
Note: The following floating-point exceptions are signalling: IEEE_DENORMAL
Note: The following floating-point exceptions are signalling: IEEE_DENORMAL
Note: The following floating-point exceptions are signalling: IEEE_DENORMAL
Note: The following floating-point exceptions are signalling: IEEE_DENORMAL
Note: The following floating-point exceptions are signalling: IEEE_DENORMAL
Note: The following floating-point exceptions are signalling: IEEE_DENORMAL
Note: The following floating-point exceptions are signalling: IEEE_DENORMAL
Note: The following floating-point exceptions are signalling: IEEE_DENORMAL
Note: The following floating-point exceptions are signalling: IEEE_DENORMAL
Note: The following floating-point exceptions are signalling: IEEE_DENORMAL
Note: The following floating-point exceptions are signalling: IEEE_DENORMAL
Note: The following floating-point exceptions are signalling: IEEE_DENORMAL
Note: The following floating-point exceptions are signalling: IEEE_DENORMAL
Note: The following floating-point exceptions are signalling: IEEE_DENORMAL
Note: The following floating-point exceptions are signalling: IEEE_DENORMAL
Note: The following floating-point exceptions are signalling: IEEE_DENORMAL
Note: The following floating-point exceptions are signalling: IEEE_DENORMAL
Note: The following floating-point exceptions are signalling: IEEE_DENORMAL
Note: The following floating-point exceptions are signalling: IEEE_DENORMAL
Note: The following floating-point exceptions are signalling: IEEE_DENORMAL
Note: The following floating-point exceptions are signalling: IEEE_DENORMAL
Note: The following floating-point exceptions are signalling: IEEE_DENORMAL
Note: The following floating-point exceptions are signalling: IEEE_DENORMAL
Note: The following floating-point exceptions are signalling: IEEE_DENORMAL
Note: The following floating-point exceptions are signalling: IEEE_DENORMAL
Note: The following floating-point exceptions are signalling: IEEE_DENORMAL
Note: The following floating-point exceptions are signalling: IEEE_DENORMAL
Note: The following floating-point exceptions are signalling: IEEE_DENORMAL
Note: The following floating-point exceptions are signalling: IEEE_DENORMAL
Note: The following floating-point exceptions are signalling: IEEE_DENORMAL
Note: The following floating-point exceptions are signalling: IEEE_DENORMAL
Note: The following floating-point exceptions are signalling: IEEE_DENORMAL
Note: The following floating-point exceptions are signalling: IEEE_DENORMAL
Note: The following floating-point exceptions are signalling: IEEE_DENORMAL
Note: The following floating-point exceptions are signalling: IEEE_DENORMAL
Note: The following floating-point exceptions are signalling: IEEE_DENORMAL
Note: The following floating-point exceptions are signalling: IEEE_DENORMAL
Note: The following floating-point exceptions are signalling: IEEE_DENORMAL
Note: The following floating-point exceptions are signalling: IEEE_DENORMAL
Note: The following floating-point exceptions are signalling: IEEE_DENORMAL
Note: The following floating-point exceptions are signalling: IEEE_DENORMAL
Note: The following floating-point exceptions are signalling: IEEE_DENORMAL
Note: The following floating-point exceptions are signalling: IEEE_DENORMAL
Note: The following floating-point exceptions are signalling: IEEE_DENORMAL
Note: The following floating-point exceptions are signalling: IEEE_DENORMAL
Note: The following floating-point exceptions are signalling: IEEE_DENORMAL
Note: The following floating-point exceptions are signalling: IEEE_DENORMAL
Note: The following floating-point exceptions are signalling: IEEE_DENORMAL
Note: The following floating-point exceptions are signalling: IEEE_DENORMAL
Note: The following floating-point exceptions are signalling: IEEE_DENORMAL
Note: The following floating-point exceptions are signalling: IEEE_DENORMAL
Note: The following floating-point exceptions are signalling: IEEE_DENORMAL
Note: The following floating-point exceptions are signalling: IEEE_DENORMAL
Note: The following floating-point exceptions are signalling: IEEE_DENORMAL
Note: The following floating-point exceptions are signalling: IEEE_DENORMAL
Note: The following floating-point exceptions are signalling: IEEE_DENORMAL
Note: The following floating-point exceptions are signalling: IEEE_DENORMAL
Note: The following floating-point exceptions are signalling: IEEE_DENORMAL
Note: The following floating-point exceptions are signalling: IEEE_DENORMAL
Note: The following floating-point exceptions are signalling: IEEE_DENORMAL
Note: The following floating-point exceptions are signalling: IEEE_DENORMAL
Note: The following floating-point exceptions are signalling: IEEE_DENORMAL
Note: The following floating-point exceptions are signalling: IEEE_DENORMAL
Note: The following floating-point exceptions are signalling: IEEE_DENORMAL
Note: The following floating-point exceptions are signalling: IEEE_DENORMAL
Note: The following floating-point exceptions are signalling: IEEE_DENORMAL
Note: The following floating-point exceptions are signalling: IEEE_DENORMAL
Note: The following floating-point exceptions are signalling: IEEE_DENORMAL
Note: The following floating-point exceptions are signalling: IEEE_DENORMAL
Note: The following floating-point exceptions are signalling: IEEE_DENORMAL
Note: The following floating-point exceptions are signalling: IEEE_DENORMAL
Note: The following floating-point exceptions are signalling: IEEE_DENORMAL
Note: The following floating-point exceptions are signalling: IEEE_DENORMAL
Note: The following floating-point exceptions are signalling: IEEE_DENORMAL
Note: The following floating-point exceptions are signalling: IEEE_DENORMAL
Note: The following floating-point exceptions are signalling: IEEE_DENORMAL
Note: The following floating-point exceptions are signalling: IEEE_DENORMAL
Note: The following floating-point exceptions are signalling: IEEE_DENORMAL
Note: The following floating-point exceptions are signalling: IEEE_DENORMAL
Note: The following floating-point exceptions are signalling: IEEE_DENORMAL
Note: The following floating-point exceptions are signalling: IEEE_DENORMAL
Note: The following floating-point exceptions are signalling: IEEE_DENORMAL
Note: The following floating-point exceptions are signalling: IEEE_DENORMAL
Note: The following floating-point exceptions are signalling: IEEE_DENORMAL
Note: The following floating-point exceptions are signalling: IEEE_DENORMAL
Note: The following floating-point exceptions are signalling: IEEE_DENORMAL
Note: The following floating-point exceptions are signalling: IEEE_DENORMAL
Note: The following floating-point exceptions are signalling: IEEE_DENORMAL
Note: The following floating-point exceptions are signalling: IEEE_DENORMAL
Note: The following floating-point exceptions are signalling: IEEE_DENORMAL
Note: The following floating-point exceptions are signalling: IEEE_DENORMAL
Note: The following floating-point exceptions are signalling: IEEE_DENORMAL
Note: The following floating-point exceptions are signalling: IEEE_DENORMAL
Note: The following floating-point exceptions are signalling: IEEE_DENORMAL
Note: The following floating-point exceptions are signalling: IEEE_DENORMAL
Note: The following floating-point exceptions are signalling: IEEE_DENORMAL
Note: The following floating-point exceptions are signalling: IEEE_DENORMAL
Note: The following floating-point exceptions are signalling: IEEE_DENORMAL
Note: The following floating-point exceptions are signalling: IEEE_DENORMAL
Note: The following floating-point exceptions are signalling: IEEE_DENORMAL
Note: The following floating-point exceptions are signalling: IEEE_DENORMAL
Note: The following floating-point exceptions are signalling: IEEE_DENORMAL
Note: The following floating-point exceptions are signalling: IEEE_DENORMAL
Note: The following floating-point exceptions are signalling: IEEE_DENORMAL
Note: The following floating-point exceptions are signalling: IEEE_DENORMAL
Note: The following floating-point exceptions are signalling: IEEE_DENORMAL
Note: The following floating-point exceptions are signalling: IEEE_DENORMAL
Note: The following floating-point exceptions are signalling: IEEE_DENORMAL
Note: The following floating-point exceptions are signalling: IEEE_DENORMAL
Note: The following floating-point exceptions are signalling: IEEE_DENORMAL
Note: The following floating-point exceptions are signalling: IEEE_DENORMAL
Note: The following floating-point exceptions are signalling: IEEE_DENORMAL
Note: The following floating-point exceptions are signalling: IEEE_DENORMAL
Note: The following floating-point exceptions are signalling: IEEE_DENORMAL
Note: The following floating-point exceptions are signalling: IEEE_DENORMAL
Note: The following floating-point exceptions are signalling: IEEE_DENORMAL
Note: The following floating-point exceptions are signalling: IEEE_DENORMAL
Note: The following floating-point exceptions are signalling: IEEE_DENORMAL
Note: The following floating-point exceptions are signalling: IEEE_DENORMAL
Note: The following floating-point exceptions are signalling: IEEE_DENORMAL
Note: The following floating-point exceptions are signalling: IEEE_DENORMAL
Note: The following floating-point exceptions are signalling: IEEE_DENORMAL
Note: The following floating-point exceptions are signalling: IEEE_DENORMAL
Note: The following floating-point exceptions are signalling: IEEE_DENORMAL
Note: The following floating-point exceptions are signalling: IEEE_DENORMAL
Note: The following floating-point exceptions are signalling: IEEE_DENORMAL
Note: The following floating-point exceptions are signalling: IEEE_DENORMAL
Note: The following floating-point exceptions are signalling: IEEE_DENORMAL
Note: The following floating-point exceptions are signalling: IEEE_DENORMAL
Note: The following floating-point exceptions are signalling: IEEE_DENORMAL
Note: The following floating-point exceptions are signalling: IEEE_DENORMAL
Note: The following floating-point exceptions are signalling: IEEE_DENORMAL
Note: The following floating-point exceptions are signalling: IEEE_DENORMAL
Note: The following floating-point exceptions are signalling: IEEE_DENORMAL
Note: The following floating-point exceptions are signalling: IEEE_DENORMAL
Note: The following floating-point exceptions are signalling: IEEE_DENORMAL
Note: The following floating-point exceptions are signalling: IEEE_DENORMAL
Note: The following floating-point exceptions are signalling: IEEE_DENORMAL
Note: The following floating-point exceptions are signalling: IEEE_DENORMAL
Note: The following floating-point exceptions are signalling: IEEE_DENORMAL
Note: The following floating-point exceptions are signalling: IEEE_DENORMAL
Note: The following floating-point exceptions are signalling: IEEE_DENORMAL
Note: The following floating-point exceptions are signalling: IEEE_DENORMAL
Note: The following floating-point exceptions are signalling: IEEE_DENORMAL
Note: The following floating-point exceptions are signalling: IEEE_DENORMAL
Note: The following floating-point exceptions are signalling: IEEE_DENORMAL
Note: The following floating-point exceptions are signalling: IEEE_DENORMAL
Note: The following floating-point exceptions are signalling: IEEE_DENORMAL
Note: The following floating-point exceptions are signalling: IEEE_DENORMAL
Note: The following floating-point exceptions are signalling: IEEE_DENORMAL
Note: The following floating-point exceptions are signalling: IEEE_DENORMAL
Note: The following floating-point exceptions are signalling: IEEE_DENORMAL
Note: The following floating-point exceptions are signalling: IEEE_DENORMAL
Note: The following floating-point exceptions are signalling: IEEE_DENORMAL
Note: The following floating-point exceptions are signalling: IEEE_DENORMAL
Note: The following floating-point exceptions are signalling: IEEE_DENORMAL
Note: The following floating-point exceptions are signalling: IEEE_DENORMAL
Note: The following floating-point exceptions are signalling: IEEE_DENORMAL
Note: The following floating-point exceptions are signalling: IEEE_DENORMAL
Note: The following floating-point exceptions are signalling: IEEE_DENORMAL
Note: The following floating-point exceptions are signalling: IEEE_DENORMAL
Note: The following floating-point exceptions are signalling: IEEE_DENORMAL
Note: The following floating-point exceptions are signalling: IEEE_DENORMAL
Note: The following floating-point exceptions are signalling: IEEE_DENORMAL
Note: The following floating-point exceptions are signalling: IEEE_DENORMAL
Note: The following floating-point exceptions are signalling: IEEE_DENORMAL
Note: The following floating-point exceptions are signalling: IEEE_DENORMAL
Note: The following floating-point exceptions are signalling: IEEE_DENORMAL
Note: The following floating-point exceptions are signalling: IEEE_DENORMAL
Note: The following floating-point exceptions are signalling: IEEE_DENORMAL
Note: The following floating-point exceptions are signalling: IEEE_DENORMAL
Note: The following floating-point exceptions are signalling: IEEE_DENORMAL
Note: The following floating-point exceptions are signalling: IEEE_DENORMAL
Note: The following floating-point exceptions are signalling: IEEE_DENORMAL
Note: The following floating-point exceptions are signalling: IEEE_DENORMAL
Note: The following floating-point exceptions are signalling: IEEE_DENORMAL
Note: The following floating-point exceptions are signalling: IEEE_DENORMAL
Note: The following floating-point exceptions are signalling: IEEE_DENORMAL
Note: The following floating-point exceptions are signalling: IEEE_DENORMAL
Note: The following floating-point exceptions are signalling: IEEE_DENORMAL
Note: The following floating-point exceptions are signalling: IEEE_DENORMAL
Note: The following floating-point exceptions are signalling: IEEE_DENORMAL
Note: The following floating-point exceptions are signalling: IEEE_DENORMAL
Note: The following floating-point exceptions are signalling: IEEE_DENORMAL
Note: The following floating-point exceptions are signalling: IEEE_DENORMAL
Note: The following floating-point exceptions are signalling: IEEE_DENORMAL
Note: The following floating-point exceptions are signalling: IEEE_DENORMAL
Note: The following floating-point exceptions are signalling: IEEE_DENORMAL
Note: The following floating-point exceptions are signalling: IEEE_DENORMAL
Note: The following floating-point exceptions are signalling: IEEE_DENORMAL
Note: The following floating-point exceptions are signalling: IEEE_DENORMAL
Note: The following floating-point exceptions are signalling: IEEE_DENORMAL
Note: The following floating-point exceptions are signalling: IEEE_DENORMAL
Note: The following floating-point exceptions are signalling: IEEE_DENORMAL
Note: The following floating-point exceptions are signalling: IEEE_DENORMAL
Note: The following floating-point exceptions are signalling: IEEE_DENORMAL
Note: The following floating-point exceptions are signalling: IEEE_DENORMAL
Note: The following floating-point exceptions are signalling: IEEE_DENORMAL
Note: The following floating-point exceptions are signalling: IEEE_DENORMAL
Note: The following floating-point exceptions are signalling: IEEE_DENORMAL
Note: The following floating-point exceptions are signalling: IEEE_DENORMAL
Note: The following floating-point exceptions are signalling: IEEE_DENORMAL
Note: The following floating-point exceptions are signalling: IEEE_DENORMAL
Note: The following floating-point exceptions are signalling: IEEE_DENORMAL
Note: The following floating-point exceptions are signalling: IEEE_DENORMAL
Note: The following floating-point exceptions are signalling: IEEE_DENORMAL
Note: The following floating-point exceptions are signalling: IEEE_DENORMAL
Note: The following floating-point exceptions are signalling: IEEE_DENORMAL
Note: The following floating-point exceptions are signalling: IEEE_DENORMAL
Note: The following floating-point exceptions are signalling: IEEE_DENORMAL
Note: The following floating-point exceptions are signalling: IEEE_DENORMAL
Note: The following floating-point exceptions are signalling: IEEE_DENORMAL
Note: The following floating-point exceptions are signalling: IEEE_DENORMAL
Note: The following floating-point exceptions are signalling: IEEE_DENORMAL
Note: The following floating-point exceptions are signalling: IEEE_DENORMAL
Note: The following floating-point exceptions are signalling: IEEE_DENORMAL
Note: The following floating-point exceptions are signalling: IEEE_DENORMAL
Note: The following floating-point exceptions are signalling: IEEE_DENORMAL
Note: The following floating-point exceptions are signalling: IEEE_DENORMAL
Note: The following floating-point exceptions are signalling: IEEE_DENORMAL
Note: The following floating-point exceptions are signalling: IEEE_DENORMAL
Note: The following floating-point exceptions are signalling: IEEE_DENORMAL
Note: The following floating-point exceptions are signalling: IEEE_DENORMAL
Note: The following floating-point exceptions are signalling: IEEE_DENORMAL
Note: The following floating-point exceptions are signalling: IEEE_DENORMAL
Note: The following floating-point exceptions are signalling: IEEE_DENORMAL
Note: The following floating-point exceptions are signalling: IEEE_DENORMAL
Note: The following floating-point exceptions are signalling: IEEE_DENORMAL
Note: The following floating-point exceptions are signalling: IEEE_DENORMAL
Note: The following floating-point exceptions are signalling: IEEE_DENORMAL
Note: The following floating-point exceptions are signalling: IEEE_DENORMAL
Note: The following floating-point exceptions are signalling: IEEE_DENORMAL
Note: The following floating-point exceptions are signalling: IEEE_DENORMAL
Note: The following floating-point exceptions are signalling: IEEE_DENORMAL
Note: The following floating-point exceptions are signalling: IEEE_DENORMAL
Note: The following floating-point exceptions are signalling: IEEE_DENORMAL
Note: The following floating-point exceptions are signalling: IEEE_DENORMAL
Note: The following floating-point exceptions are signalling: IEEE_DENORMAL
Note: The following floating-point exceptions are signalling: IEEE_DENORMAL
Note: The following floating-point exceptions are signalling: IEEE_DENORMAL
Note: The following floating-point exceptions are signalling: IEEE_DENORMAL
Note: The following floating-point exceptions are signalling: IEEE_DENORMAL
Note: The following floating-point exceptions are signalling: IEEE_DENORMAL
Note: The following floating-point exceptions are signalling: IEEE_DENORMAL
Note: The following floating-point exceptions are signalling: IEEE_DENORMAL
Note: The following floating-point exceptions are signalling: IEEE_DENORMAL
Note: The following floating-point exceptions are signalling: IEEE_DENORMAL
Note: The following floating-point exceptions are signalling: IEEE_DENORMAL
Note: The following floating-point exceptions are signalling: IEEE_DENORMAL
Note: The following floating-point exceptions are signalling: IEEE_DENORMAL
Note: The following floating-point exceptions are signalling: IEEE_DENORMAL
Note: The following floating-point exceptions are signalling: IEEE_DENORMAL
Note: The following floating-point exceptions are signalling: IEEE_DENORMAL
Note: The following floating-point exceptions are signalling: IEEE_DENORMAL
Note: The following floating-point exceptions are signalling: IEEE_DENORMAL
Note: The following floating-point exceptions are signalling: IEEE_DENORMAL
Note: The following floating-point exceptions are signalling: IEEE_DENORMAL
