
     Program PWSCF v.7.2 starts on 24May2024 at 22: 3: 3 

     This program is part of the open-source Quantum ESPRESSO suite
     for quantum simulation of materials; please cite
         "P. Giannozzi et al., J. Phys.:Condens. Matter 21 395502 (2009);
         "P. Giannozzi et al., J. Phys.:Condens. Matter 29 465901 (2017);
         "P. Giannozzi et al., J. Chem. Phys. 152 154105 (2020);
          URL http://www.quantum-espresso.org", 
     in publications or presentations arising from this work. More details at
     http://www.quantum-espresso.org/quote

     Parallel version (MPI & OpenMP), running on    6144 processor cores
     Number of MPI processes:              1536
     Threads/MPI process:                     4

     MPI processes distributed on    24 nodes
     483637 MiB available memory on the printing compute node when the environment starts

     Reading input from espresso.pwi
Warning: card &IONS ignored
Warning: card / ignored
Warning: card &CELL ignored
Warning: card / ignored

     Current dimensions of program PWSCF are:
     Max number of different atomic species (ntypx) = 10
     Max number of k-points (npk) =  40000
     Max angular momentum in pseudopotentials (lmaxx) =  4

     Atomic positions and unit cell read from directory:
     ./CNT_PBE.save/
     Atomic positions from file used, from input discarded


     R & G space division:  proc/nbgrp/npool/nimage =    1536
     WARNING: too many processors for an effective parallelization!
     Subspace diagonalization in iterative solution of the eigenvalue problem:
     one sub-group per band group will be used
     custom distributed-memory algorithm (size of sub-group: 39* 39 procs)


     Parallelization info
     --------------------
     sticks:   dense  smooth     PW     G-vecs:    dense   smooth      PW
     Min          28      28      7                 7176     7176     885
     Max          29      29      8                 7217     7217     909
     Sum       43977   43977  11007             11053081 11053081 1381955

     Using Pencil Decomposition



     bravais-lattice index     =            0
     lattice parameter (alat)  =      61.1748  a.u.
     unit-cell volume          =  176044.1909 (a.u.)^3
     number of atoms/cell      =          365
     number of atomic types    =            2
     number of electrons       =      1462.00
     number of Kohn-Sham states=         5000
     kinetic-energy cutoff     =      60.0000  Ry
     charge density cutoff     =     240.0000  Ry
     Exchange-correlation= PBE
                           (   1   4   3   4   0   0   0)

     celldm(1)=  61.174780  celldm(2)=   0.000000  celldm(3)=   0.000000
     celldm(4)=   0.000000  celldm(5)=   0.000000  celldm(6)=   0.000000

     crystal axes: (cart. coord. in units of alat)
               a(1) = (   1.000000   0.000000   0.000000 )  
               a(2) = (   0.000000   0.615409   0.000000 )  
               a(3) = (   0.000000   0.000000   1.249513 )  

     reciprocal axes: (cart. coord. in units 2 pi/alat)
               b(1) = (  1.000000  0.000000  0.000000 )  
               b(2) = (  0.000000  1.624937  0.000000 )  
               b(3) = (  0.000000  0.000000  0.800312 )  


     PseudoPot. # 1 for C  read from file:
     ./C_ONCV_PBE-1.2.upf
     MD5 check sum: 1a5f83a7b1f58d24996abe00ed223ac6
     Pseudo is Norm-conserving, Zval =  4.0
     Generated using ONCVPSP code by D. R. Hamann
     Using radial grid of  602 points,  4 beta functions with: 
                l(1) =   0
                l(2) =   0
                l(3) =   1
                l(4) =   1

     PseudoPot. # 2 for Se read from file:
     ./Se_ONCV_PBE-1.2.upf
     MD5 check sum: e78e48a4f5d8ce1f8dc76ec1271f249c
     Pseudo is Norm-conserving, Zval =  6.0
     Generated using ONCVPSP code by D. R. Hamann
     Using radial grid of  602 points,  6 beta functions with: 
                l(1) =   0
                l(2) =   0
                l(3) =   1
                l(4) =   1
                l(5) =   2
                l(6) =   2

     atomic species   valence    mass     pseudopotential
        C              4.00    12.01100     C ( 1.00)
        Se             6.00    78.96000     Se( 1.00)

     No symmetry found


                                    s                        frac. trans.

      isym =  1     identity                                     

 cryst.   s( 1) = (     1          0          0      )
                  (     0          1          0      )
                  (     0          0          1      )

 cart.    s( 1) = (  1.0000000  0.0000000  0.0000000 )
                  (  0.0000000  1.0000000  0.0000000 )
                  (  0.0000000  0.0000000  1.0000000 )


   Cartesian axes

     site n.     atom                  positions (alat units)
         1           C   tau(   1) = (   0.3709674   0.3312861   0.0030677  )
         2           C   tau(   2) = (   0.3687916   0.3346859   0.0785815  )
         3           C   tau(   3) = (   0.3380511   0.3661709   0.0763205  )
         4           C   tau(   4) = (   0.3204902   0.3762662   0.0373925  )
         5           C   tau(   5) = (   0.2778085   0.3869502   0.0351224  )
         6           C   tau(   6) = (   0.3664736   0.3380178   0.1540889  )
         7           C   tau(   7) = (   0.3346638   0.3684191   0.1518235  )
         8           C   tau(   8) = (   0.3167735   0.3778963   0.1128952  )
         9           C   tau(   9) = (   0.2737464   0.3870941   0.1106151  )
        10           C   tau(  10) = (   0.2535408   0.3857706   0.0716953  )
        11           C   tau(  11) = (   0.2120893   0.3710174   0.0694330  )
        12           C   tau(  12) = (   0.1955852   0.3592753   0.0305108  )
        13           C   tau(  13) = (   0.1680334   0.3249688   0.0282515  )
        14           C   tau(  14) = (   0.3640036   0.3412890   0.2295879  )
        15           C   tau(  15) = (   0.3311740   0.3705826   0.2273190  )
        16           C   tau(  16) = (   0.3129824   0.3794154   0.1883908  )
        17           C   tau(  17) = (   0.2696637   0.3871204   0.1861073  )
        18           C   tau(  18) = (   0.2495270   0.3850840   0.1471845  )
        19           C   tau(  19) = (   0.2086129   0.3689094   0.1449275  )
        20           C   tau(  20) = (   0.1925298   0.3566063   0.1060044  )
        21           C   tau(  21) = (   0.1661789   0.3213721   0.1037407  )
        22           C   tau(  22) = (   0.1589380   0.3024500   0.0648275  )
        23           C   tau(  23) = (   0.1549926   0.2586275   0.0625644  )
        24           C   tau(  24) = (   0.1587592   0.2387095   0.0236496  )
        25           C   tau(  25) = (   0.1783988   0.1993356   0.0213978  )
        26           C   tau(  26) = (   0.3614212   0.3445216   0.3050823  )
        27           C   tau(  27) = (   0.3276129   0.3726919   0.3028167  )
        28           C   tau(  28) = (   0.3091226   0.3808525   0.2638813  )
        29           C   tau(  29) = (   0.2655697   0.3870478   0.2616009  )
        30           C   tau(  30) = (   0.2455204   0.3842918   0.2226731  )
        31           C   tau(  31) = (   0.2051923   0.3667063   0.2204249  )
        32           C   tau(  32) = (   0.1895496   0.3538457   0.1815031  )
        33           C   tau(  33) = (   0.1644317   0.3177209   0.1792376  )
        34           C   tau(  34) = (   0.1578626   0.2985545   0.1403192  )
        35           C   tau(  35) = (   0.1554338   0.2546238   0.1380612  )
        36           C   tau(  36) = (   0.1598936   0.2348474   0.0991439  )
        37           C   tau(  37) = (   0.1808775   0.1961727   0.0968890  )
        38           C   tau(  38) = (   0.1950459   0.1816676   0.0579786  )
        39           C   tau(  39) = (   0.2332014   0.1597544   0.0557112  )
        40           C   tau(  40) = (   0.2528698   0.1548355   0.0167936  )
        41           C   tau(  41) = (   0.2968492   0.1562102   0.0145415  )
        42           C   tau(  42) = (   0.3706924   0.3313775   0.4194920  )
        43           C   tau(  43) = (   0.3587352   0.3476926   0.3805739  )
        44           C   tau(  44) = (   0.3240039   0.3747017   0.3783302  )
        45           C   tau(  45) = (   0.3052348   0.3822225   0.3393778  )
        46           C   tau(  46) = (   0.2614910   0.3868911   0.3371069  )
        47           C   tau(  47) = (   0.2415439   0.3834063   0.2981779  )
        48           C   tau(  48) = (   0.2018572   0.3644093   0.2959334  )
        49           C   tau(  49) = (   0.1866744   0.3509915   0.2570102  )
        50           C   tau(  50) = (   0.1628376   0.3140122   0.2547443  )
        51           C   tau(  51) = (   0.1569212   0.2946309   0.2158224  )
        52           C   tau(  52) = (   0.1560129   0.2506406   0.2135685  )
        53           C   tau(  53) = (   0.1611460   0.2310310   0.1746482  )
        54           C   tau(  54) = (   0.1834534   0.1931049   0.1723850  )
        55           C   tau(  55) = (   0.1981230   0.1790992   0.1334731  )
        56           C   tau(  56) = (   0.2370144   0.1585213   0.1312118  )
        57           C   tau(  57) = (   0.2568474   0.1542805   0.0922973  )
        58           C   tau(  58) = (   0.3007556   0.1571738   0.0900500  )
        59           C   tau(  59) = (   0.3198522   0.1639668   0.0511295  )
        60           C   tau(  60) = (   0.3557115   0.1894656   0.0488582  )
        61           C   tau(  61) = (   0.3684036   0.2052632   0.0099307  )
        62           C   tau(  62) = (   0.3855665   0.2457784   0.0076751  )
        63           C   tau(  63) = (   0.3683361   0.3344310   0.4949707  )
        64           C   tau(  64) = (   0.3559081   0.3505770   0.4560626  )
        65           C   tau(  65) = (   0.3203157   0.3764007   0.4538623  )
        66           C   tau(  66) = (   0.3013282   0.3834380   0.4149142  )
        67           C   tau(  67) = (   0.2574370   0.3866060   0.4126498  )
        68           C   tau(  68) = (   0.2376235   0.3824088   0.3737037  )
        69           C   tau(  69) = (   0.1986505   0.3619971   0.3714518  )
        70           C   tau(  70) = (   0.1839264   0.3480554   0.3325278  )
        71           C   tau(  71) = (   0.1614064   0.3102550   0.3302633  )
        72           C   tau(  72) = (   0.1561455   0.2906809   0.2913407  )
        73           C   tau(  73) = (   0.1567569   0.2466853   0.2890870  )
        74           C   tau(  74) = (   0.1625484   0.2272654   0.2501587  )
        75           C   tau(  75) = (   0.1861377   0.1901280   0.2478842  )
        76           C   tau(  76) = (   0.2012700   0.1766343   0.2089716  )
        77           C   tau(  77) = (   0.2408451   0.1573995   0.2067162  )
        78           C   tau(  78) = (   0.2608236   0.1538607   0.1678026  )
        79           C   tau(  79) = (   0.3046025   0.1582646   0.1655547  )
        80           C   tau(  80) = (   0.3234713   0.1657097   0.1266401  )
        81           C   tau(  81) = (   0.3584362   0.1924243   0.1243758  )
        82           C   tau(  82) = (   0.3705829   0.2086496   0.0854503  )
        83           C   tau(  83) = (   0.3863435   0.2497324   0.0831996  )
        84           C   tau(  84) = (   0.3881661   0.2699141   0.0442687  )
        85           C   tau(  85) = (   0.3800070   0.3131507   0.0419941  )
        86           C   tau(  86) = (   0.3660946   0.3367459   0.5704571  )
        87           C   tau(  87) = (   0.3528034   0.3526340   0.5316271  )
        88           C   tau(  88) = (   0.3165015   0.3774372   0.5294336  )
        89           C   tau(  89) = (   0.2973601   0.3841970   0.4904885  )
        90           C   tau(  90) = (   0.2534147   0.3860293   0.4882136  )
        91           C   tau(  91) = (   0.2337402   0.3812674   0.4492403  )
        92           C   tau(  92) = (   0.1955155   0.3594775   0.4469757  )
        93           C   tau(  93) = (   0.1813192   0.3450075   0.4080527  )
        94           C   tau(  94) = (   0.1601561   0.3064308   0.4057892  )
        95           C   tau(  95) = (   0.1555629   0.2866914   0.3668579  )
        96           C   tau(  96) = (   0.1576665   0.2427481   0.3646010  )
        97           C   tau(  97) = (   0.1640884   0.2235365   0.3256708  )
        98           C   tau(  98) = (   0.1889121   0.1872070   0.3233898  )
        99           C   tau(  99) = (   0.2045030   0.1742541   0.2844740  )
       100           C   tau( 100) = (   0.2446993   0.1563643   0.2822214  )
       101           C   tau( 101) = (   0.2647932   0.1535365   0.2433037  )
       102           C   tau( 102) = (   0.3083929   0.1594545   0.2410530  )
       103           C   tau( 103) = (   0.3270004   0.1675697   0.2021498  )
       104           C   tau( 104) = (   0.3610246   0.1954814   0.1998939  )
       105           C   tau( 105) = (   0.3726241   0.2121153   0.1609708  )
       106           C   tau( 106) = (   0.3869521   0.2537186   0.1587190  )
       107           C   tau( 107) = (   0.3880967   0.2739485   0.1197892  )
       108           C   tau( 108) = (   0.3784479   0.3168789   0.1175086  )
       109           C   tau( 109) = (   0.3636219   0.3398082   0.6463095  )
       110           C   tau( 110) = (   0.3499454   0.3548395   0.6072282  )
       111           C   tau( 111) = (   0.3128670   0.3781781   0.6049560  )
       112           C   tau( 112) = (   0.2933890   0.3844291   0.5660214  )
       113           C   tau( 113) = (   0.2494463   0.3851148   0.5637553  )
       114           C   tau( 114) = (   0.2299099   0.3798624   0.5247983  )
       115           C   tau( 115) = (   0.1924279   0.3568140   0.5225177  )
       116           C   tau( 116) = (   0.1787861   0.3418604   0.4835705  )
       117           C   tau( 117) = (   0.1590029   0.3025743   0.4813082  )
       118           C   tau( 118) = (   0.1551086   0.2826824   0.4423752  )
       119           C   tau( 119) = (   0.1586802   0.2388289   0.4401152  )
       120           C   tau( 120) = (   0.1657620   0.2198462   0.4011911  )
       121           C   tau( 121) = (   0.1917679   0.1843543   0.3989122  )
       122           C   tau( 122) = (   0.2077934   0.1719421   0.3599803  )
       123           C   tau( 123) = (   0.2485641   0.1554172   0.3577287  )
       124           C   tau( 124) = (   0.2687486   0.1532849   0.3188195  )
       125           C   tau( 125) = (   0.3121267   0.1607348   0.3165601  )
       126           C   tau( 126) = (   0.3304391   0.1695307   0.2776573  )
       127           C   tau( 127) = (   0.3634472   0.1986311   0.2754029  )
       128           C   tau( 128) = (   0.3744915   0.2156582   0.2364867  )
       129           C   tau( 129) = (   0.3873672   0.2577383   0.2342297  )
       130           C   tau( 130) = (   0.3878425   0.2779878   0.1953055  )
       131           C   tau( 131) = (   0.3767126   0.3205613   0.1930232  )
       132           C   tau( 132) = (   0.3611377   0.3440826   0.7217329  )
       133           C   tau( 133) = (   0.3468325   0.3579269   0.6827852  )
       134           C   tau( 134) = (   0.3089584   0.3802284   0.6804532  )
       135           C   tau( 135) = (   0.2893909   0.3850656   0.6415441  )
       136           C   tau( 136) = (   0.2454897   0.3842600   0.6392855  )
       137           C   tau( 137) = (   0.2261180   0.3782095   0.6003343  )
       138           C   tau( 138) = (   0.1894794   0.3540081   0.5980555  )
       139           C   tau( 139) = (   0.1763118   0.3386274   0.5590933  )
       140           C   tau( 140) = (   0.1579116   0.2986799   0.5568390  )
       141           C   tau( 141) = (   0.1547330   0.2786642   0.5179073  )
       142           C   tau( 142) = (   0.1597802   0.2349604   0.5156429  )
       143           C   tau( 143) = (   0.1675210   0.2162095   0.4767084  )
       144           C   tau( 144) = (   0.1946983   0.1816205   0.4744354  )
       145           C   tau( 145) = (   0.2111370   0.1697316   0.4355114  )
       146           C   tau( 146) = (   0.2524809   0.1546536   0.4332649  )
       147           C   tau( 147) = (   0.2727167   0.1531929   0.3943550  )
       148           C   tau( 148) = (   0.3157967   0.1621603   0.3920754  )
       149           C   tau( 149) = (   0.3337855   0.1715856   0.3531548  )
       150           C   tau( 150) = (   0.3657098   0.2018755   0.3508833  )
       151           C   tau( 151) = (   0.3761653   0.2192791   0.3119922  )
       152           C   tau( 152) = (   0.3875651   0.2617926   0.3097245  )
       153           C   tau( 153) = (   0.3873790   0.2820362   0.2708040  )
       154           C   tau( 154) = (   0.3748170   0.3242050   0.2685277  )
       155           C   tau( 155) = (   0.3587512   0.3476308   0.7972257  )
       156           C   tau( 156) = (   0.3440455   0.3614933   0.7583138  )
       157           C   tau( 157) = (   0.3052416   0.3821537   0.7560041  )
       158           C   tau( 158) = (   0.2854245   0.3862786   0.7170530  )
       159           C   tau( 159) = (   0.2415176   0.3835840   0.7148125  )
       160           C   tau( 160) = (   0.2224173   0.3767474   0.6759057  )
       161           C   tau( 161) = (   0.1866190   0.3511693   0.6736284  )
       162           C   tau( 162) = (   0.1740131   0.3352792   0.6346946  )
       163           C   tau( 163) = (   0.1570211   0.2947534   0.6324301  )
       164           C   tau( 164) = (   0.1545134   0.2746397   0.5934529  )
       165           C   tau( 165) = (   0.1610308   0.2311810   0.5911773  )
       166           C   tau( 166) = (   0.1693547   0.2126813   0.5522475  )
       167           C   tau( 167) = (   0.1977761   0.1790973   0.5499828  )
       168           C   tau( 168) = (   0.2146083   0.1677712   0.5110737  )
       169           C   tau( 169) = (   0.2565039   0.1543649   0.5088327  )
       170           C   tau( 170) = (   0.2767278   0.1534824   0.4698876  )
       171           C   tau( 171) = (   0.3194153   0.1639860   0.4675718  )
       172           C   tau( 172) = (   0.3370744   0.1738003   0.4286591  )
       173           C   tau( 173) = (   0.3679198   0.2052295   0.4263468  )
       174           C   tau( 174) = (   0.3776706   0.2229983   0.3874469  )
       175           C   tau( 175) = (   0.3875894   0.2658538   0.3851643  )
       176           C   tau( 176) = (   0.3867316   0.2860919   0.3462636  )
       177           C   tau( 177) = (   0.3728009   0.3278303   0.3440118  )
       178           C   tau( 178) = (   0.3561183   0.3505654   0.8727292  )
       179           C   tau( 179) = (   0.3409872   0.3641276   0.8338118  )
       180           C   tau( 180) = (   0.3014283   0.3834023   0.8315448  )
       181           C   tau( 181) = (   0.2814553   0.3869675   0.7926299  )
       182           C   tau( 182) = (   0.2376719   0.3825184   0.7903749  )
       183           C   tau( 183) = (   0.2188160   0.3750423   0.7514507  )
       184           C   tau( 184) = (   0.1839712   0.3481922   0.7491730  )
       185           C   tau( 185) = (   0.1718633   0.3319226   0.7102329  )
       186           C   tau( 186) = (   0.1562342   0.2908002   0.7079750  )
       187           C   tau( 187) = (   0.1544023   0.2706195   0.6690453  )
       188           C   tau( 188) = (   0.1624326   0.2273770   0.6667776  )
       189           C   tau( 189) = (   0.1714272   0.2092339   0.6278183  )
       190           C   tau( 190) = (   0.2010091   0.1767860   0.6255555  )
       191           C   tau( 191) = (   0.2182949   0.1661527   0.5866033  )
       192           C   tau( 192) = (   0.2606476   0.1545765   0.5843379  )
       193           C   tau( 193) = (   0.2808005   0.1544549   0.5454309  )
       194           C   tau( 194) = (   0.3229863   0.1667749   0.5431007  )
       195           C   tau( 195) = (   0.3402564   0.1766763   0.5041522  )
       196           C   tau( 196) = (   0.3702074   0.2088257   0.5017792  )
       197           C   tau( 197) = (   0.3792645   0.2267545   0.4627890  )
       198           C   tau( 198) = (   0.3877122   0.2698719   0.4604948  )
       199           C   tau( 199) = (   0.3860340   0.2901065   0.4216989  )
       200           C   tau( 200) = (   0.3533948   0.3533731   0.9482250  )
       201           C   tau( 201) = (   0.3377911   0.3663965   0.9093255  )
       202           C   tau( 202) = (   0.2975710   0.3842724   0.9070810  )
       203           C   tau( 203) = (   0.2774745   0.3871720   0.8681723  )
       204           C   tau( 204) = (   0.2338929   0.3811873   0.8659067  )
       205           C   tau( 205) = (   0.2153040   0.3731016   0.8269742  )
       206           C   tau( 206) = (   0.1813744   0.3450903   0.8246992  )
       207           C   tau( 207) = (   0.1698473   0.3284353   0.7857667  )
       208           C   tau( 208) = (   0.1556049   0.2868077   0.7835044  )
       209           C   tau( 209) = (   0.1544980   0.2665722   0.7445732  )
       210           C   tau( 210) = (   0.1640341   0.2236337   0.7422994  )
       211           C   tau( 211) = (   0.1735935   0.2057919   0.7033525  )
       212           C   tau( 212) = (   0.2042772   0.1742528   0.7010871  )
       213           C   tau( 213) = (   0.2219275   0.1643648   0.6621326  )
       214           C   tau( 214) = (   0.2646824   0.1542126   0.6598545  )
       215           C   tau( 215) = (   0.2851002   0.1554813   0.6209227  )
       216           C   tau( 216) = (   0.3267704   0.1690005   0.6186618  )
       217           C   tau( 217) = (   0.3437114   0.1802152   0.5795765  )
       218           C   tau( 218) = (   0.3741633   0.2114420   0.5768545  )
       219           C   tau( 219) = (   0.3820194   0.2300914   0.5382424  )
       220           C   tau( 220) = (   0.3889906   0.2739529   0.5359354  )
       221           C   tau( 221) = (   0.3853467   0.2939135   0.4971185  )
       222           C   tau( 222) = (   0.3505543   0.3561169   1.0237305  )
       223           C   tau( 223) = (   0.3344985   0.3685514   0.9848284  )
       224           C   tau( 224) = (   0.2936898   0.3850007   0.9825895  )
       225           C   tau( 225) = (   0.2735053   0.3871958   0.9436787  )
       226           C   tau( 226) = (   0.2301434   0.3797437   0.9414127  )
       227           C   tau( 227) = (   0.2118430   0.3710278   0.9024974  )
       228           C   tau( 228) = (   0.1788525   0.3419138   0.9002260  )
       229           C   tau( 229) = (   0.1678980   0.3248791   0.8612889  )
       230           C   tau( 230) = (   0.1550553   0.2828029   0.8590198  )
       231           C   tau( 231) = (   0.1546599   0.2625430   0.8200885  )
       232           C   tau( 232) = (   0.1657196   0.2199562   0.8178177  )
       233           C   tau( 233) = (   0.1759373   0.2024507   0.7788925  )
       234           C   tau( 234) = (   0.2076408   0.1719408   0.7766371  )
       235           C   tau( 235) = (   0.2255418   0.1624908   0.7376697  )
       236           C   tau( 236) = (   0.2685850   0.1534476   0.7353823  )
       237           C   tau( 237) = (   0.2888035   0.1552999   0.6964403  )
       238           C   tau( 238) = (   0.3300829   0.1704282   0.6942612  )
       239           C   tau( 239) = (   0.3468726   0.1825731   0.6554316  )
       240           C   tau( 240) = (   0.3761252   0.2150155   0.6537131  )
       241           C   tau( 241) = (   0.3899921   0.2312240   0.6140930  )
       242           C   tau( 242) = (   0.3959520   0.2789930   0.6117933  )
       243           C   tau( 243) = (   0.3864841   0.2981121   0.5721705  )
       244           C   tau( 244) = (   0.3476004   0.3587908   1.0992435  )
       245           C   tau( 245) = (   0.3311373   0.3706460   1.0603269  )
       246           C   tau( 246) = (   0.2897822   0.3856714   1.0580861  )
       247           C   tau( 247) = (   0.2695385   0.3871435   1.0191801  )
       248           C   tau( 248) = (   0.2264504   0.3782177   1.0169129  )
       249           C   tau( 249) = (   0.2084510   0.3688613   0.9780045  )
       250           C   tau( 250) = (   0.1764553   0.3386629   0.9757420  )
       251           C   tau( 251) = (   0.1660616   0.3212722   0.9368091  )
       252           C   tau( 252) = (   0.1546477   0.2787794   0.9345379  )
       253           C   tau( 253) = (   0.1549396   0.2585216   0.8956118  )
       254           C   tau( 254) = (   0.1674983   0.2163533   0.8933463  )
       255           C   tau( 255) = (   0.1783507   0.1992288   0.8544171  )
       256           C   tau( 256) = (   0.2111123   0.1698644   0.8521660  )
       257           C   tau( 257) = (   0.2292897   0.1609301   0.8132263  )
       258           C   tau( 258) = (   0.2726085   0.1531909   0.8109542  )
       259           C   tau( 259) = (   0.2927512   0.1553445   0.7720089  )
       260           C   tau( 260) = (   0.3335950   0.1716326   0.7698245  )
       261           C   tau( 261) = (   0.3496112   0.1842433   0.7309203  )
       262           C   tau( 262) = (   0.3760433   0.2193505   0.7287619  )
       263           C   tau( 263) = (   0.3844855   0.2378132   0.6899498  )
       264           C   tau( 264) = (   0.3885073   0.2820462   0.6876531  )
       265           C   tau( 265) = (   0.3854774   0.3020589   0.6490368  )
       266           C   tau( 266) = (   0.3445254   0.3613616   1.1747572  )
       267           C   tau( 267) = (   0.3276780   0.3726454   1.1358344  )
       268           C   tau( 268) = (   0.2858291   0.3862417   1.1335861  )
       269           C   tau( 269) = (   0.2655578   0.3870011   1.0946764  )
       270           C   tau( 270) = (   0.2228078   0.3765944   1.0924091  )
       271           C   tau( 271) = (   0.2051430   0.3666188   1.0534987  )
       272           C   tau( 272) = (   0.1741922   0.3353443   1.0512457  )
       273           C   tau( 273) = (   0.1643775   0.3176043   1.0123282  )
       274           C   tau( 274) = (   0.1544273   0.2747445   1.0100540  )
       275           C   tau( 275) = (   0.1553958   0.2545082   0.9711284  )
       276           C   tau( 276) = (   0.1694188   0.2128063   0.9688688  )
       277           C   tau( 277) = (   0.1808515   0.1960828   0.9299380  )
       278           C   tau( 278) = (   0.2146478   0.1679085   0.9276853  )
       279           C   tau( 279) = (   0.2331365   0.1596327   0.8887614  )
       280           C   tau( 280) = (   0.2766834   0.1533873   0.8864903  )
       281           C   tau( 281) = (   0.2967357   0.1560706   0.8475399  )
       282           C   tau( 282) = (   0.3370349   0.1737249   0.8453090  )
       283           C   tau( 283) = (   0.3526390   0.1866094   0.8063967  )
       284           C   tau( 284) = (   0.3776366   0.2228574   0.8041793  )
       285           C   tau( 285) = (   0.3842289   0.2420718   0.7653873  )
       286           C   tau( 286) = (   0.3866333   0.2859440   0.7631076  )
       287           C   tau( 287) = (   0.3822701   0.3055587   0.7241166  )
       288           C   tau( 288) = (   0.3413408   0.3638195   0.0008083  )
       289           C   tau( 289) = (   0.3241300   0.3745229   1.2113469  )
       290           C   tau( 290) = (   0.2818393   0.3866722   1.2090874  )
       291           C   tau( 291) = (   0.2615647   0.3867382   1.1701721  )
       292           C   tau( 292) = (   0.2191981   0.3748625   1.1679048  )
       293           C   tau( 293) = (   0.2018982   0.3642813   1.1289928  )
       294           C   tau( 294) = (   0.1720476   0.3319536   1.1267431  )
       295           C   tau( 295) = (   0.1628568   0.3138829   1.0878317  )
       296           C   tau( 296) = (   0.1543874   0.2707102   1.0855569  )
       297           C   tau( 297) = (   0.1560339   0.2505148   1.0466369  )
       298           C   tau( 298) = (   0.1714917   0.2093222   1.0443811  )
       299           C   tau( 299) = (   0.1834913   0.1930111   1.0054543  )
       300           C   tau( 300) = (   0.2182657   0.1660559   1.0031926  )
       301           C   tau( 301) = (   0.2370282   0.1584613   0.9642662  )
       302           C   tau( 302) = (   0.2807694   0.1537518   0.9619922  )
       303           C   tau( 303) = (   0.3007087   0.1571199   0.9230559  )
       304           C   tau( 304) = (   0.3403964   0.1761301   0.9207954  )
       305           C   tau( 305) = (   0.3555373   0.1895235   0.8818737  )
       306           C   tau( 306) = (   0.3792971   0.2265627   0.8796131  )
       307           C   tau( 307) = (   0.3851038   0.2459780   0.8407152  )
       308           C   tau( 308) = (   0.3860247   0.2899583   0.8384488  )
       309           C   tau( 309) = (   0.3809296   0.3095873   0.7995518  )
       310           C   tau( 310) = (   0.2575602   0.3863262   1.2456676  )
       311           C   tau( 311) = (   0.2156271   0.3729990   1.2434016  )
       312           C   tau( 312) = (   0.1987151   0.3618316   1.2044849  )
       313           C   tau( 313) = (   0.1699979   0.3284944   1.2022320  )
       314           C   tau( 314) = (   0.1614472   0.3101158   1.1633219  )
       315           C   tau( 315) = (   0.1544756   0.2666742   1.1610496  )
       316           C   tau( 316) = (   0.1568301   0.2465493   1.1221355  )
       317           C   tau( 317) = (   0.1736995   0.2059142   1.1198826  )
       318           C   tau( 318) = (   0.1862586   0.1900312   1.0809583  )
       319           C   tau( 319) = (   0.2219444   0.1642972   1.0786864  )
       320           C   tau( 320) = (   0.2409660   0.1573777   1.0397618  )
       321           C   tau( 321) = (   0.2848490   0.1541924   1.0374899  )
       322           C   tau( 322) = (   0.3046624   0.1582847   0.9985584  )
       323           C   tau( 323) = (   0.3436828   0.1786143   0.9962870  )
       324           C   tau( 324) = (   0.3583681   0.1925253   0.9573533  )
       325           C   tau( 325) = (   0.3809057   0.2303173   0.9550741  )
       326           C   tau( 326) = (   0.3860706   0.2499020   0.9161561  )
       327           C   tau( 327) = (   0.3854830   0.2939151   0.9139016  )
       328           C   tau( 328) = (   0.3796237   0.3133633   0.8750151  )
       329           C   tau( 329) = (   0.1601410   0.3063025   1.2388062  )
       330           C   tau( 330) = (   0.1546760   0.2626432   1.2365376  )
       331           C   tau( 331) = (   0.1577404   0.2426084   1.1976251  )
       332           C   tau( 332) = (   0.1760027   0.2025795   1.1953742  )
       333           C   tau( 333) = (   0.1891111   0.1871348   1.1564549  )
       334           C   tau( 334) = (   0.2256654   0.1626430   1.1541793  )
       335           C   tau( 335) = (   0.2449249   0.1563915   1.1152573  )
       336           C   tau( 336) = (   0.2888928   0.1547280   1.1129916  )
       337           C   tau( 337) = (   0.3085628   0.1595175   1.0740597  )
       338           C   tau( 338) = (   0.3468675   0.1811704   1.0717847  )
       339           C   tau( 339) = (   0.3610899   0.1955802   1.0328544  )
       340           C   tau( 340) = (   0.3823391   0.2341164   1.0305757  )
       341           C   tau( 341) = (   0.3868668   0.2538659   0.9916511  )
       342           C   tau( 342) = (   0.3847536   0.2978223   0.9893997  )
       343           C   tau( 343) = (   0.3782395   0.3170538   0.9504913  )
       344           C   tau( 344) = (   0.1920457   0.1843492   1.2319502  )
       345           C   tau( 345) = (   0.2294215   0.1611293   1.2296771  )
       346           C   tau( 346) = (   0.2488933   0.1555375   1.1907566  )
       347           C   tau( 347) = (   0.2928945   0.1553934   1.1884994  )
       348           C   tau( 348) = (   0.3123954   0.1608655   1.1495697  )
       349           C   tau( 349) = (   0.3499263   0.1838339   1.1472937  )
       350           C   tau( 350) = (   0.3636590   0.1987233   1.1083656  )
       351           C   tau( 351) = (   0.3835640   0.2379650   1.1060948  )
       352           C   tau( 352) = (   0.3874400   0.2578561   1.0671626  )
       353           C   tau( 353) = (   0.3838032   0.3017088   1.0649093  )
       354           C   tau( 354) = (   0.3766629   0.3206908   1.0259915  )
       355           C   tau( 355) = (   0.3161669   0.1623386   1.2250828  )
       356           C   tau( 356) = (   0.3528824   0.1865930   1.2228077  )
       357           C   tau( 357) = (   0.3660944   0.2019517   1.1838793  )
       358           C   tau( 358) = (   0.3846402   0.2418520   1.1816171  )
       359           C   tau( 359) = (   0.3878360   0.2618641   1.1426842  )
       360           C   tau( 360) = (   0.3826926   0.3055662   1.1404243  )
       361           C   tau( 361) = (   0.3749114   0.3242887   1.1015040  )
       362           C   tau( 362) = (   0.3880788   0.2658850   1.2182085  )
       363           C   tau( 363) = (   0.3814238   0.3093806   1.2159411  )
       364           C   tau( 364) = (   0.3730108   0.3278223   1.1770175  )
       365           Se  tau( 365) = (   0.4513413   0.2478162   0.6129330  )

   Crystallographic axes

     site n.     atom                  positions (cryst. coord.)
         1           C   tau(   1) = (  0.3709674  0.5383191  0.0024551  )
         2           C   tau(   2) = (  0.3687916  0.5438434  0.0628897  )
         3           C   tau(   3) = (  0.3380511  0.5950046  0.0610801  )
         4           C   tau(   4) = (  0.3204902  0.6114088  0.0299257  )
         5           C   tau(   5) = (  0.2778085  0.6287696  0.0281089  )
         6           C   tau(   6) = (  0.3664736  0.5492576  0.1233191  )
         7           C   tau(   7) = (  0.3346638  0.5986578  0.1215061  )
         8           C   tau(   8) = (  0.3167735  0.6140576  0.0903513  )
         9           C   tau(   9) = (  0.2737464  0.6290035  0.0885266  )
        10           C   tau(  10) = (  0.2535408  0.6268528  0.0573785  )
        11           C   tau(  11) = (  0.2120893  0.6028798  0.0555680  )
        12           C   tau(  12) = (  0.1955852  0.5837997  0.0244182  )
        13           C   tau(  13) = (  0.1680334  0.5280537  0.0226100  )
        14           C   tau(  14) = (  0.3640036  0.5545731  0.1837419  )
        15           C   tau(  15) = (  0.3311740  0.6021732  0.1819260  )
        16           C   tau(  16) = (  0.3129824  0.6165261  0.1507714  )
        17           C   tau(  17) = (  0.2696637  0.6290461  0.1489438  )
        18           C   tau(  18) = (  0.2495270  0.6257372  0.1177934  )
        19           C   tau(  19) = (  0.2086129  0.5994544  0.1159872  )
        20           C   tau(  20) = (  0.1925298  0.5794627  0.0848365  )
        21           C   tau(  21) = (  0.1661789  0.5222094  0.0830249  )
        22           C   tau(  22) = (  0.1589380  0.4914622  0.0518822  )
        23           C   tau(  23) = (  0.1549926  0.4202533  0.0500710  )
        24           C   tau(  24) = (  0.1587592  0.3878878  0.0189270  )
        25           C   tau(  25) = (  0.1783988  0.3239078  0.0171249  )
        26           C   tau(  26) = (  0.3614212  0.5598258  0.2441609  )
        27           C   tau(  27) = (  0.3276129  0.6056008  0.2423477  )
        28           C   tau(  28) = (  0.3091226  0.6188613  0.2111873  )
        29           C   tau(  29) = (  0.2655697  0.6289282  0.2093622  )
        30           C   tau(  30) = (  0.2455204  0.6244499  0.1782079  )
        31           C   tau(  31) = (  0.2051923  0.5958745  0.1764086  )
        32           C   tau(  32) = (  0.1895496  0.5749769  0.1452590  )
        33           C   tau(  33) = (  0.1644317  0.5162764  0.1434459  )
        34           C   tau(  34) = (  0.1578626  0.4851322  0.1122990  )
        35           C   tau(  35) = (  0.1554338  0.4137475  0.1104920  )
        36           C   tau(  36) = (  0.1598936  0.3816122  0.0793460  )
        37           C   tau(  37) = (  0.1808775  0.3187682  0.0775414  )
        38           C   tau(  38) = (  0.1950459  0.2951984  0.0464009  )
        39           C   tau(  39) = (  0.2332014  0.2595907  0.0445863  )
        40           C   tau(  40) = (  0.2528698  0.2515980  0.0134401  )
        41           C   tau(  41) = (  0.2968492  0.2538316  0.0116377  )
        42           C   tau(  42) = (  0.3706924  0.5384675  0.3357242  )
        43           C   tau(  43) = (  0.3587352  0.5649785  0.3045776  )
        44           C   tau(  44) = (  0.3240039  0.6088666  0.3027820  )
        45           C   tau(  45) = (  0.3052348  0.6210874  0.2716080  )
        46           C   tau(  46) = (  0.2614910  0.6286736  0.2697906  )
        47           C   tau(  47) = (  0.2415439  0.6230110  0.2386352  )
        48           C   tau(  48) = (  0.2018572  0.5921422  0.2368389  )
        49           C   tau(  49) = (  0.1866744  0.5703390  0.2056882  )
        50           C   tau(  50) = (  0.1628376  0.5102501  0.2038748  )
        51           C   tau(  51) = (  0.1569212  0.4787565  0.1727251  )
        52           C   tau(  52) = (  0.1560129  0.4072752  0.1709213  )
        53           C   tau(  53) = (  0.1611460  0.3754107  0.1397729  )
        54           C   tau(  54) = (  0.1834534  0.3137833  0.1379617  )
        55           C   tau(  55) = (  0.1981230  0.2910248  0.1068201  )
        56           C   tau(  56) = (  0.2370144  0.2575872  0.1050103  )
        57           C   tau(  57) = (  0.2568474  0.2506960  0.0738666  )
        58           C   tau(  58) = (  0.3007556  0.2553975  0.0720681  )
        59           C   tau(  59) = (  0.3198522  0.2664357  0.0409195  )
        60           C   tau(  60) = (  0.3557115  0.3078697  0.0391018  )
        61           C   tau(  61) = (  0.3684036  0.3335397  0.0079476  )
        62           C   tau(  62) = (  0.3855665  0.3993744  0.0061425  )
        63           C   tau(  63) = (  0.3683361  0.5434292  0.3961307  )
        64           C   tau(  64) = (  0.3559081  0.5696655  0.3649921  )
        65           C   tau(  65) = (  0.3203157  0.6116273  0.3632312  )
        66           C   tau(  66) = (  0.3013282  0.6230625  0.3320606  )
        67           C   tau(  67) = (  0.2574370  0.6282104  0.3302484  )
        68           C   tau(  68) = (  0.2376235  0.6213902  0.2990794  )
        69           C   tau(  69) = (  0.1986505  0.5882224  0.2972771  )
        70           C   tau(  70) = (  0.1839264  0.5655681  0.2661259  )
        71           C   tau(  71) = (  0.1614064  0.5041448  0.2643135  )
        72           C   tau(  72) = (  0.1561455  0.4723382  0.2331633  )
        73           C   tau(  73) = (  0.1567569  0.4008480  0.2313597  )
        74           C   tau(  74) = (  0.1625484  0.3692920  0.2002049  )
        75           C   tau(  75) = (  0.1861377  0.3089460  0.1983846  )
        76           C   tau(  76) = (  0.2012700  0.2870195  0.1672424  )
        77           C   tau(  77) = (  0.2408451  0.2557642  0.1654374  )
        78           C   tau(  78) = (  0.2608236  0.2500139  0.1342944  )
        79           C   tau(  79) = (  0.3046025  0.2571699  0.1324953  )
        80           C   tau(  80) = (  0.3234713  0.2692679  0.1013516  )
        81           C   tau(  81) = (  0.3584362  0.3126773  0.0995394  )
        82           C   tau(  82) = (  0.3705829  0.3390424  0.0683868  )
        83           C   tau(  83) = (  0.3863435  0.4057994  0.0665856  )
        84           C   tau(  84) = (  0.3881661  0.4385934  0.0354288  )
        85           C   tau(  85) = (  0.3800070  0.5088502  0.0336083  )
        86           C   tau(  86) = (  0.3660946  0.5471909  0.4565434  )
        87           C   tau(  87) = (  0.3528034  0.5730080  0.4254673  )
        88           C   tau(  88) = (  0.3165015  0.6133116  0.4237118  )
        89           C   tau(  89) = (  0.2973601  0.6242958  0.3925436  )
        90           C   tau(  90) = (  0.2534147  0.6272731  0.3907229  )
        91           C   tau(  91) = (  0.2337402  0.6195354  0.3595322  )
        92           C   tau(  92) = (  0.1955155  0.5841282  0.3577198  )
        93           C   tau(  93) = (  0.1813192  0.5606154  0.3265693  )
        94           C   tau(  94) = (  0.1601561  0.4979306  0.3247578  )
        95           C   tau(  95) = (  0.1555629  0.4658555  0.2936006  )
        96           C   tau(  96) = (  0.1576665  0.3944503  0.2917944  )
        97           C   tau(  97) = (  0.1640884  0.3632327  0.2606381  )
        98           C   tau(  98) = (  0.1889121  0.3041995  0.2588126  )
        99           C   tau(  99) = (  0.2045030  0.2831519  0.2276678  )
       100           C   tau( 100) = (  0.2446993  0.2540821  0.2258651  )
       101           C   tau( 101) = (  0.2647932  0.2494871  0.1947187  )
       102           C   tau( 102) = (  0.3083929  0.2591035  0.1929175  )
       103           C   tau( 103) = (  0.3270004  0.2722901  0.1617828  )
       104           C   tau( 104) = (  0.3610246  0.3176449  0.1599774  )
       105           C   tau( 105) = (  0.3726241  0.3446740  0.1288268  )
       106           C   tau( 106) = (  0.3869521  0.4122767  0.1270246  )
       107           C   tau( 107) = (  0.3880967  0.4451490  0.0958686  )
       108           C   tau( 108) = (  0.3784479  0.5149082  0.0940435  )
       109           C   tau( 109) = (  0.3636219  0.5521668  0.5172489  )
       110           C   tau( 110) = (  0.3499454  0.5765918  0.4859717  )
       111           C   tau( 111) = (  0.3128670  0.6145154  0.4841533  )
       112           C   tau( 112) = (  0.2933890  0.6246730  0.4529935  )
       113           C   tau( 113) = (  0.2494463  0.6257871  0.4511799  )
       114           C   tau( 114) = (  0.2299099  0.6172524  0.4200021  )
       115           C   tau( 115) = (  0.1924279  0.5798002  0.4181769  )
       116           C   tau( 116) = (  0.1787861  0.5555016  0.3870070  )
       117           C   tau( 117) = (  0.1590029  0.4916641  0.3851965  )
       118           C   tau( 118) = (  0.1551086  0.4593411  0.3540380  )
       119           C   tau( 119) = (  0.1586802  0.3880818  0.3522292  )
       120           C   tau( 120) = (  0.1657620  0.3572362  0.3210779  )
       121           C   tau( 121) = (  0.1917679  0.2995641  0.3192541  )
       122           C   tau( 122) = (  0.2077934  0.2793950  0.2880964  )
       123           C   tau( 123) = (  0.2485641  0.2525431  0.2862944  )
       124           C   tau( 124) = (  0.2687486  0.2490782  0.2551550  )
       125           C   tau( 125) = (  0.3121267  0.2611838  0.2533467  )
       126           C   tau( 126) = (  0.3304391  0.2754767  0.2222123  )
       127           C   tau( 127) = (  0.3634472  0.3227630  0.2204081  )
       128           C   tau( 128) = (  0.3744915  0.3504309  0.1892630  )
       129           C   tau( 129) = (  0.3873672  0.4188085  0.1874568  )
       130           C   tau( 130) = (  0.3878425  0.4517126  0.1563052  )
       131           C   tau( 131) = (  0.3767126  0.5208919  0.1544787  )
       132           C   tau( 132) = (  0.3611377  0.5591124  0.5776112  )
       133           C   tau( 133) = (  0.3468325  0.5816085  0.5464409  )
       134           C   tau( 134) = (  0.3089584  0.6178471  0.5445746  )
       135           C   tau( 135) = (  0.2893909  0.6257073  0.5134351  )
       136           C   tau( 136) = (  0.2454897  0.6243982  0.5116275  )
       137           C   tau( 137) = (  0.2261180  0.6145665  0.4804544  )
       138           C   tau( 138) = (  0.1894794  0.5752408  0.4786307  )
       139           C   tau( 139) = (  0.1763118  0.5502480  0.4474488  )
       140           C   tau( 140) = (  0.1579116  0.4853359  0.4456447  )
       141           C   tau( 141) = (  0.1547330  0.4528117  0.4144872  )
       142           C   tau( 142) = (  0.1597802  0.3817959  0.4126749  )
       143           C   tau( 143) = (  0.1675210  0.3513268  0.3815152  )
       144           C   tau( 144) = (  0.1946983  0.2951218  0.3796962  )
       145           C   tau( 145) = (  0.2111370  0.2758032  0.3485448  )
       146           C   tau( 146) = (  0.2524809  0.2513023  0.3467469  )
       147           C   tau( 147) = (  0.2727167  0.2489288  0.3156068  )
       148           C   tau( 148) = (  0.3157967  0.2635002  0.3137825  )
       149           C   tau( 149) = (  0.3337855  0.2788157  0.2826339  )
       150           C   tau( 150) = (  0.3657098  0.3280350  0.2808159  )
       151           C   tau( 151) = (  0.3761653  0.3563146  0.2496910  )
       152           C   tau( 152) = (  0.3875651  0.4253964  0.2478761  )
       153           C   tau( 153) = (  0.3873790  0.4582910  0.2167276  )
       154           C   tau( 154) = (  0.3748170  0.5268127  0.2149058  )
       155           C   tau( 155) = (  0.3587512  0.5648781  0.6380289  )
       156           C   tau( 156) = (  0.3440455  0.5874037  0.6068873  )
       157           C   tau( 157) = (  0.3052416  0.6209757  0.6050388  )
       158           C   tau( 158) = (  0.2854245  0.6276783  0.5738658  )
       159           C   tau( 159) = (  0.2415176  0.6232997  0.5720727  )
       160           C   tau( 160) = (  0.2224173  0.6121907  0.5409351  )
       161           C   tau( 161) = (  0.1866190  0.5706279  0.5391125  )
       162           C   tau( 162) = (  0.1740131  0.5448075  0.5079534  )
       163           C   tau( 163) = (  0.1570211  0.4789557  0.5061411  )
       164           C   tau( 164) = (  0.1545134  0.4462722  0.4749472  )
       165           C   tau( 165) = (  0.1610308  0.3756546  0.4731260  )
       166           C   tau( 166) = (  0.1693547  0.3455937  0.4419700  )
       167           C   tau( 167) = (  0.1977761  0.2910218  0.4401576  )
       168           C   tau( 168) = (  0.2146083  0.2726176  0.4090182  )
       169           C   tau( 169) = (  0.2565039  0.2508332  0.4072246  )
       170           C   tau( 170) = (  0.2767278  0.2493992  0.3760564  )
       171           C   tau( 171) = (  0.3194153  0.2664668  0.3742031  )
       172           C   tau( 172) = (  0.3370744  0.2824146  0.3430608  )
       173           C   tau( 173) = (  0.3679198  0.3334849  0.3412102  )
       174           C   tau( 174) = (  0.3776706  0.3623582  0.3100782  )
       175           C   tau( 175) = (  0.3875894  0.4319956  0.3082514  )
       176           C   tau( 176) = (  0.3867316  0.4648813  0.2771187  )
       177           C   tau( 177) = (  0.3728009  0.5327035  0.2753166  )
       178           C   tau( 178) = (  0.3561183  0.5696466  0.6984552  )
       179           C   tau( 179) = (  0.3409872  0.5916844  0.6673092  )
       180           C   tau( 180) = (  0.3014283  0.6230045  0.6654949  )
       181           C   tau( 181) = (  0.2814553  0.6287978  0.6343508  )
       182           C   tau( 182) = (  0.2376719  0.6215682  0.6325462  )
       183           C   tau( 183) = (  0.2188160  0.6094200  0.6013946  )
       184           C   tau( 184) = (  0.1839712  0.5657904  0.5995718  )
       185           C   tau( 185) = (  0.1718633  0.5393532  0.5684076  )
       186           C   tau( 186) = (  0.1562342  0.4725320  0.5666005  )
       187           C   tau( 187) = (  0.1544023  0.4397396  0.5354446  )
       188           C   tau( 188) = (  0.1624326  0.3694733  0.5336298  )
       189           C   tau( 189) = (  0.1714272  0.3399919  0.5024502  )
       190           C   tau( 190) = (  0.2010091  0.2872661  0.5006392  )
       191           C   tau( 191) = (  0.2182949  0.2699876  0.4694654  )
       192           C   tau( 192) = (  0.2606476  0.2511770  0.4676523  )
       193           C   tau( 193) = (  0.2808005  0.2509795  0.4365146  )
       194           C   tau( 194) = (  0.3229863  0.2709987  0.4346498  )
       195           C   tau( 195) = (  0.3402564  0.2870879  0.4034788  )
       196           C   tau( 196) = (  0.3702074  0.3393286  0.4015797  )
       197           C   tau( 197) = (  0.3792645  0.3684617  0.3703754  )
       198           C   tau( 198) = (  0.3877122  0.4385248  0.3685393  )
       199           C   tau( 199) = (  0.3860340  0.4714047  0.3374905  )
       200           C   tau( 200) = (  0.3533948  0.5742089  0.7588754  )
       201           C   tau( 201) = (  0.3377911  0.5953711  0.7277436  )
       202           C   tau( 202) = (  0.2975710  0.6244184  0.7259474  )
       203           C   tau( 203) = (  0.2774745  0.6291301  0.6948083  )
       204           C   tau( 204) = (  0.2338929  0.6194052  0.6929951  )
       205           C   tau( 205) = (  0.2153040  0.6062665  0.6618370  )
       206           C   tau( 206) = (  0.1813744  0.5607499  0.6600163  )
       207           C   tau( 207) = (  0.1698473  0.5336866  0.6288581  )
       208           C   tau( 208) = (  0.1556049  0.4660444  0.6270476  )
       209           C   tau( 209) = (  0.1544980  0.4331630  0.5958905  )
       210           C   tau( 210) = (  0.1640341  0.3633907  0.5940707  )
       211           C   tau( 211) = (  0.1735935  0.3343989  0.5629011  )
       212           C   tau( 212) = (  0.2042772  0.2831498  0.5610881  )
       213           C   tau( 213) = (  0.2219275  0.2670824  0.5299123  )
       214           C   tau( 214) = (  0.2646824  0.2505858  0.5280892  )
       215           C   tau( 215) = (  0.2851002  0.2526472  0.4969316  )
       216           C   tau( 216) = (  0.3267704  0.2746152  0.4951221  )
       217           C   tau( 217) = (  0.3437114  0.2928383  0.4638417  )
       218           C   tau( 218) = (  0.3741633  0.3435799  0.4616633  )
       219           C   tau( 219) = (  0.3820194  0.3738839  0.4307616  )
       220           C   tau( 220) = (  0.3889906  0.4451561  0.4289153  )
       221           C   tau( 221) = (  0.3853467  0.4775908  0.3978497  )
       222           C   tau( 222) = (  0.3505543  0.5786675  0.8193033  )
       223           C   tau( 223) = (  0.3344985  0.5988728  0.7881695  )
       224           C   tau( 224) = (  0.2936898  0.6256018  0.7863777  )
       225           C   tau( 225) = (  0.2735053  0.6291687  0.7552369  )
       226           C   tau( 226) = (  0.2301434  0.6170595  0.7534234  )
       227           C   tau( 227) = (  0.2118430  0.6028967  0.7222791  )
       228           C   tau( 228) = (  0.1788525  0.5555884  0.7204613  )
       229           C   tau( 229) = (  0.1678980  0.5279081  0.6892994  )
       230           C   tau( 230) = (  0.1550553  0.4595369  0.6874835  )
       231           C   tau( 231) = (  0.1546599  0.4266158  0.6563263  )
       232           C   tau( 232) = (  0.1657196  0.3574149  0.6545089  )
       233           C   tau( 233) = (  0.1759373  0.3289697  0.6233566  )
       234           C   tau( 234) = (  0.2076408  0.2793929  0.6215516  )
       235           C   tau( 235) = (  0.2255418  0.2640373  0.5903655  )
       236           C   tau( 236) = (  0.2685850  0.2493427  0.5885349  )
       237           C   tau( 237) = (  0.2888035  0.2523525  0.5573692  )
       238           C   tau( 238) = (  0.3300829  0.2769351  0.5556253  )
       239           C   tau( 239) = (  0.3468726  0.2966698  0.5245494  )
       240           C   tau( 240) = (  0.3761252  0.3493866  0.5231741  )
       241           C   tau( 241) = (  0.3899921  0.3757243  0.4914657  )
       242           C   tau( 242) = (  0.3959520  0.4533460  0.4896252  )
       243           C   tau( 243) = (  0.3864841  0.4844133  0.4579146  )
       244           C   tau( 244) = (  0.3476004  0.5830124  0.8797372  )
       245           C   tau( 245) = (  0.3311373  0.6022763  0.8485918  )
       246           C   tau( 246) = (  0.2897822  0.6266916  0.8467985  )
       247           C   tau( 247) = (  0.2695385  0.6290837  0.8156616  )
       248           C   tau( 248) = (  0.2264504  0.6145799  0.8138471  )
       249           C   tau( 249) = (  0.2084510  0.5993763  0.7827083  )
       250           C   tau( 250) = (  0.1764553  0.5503058  0.7808975  )
       251           C   tau( 251) = (  0.1660616  0.5220471  0.7497391  )
       252           C   tau( 252) = (  0.1546477  0.4529990  0.7479214  )
       253           C   tau( 253) = (  0.1549396  0.4200813  0.7167684  )
       254           C   tau( 254) = (  0.1674983  0.3515604  0.7149553  )
       255           C   tau( 255) = (  0.1783507  0.3237342  0.6837999  )
       256           C   tau( 256) = (  0.2111123  0.2760189  0.6819983  )
       257           C   tau( 257) = (  0.2292897  0.2615012  0.6508344  )
       258           C   tau( 258) = (  0.2726085  0.2489256  0.6490160  )
       259           C   tau( 259) = (  0.2927512  0.2524251  0.6178476  )
       260           C   tau( 260) = (  0.3335950  0.2788922  0.6160994  )
       261           C   tau( 261) = (  0.3496112  0.2993837  0.5849639  )
       262           C   tau( 262) = (  0.3760433  0.3564307  0.5832365  )
       263           C   tau( 263) = (  0.3844855  0.3864314  0.5521748  )
       264           C   tau( 264) = (  0.3885073  0.4583072  0.5503367  )
       265           C   tau( 265) = (  0.3854774  0.4908267  0.5194316  )
       266           C   tau( 266) = (  0.3445254  0.5871898  0.9401717  )
       267           C   tau( 267) = (  0.3276780  0.6055253  0.9090213  )
       268           C   tau( 268) = (  0.2858291  0.6276184  0.9072220  )
       269           C   tau( 269) = (  0.2655578  0.6288523  0.8760821  )
       270           C   tau( 270) = (  0.2228078  0.6119421  0.8742676  )
       271           C   tau( 271) = (  0.2051430  0.5957323  0.8431271  )
       272           C   tau( 272) = (  0.1741922  0.5449133  0.8413240  )
       273           C   tau( 273) = (  0.1643775  0.5160870  0.8101779  )
       274           C   tau( 274) = (  0.1544273  0.4464425  0.8083579  )
       275           C   tau( 275) = (  0.1553958  0.4135597  0.7772052  )
       276           C   tau( 276) = (  0.1694188  0.3457967  0.7753968  )
       277           C   tau( 277) = (  0.1808515  0.3186222  0.7442401  )
       278           C   tau( 278) = (  0.2146478  0.2728408  0.7424372  )
       279           C   tau( 279) = (  0.2331365  0.2593931  0.7112860  )
       280           C   tau( 280) = (  0.2766834  0.2492447  0.7094684  )
       281           C   tau( 281) = (  0.2967357  0.2536048  0.6782959  )
       282           C   tau( 282) = (  0.3370349  0.2822920  0.6765105  )
       283           C   tau( 283) = (  0.3526390  0.3032285  0.6453685  )
       284           C   tau( 284) = (  0.3776366  0.3621292  0.6435939  )
       285           C   tau( 285) = (  0.3842289  0.3933515  0.6125483  )
       286           C   tau( 286) = (  0.3866333  0.4646409  0.6107238  )
       287           C   tau( 287) = (  0.3822701  0.4965135  0.5795189  )
       288           C   tau( 288) = (  0.3413408  0.5911836  0.0006469  )
       289           C   tau( 289) = (  0.3241300  0.6085761  0.9694549  )
       290           C   tau( 290) = (  0.2818393  0.6283179  0.9676466  )
       291           C   tau( 291) = (  0.2615647  0.6284252  0.9365022  )
       292           C   tau( 292) = (  0.2191981  0.6091279  0.9346876  )
       293           C   tau( 293) = (  0.2018982  0.5919341  0.9035459  )
       294           C   tau( 294) = (  0.1720476  0.5394037  0.9017455  )
       295           C   tau( 295) = (  0.1628568  0.5100399  0.8706042  )
       296           C   tau( 296) = (  0.1543874  0.4398870  0.8687837  )
       297           C   tau( 297) = (  0.1560339  0.4070708  0.8376355  )
       298           C   tau( 298) = (  0.1714917  0.3401354  0.8358303  )
       299           C   tau( 299) = (  0.1834913  0.3136309  0.8046767  )
       300           C   tau( 300) = (  0.2182657  0.2698303  0.8028666  )
       301           C   tau( 301) = (  0.2370282  0.2574897  0.7717134  )
       302           C   tau( 302) = (  0.2807694  0.2498369  0.7698934  )
       303           C   tau( 303) = (  0.3007087  0.2553100  0.7387323  )
       304           C   tau( 304) = (  0.3403964  0.2862003  0.7369231  )
       305           C   tau( 305) = (  0.3555373  0.3079637  0.7057737  )
       306           C   tau( 306) = (  0.3792971  0.3681501  0.7039645  )
       307           C   tau( 307) = (  0.3851038  0.3996986  0.6728341  )
       308           C   tau( 308) = (  0.3860247  0.4711639  0.6710202  )
       309           C   tau( 309) = (  0.3809296  0.5030599  0.6398905  )
       310           C   tau( 310) = (  0.2575602  0.6277557  0.9969221  )
       311           C   tau( 311) = (  0.2156271  0.6060998  0.9951086  )
       312           C   tau( 312) = (  0.1987151  0.5879535  0.9639631  )
       313           C   tau( 313) = (  0.1699979  0.5337826  0.9621601  )
       314           C   tau( 314) = (  0.1614472  0.5039185  0.9310199  )
       315           C   tau( 315) = (  0.1544756  0.4333287  0.9292013  )
       316           C   tau( 316) = (  0.1568301  0.4006271  0.8980579  )
       317           C   tau( 317) = (  0.1736995  0.3345976  0.8962549  )
       318           C   tau( 318) = (  0.1862586  0.3087886  0.8651034  )
       319           C   tau( 319) = (  0.2219444  0.2669726  0.8632852  )
       320           C   tau( 320) = (  0.2409660  0.2557288  0.8321333  )
       321           C   tau( 321) = (  0.2848490  0.2505530  0.8303151  )
       322           C   tau( 322) = (  0.3046624  0.2572026  0.7991578  )
       323           C   tau( 323) = (  0.3436828  0.2902370  0.7973400  )
       324           C   tau( 324) = (  0.3583681  0.3128414  0.7661808  )
       325           C   tau( 325) = (  0.3809057  0.3742511  0.7643568  )
       326           C   tau( 326) = (  0.3860706  0.4060749  0.7332103  )
       327           C   tau( 327) = (  0.3854830  0.4775934  0.7314060  )
       328           C   tau( 328) = (  0.3796237  0.5091955  0.7002846  )
       329           C   tau( 329) = (  0.1601410  0.4977222  0.9914309  )
       330           C   tau( 330) = (  0.1546760  0.4267786  0.9896153  )
       331           C   tau( 331) = (  0.1577404  0.3942233  0.9584732  )
       332           C   tau( 332) = (  0.1760027  0.3291789  0.9566717  )
       333           C   tau( 333) = (  0.1891111  0.3040822  0.9255242  )
       334           C   tau( 334) = (  0.2256654  0.2642846  0.9237030  )
       335           C   tau( 335) = (  0.2449249  0.2541263  0.8925532  )
       336           C   tau( 336) = (  0.2888928  0.2514232  0.8907400  )
       337           C   tau( 337) = (  0.3085628  0.2592059  0.8595823  )
       338           C   tau( 338) = (  0.3468675  0.2943905  0.8577616  )
       339           C   tau( 339) = (  0.3610899  0.3178054  0.8266053  )
       340           C   tau( 340) = (  0.3823391  0.3804244  0.8247816  )
       341           C   tau( 341) = (  0.3868668  0.4125161  0.7936298  )
       342           C   tau( 342) = (  0.3847536  0.4839424  0.7918280  )
       343           C   tau( 343) = (  0.3782395  0.5151925  0.7606891  )
       344           C   tau( 344) = (  0.1920457  0.2995558  0.9859439  )
       345           C   tau( 345) = (  0.2294215  0.2618249  0.9841247  )
       346           C   tau( 346) = (  0.2488933  0.2527386  0.9529762  )
       347           C   tau( 347) = (  0.2928945  0.2525045  0.9511697  )
       348           C   tau( 348) = (  0.3123954  0.2613962  0.9200138  )
       349           C   tau( 349) = (  0.3499263  0.2987185  0.9181923  )
       350           C   tau( 350) = (  0.3636590  0.3229127  0.8870378  )
       351           C   tau( 351) = (  0.3835640  0.3866781  0.8852204  )
       352           C   tau( 352) = (  0.3874400  0.4189999  0.8540625  )
       353           C   tau( 353) = (  0.3838032  0.4902578  0.8522592  )
       354           C   tau( 354) = (  0.3766629  0.5211023  0.8211128  )
       355           C   tau( 355) = (  0.3161669  0.2637900  0.9804479  )
       356           C   tau( 356) = (  0.3528824  0.3032019  0.9786270  )
       357           C   tau( 357) = (  0.3660944  0.3281587  0.9474723  )
       358           C   tau( 358) = (  0.3846402  0.3929941  0.9456618  )
       359           C   tau( 359) = (  0.3878360  0.4255127  0.9145033  )
       360           C   tau( 360) = (  0.3826926  0.4965258  0.9126947  )
       361           C   tau( 361) = (  0.3749114  0.5269487  0.8815463  )
       362           C   tau( 362) = (  0.3880788  0.4320463  0.9749462  )
       363           C   tau( 363) = (  0.3814238  0.5027240  0.9731317  )
       364           C   tau( 364) = (  0.3730108  0.5326905  0.9419806  )
       365           Se  tau( 365) = (  0.4513413  0.4026857  0.4905373  )

     number of k points=     1
                       cart. coord. in units 2pi/alat
        k(    1) = (   0.0000000   0.0000000   0.0000000), wk =   2.0000000

                       cryst. coord.
        k(    1) = (   0.0000000   0.0000000   0.0000000), wk =   2.0000000

     Dense  grid: 11053081 G-vectors     FFT dimensions: ( 320, 192, 384)

     Dynamical RAM for                 wfc:      68.59 MB

     Dynamical RAM for     wfc (w. buffer):      68.59 MB

     Dynamical RAM for           str. fact:       0.22 MB

     Dynamical RAM for           local pot:       0.00 MB

     Dynamical RAM for          nlocal pot:      40.19 MB

     Dynamical RAM for                qrad:       2.49 MB

     Dynamical RAM for          rho,v,vnew:       1.74 MB

     Dynamical RAM for           G-vectors:       0.47 MB

     Dynamical RAM for          h,s,v(r/c):      12.00 MB

     Dynamical RAM for          <psi|beta>:     223.54 MB

     Dynamical RAM for                 psi:     274.35 MB

     Dynamical RAM for                hpsi:     274.35 MB

     Dynamical RAM for      wfcinit/wfcrot:     709.42 MB

     Estimated static dynamical RAM per process >     116.36 MB

     Estimated max dynamical RAM per process >     900.61 MB

     Estimated total dynamical RAM >    1350.92 GB

     The potential is recalculated from file :
     ./CNT_PBE.save/charge-density

     Starting wfcs are random

     Band Structure Calculation
     Davidson diagonalization with overlap

     Computing kpt #:     1  of     1
     c_bands:  5 eigenvalues not converged
     total cpu time spent up to now is    19341.6 secs

     ethr =  5.03E-12,  avg # of iterations =120.0

     total cpu time spent up to now is    19341.6 secs

     End of band structure calculation

          k = 0.0000 0.0000 0.0000 (****** PWs)   bands (ev):

   -22.6786 -22.6154 -22.6062 -22.4732 -22.4608 -22.4205 -22.4098 -22.4014
   -22.3953 -22.3940 -22.3933 -22.2112 -22.1978 -22.1978 -22.1969 -22.0856
   -22.0813 -21.8909 -21.8707 -21.8703 -21.8681 -21.8396 -21.8326 -21.7808
   -21.7680 -21.7662 -21.7661 -21.6292 -21.6229 -21.5850 -21.5724 -21.5720
   -21.5707 -21.4252 -21.4136 -21.4133 -21.4108 -21.2628 -21.2487 -21.2473
   -21.2448 -21.0434 -21.0372 -20.8716 -20.8300 -20.8299 -20.8269 -20.8192
   -20.8180 -20.8021 -20.7966 -20.7948 -20.7917 -20.7608 -20.7568 -20.7516
   -20.7514 -20.5768 -20.5630 -20.5617 -20.5595 -20.3381 -20.3271 -20.2699
   -20.2458 -20.2424 -20.2393 -20.2232 -20.2184 -20.2178 -20.2140 -20.1324
   -20.1225 -20.1223 -20.1208 -19.8215 -19.8027 -19.7977 -19.7946 -19.5659
   -19.5206 -19.5200 -19.5169 -19.5042 -19.4992 -19.4652 -19.4631 -19.4135
   -19.4032 -19.3950 -19.3943 -19.3177 -19.2991 -19.2987 -19.2975 -19.2519
   -19.2390 -19.2328 -19.2291 -19.2151 -19.2144 -19.2101 -19.2082 -18.9256
   -18.9058 -18.9041 -18.8993 -18.7381 -18.7121 -18.7113 -18.7081 -18.5998
   -18.5644 -18.5613 -18.5592 -18.5545 -18.5507 -18.4895 -18.4771 -18.4768
   -18.4707 -18.3879 -18.3726 -18.3716 -18.3691 -18.0038 -17.9403 -17.9372
   -17.9311 -17.8891 -17.8750 -17.8518 -17.8271 -17.8246 -17.8217 -17.8153
   -17.8121 -17.8057 -17.8047 -17.7982 -17.7962 -17.7908 -17.7895 -17.6543
   -17.6515 -17.6301 -17.6254 -17.5554 -17.5418 -17.4358 -17.3860 -17.3782
   -17.3693 -17.3635 -17.3626 -17.3426 -17.3312 -17.3218 -17.3159 -17.3122
   -17.3024 -17.2491 -17.2197 -17.2083 -17.0653 -17.0382 -16.9784 -16.9755
   -16.9357 -16.9271 -16.7997 -16.7712 -16.5592 -16.4889 -16.4810 -16.4796
   -16.4699 -16.4543 -16.4325 -16.4227 -16.2484 -16.2130 -16.2111 -16.0619
   -16.0189 -16.0153 -15.9580 -15.8919 -15.7835 -15.7780 -15.6101 -15.6055
   -15.5962 -15.5928 -15.5741 -15.5509 -15.5238 -15.5140 -15.5135 -15.4589
   -15.4555 -15.4506 -15.4198 -15.4182 -15.4150 -15.4096 -15.4032 -15.3989
   -15.3762 -15.3718 -15.3662 -15.3601 -15.3593 -15.3251 -15.3221 -15.2300
   -15.1424 -15.1256 -15.1126 -15.0658 -15.0647 -15.0536 -15.0372 -15.0181
   -14.9876 -14.9116 -14.8729 -14.8566 -14.8438 -14.8361 -14.8027 -14.7227
   -14.6003 -14.5696 -14.5417 -14.5393 -14.5360 -14.5061 -14.4684 -14.4555
   -14.4128 -14.3945 -14.3368 -14.3235 -14.2789 -14.2743 -14.2616 -14.2516
   -14.0032 -13.9964 -13.8672 -13.8553 -13.5596 -13.5196 -13.5134 -13.5000
   -13.4766 -13.4570 -13.4392 -13.4264 -13.4129 -13.4080 -13.4065 -13.4028
   -13.4005 -13.3958 -13.3876 -13.3824 -13.3743 -13.3701 -13.3585 -13.3563
   -13.3462 -13.3384 -13.3348 -13.3321 -13.3293 -13.3033 -13.1414 -13.1278
   -13.0760 -13.0728 -13.0693 -13.0663 -13.0534 -13.0494 -13.0445 -13.0381
   -13.0200 -13.0099 -12.9938 -12.9776 -12.8677 -12.8643 -12.5714 -12.5644
   -12.3812 -12.3805 -12.3665 -12.3570 -12.2520 -12.2486 -12.2451 -12.2423
   -12.1882 -12.1842 -12.1472 -12.1449 -12.1324 -12.1281 -12.0614 -12.0605
   -12.0208 -12.0148 -11.9962 -11.9948 -11.9723 -11.9714 -11.9005 -11.8994
   -11.8813 -11.8762 -11.6938 -11.6919 -11.6467 -11.6453 -11.5858 -11.5793
   -11.5504 -11.5475 -11.5086 -11.4909 -11.4677 -11.4669 -11.4069 -11.3821
   -11.3633 -11.3617 -11.3469 -11.3415 -11.3118 -11.3113 -11.2867 -11.2776
   -11.2139 -11.2134 -11.1934 -11.1833 -11.1219 -11.1168 -11.1043 -11.1021
   -11.0488 -11.0468 -11.0274 -11.0256 -11.0193 -11.0154 -11.0095 -11.0080
   -10.9436 -10.9407 -10.9339 -10.9334 -10.8835 -10.8833 -10.8028 -10.8019
   -10.7972 -10.7327 -10.7298 -10.7265 -10.7189 -10.6347 -10.6329 -10.5652
   -10.5558 -10.5043 -10.5018 -10.4985 -10.4959 -10.4913 -10.4885 -10.4859
   -10.4733 -10.4640 -10.4614 -10.4251 -10.4234 -10.4110 -10.4095 -10.3024
   -10.2982 -10.2946 -10.2942 -10.2775 -10.2691 -10.2641 -10.2555 -10.2490
   -10.2415 -10.1958 -10.1910 -10.1303 -10.1172 -10.0907 -10.0757 -10.0639
   -10.0623 -10.0507 -10.0481 -10.0395 -10.0389 -10.0261 -10.0193 -10.0160
   -10.0098  -9.9865  -9.9813  -9.9745  -9.9706  -9.9683  -9.9666  -9.9655
    -9.9609  -9.9476  -9.9360  -9.9321  -9.9294  -9.9279  -9.9195  -9.9036
    -9.8869  -9.8783  -9.8731  -9.8705  -9.8694  -9.8670  -9.8642  -9.8542
    -9.8534  -9.8238  -9.8216  -9.8117  -9.8038  -9.7872  -9.7868  -9.7769
    -9.7761  -9.6895  -9.6761  -9.6696  -9.6628  -9.6403  -9.6293  -9.5757
    -9.5623  -9.5562  -9.5344  -9.5142  -9.5108  -9.5050  -9.5018  -9.4855
    -9.3996  -9.3939  -9.3806  -9.3776  -9.3709  -9.3510  -9.3478  -9.3431
    -9.3364  -9.3287  -9.3225  -9.3184  -9.2443  -9.2367  -9.2151  -9.2143
    -9.2040  -9.1944  -9.1856  -9.1847  -9.1589  -9.1512  -9.1425  -9.1279
    -9.1105  -9.1058  -9.0870  -9.0851  -9.0362  -9.0331  -9.0200  -9.0149
    -9.0128  -9.0076  -8.9935  -8.9896  -8.9844  -8.9833  -8.9805  -8.9759
    -8.9316  -8.9306  -8.9293  -8.9240  -8.8818  -8.8813  -8.7992  -8.7677
    -8.6978  -8.6586  -8.6207  -8.5895  -8.5891  -8.5790  -8.5738  -8.5629
    -8.5394  -8.5266  -8.5253  -8.5188  -8.5079  -8.5076  -8.4796  -8.4655
    -8.3590  -8.3560  -8.3357  -8.3227  -8.3049  -8.2961  -8.2569  -8.2328
    -8.2093  -8.2067  -8.2048  -8.2040  -8.1757  -8.1663  -8.1609  -8.1512
    -8.1374  -8.1304  -8.0952  -8.0844  -8.0409  -8.0311  -8.0146  -8.0101
    -8.0069  -8.0037  -7.9920  -7.9913  -7.9725  -7.9615  -7.9536  -7.9441
    -7.9339  -7.9219  -7.9081  -7.9044  -7.8567  -7.8338  -7.8261  -7.8190
    -7.7355  -7.7087  -7.6980  -7.6972  -7.6878  -7.6815  -7.6720  -7.6690
    -7.6680  -7.6669  -7.6558  -7.6534  -7.6195  -7.6142  -7.5887  -7.5787
    -7.5186  -7.5134  -7.4282  -7.4218  -7.4024  -7.3800  -7.3431  -7.3239
    -7.2609  -7.2467  -7.2333  -7.2300  -7.2202  -7.2131  -7.1989  -7.1944
    -7.1128  -7.0875  -7.0642  -7.0582  -7.0481  -7.0452  -7.0255  -7.0210
    -7.0107  -7.0089  -6.9768  -6.9723  -6.9536  -6.9371  -6.9199  -6.9168
    -6.9135  -6.9135  -6.8930  -6.8640  -6.8514  -6.8430  -6.8395  -6.8240
    -6.7943  -6.7631  -6.7511  -6.7499  -6.6807  -6.6571  -6.6521  -6.6457
    -6.6309  -6.6291  -6.5855  -6.5608  -6.5529  -6.5440  -6.5414  -6.5408
    -6.5320  -6.5291  -6.3370  -6.3346  -6.3255  -6.3155  -6.2882  -6.2669
    -6.2445  -6.2428  -6.2367  -6.2112  -6.2091  -6.2033  -6.1954  -6.1874
    -6.1731  -6.0783  -6.0678  -6.0444  -6.0344  -6.0008  -5.9895  -5.9361
    -5.9291  -5.9279  -5.9043  -5.8844  -5.8784  -5.7748  -5.7570  -5.7459
    -5.6421  -5.5670  -5.5331  -5.4975  -5.4711  -5.4672  -5.4603  -5.4110
    -5.3921  -5.3137  -5.2958  -5.2951  -5.2758  -5.2681  -5.2379  -5.2328
    -5.2101  -5.2055  -5.2037  -5.1735  -5.1673  -5.1263  -5.0856  -5.0698
    -5.0590  -5.0282  -5.0215  -5.0096  -4.9702  -4.9492  -4.9305  -4.9139
    -4.9081  -4.9029  -4.9009  -4.8341  -4.7496  -4.7124  -4.7092  -4.6490
    -4.5967  -4.5645  -4.5516  -4.4226  -4.2837  -4.2267  -4.1619  -4.0994
    -4.0850  -4.0468  -4.0236  -4.0024  -3.9911  -3.8238  -3.7770  -3.7164
    -3.6029  -3.3633  -3.3147  -2.4604  -2.4031  -2.2227  -2.0195  -1.9735
    -1.9430  -1.8479  -1.8373  -1.8316  -1.7931  -1.7874  -1.6774  -1.6705
    -1.6590  -1.6521  -1.5625  -1.5563  -1.5370  -1.4982  -1.4555  -1.4473
    -1.4440  -1.3552  -1.3507  -1.3277  -1.3224  -1.2996  -1.2967  -1.2822
    -1.2765  -1.2722  -1.2716  -1.2430  -1.2262  -1.1988  -1.1784  -1.1689
    -1.1606  -1.1028  -1.0893  -1.0872  -1.0786  -1.0357  -1.0245  -1.0171
    -1.0149  -1.0058  -0.9989  -0.9903  -0.9736  -0.9639  -0.9155  -0.9076
    -0.6970  -0.6740  -0.6631  -0.6604  -0.5810  -0.5739  -0.5083  -0.4909
    -0.4460  -0.4392  -0.4146  -0.4071  -0.2575  -0.2452  -0.1989  -0.1745
    -0.1545  -0.0523  -0.0089   0.0046   0.0986   0.1051   0.1241   0.1582
     0.2439   0.2470   0.3053   0.3665   0.3804   0.4167   0.4170   0.4503
     0.4911   0.5098   0.5101   0.5159   0.5184   0.5218   0.5277   0.5635
     0.6124   0.6455   0.6521   0.6767   0.7373   0.7779   0.7826   0.8191
     0.8209   0.8215   0.8390   0.8417   0.8623   0.8663   0.8711   0.9082
     0.9162   0.9496   0.9522   0.9543   0.9570   1.0901   1.1142   1.1415
     1.1788   1.1810   1.1838   1.2192   1.2228   1.2238   1.2300   1.2335
     1.2371   1.2569   1.2960   1.3034   1.3130   1.3154   1.3283   1.3396
     1.3434   1.3703   1.3882   1.4043   1.4385   1.5009   1.5022   1.5064
     1.5120   1.5277   1.5597   1.5679   1.5688   1.5726   1.5822   1.5980
     1.6021   1.6028   1.6051   1.6308   1.6310   1.6492   1.6595   1.6686
     1.6688   1.6717   1.6984   1.7201   1.7604   1.7769   1.7876   1.7878
     1.7921   1.7958   1.8769   1.8778   1.8830   1.8834   1.8928   1.9150
     1.9214   1.9308   1.9504   1.9547   1.9976   2.0038   2.0124   2.0216
     2.0302   2.0336   2.0399   2.0440   2.0497   2.0519   2.0542   2.0611
     2.0639   2.0681   2.0710   2.1037   2.1307   2.1378   2.1411   2.1432
     2.1458   2.1495   2.1514   2.1577   2.1591   2.1715   2.1740   2.1819
     2.2444   2.2458   2.2519   2.2571   2.2645   2.2708   2.2819   2.2885
     2.2893   2.2931   2.3120   2.3331   2.3338   2.3567   2.3628   2.3656
     2.3691   2.3701   2.3756   2.3816   2.3907   2.4109   2.4157   2.4171
     2.4206   2.4508   2.4544   2.4772   2.4809   2.4817   2.4864   2.4872
     2.4934   2.5070   2.5145   2.5174   2.5232   2.5278   2.5580   2.5634
     2.5716   2.5723   2.5734   2.5796   2.5810   2.5856   2.5875   2.6012
     2.6109   2.6127   2.6169   2.6264   2.6317   2.6374   2.6450   2.6506
     2.6563   2.6762   2.6794   2.6868   2.6938   2.7046   2.7281   2.7284
     2.7298   2.7358   2.7425   2.7698   2.7744   2.7804   2.7950   2.8007
     2.8183   2.8210   2.8273   2.8402   2.8450   2.8518   2.8539   2.8559
     2.8641   2.8659   2.8670   2.8723   2.8727   2.8742   2.8862   2.8929
     2.9043   2.9060   2.9093   2.9212   2.9294   2.9441   2.9574   2.9677
     2.9723   2.9736   2.9742   2.9772   2.9845   2.9882   2.9976   2.9985
     3.0002   3.0098   3.0153   3.0158   3.0191   3.0246   3.0339   3.0359
     3.0399   3.0433   3.0543   3.0584   3.0702   3.0744   3.0783   3.0934
     3.0958   3.0973   3.0991   3.1045   3.1117   3.1260   3.1298   3.1332
     3.1613   3.1621   3.1663   3.1746   3.1789   3.1856   3.1928   3.2078
     3.2230   3.2317   3.2388   3.2439   3.2507   3.2551   3.2559   3.2561
     3.2583   3.2697   3.2707   3.2756   3.2764   3.2888   3.2911   3.2948
     3.3013   3.3047   3.3067   3.3073   3.3096   3.3102   3.3222   3.3271
     3.3301   3.3408   3.3434   3.3616   3.3647   3.3721   3.3831   3.3834
     3.3888   3.3916   3.4148   3.4184   3.4376   3.4400   3.4440   3.4509
     3.4662   3.4669   3.4726   3.4774   3.4823   3.4831   3.4882   3.4956
     3.4970   3.5017   3.5069   3.5076   3.5111   3.5134   3.5252   3.5309
     3.5453   3.5472   3.5539   3.5589   3.5612   3.5665   3.5679   3.5800
     3.5921   3.5942   3.5981   3.6136   3.6158   3.6162   3.6179   3.6215
     3.6314   3.6394   3.6645   3.6674   3.6759   3.6774   3.6915   3.6961
     3.7006   3.7038   3.7045   3.7076   3.7092   3.7127   3.7193   3.7286
     3.7289   3.7303   3.7328   3.7351   3.7375   3.7402   3.7450   3.7465
     3.7540   3.7587   3.7647   3.7655   3.7664   3.7692   3.7740   3.7856
     3.7885   3.7930   3.7940   3.7959   3.7972   3.8130   3.8146   3.8190
     3.8321   3.8332   3.8343   3.8356   3.8391   3.8412   3.8559   3.8578
     3.8688   3.8749   3.8909   3.8999   3.9122   3.9179   3.9215   3.9282
     3.9309   3.9355   3.9359   3.9425   3.9528   3.9686   3.9726   3.9780
     3.9860   3.9953   3.9987   4.0081   4.0105   4.0196   4.0236   4.0239
     4.0344   4.0540   4.0557   4.0668   4.0679   4.0720   4.0737   4.0765
     4.0792   4.0799   4.0813   4.0835   4.0956   4.0964   4.1056   4.1119
     4.1164   4.1335   4.1383   4.1396   4.1522   4.1544   4.1585   4.1587
     4.1764   4.1804   4.1865   4.1949   4.1972   4.2311   4.2338   4.2415
     4.2630   4.2646   4.2749   4.2797   4.2802   4.2871   4.2872   4.2907
     4.2924   4.2957   4.3000   4.3154   4.3235   4.3270   4.3297   4.3303
     4.3393   4.3471   4.3496   4.3508   4.3526   4.3654   4.3694   4.3772
     4.3835   4.3916   4.4005   4.4053   4.4061   4.4110   4.4140   4.4178
     4.4238   4.4260   4.4281   4.4315   4.4424   4.4476   4.4548   4.4825
     4.4859   4.4895   4.4896   4.4951   4.4963   4.4975   4.5018   4.5031
     4.5090   4.5104   4.5153   4.5176   4.5280   4.5437   4.5445   4.5524
     4.5572   4.5620   4.5750   4.5799   4.5849   4.5932   4.5964   4.6092
     4.6285   4.6310   4.6423   4.6461   4.6488   4.6700   4.6738   4.6794
     4.6828   4.6854   4.6926   4.6969   4.6990   4.7026   4.7062   4.7140
     4.7286   4.7308   4.7329   4.7373   4.7377   4.7489   4.7499   4.7511
     4.7528   4.7545   4.7604   4.7645   4.7702   4.7772   4.7785   4.7803
     4.7898   4.7911   4.7931   4.7957   4.7980   4.8049   4.8064   4.8093
     4.8121   4.8225   4.8292   4.8383   4.8444   4.8487   4.8614   4.8645
     4.8788   4.8814   4.8870   4.8899   4.8972   4.9050   4.9108   4.9128
     4.9169   4.9212   4.9229   4.9276   4.9311   4.9377   4.9409   4.9454
     4.9496   4.9516   4.9565   4.9583   4.9641   4.9658   4.9661   4.9730
     4.9828   4.9906   5.0016   5.0045   5.0093   5.0115   5.0147   5.0191
     5.0200   5.0218   5.0313   5.0510   5.0573   5.0624   5.0645   5.0669
     5.0719   5.0744   5.0755   5.0766   5.0807   5.0814   5.0850   5.0889
     5.0897   5.0912   5.0931   5.0964   5.0988   5.1113   5.1178   5.1211
     5.1255   5.1284   5.1366   5.1522   5.1599   5.1660   5.1751   5.1806
     5.1813   5.1832   5.1845   5.1897   5.1909   5.1939   5.1947   5.1976
     5.2014   5.2036   5.2056   5.2085   5.2114   5.2120   5.2143   5.2206
     5.2253   5.2262   5.2266   5.2351   5.2353   5.2510   5.2533   5.2561
     5.2643   5.2727   5.2764   5.2895   5.2905   5.2931   5.2959   5.2981
     5.3001   5.3029   5.3076   5.3085   5.3162   5.3180   5.3199   5.3206
     5.3278   5.3318   5.3361   5.3370   5.3380   5.3387   5.3404   5.3475
     5.3492   5.3533   5.3603   5.3613   5.3634   5.3646   5.3688   5.3734
     5.3869   5.3938   5.3968   5.4059   5.4163   5.4223   5.4337   5.4364
     5.4385   5.4403   5.4461   5.4482   5.4498   5.4525   5.4529   5.4551
     5.4564   5.4614   5.4640   5.4656   5.4670   5.4697   5.4738   5.4755
     5.4773   5.4833   5.4865   5.4881   5.4911   5.4965   5.4965   5.5011
     5.5032   5.5056   5.5089   5.5096   5.5108   5.5186   5.5221   5.5243
     5.5311   5.5359   5.5475   5.5528   5.5547   5.5569   5.5608   5.5680
     5.5691   5.5721   5.5749   5.5804   5.5845   5.5899   5.5974   5.5994
     5.6045   5.6074   5.6114   5.6194   5.6259   5.6295   5.6353   5.6396
     5.6428   5.6485   5.6517   5.6601   5.6625   5.6648   5.6662   5.6713
     5.6818   5.6848   5.6866   5.6948   5.6973   5.7047   5.7075   5.7097
     5.7105   5.7163   5.7193   5.7238   5.7297   5.7330   5.7342   5.7351
     5.7384   5.7396   5.7405   5.7435   5.7476   5.7482   5.7513   5.7558
     5.7638   5.7685   5.7701   5.7716   5.7768   5.7777   5.7793   5.7870
     5.7904   5.8014   5.8034   5.8181   5.8263   5.8472   5.8483   5.8507
     5.8512   5.8626   5.8636   5.8668   5.8797   5.8851   5.8910   5.8931
     5.9016   5.9039   5.9086   5.9138   5.9196   5.9215   5.9221   5.9313
     5.9358   5.9372   5.9411   5.9457   5.9473   5.9496   5.9524   5.9549
     5.9597   5.9625   5.9677   5.9728   5.9767   5.9794   5.9857   5.9875
     5.9912   5.9932   5.9961   5.9998   6.0086   6.0111   6.0125   6.0169
     6.0181   6.0237   6.0270   6.0313   6.0373   6.0399   6.0428   6.0512
     6.0551   6.0633   6.0789   6.0832   6.0941   6.0965   6.1035   6.1082
     6.1171   6.1256   6.1310   6.1313   6.1369   6.1387   6.1439   6.1521
     6.1538   6.1629   6.1644   6.1721   6.1788   6.1794   6.1825   6.1844
     6.1874   6.1894   6.1919   6.1942   6.2003   6.2062   6.2078   6.2127
     6.2135   6.2180   6.2204   6.2249   6.2319   6.2345   6.2365   6.2419
     6.2463   6.2490   6.2495   6.2533   6.2569   6.2590   6.2655   6.2689
     6.2702   6.2711   6.2785   6.2794   6.2844   6.2848   6.2896   6.2940
     6.2976   6.3033   6.3051   6.3088   6.3112   6.3137   6.3147   6.3202
     6.3215   6.3248   6.3266   6.3318   6.3326   6.3355   6.3419   6.3472
     6.3513   6.3581   6.3611   6.3626   6.3656   6.3681   6.3730   6.3744
     6.3778   6.3826   6.3834   6.3909   6.3917   6.3978   6.4004   6.4051
     6.4062   6.4072   6.4143   6.4155   6.4190   6.4199   6.4212   6.4246
     6.4277   6.4298   6.4390   6.4545   6.4601   6.4690   6.4732   6.4737
     6.4759   6.4785   6.4872   6.4937   6.4992   6.5023   6.5033   6.5053
     6.5078   6.5106   6.5115   6.5177   6.5217   6.5223   6.5289   6.5300
     6.5327   6.5377   6.5422   6.5524   6.5536   6.5566   6.5588   6.5606
     6.5624   6.5670   6.5711   6.5768   6.5855   6.5861   6.5921   6.5963
     6.6071   6.6092   6.6099   6.6162   6.6208   6.6217   6.6257   6.6275
     6.6324   6.6337   6.6350   6.6371   6.6392   6.6417   6.6426   6.6461
     6.6538   6.6570   6.6589   6.6636   6.6653   6.6697   6.6724   6.6774
     6.6808   6.6812   6.6853   6.6913   6.6935   6.6959   6.7004   6.7048
     6.7082   6.7087   6.7110   6.7153   6.7177   6.7227   6.7266   6.7302
     6.7329   6.7337   6.7432   6.7478   6.7501   6.7523   6.7564   6.7571
     6.7598   6.7637   6.7669   6.7759   6.7877   6.7920   6.7932   6.7996
     6.8025   6.8051   6.8139   6.8160   6.8215   6.8266   6.8332   6.8343
     6.8395   6.8442   6.8460   6.8494   6.8552   6.8584   6.8598   6.8682
     6.8729   6.8810   6.8863   6.8880   6.8922   6.8949   6.8960   6.8972
     6.9022   6.9039   6.9099   6.9146   6.9172   6.9197   6.9201   6.9229
     6.9249   6.9292   6.9542   6.9549   6.9667   6.9683   6.9708   6.9761
     6.9775   6.9799   6.9845   6.9895   6.9907   6.9925   6.9943   7.0020
     7.0035   7.0071   7.0086   7.0170   7.0216   7.0232   7.0270   7.0299
     7.0309   7.0369   7.0375   7.0426   7.0458   7.0477   7.0512   7.0590
     7.0707   7.0766   7.0950   7.1108   7.1149   7.1195   7.1235   7.1284
     7.1288   7.1345   7.1367   7.1419   7.1456   7.1465   7.1533   7.1578
     7.1623   7.1653   7.1691   7.1721   7.1737   7.1765   7.1792   7.1812
     7.1866   7.1890   7.1953   7.1986   7.1995   7.2026   7.2048   7.2106
     7.2156   7.2157   7.2199   7.2237   7.2252   7.2289   7.2333   7.2366
     7.2397   7.2413   7.2449   7.2478   7.2485   7.2515   7.2557   7.2581
     7.2640   7.2716   7.2744   7.2786   7.2874   7.2876   7.2908   7.2919
     7.2943   7.2971   7.3048   7.3067   7.3087   7.3119   7.3136   7.3174
     7.3226   7.3281   7.3310   7.3354   7.3391   7.3410   7.3416   7.3456
     7.3495   7.3536   7.3555   7.3659   7.3700   7.3720   7.3779   7.3816
     7.3835   7.3857   7.3870   7.3936   7.3950   7.3960   7.4032   7.4050
     7.4062   7.4118   7.4126   7.4191   7.4234   7.4267   7.4302   7.4337
     7.4369   7.4385   7.4389   7.4420   7.4489   7.4503   7.4515   7.4529
     7.4579   7.4642   7.4653   7.4675   7.4736   7.4768   7.4779   7.4781
     7.4831   7.4846   7.4855   7.4922   7.4999   7.5093   7.5145   7.5205
     7.5206   7.5249   7.5299   7.5346   7.5355   7.5371   7.5409   7.5424
     7.5428   7.5476   7.5509   7.5545   7.5558   7.5586   7.5729   7.5772
     7.5785   7.5888   7.5903   7.5928   7.5960   7.6023   7.6131   7.6182
     7.6202   7.6281   7.6415   7.6446   7.6458   7.6488   7.6520   7.6542
     7.6572   7.6602   7.6622   7.6644   7.6680   7.6707   7.6756   7.6789
     7.6840   7.6910   7.6934   7.6980   7.6990   7.7026   7.7073   7.7114
     7.7126   7.7160   7.7264   7.7286   7.7344   7.7379   7.7385   7.7451
     7.7471   7.7531   7.7560   7.7595   7.7679   7.7687   7.7700   7.7732
     7.7763   7.7783   7.7820   7.7838   7.7862   7.7944   7.8091   7.8137
     7.8193   7.8241   7.8310   7.8326   7.8456   7.8493   7.8550   7.8601
     7.8625   7.8670   7.8734   7.8809   7.8841   7.8865   7.8924   7.8976
     7.8990   7.8999   7.9021   7.9084   7.9105   7.9152   7.9219   7.9243
     7.9276   7.9312   7.9348   7.9370   7.9434   7.9465   7.9491   7.9505
     7.9515   7.9541   7.9589   7.9608   7.9615   7.9643   7.9677   7.9695
     7.9708   7.9740   7.9753   7.9780   7.9797   7.9832   7.9885   7.9913
     7.9920   7.9952   7.9982   8.0033   8.0055   8.0095   8.0133   8.0162
     8.0186   8.0230   8.0316   8.0352   8.0431   8.0459   8.0493   8.0522
     8.0576   8.0605   8.0653   8.0718   8.0860   8.0894   8.0979   8.1073
     8.1097   8.1119   8.1129   8.1139   8.1157   8.1206   8.1233   8.1251
     8.1293   8.1321   8.1382   8.1398   8.1433   8.1455   8.1499   8.1532
     8.1574   8.1625   8.1655   8.1680   8.1730   8.1736   8.1768   8.1795
     8.1799   8.1876   8.1893   8.1915   8.1921   8.1955   8.1977   8.1987
     8.2020   8.2067   8.2091   8.2141   8.2179   8.2191   8.2204   8.2270
     8.2275   8.2355   8.2387   8.2398   8.2480   8.2516   8.2522   8.2542
     8.2599   8.2604   8.2668   8.2671   8.2705   8.2724   8.2783   8.2831
     8.2864   8.2881   8.2905   8.2935   8.2958   8.3032   8.3069   8.3122
     8.3192   8.3239   8.3282   8.3313   8.3373   8.3400   8.3446   8.3483
     8.3509   8.3532   8.3599   8.3607   8.3653   8.3676   8.3688   8.3720
     8.3752   8.3788   8.3808   8.3839   8.3868   8.3911   8.3937   8.3956
     8.3975   8.3994   8.4024   8.4039   8.4063   8.4088   8.4129   8.4138
     8.4166   8.4184   8.4223   8.4249   8.4318   8.4335   8.4372   8.4403
     8.4486   8.4500   8.4515   8.4575   8.4613   8.4639   8.4705   8.4730
     8.4775   8.4822   8.4844   8.4909   8.4925   8.4933   8.4945   8.4961
     8.4972   8.4989   8.5003   8.5033   8.5070   8.5112   8.5139   8.5170
     8.5210   8.5257   8.5269   8.5291   8.5326   8.5354   8.5388   8.5411
     8.5457   8.5506   8.5524   8.5552   8.5575   8.5656   8.5690   8.5706
     8.5750   8.5774   8.5839   8.5854   8.5894   8.5920   8.5942   8.5955
     8.5970   8.6030   8.6079   8.6086   8.6116   8.6161   8.6176   8.6186
     8.6253   8.6293   8.6342   8.6344   8.6386   8.6429   8.6469   8.6539
     8.6601   8.6623   8.6660   8.6704   8.6736   8.6768   8.6800   8.6847
     8.6852   8.6915   8.6986   8.7020   8.7078   8.7086   8.7111   8.7148
     8.7164   8.7171   8.7215   8.7321   8.7351   8.7411   8.7413   8.7509
     8.7579   8.7595   8.7621   8.7684   8.7710   8.7740   8.7753   8.7812
     8.7843   8.7852   8.7934   8.7966   8.7990   8.8034   8.8060   8.8079
     8.8089   8.8115   8.8132   8.8152   8.8183   8.8191   8.8225   8.8243
     8.8269   8.8284   8.8290   8.8301   8.8342   8.8359   8.8369   8.8473
     8.8495   8.8513   8.8544   8.8642   8.8672   8.8719   8.8744   8.8806
     8.8864   8.8926   8.8961   8.9070   8.9102   8.9157   8.9174   8.9234
     8.9248   8.9257   8.9295   8.9336   8.9358   8.9378   8.9399   8.9439
     8.9463   8.9481   8.9512   8.9556   8.9611   8.9732   8.9781   8.9815
     8.9844   8.9898   8.9933   8.9977   9.0006   9.0022   9.0086   9.0135
     9.0175   9.0188   9.0250   9.0329   9.0371   9.0407   9.0428   9.0455
     9.0501   9.0524   9.0599   9.0611   9.0635   9.0718   9.0770   9.0773
     9.0842   9.0861   9.0916   9.0928   9.0946   9.0983   9.1035   9.1056
     9.1065   9.1109   9.1133   9.1159   9.1224   9.1291   9.1322   9.1395
     9.1402   9.1423   9.1431   9.1451   9.1474   9.1511   9.1534   9.1555
     9.1623   9.1658   9.1725   9.1742   9.1795   9.1811   9.1844   9.1870
     9.1907   9.1919   9.1950   9.1971   9.2016   9.2069   9.2097   9.2131
     9.2169   9.2180   9.2193   9.2202   9.2229   9.2290   9.2300   9.2310
     9.2342   9.2364   9.2430   9.2474   9.2518   9.2591   9.2602   9.2621
     9.2634   9.2678   9.2747   9.2761   9.2823   9.2875   9.2925   9.3018
     9.3052   9.3063   9.3085   9.3126   9.3139   9.3159   9.3237   9.3287
     9.3381   9.3442   9.3496   9.3521   9.3555   9.3584   9.3608   9.3634
     9.3674   9.3681   9.3736   9.3778   9.3799   9.3870   9.3940   9.3964
     9.3990   9.4007   9.4040   9.4060   9.4083   9.4087   9.4125   9.4148
     9.4206   9.4234   9.4250   9.4285   9.4296   9.4312   9.4320   9.4329
     9.4388   9.4429   9.4437   9.4535   9.4613   9.4630   9.4657   9.4685
     9.4735   9.4774   9.4799   9.4832   9.4860   9.4925   9.5000   9.5012
     9.5069   9.5092   9.5133   9.5168   9.5193   9.5203   9.5264   9.5280
     9.5287   9.5315   9.5364   9.5386   9.5397   9.5410   9.5445   9.5487
     9.5516   9.5530   9.5539   9.5552   9.5592   9.5604   9.5665   9.5677
     9.5717   9.5724   9.5747   9.5806   9.5828   9.5871   9.5908   9.5920
     9.5972   9.6020   9.6041   9.6052   9.6070   9.6114   9.6187   9.6202
     9.6246   9.6273   9.6307   9.6347   9.6355   9.6386   9.6417   9.6431
     9.6475   9.6504   9.6516   9.6553   9.6560   9.6624   9.6686   9.6701
     9.6709   9.6755   9.6797   9.6851   9.6874   9.6891   9.6920   9.6987
     9.7031   9.7085   9.7124   9.7140   9.7171   9.7236   9.7278   9.7288
     9.7386   9.7410   9.7473   9.7491   9.7501   9.7571   9.7589   9.7627
     9.7668   9.7731   9.7810   9.7879   9.7883   9.7918   9.7944   9.7967
     9.8033   9.8071   9.8094   9.8108   9.8169   9.8176   9.8201   9.8223
     9.8225   9.8262   9.8266   9.8292   9.8345   9.8363   9.8434   9.8477
     9.8490   9.8510   9.8538   9.8556   9.8579   9.8624   9.8640   9.8655
     9.8695   9.8711   9.8735   9.8758   9.8789   9.8804   9.8823   9.8856
     9.8939   9.8983   9.9035   9.9069   9.9088   9.9120   9.9143   9.9201
     9.9240   9.9264   9.9282   9.9301   9.9347   9.9386   9.9409   9.9435
     9.9447   9.9469   9.9513   9.9527   9.9551   9.9559   9.9588   9.9631
     9.9680   9.9687   9.9725   9.9747   9.9794   9.9817   9.9834   9.9856
     9.9896   9.9899   9.9948   9.9988  10.0027  10.0054  10.0116  10.0155
    10.0238  10.0267  10.0388  10.0389  10.0408  10.0473  10.0482  10.0512
    10.0553  10.0587  10.0629  10.0645  10.0721  10.0773  10.0818  10.0895
    10.0910  10.0950  10.0998  10.1028  10.1045  10.1096  10.1143  10.1205
    10.1226  10.1262  10.1321  10.1414  10.1434  10.1473  10.1524  10.1537
    10.1594  10.1653  10.1716  10.1756  10.1790  10.1860  10.1887  10.1937
    10.1993  10.2044  10.2072  10.2088  10.2110  10.2166  10.2178  10.2198
    10.2220  10.2249  10.2278  10.2284  10.2344  10.2382  10.2434  10.2465
    10.2483  10.2516  10.2540  10.2566  10.2591  10.2627  10.2656  10.2663
    10.2672  10.2748  10.2759  10.2848  10.2875  10.2915  10.2941  10.3017
    10.3022  10.3053  10.3080  10.3099  10.3183  10.3207  10.3279  10.3285
    10.3343  10.3354  10.3372  10.3393  10.3448  10.3480  10.3492  10.3509
    10.3559  10.3614  10.3631  10.3663  10.3674  10.3710  10.3788  10.3842
    10.3873  10.3899  10.3927  10.3966  10.3990  10.4006  10.4031  10.4085
    10.4095  10.4128  10.4205  10.4232  10.4256  10.4302  10.4359  10.4413
    10.4423  10.4444  10.4527  10.4551  10.4593  10.4614  10.4637  10.4666
    10.4748  10.4825  10.4837  10.4902  10.4939  10.4995  10.5052  10.5112
    10.5120  10.5172  10.5242  10.5268  10.5299  10.5340  10.5374  10.5449
    10.5465  10.5483  10.5514  10.5522  10.5549  10.5556  10.5573  10.5603
    10.5646  10.5668  10.5684  10.5690  10.5710  10.5795  10.5829  10.5864
    10.5891  10.5904  10.5952  10.5980  10.6016  10.6041  10.6047  10.6087
    10.6145  10.6151  10.6177  10.6203  10.6222  10.6248  10.6266  10.6305
    10.6335  10.6370  10.6385  10.6414  10.6451  10.6458  10.6479  10.6519
    10.6542  10.6578  10.6596  10.6619  10.6683  10.6707  10.6761  10.6776
    10.6835  10.6849  10.6853  10.6894  10.6931  10.6953  10.6973  10.7002
    10.7007  10.7028  10.7080  10.7107  10.7126  10.7197  10.7252  10.7253
    10.7270  10.7299  10.7305  10.7331  10.7376  10.7396  10.7403  10.7430
    10.7450  10.7460  10.7468  10.7489  10.7547  10.7569  10.7597  10.7636
    10.7643  10.7668  10.7710  10.7726  10.7764  10.7782  10.7795  10.7803
    10.7833  10.7880  10.7910  10.7920  10.7933  10.7980  10.8018  10.8027
    10.8038  10.8047  10.8082  10.8142  10.8166  10.8202  10.8227  10.8229
    10.8264  10.8293  10.8347  10.8397  10.8409  10.8434  10.8476  10.8512
    10.8535  10.8623  10.8625  10.8633  10.8665  10.8684  10.8737  10.8745
    10.8768  10.8825  10.8844  10.8892  10.8940  10.8970  10.8989  10.9008
    10.9024  10.9088  10.9096  10.9140  10.9151  10.9155  10.9236  10.9285
    10.9314  10.9342  10.9360  10.9374  10.9398  10.9432  10.9476  10.9488
    10.9519  10.9547  10.9597  10.9614  10.9667  10.9698  10.9734  10.9745
    10.9772  10.9823  10.9848  10.9870  10.9885  10.9892  10.9920  10.9952
    10.9999  11.0007  11.0020  11.0055  11.0076  11.0101  11.0153  11.0211
    11.0230  11.0236  11.0259  11.0280  11.0297  11.0339  11.0361  11.0378
    11.0387  11.0460  11.0471  11.0525  11.0551  11.0574  11.0601  11.0633
    11.0675  11.0696  11.0736  11.0770  11.0796  11.0808  11.0843  11.0870
    11.0911  11.0928  11.0955  11.0967  11.0987  11.1010  11.1052  11.1074
    11.1107  11.1122  11.1142  11.1168  11.1175  11.1202  11.1232  11.1250
    11.1264  11.1286  11.1335  11.1367  11.1388  11.1439  11.1474  11.1528
    11.1534  11.1574  11.1607  11.1659  11.1679  11.1707  11.1726  11.1757
    11.1779  11.1829  11.1875  11.1933  11.1946  11.2024  11.2033  11.2069
    11.2142  11.2154  11.2198  11.2224  11.2231  11.2295  11.2314  11.2332
    11.2336  11.2415  11.2463  11.2503  11.2531  11.2567  11.2585  11.2594
    11.2625  11.2679  11.2689  11.2705  11.2749  11.2755  11.2774  11.2799
    11.2820  11.2845  11.2861  11.2904  11.2930  11.2977  11.2987  11.3012
    11.3032  11.3098  11.3112  11.3156  11.3184  11.3193  11.3276  11.3289
    11.3353  11.3403  11.3425  11.3462  11.3483  11.3520  11.3550  11.3561
    11.3602  11.3615  11.3633  11.3649  11.3691  11.3730  11.3750  11.3774
    11.3800  11.3831  11.3843  11.3875  11.3922  11.3938  11.3954  11.4001
    11.4031  11.4061  11.4078  11.4091  11.4142  11.4205  11.4223  11.4261
    11.4326  11.4353  11.4371  11.4415  11.4439  11.4469  11.4479  11.4501
    11.4540  11.4580  11.4602  11.4648  11.4665  11.4691  11.4778  11.4793
    11.4820  11.4849  11.4913  11.4956  11.4976  11.5003  11.5072  11.5110
    11.5154  11.5189  11.5202  11.5264  11.5279  11.5322  11.5350  11.5416
    11.5424  11.5493  11.5504  11.5554  11.5576  11.5609  11.5625  11.5638
    11.5682  11.5700  11.5759  11.5797  11.5806  11.5819  11.5834  11.5879
    11.5903  11.5915  11.5934  11.5951  11.5991  11.6026  11.6035  11.6045
    11.6103  11.6159  11.6182  11.6190  11.6210  11.6252  11.6275  11.6281
    11.6330  11.6355  11.6380  11.6405  11.6437  11.6443  11.6483  11.6496
    11.6511  11.6562  11.6602  11.6622  11.6677  11.6700  11.6739  11.6790
    11.6804  11.6836  11.6890  11.6894  11.6954  11.6986  11.7018  11.7028
    11.7051  11.7077  11.7081  11.7121  11.7123  11.7135  11.7173  11.7215
    11.7244  11.7247  11.7286  11.7308  11.7354  11.7386  11.7398  11.7412
    11.7430  11.7440  11.7469  11.7487  11.7496  11.7544  11.7549  11.7583
    11.7609  11.7616  11.7634  11.7648  11.7733  11.7755  11.7777  11.7791
    11.7838  11.7849  11.7923  11.7955  11.7966  11.8002  11.8027  11.8034
    11.8084  11.8113  11.8140  11.8170  11.8200  11.8219  11.8238  11.8271
    11.8293  11.8337  11.8370  11.8416  11.8470  11.8506  11.8532  11.8584
    11.8606  11.8618  11.8642  11.8678  11.8701  11.8748  11.8765  11.8808
    11.8855  11.8904  11.8928  11.8977  11.8989  11.9012  11.9077  11.9093
    11.9111  11.9166  11.9186  11.9208  11.9226  11.9274  11.9293  11.9309
    11.9390  11.9410  11.9450  11.9480  11.9526  11.9540  11.9592  11.9599
    11.9616  11.9646  11.9701  11.9735  11.9749  11.9822  11.9845  11.9883
    11.9912  11.9919  11.9924  11.9979  11.9990  12.0007  12.0018  12.0039
    12.0052  12.0069  12.0095  12.0115  12.0131  12.0155  12.0168  12.0190
    12.0210  12.0223  12.0282  12.0296  12.0320  12.0360  12.0373  12.0433
    12.0444  12.0515  12.0519  12.0561  12.0587  12.0609  12.0621  12.0631
    12.0674  12.0686  12.0708  12.0734  12.0756  12.0766  12.0840  12.0866
    12.0870  12.0903  12.0919  12.0941  12.0995  12.1014  12.1035  12.1082
    12.1095  12.1100  12.1156  12.1168  12.1216  12.1231  12.1249  12.1263
    12.1294  12.1342  12.1363  12.1411  12.1432  12.1460  12.1526  12.1553
    12.1596  12.1637  12.1664  12.1695  12.1728  12.1738  12.1772  12.1800
    12.1815  12.1853  12.1913  12.1939  12.1946  12.1980  12.2048  12.2068
    12.2137  12.2149  12.2198  12.2233  12.2263  12.2269  12.2310  12.2338
    12.2385  12.2393  12.2406  12.2427  12.2471  12.2486  12.2504  12.2548
    12.2560  12.2580  12.2616  12.2668  12.2690  12.2700  12.2723  12.2742
    12.2795  12.2800  12.2835  12.2845  12.2860  12.2890  12.2906  12.2918
    12.2957  12.2981  12.2992  12.3014  12.3039  12.3080  12.3111  12.3154
    12.3170  12.3207  12.3238  12.3244  12.3282  12.3307  12.3319  12.3367
    12.3373  12.3387  12.3414  12.3431  12.3444  12.3466  12.3513  12.3536
    12.3538  12.3564  12.3581  12.3593  12.3640  12.3666  12.3682  12.3730
    12.3751  12.3762  12.3798  12.3822  12.3833  12.3889  12.3900  12.3925
    12.3953  12.3961  12.3983  12.3997  12.4026  12.4053  12.4093  12.4102
    12.4110  12.4127  12.4151  12.4168  12.4190  12.4202  12.4233  12.4251
    12.4259  12.4325  12.4394  12.4412  12.4480  12.4519  12.4535  12.4552
    12.4560  12.4588  12.4604  12.4631  12.4692  12.4718  12.4734  12.4768
    12.4795  12.4824  12.4871  12.4890  12.4918  12.4940  12.4950  12.4980
    12.4991  12.5024  12.5049  12.5068  12.5112  12.5158  12.5164  12.5203
    12.5240  12.5273  12.5317  12.5362  12.5384  12.5415  12.5438  12.5525
    12.5547  12.5574  12.5585  12.5631  12.5654  12.5678  12.5694  12.5730
    12.5749  12.5782  12.5798  12.5805  12.5839  12.5870  12.5912  12.5926
    12.5947  12.5973  12.6026  12.6055  12.6066  12.6096  12.6145  12.6198
    12.6236  12.6287  12.6300  12.6324  12.6345  12.6376  12.6413  12.6437
    12.6451  12.6469  12.6508  12.6520  12.6573  12.6598  12.6643  12.6694
    12.6709  12.6791  12.6817  12.6851  12.6891  12.6905  12.6915  12.6937
    12.6980  12.7001  12.7027  12.7069  12.7117  12.7176  12.7185  12.7224
    12.7237  12.7255  12.7287  12.7327  12.7339  12.7414  12.7464  12.7481
    12.7493  12.7528  12.7584  12.7589  12.7614  12.7642  12.7657  12.7685
    12.7689  12.7719  12.7736  12.7771  12.7806  12.7844  12.7871  12.7887
    12.7918  12.7948  12.7960  12.7988  12.8008  12.8052  12.8057  12.8101
    12.8109  12.8151  12.8193  12.8219  12.8284  12.8328  12.8352  12.8374
    12.8422  12.8442  12.8463  12.8482  12.8501  12.8552  12.8571  12.8601
    12.8628  12.8657  12.8728  12.8754  12.8806  12.8846  12.8891  12.8925
    12.9016  12.9029  12.9059  12.9103  12.9121  12.9131  12.9172  12.9218
    12.9221  12.9254  12.9280  12.9298  12.9302  12.9331  12.9342  12.9398
    12.9445  12.9457  12.9473  12.9501  12.9529  12.9542  12.9560  12.9569
    12.9598  12.9612  12.9642  12.9667  12.9691  12.9715  12.9750  12.9771
    12.9792  12.9827  12.9840  12.9851  12.9892  12.9908  12.9952  12.9976
    12.9998  13.0011  13.0063  13.0075  13.0129  13.0168  13.0213  13.0232
    13.0262  13.0313  13.0352  13.0398  13.0414  13.0436  13.0470  13.0481
    13.0528  13.0538  13.0568  13.0588  13.0604  13.0652  13.0686  13.0731
    13.0739  13.0771  13.0792  13.0804  13.0843  13.0899  13.0929  13.0958
    13.0969  13.1008  13.1061  13.1068  13.1079  13.1115  13.1117  13.1146
    13.1178  13.1229  13.1260  13.1295  13.1319  13.1374  13.1395  13.1434
    13.1440  13.1471  13.1472  13.1485  13.1547  13.1558  13.1572  13.1640
    13.1675  13.1692  13.1714  13.1764  13.1839  13.1861  13.1878  13.1904
    13.1950  13.1992  13.2009  13.2017  13.2092  13.2101  13.2122  13.2154
    13.2178  13.2198  13.2223  13.2229  13.2268  13.2303  13.2323  13.2330
    13.2382  13.2384  13.2405  13.2455  13.2494  13.2523  13.2531  13.2621
    13.2652  13.2708  13.2735  13.2764  13.2796  13.2821  13.2839  13.2866
    13.2906  13.2946  13.2962  13.2982  13.3005  13.3042  13.3055  13.3112
    13.3117  13.3173  13.3195  13.3231  13.3251  13.3293  13.3307  13.3391
    13.3409  13.3482  13.3505  13.3524  13.3529  13.3588  13.3607  13.3627
    13.3636  13.3676  13.3685  13.3713  13.3730  13.3746  13.3773  13.3795
    13.3824  13.3851  13.3903  13.3926  13.3954  13.3980  13.4010  13.4012
    13.4047  13.4065  13.4111  13.4131  13.4170  13.4219  13.4223  13.4275
    13.4305  13.4317  13.4348  13.4403  13.4437  13.4457  13.4542  13.4559
    13.4592  13.4606  13.4640  13.4675  13.4728  13.4766  13.4792  13.4836
    13.4848  13.4891  13.4908  13.4940  13.5004  13.5045  13.5065  13.5081
    13.5124  13.5147  13.5196  13.5227  13.5281  13.5319  13.5404  13.5409
    13.5453  13.5492  13.5507  13.5524  13.5561  13.5594  13.5620  13.5646
    13.5683  13.5703  13.5729  13.5775  13.5798  13.5841  13.5890  13.5912
    13.5943  13.5957  13.5983  13.6054  13.6075  13.6109  13.6147  13.6171
    13.6189  13.6232  13.6236  13.6264  13.6323  13.6347  13.6378  13.6434
    13.6469  13.6510  13.6543  13.6560  13.6607  13.6647  13.6673  13.6717
    13.6776  13.6796  13.6832  13.6851  13.6872  13.6892  13.6924  13.6976
    13.7014  13.7032  13.7046  13.7115  13.7130  13.7153  13.7166  13.7221
    13.7247  13.7272  13.7368  13.7380  13.7420  13.7434  13.7447  13.7473
    13.7504  13.7528  13.7561  13.7576  13.7620  13.7666  13.7690  13.7722
    13.7744  13.7773  13.7808  13.7819  13.7834  13.7885  13.7899  13.7915
    13.7958  13.7976  13.7990  13.8037  13.8057  13.8085  13.8116  13.8154
    13.8180  13.8222  13.8267  13.8294  13.8349  13.8354  13.8374  13.8396
    13.8407  13.8451  13.8466  13.8481  13.8508  13.8517  13.8531  13.8567
    13.8586  13.8621  13.8625  13.8670  13.8695  13.8712  13.8745  13.8784
    13.8810  13.8812  13.8826  13.8880  13.8891  13.8925  13.8942  13.8957
    13.9009  13.9047  13.9093  13.9108  13.9143  13.9166  13.9184  13.9200
    13.9212  13.9230  13.9255  13.9278  13.9324  13.9342  13.9354  13.9378
    13.9398  13.9436  13.9442  13.9466  13.9476  13.9501  13.9514  13.9569
    13.9619  13.9626  13.9670  13.9688  13.9728  13.9737  13.9753  13.9778
    13.9794  13.9814  13.9842  13.9848  13.9882  13.9892  13.9944  13.9964
    13.9997  14.0018  14.0074  14.0084  14.0108  14.0146  14.0154  14.0173
    14.0241  14.0266  14.0293  14.0328  14.0357  14.0371  14.0385  14.0410
    14.0439  14.0464  14.0483  14.0515  14.0530  14.0564  14.0583  14.0600
    14.0614  14.0662  14.0663  14.0693  14.0700  14.0732  14.0735  14.0762
    14.0798  14.0840  14.0867  14.0882  14.0889  14.0931  14.0970  14.0975
    14.1003  14.1054  14.1057  14.1094  14.1111  14.1143  14.1153  14.1184
    14.1204  14.1223  14.1258  14.1271  14.1299  14.1304  14.1346  14.1365
    14.1382  14.1394  14.1421  14.1443  14.1465  14.1477  14.1489  14.1531
    14.1563  14.1574  14.1609  14.1647  14.1660  14.1678  14.1691  14.1731
    14.1743  14.1762  14.1796  14.1824  14.1871  14.1899  14.1924  14.1964
    14.2017  14.2055  14.2077  14.2101  14.2124  14.2142  14.2190  14.2215
    14.2247  14.2291  14.2314  14.2358  14.2378  14.2406  14.2424  14.2454
    14.2459  14.2482  14.2517  14.2537  14.2558  14.2563  14.2584  14.2630
    14.2656  14.2668  14.2716  14.2734  14.2766  14.2790  14.2828  14.2853
    14.2863  14.2887  14.2921  14.2969  14.2976  14.3037  14.3050  14.3071
    14.3118  14.3135  14.3147  14.3184  14.3199  14.3254  14.3265  14.3280
    14.3288  14.3375  14.3413  14.3435  14.3450  14.3477  14.3495  14.3512
    14.3548  14.3591  14.3605  14.3627  14.3652  14.3684  14.3696  14.3713
    14.3756  14.3824  14.3839  14.3867  14.3905  14.3946  14.3969  14.3998
    14.4002  14.4015  14.4061  14.4091  14.4110  14.4128  14.4161  14.4194
    14.4212  14.4251  14.4264  14.4280  14.4321  14.4340  14.4365  14.4419
    14.4444  14.4470  14.4484  14.4560  14.4571  14.4611  14.4645  14.4688
    14.4754  14.4789  14.4811  14.4882  14.4889  14.4945  14.4970  14.4996
    14.5020  14.5032  14.5055  14.5101  14.5122  14.5147  14.5183  14.5209
    14.5244  14.5286  14.5309  14.5314  14.5371  14.5394  14.5414  14.5435
    14.5484  14.5502  14.5514  14.5555  14.5576  14.5591  14.5613  14.5668
    14.5676  14.5692  14.5794  14.5799  14.5819  14.5867  14.5923  14.5939
    14.5989  14.6014  14.6068  14.6143  14.6168  14.6192  14.6196  14.6245
    14.6263  14.6302  14.6318  14.6370  14.6429  14.6466  14.6488  14.6512
    14.6551  14.6574  14.6608  14.6663  14.6673  14.6715  14.6754  14.6782
    14.6801  14.6825  14.6853  14.6869  14.6921  14.6940  14.6959  14.6987
    14.6999  14.7014  14.7036  14.7086  14.7139  14.7154  14.7171  14.7185
    14.7207  14.7254  14.7323  14.7357  14.7397  14.7411  14.7521  14.7530
    14.7549  14.7551  14.7578  14.7600  14.7649  14.7674  14.7689  14.7731
    14.7765  14.7780  14.7822  14.7881  14.7913  14.7964  14.8000  14.8015
    14.8032  14.8071  14.8087  14.8165  14.8179  14.8187  14.8225  14.8265
    14.8276  14.8324  14.8411  14.8441  14.8458  14.8473  14.8518  14.8588
    14.8601  14.8624  14.8644  14.8670  14.8700  14.8717  14.8754  14.8793
    14.8796  14.8834  14.8845  14.8858  14.8904  14.8931  14.8976  14.8999
    14.9049  14.9068  14.9122  14.9159  14.9193  14.9213  14.9248  14.9267
    14.9320  14.9335  14.9354  14.9385  14.9409  14.9446  14.9455  14.9476
    14.9522  14.9533  14.9547  14.9593  14.9618  14.9646  14.9677  14.9706
    14.9720  14.9752  14.9775  14.9807  14.9808  14.9841  14.9863  14.9902
    14.9914  14.9938  14.9954  14.9971  15.0006  15.0048  15.0062  15.0123
    15.0149  15.0157  15.0178  15.0190  15.0238  15.0260  15.0300  15.0317
    15.0346  15.0385  15.0433  15.0452  15.0487  15.0496  15.0510  15.0536
    15.0542  15.0557  15.0598  15.0610  15.0630  15.0650  15.0689  15.0704
    15.0718  15.0753  15.0773  15.0800  15.0805  15.0840  15.0852  15.0878
    15.0908  15.0939  15.0969  15.0976  15.1015  15.1024  15.1086  15.1115
    15.1163  15.1180  15.1215  15.1220  15.1255  15.1296  15.1326  15.1366
    15.1391  15.1429  15.1448  15.1498  15.1535  15.1560  15.1579  15.1592
    15.1626  15.1651  15.1673  15.1708  15.1737  15.1779  15.1807  15.1845
    15.1890  15.1932  15.1959  15.1977  15.2015  15.2024  15.2048  15.2065
    15.2086  15.2137  15.2140  15.2190  15.2203  15.2241  15.2259  15.2267
    15.2306  15.2348  15.2371  15.2399  15.2426  15.2435  15.2446  15.2463
    15.2495  15.2551  15.2563  15.2595  15.2613  15.2679  15.2690  15.2720
    15.2757  15.2806  15.2821  15.2876  15.2889  15.2922  15.2976  15.3013
    15.3017  15.3051  15.3054  15.3084  15.3102  15.3118  15.3167  15.3170
    15.3195  15.3216  15.3263  15.3277  15.3307  15.3316  15.3374  15.3382
    15.3413  15.3452  15.3477  15.3494  15.3516  15.3579  15.3585  15.3603
    15.3630  15.3643  15.3679  15.3690  15.3715  15.3731  15.3801  15.3827
    15.3841  15.3869  15.3900  15.3921  15.3941  15.3975  15.4011  15.4028
    15.4061  15.4099  15.4134  15.4167  15.4196  15.4206  15.4243  15.4268
    15.4286  15.4302  15.4365  15.4388  15.4404  15.4426  15.4430  15.4492
    15.4500  15.4539  15.4550  15.4564  15.4603  15.4614  15.4661  15.4678
    15.4681  15.4738  15.4764  15.4785  15.4811  15.4837  15.4843  15.4897
    15.4909  15.4923  15.4971  15.4984  15.5022  15.5044  15.5056  15.5098
    15.5105  15.5151  15.5183  15.5192  15.5233  15.5255  15.5282  15.5324
    15.5339  15.5385  15.5424  15.5434  15.5465  15.5475  15.5502  15.5519
    15.5587  15.5615  15.5627  15.5628  15.5638  15.5685  15.5714  15.5742
    15.5757  15.5770  15.5782  15.5815  15.5839  15.5864  15.5886  15.5933
    15.5973  15.6020  15.6046  15.6083  15.6105  15.6136  15.6192  15.6210
    15.6247  15.6250  15.6273  15.6317  15.6326  15.6374  15.6409  15.6422
    15.6465  15.6493  15.6522  15.6540  15.6561  15.6576  15.6626  15.6632
    15.6666  15.6720  15.6738  15.6775  15.6785  15.6792  15.6848  15.6853
    15.6855  15.6922  15.6949  15.6968  15.6999  15.7017  15.7041  15.7070
    15.7099  15.7129  15.7137  15.7164  15.7222  15.7247  15.7277  15.7304
    15.7328  15.7394  15.7410  15.7428  15.7471  15.7520  15.7584  15.7592
    15.7612  15.7656  15.7671  15.7692  15.7694  15.7743  15.7768  15.7793
    15.7803  15.7838  15.7853  15.7874  15.7883  15.7907  15.7931  15.7957
    15.7972  15.8002  15.8022  15.8036  15.8082  15.8094  15.8122  15.8149
    15.8165  15.8209  15.8215  15.8230  15.8281  15.8310  15.8314  15.8338
    15.8376  15.8388  15.8422  15.8438  15.8462  15.8525  15.8533  15.8542
    15.8573  15.8617  15.8628  15.8643  15.8673  15.8680  15.8688  15.8720
    15.8730  15.8756  15.8795  15.8806  15.8828  15.8834  15.8849  15.8879
    15.8904  15.8940  15.8977  15.8995  15.9004  15.9024  15.9040  15.9075
    15.9081  15.9111  15.9122  15.9157  15.9195  15.9222  15.9254  15.9259
    15.9283  15.9302  15.9314  15.9343  15.9367  15.9371  15.9416  15.9440
    15.9463  15.9479  15.9499  15.9514  15.9542  15.9555  15.9582  15.9603
    15.9637  15.9670  15.9698  15.9705  15.9741  15.9763  15.9792  15.9809
    15.9831  15.9848  15.9871  15.9893  15.9913  15.9933  15.9986  15.9991
    16.0033  16.0049  16.0066  16.0083  16.0113  16.0126  16.0143  16.0169
    16.0200  16.0249  16.0273  16.0315  16.0327  16.0345  16.0411  16.0450
    16.0469  16.0475  16.0524  16.0529  16.0575  16.0611  16.0633  16.0648
    16.0691  16.0715  16.0727  16.0735  16.0756  16.0787  16.0820  16.0830
    16.0871  16.0896  16.0903  16.0920  16.0948  16.0964  16.0974  16.1011
    16.1049  16.1069  16.1091  16.1102  16.1123  16.1161  16.1170  16.1190
    16.1218  16.1245  16.1277  16.1326  16.1344  16.1362  16.1380  16.1406
    16.1429  16.1439  16.1465  16.1488  16.1506  16.1531  16.1558  16.1577
    16.1611  16.1648  16.1653  16.1692  16.1721  16.1744  16.1755  16.1813
    16.1819  16.1825  16.1851  16.1885  16.1935  16.1950  16.1966  16.1996
    16.2016  16.2039  16.2071  16.2091  16.2118  16.2130  16.2158  16.2184
    16.2216  16.2222  16.2252  16.2273  16.2294  16.2347  16.2424  16.2433
    16.2446  16.2459  16.2517  16.2533  16.2554  16.2575  16.2581  16.2594
    16.2635  16.2645  16.2676  16.2693  16.2720  16.2749  16.2756  16.2782
    16.2809  16.2844  16.2882  16.2906  16.2912  16.2927  16.2946  16.2967
    16.3017  16.3067  16.3089  16.3133  16.3149  16.3173  16.3221  16.3236
    16.3246  16.3292  16.3333  16.3354  16.3390  16.3407  16.3428  16.3449
    16.3478  16.3502  16.3548  16.3573  16.3592  16.3610  16.3643  16.3655
    16.3667  16.3725  16.3741  16.3759  16.3809  16.3816  16.3863  16.3882
    16.3921  16.3929  16.3972  16.4014  16.4026  16.4044  16.4065  16.4078
    16.4114  16.4141  16.4213  16.4236  16.4243  16.4296  16.4322  16.4356
    16.4378  16.4403  16.4420  16.4436  16.4483  16.4537  16.4565  16.4582
    16.4587  16.4615  16.4633  16.4652  16.4696  16.4732  16.4749  16.4779
    16.4792  16.4821  16.4873  16.4902  16.4911  16.4952  16.4984  16.5025
    16.5053  16.5087  16.5145  16.5163  16.5193  16.5200  16.5221  16.5272
    16.5277  16.5302  16.5324  16.5328  16.5354  16.5389  16.5413  16.5424
    16.5443  16.5498  16.5507  16.5530  16.5564  16.5578  16.5604  16.5647
    16.5662  16.5671  16.5724  16.5773  16.5796  16.5813  16.5849  16.5901
    16.5927  16.5948  16.5986  16.6014  16.6020  16.6050  16.6093  16.6125

     Writing all to output data dir ./CNT_PBE.save/

     init_run     :      6.96s CPU     11.28s WALL (       1 calls)
     electrons    :  16740.54s CPU  19327.95s WALL (       1 calls)

     Called by init_run:
     wfcinit      :      0.02s CPU      0.01s WALL (       1 calls)
     wfcinit:wfcr :    236.70s CPU    180.98s WALL (       1 calls)
     potinit      :      1.01s CPU      5.06s WALL (       1 calls)
     hinit0       :      1.05s CPU      1.25s WALL (       1 calls)

     Called by electrons:
     c_bands      :  16740.54s CPU  19327.82s WALL (       1 calls)
     v_of_rho     :      0.29s CPU      1.30s WALL (       1 calls)
     v_h          :      0.04s CPU      0.40s WALL (       1 calls)
     v_xc         :      0.25s CPU      0.90s WALL (       1 calls)

     Called by c_bands:
     init_us_2    :      0.02s CPU      0.05s WALL (       1 calls)
     init_us_2:cp :      0.02s CPU      0.05s WALL (       1 calls)
     cegterg      :  16503.50s CPU  19146.03s WALL (       6 calls)

     Called by sum_band:

     Called by *egterg:
     cdiaghg      :   4040.97s CPU   8470.69s WALL (     121 calls)
     cegterg:over :   2869.43s CPU   3109.29s WALL (     120 calls)
     cegterg:upda :   2185.18s CPU   2432.83s WALL (     120 calls)
     cegterg:last :   1534.75s CPU   1702.31s WALL (      13 calls)
     cdiaghg:chol :     55.13s CPU    300.07s WALL (     121 calls)
     cdiaghg:inve :      1.04s CPU      3.50s WALL (     121 calls)
     cdiaghg:para :    816.81s CPU   2753.06s WALL (     242 calls)
     h_psi        :   5900.63s CPU   3379.13s WALL (     127 calls)
     g_psi        :      2.53s CPU      0.68s WALL (     120 calls)

     Called by h_psi:
     h_psi:calbec :   1068.08s CPU   1114.92s WALL (     127 calls)
     vloc_psi     :   3786.05s CPU   1217.45s WALL (     127 calls)
     add_vuspsi   :   1041.21s CPU   1045.02s WALL (     127 calls)

     General routines
     calbec       :   1068.08s CPU   1114.92s WALL (     127 calls)
     fft          :      1.14s CPU      2.68s WALL (      10 calls)
     fftw         :   3743.30s CPU   1206.17s WALL (  333378 calls)
     davcio       :      0.00s CPU      0.27s WALL (       2 calls)

     Parallel routines
     fft_scatt_xy :     73.91s CPU     19.68s WALL (  333388 calls)
     fft_scatt_yz :   3261.88s CPU   1077.92s WALL (  333388 calls)

     PWSCF        :      4h41m CPU      5h30m WALL


   This run was terminated on:   3:33:51  25May2024            

=------------------------------------------------------------------------------=
   JOB DONE.
=------------------------------------------------------------------------------=
