Ge Se 
 1.0000000000000000
    12.4195286557419298    0.0000002475886095    0.0000012084377880
     0.0000002491889515   12.4998157726780192    0.0000057630511296
     0.0000013844972274    0.0000065602764925   11.0535963322160775
 Ge  Se 
  36  36
Cartesian
  0.8560747332970238  0.4867797569461423  1.6654611988473975
  2.7470016179570691 10.8965934551214616  4.1033285688507943
  7.3551134454924938  2.2900415509140735  3.9248567340074434
  6.9296747286309008  6.8637335872279124  3.9346466207308062
  6.7855141455892305 10.8446600578463972  4.2878667608395400
 11.0652696606365648  2.5917311911274377  4.1463040665421769
 11.1136971859571005  6.8132339849307089  4.2149157103560873
 11.4796903158872698 10.8838915767987370  4.2362378369610356
  0.9313437788460648  2.1987563563407826  7.0495476598579607
  0.8484815689831994  6.0027155185445391  6.8604956148444183
  0.8262651775764156 10.0760050951531515  6.9293057451517139
  4.9920481711531099  1.8322613002141801  7.1879383049192906
  5.1133285849848304  6.0704491571606081  7.0484571006121870
  5.0619785015618133 10.4070695207458410  7.1586715724065222
  9.3892778172065956  1.8514943975911711  6.8280817228619863
  9.1031086279431008  5.9040724360831094  7.0172298730134983
  3.0115850490106117  6.7483492212851486  4.0773808518939285
  3.0720572474192149  2.5679707192630779  3.8654075958468384
  9.0920562739843813 10.2442307734382538  7.1564927266646148
 11.1156903407714651  8.1066354141465116  9.5196427750428345
 11.1974822811446515 12.3956459801927235  9.5145217113008211
  0.8375537591015064  4.8956279854443547  1.4598045255410372
  0.8325202434674930  8.8338076893005510  1.2965614292956158
  5.0603960255826168  0.3966140225668938  1.3177721776129740
  5.2219395509097035  4.5788621764634048  1.4713890341719886
  8.8932917976962003  0.1623404193548887  1.4380725508386327
  9.2289512765607853  4.7632832573156119  1.4899330823805264
  4.6891990574104172  8.8372001801813802  1.6098799738913858
  2.8440117304930141  4.2640146268840811  9.6325170152275934
  3.1806033525708060  8.0447536734416065  9.5028691263878553
  2.7573719183858900 12.2008513025726906  9.6250280408849136
  7.1783441768874940  3.7637206635248037  9.5507005087038657
  7.3246289637110120  8.2739633581198877  9.5147466954054334
  6.9504522087642480 12.1657118739472594  9.5439821338685782
 11.3517862067311572  4.0491080191754856  9.4364017681082810
  9.2199688452033062  8.9109868332227418  1.6194591694139666
 11.3845490283572399  0.1409485046602134  6.9360361700023034
  2.9698450249522783  4.4028735487090191  7.0334923510573297
  3.0255396786457274  8.5108627371278196  6.9917154920743592
  7.1531123691898877 -0.0226544878871344  7.0725151762187153
  7.0199569765235585  4.3988695371278581  7.0393878877175151
  7.1164308437799351  8.4171550377020630  7.0639314459593718
 11.1253920315010202  4.2867729040387772  6.9190419200963440
  9.0595525571336939  0.1181316496552232  3.8644070142897498
  0.8930254019845340  0.1881168200959331  4.1081963070778889
  0.9033994141485152  4.2015113393393255  3.8700213249336830
  0.6393724041023301  8.4700061956729957  3.8518912695710719
  4.8258751585264372  0.0916752412634444  3.7926445426922144
  4.9745000718845054  4.3966909899970563  3.8636365844176828
  5.0525419076150664  8.5072153715296253  4.1399847239124377
  2.9943472887151352  0.0950108891646795  7.2098510685327257
 11.1851563082235046  8.3237265623862537  7.1195427950584484
 11.1243901094988491 10.5730016790105861  1.5154089300279423
  2.9794248089180995  2.2671622903728781  1.4103010885404244
 11.3949156834464969  2.2109170577911725  1.6145663413653324
  9.1218240884282462  4.2833549466861927  4.1467574309522686
  0.8525904610003555  2.2060328503950251  9.5354245746252619
  0.8179288098477753  6.3938095131116386  9.5482282799280576
  0.7222265444058110 10.5836756713056204  9.4349615295848217
  5.1604642977155466  2.2330351713247523  9.6544431328679554
  5.1541664629841337  6.2794088787204192  9.5599187591220645
  4.8071462747170211 10.4634545501410230  9.5864047562488448
  9.2813130084228952  2.1878706924286129  9.4561716452266129
  9.1659309796639654  6.4247795566583301  9.5935999418469429
  9.0731807728327620 10.6325069373099215  9.6476893523673102
  2.9896378890205817  6.5091146446373820  1.6246677618084338
  2.8605945188539055 10.4515137375970806  1.5698155730413617
  6.9716240436312233  2.2964684758864937  1.4082622085566106
  7.1138696500885112  6.3584360146629795  1.4549720418396770
  7.0992641372712812 10.6313410909061048  1.7397803062564678
 11.0851274247988094  6.4385945374140423  1.6540827017927358
  9.0830690829840890  8.4632482449557926  4.1784123466217107
