Ge Se 
 1.0000000000000000
    12.3832009764156101   -0.0000046758254172   -0.0000023061980403
    -0.0000047319922327   12.5319417152675197    0.0000023407121073
    -0.0000026577523514    0.0000026655091527   11.0861580584617894
 Ge  Se 
  36  36
Cartesian
  1.0300587828847836  0.6277290989678150  1.4347563394710052
  2.9921407891442020 11.0484864422939975  4.3036742603145921
  7.1949981117863127  2.6274977652101743  4.2427087819476910
  7.2180937042594211  6.9031935881631270  4.1149698615464221
  6.8134151252707644 11.1585212009685737  4.0621669207010429
 11.0775154042525514  2.8342688893988321  4.1329377920989074
 11.3875333185236212  6.7114036285372869  4.2968409772525504
 11.4501071537218362 10.9795841429313370  4.1691376005848948
  0.9256958785419381  1.9471646141549483  7.0493147849227213
  0.7646071612081027  5.9352925872120759  7.0688343459922169
  1.0671847649650297 10.3614451690836002  7.1219353927491511
  5.1332302349770318  1.8764739352581876  7.0004784988542097
  4.7486568047307598  6.1155434392738455  7.0110018263206344
  5.2050496209884640 10.0216432204659895  6.7625664341099103
  8.9485664827467968  1.7496964265572308  6.8291434617575799
  9.3613236603510952  5.9451950261952096  6.8107118592570615
  2.9564295030520453  6.7691058454093378  4.0855585065579039
  2.9111566117069141  2.5478309703363697  3.9519152875417478
  9.3604473958533152 10.2992826422141626  6.8532911902647058
 11.0063251013757313  8.1901468276402269  9.7578042449761035
 10.9097395540650606 12.3047191958561779  9.5729337752697585
  0.7772521274756603  4.7698204536204960  1.3556388438024711
  0.9370095995115700  8.8436431368895700  1.3717597726100155
  5.1277807967666087  0.5630610996220159  1.4099254334428979
  4.9684770201552588  4.8129298735087520  1.5966261829243962
  9.3331067356508655  0.5377124910549782  1.3181876623509530
  8.8896087974496556  4.7638482841047791  1.2289799642476558
  5.0170144965366710  8.9559524748972699  1.4073886520142618
  2.7660848733014576  3.9223196385109369  9.8420216640627043
  2.7987075480068784  8.2609201773050671  9.6593943080781290
  2.9986699691480578 12.1604837502807648  9.7567821925122491
  6.9613886214553213  4.0190852528761960  9.5074622955760972
  7.1697036654248985  8.0617515987362420  9.4824048782673813
  6.9282666302498725 12.1502662897763347  9.8041921598026356
 10.9796013187860115  3.7877120781542839  9.7328553002990361
  9.2823461824938658  8.7119977237438100  1.5580312649068300
 11.3053800262119069  0.0733602223407976  7.0347021713175275
  2.8461767162997540  4.3443944582876926  7.0735297867396714
  2.8339833715283458  8.3946180314303547  7.1041450316950847
  7.0408003258133487  0.1350099657715707  7.1513623095625540
  7.1065308550089457  4.2540973753464568  6.9277215313290936
  7.3043527838394251  8.5319912012399968  6.9271638955565669
 11.0850842323011900  4.1603680125913689  7.1985741285597067
  9.1916550393867560  0.0358429137884356  3.9114470030544912
  0.9627964104235923  0.1052712706480552  4.0818553878628752
  0.9816343199079981  4.4546611144504888  3.9610892762418288
  0.8662582788497459  8.5226213890888065  3.9893000274650730
  4.8893991661718701  0.3227527857364318  3.9863535527801406
  5.0124962162740694  4.2480960803259373  4.0023258345793415
  5.1036027743349104  8.4526057281753388  3.9378556854569142
  3.0351985970165707  0.2527077113636996  7.0783116481863173
 11.2528163826772101  8.4921473265854903  7.2214402702363429
 11.2409440975329407 10.2637574216948355  1.7064424174417214
  2.9213806172238233  2.2426886349394124  1.4830826354132991
 11.2676589977508179  2.1416172188118945  1.4750464023747409
  9.0229609118820431  4.2660337255130809  3.8293086527103868
  0.8560322155080813  2.2503284635295140  9.5175977069498696
  0.9196291070240524  6.4375412154562888  9.6993491284108693
  1.0428199296742688 10.4533192258124910  9.4684564364658925
  5.0787979539729831  2.3579561595012128  9.5435406262654965
  5.0936532752973598  6.5420869647283473  9.5767578862860834
  4.9020673442247205 10.4306646157693876  9.3547346334666326
  9.1020145577951386  2.1308409997503777  9.3727492914007478
  9.1944615710196569  6.5512454459489087  9.5304430409802698
  9.1291554627331166 10.5667634168182580  9.4068742602715822
  2.9016833772920712  6.3224149294386374  1.5455881472177051
  2.9034467585176569 10.5327613119246948  1.6754519650594146
  7.2171157482522572  2.1258184953088666  1.5121583469146731
  7.0770903388915594  6.5483054745706246  1.6423697001933759
  6.9649646213850671 10.6835821556522976  1.4719962924958299
 11.0999150606957713  6.2769743197431778  1.8091253356111205
  9.1662871231900507  8.6328491901720437  3.9490533973183073
