Ge Se
 1.0000000000000000
     3.8581001759000002    0.0000000000000000    0.0000000000000000
     0.0000000000000000    4.5265750884999996    0.0000000000000000
     0.0000000000000000    0.0000000000000000   10.5851764679000002
 Ge  Se 
   4   4
Cartesian
  0.9645239209268265  1.5235882632981108  1.2309844077729040
  2.8935741941880693  3.7868759225873965  4.0616027420565342
  2.8935733141497706  3.9870233979347738  9.3541913476858447
  0.9645208501404087  1.7237360441284149  6.5235733451711093
  0.9645241981456776  0.9611390705896430  3.7526753251779357
  2.8935738184010940  3.2244270706358535  1.5399130127421194
  2.8935717321832550  0.0228970589221863  6.8325007053680169
  0.9645228164448353  2.2861849785849908  9.0452633883586451
