Ge Se                                   
    1.000000000000000     
     3.8999999999999995    0.0000000000000000    0.0000000000000000
     0.0000000000000000    4.4000000000000004    0.0000000000000000
     0.0000000000000000    0.0000000000000000   11.1422209999999993
   Ge   Se
     4     4
Selective dynamics
Direct
  0.2500000000000000  0.1063121917844043  0.1253824343834964   T   T   T
  0.7500000000000000  0.6063121917844043  0.3746175656165036   T   T   T
  0.7500000000000000  0.8936878082155957  0.8746175656165036   T   T   T
  0.2500000000000000  0.3936878082155957  0.6253824343834964   T   T   T
  0.2500000000000000  0.9959768719108695  0.3536763947790291   T   T   T
  0.7500000000000000  0.4959768719108695  0.1463236052209709   T   T   T
  0.7500000000000000  0.0040231280891305  0.6463236052209709   T   T   T
  0.2500000000000000  0.5040231280891305  0.8536763947790291   T   T   T
 
  0.00000000E+00  0.00000000E+00  0.00000000E+00
  0.00000000E+00  0.00000000E+00  0.00000000E+00
  0.00000000E+00  0.00000000E+00  0.00000000E+00
  0.00000000E+00  0.00000000E+00  0.00000000E+00
  0.00000000E+00  0.00000000E+00  0.00000000E+00
  0.00000000E+00  0.00000000E+00  0.00000000E+00
  0.00000000E+00  0.00000000E+00  0.00000000E+00
  0.00000000E+00  0.00000000E+00  0.00000000E+00
