 C  H                                   
    1.000000000000000     
    32.3722991942999982    0.0000000000000000    0.0000000000000000
     0.0000000000000000   19.9214134216000005    0.0000000000000000
     0.0000000000000000    0.0000000000000000   40.4480476378999967
   C    H 
   364     1
Direct
  0.3709853330931523  0.5383204174464709  0.0024738991801243
  0.3688245139027444  0.5438171241071430  0.0629149988033078
  0.3381054584534766  0.5950108752581187  0.0611137495150587
  0.3205395377606948  0.6114415510973643  0.0299564642617298
  0.2778612411872032  0.6288328580997913  0.0281390288418208
  0.3665366199450588  0.5491724817193955  0.1233543151289282
  0.3347524269910451  0.5986334557631778  0.1215573297095816
  0.3168541388597887  0.6140724961595012  0.0904034607951516
  0.2738272856697108  0.6290568196542736  0.0885812715285894
  0.2536093598123230  0.6269246446045784  0.0574254641518976
  0.2121505594624509  0.6029824303612799  0.0556095152515255
  0.1956334802363386  0.5839204327251437  0.0244477969291310
  0.1680641789497699  0.5281947263861824  0.0226313310436907
  0.3640870260102744  0.5543753084850280  0.1837954677736704
  0.3313007556012764  0.6020798957780897  0.1820051072600464
  0.3130988077151784  0.6164965036952523  0.1508463408286786
  0.2697902826618588  0.6290787510320257  0.1490242436229536
  0.2496321141936164  0.6258007559474379  0.1178655196248641
  0.2087079421745983  0.5995445655970286  0.1160513119379587
  0.1926020513292954  0.5795820991751555  0.0848927176709751
  0.1662280216507384  0.5223426964693587  0.0830665808851734
  0.1589629759081532  0.4916164707328790  0.0519135170095737
  0.1549874108152096  0.4204047846521206  0.0500895454086248
  0.1587383993649993  0.3880403565553081  0.0189367081809024
  0.1783519829087439  0.3240377126328227  0.0171262001425632
  0.3615068240531940  0.5594540101807510  0.2442176221494918
  0.3277933021703276  0.6053619181423002  0.2424472803953108
  0.3092975629400172  0.6187733140686547  0.2112923446338968
  0.2657384025373943  0.6289224314282365  0.2094673434599486
  0.2456734285228350  0.6245029140434255  0.1783151363406787
  0.2053266676685865  0.5959247097592169  0.1764940521115292
  0.1896627975372454  0.5750637956307401  0.1453392141558822
  0.1645194026361665  0.5163802055673443  0.1435054883708275
  0.1579154817677093  0.4852657721019895  0.1123478874872745
  0.1554447385473949  0.4138808508796714  0.1105244325368204
  0.1598762862758463  0.3817532352409074  0.0793654152491641
  0.1808274651040378  0.3188811620619632  0.0775455980591673
  0.1949823520911025  0.2953015343339089  0.0464014479659056
  0.2331266846731523  0.2596549811354336  0.0445777308132733
  0.2527990105313407  0.2516565427479804  0.0134361063589097
  0.2967781666012712  0.2538589508106242  0.0116321780670532
  0.3711168503067057  0.5379610287495851  0.3357236954828267
  0.3590160826148860  0.5645175633192281  0.3046538446471700
  0.3242514317548029  0.6084560728653159  0.3028894825834385
  0.3054825911637025  0.6208315999678007  0.2717826647323349
  0.2616860926546209  0.6284548675122963  0.2699354363563984
  0.2417420632618246  0.6229242702836686  0.2387777638768895
  0.2020357073270560  0.5920906002695006  0.2369405358841306
  0.1868320473182337  0.5703539680641896  0.2057768629103336
  0.1629605003563412  0.5102985988614108  0.2039392868337160
  0.1570075987495798  0.4788458379064977  0.1727805432383320
  0.1560470968644978  0.4073578027380620  0.1709600011821877
  0.1611385393009215  0.3755129662042762  0.1398014053352199
  0.1834070340544685  0.3138403646948120  0.1379714878978788
  0.1980597822280146  0.2910918482834077  0.1068238817160960
  0.2369332052307271  0.2576095251623869  0.1049987731955184
  0.2567679623124022  0.2507271509942655  0.0738534616263777
  0.3006728422769882  0.2553977185467531  0.0720481830147435
  0.3197826780458968  0.2664363502550628  0.0409098249602096
  0.3556546660459929  0.3078488767024297  0.0390930798045943
  0.3683592255301846  0.3335285707293210  0.0079506803785421
  0.3855418249212121  0.3993534277471440  0.0061497569999176
  0.3698708743922694  0.5438029021920272  0.3960987212041758
  0.3566971954880600  0.5692393254470645  0.3652740446488920
  0.3205500590563588  0.6106196346433421  0.3634126516076961
  0.3015759996724938  0.6221325433556544  0.3323031432618464
  0.2576644788030222  0.6274178986790346  0.3304189605211576
  0.2378461764020372  0.6209771795663315  0.2992226666842299
  0.1987898864652706  0.5880563513340604  0.2973695712012798
  0.1840638594974777  0.5655193384527948  0.2662079900678620
  0.1614823121351705  0.5041299245057544  0.2643677704507184
  0.1562314529085143  0.4723635464006790  0.2332173201448384
  0.1568021848159873  0.4008597472467414  0.2314000696849021
  0.1625681471079190  0.3693302283692930  0.2002393997460032
  0.1861176729170637  0.3089418601301333  0.1984051197065995
  0.2012212126098802  0.2870268646137077  0.1672454621983164
  0.2407720786279768  0.2557196803812332  0.1654207200766251
  0.2607382929773649  0.2499684490877598  0.1342749335274434
  0.3045216692205912  0.2570882175293363  0.1324642194506964
  0.3233938730844343  0.2692225802728814  0.1013308204303414
  0.3583704526675291  0.3126043671343410  0.0995187839690885
  0.3705306670794783  0.3390001009510826  0.0683769817236879
  0.3863169799827801  0.4057389217976635  0.0665838135452006
  0.3881558485851073  0.4385595730618377  0.0354369215364372
  0.3800216110359642  0.5088314250482568  0.0336235801278022
  0.3669073586918188  0.5491235027786274  0.4566761637731815
  0.3532769076276736  0.5722702931776382  0.4258362814031713
  0.3163787182786706  0.6114079872906188  0.4238450562754963
  0.2974004277328604  0.6225730216188694  0.3926703145035830
  0.2534772230529896  0.6262309119787446  0.3908132888561084
  0.2338475058432365  0.6189120841422593  0.3596368878907583
  0.1954222183512897  0.5839740481112656  0.3577835058824022
  0.1812991859108521  0.5605335589625255  0.3266329393961627
  0.1600877634844764  0.4978797326290945  0.3247994625727841
  0.1555803725990330  0.4658164900974313  0.2936439247584275
  0.1577105165325037  0.3944134077705428  0.2918328633124290
  0.1641357597078112  0.3632163361327372  0.2606719813457090
  0.1889432257386190  0.3041667413108087  0.2588360937426444
  0.2044837753376996  0.2830947025471531  0.2276782896448140
  0.2446642048220298  0.2539471878046839  0.2258536450452411
  0.2647305049982123  0.2493564017814975  0.1947033813348256
  0.3083319002952862  0.2588968791670609  0.1928852001554517
  0.3269300442412870  0.2721439173023015  0.1617474325650221
  0.3609595933223630  0.3174628178916734  0.1599378390506487
  0.3725722990263733  0.3445444489019351  0.1288051603042533
  0.3869304376947724  0.4121415462534372  0.1270130756051131
  0.3880904075413056  0.4450616242411982  0.0958752194756372
  0.3784794919911789  0.5148430109252402  0.0940654292286709
  0.3649771425794128  0.5543255585308202  0.5172699271864261
  0.3502520671870926  0.5764360179136077  0.4857372918593370
  0.3126071242549315  0.6137288526982374  0.4840612013568517
  0.2932754556144488  0.6234002408183485  0.4530226559742729
  0.2491954517440007  0.6253400512943443  0.4512030496958914
  0.2297723744078723  0.6167773018165050  0.4200710234850433
  0.1921222758618342  0.5797652269878668  0.4182255220935147
  0.1785441964050491  0.5554755621465191  0.3870509213139854
  0.1587920124265167  0.4916085860319157  0.3852330745383128
  0.1550088184094918  0.4592827516264890  0.3540762115485592
  0.1587151390797743  0.3880252116751279  0.3522635539773660
  0.1658232423867929  0.3572070288834084  0.3211171773019146
  0.1918507865936050  0.2995392565634489  0.3192812508875846
  0.2078365318652118  0.2793395574097772  0.2881221570063772
  0.2485859091278044  0.2523869651098565  0.2863056517352689
  0.2687402098063032  0.2488964439050250  0.2551386732967273
  0.3121106109399960  0.2608533474398698  0.2533100046517802
  0.3304144539379479  0.2751326125625368  0.2221737957006411
  0.3634464004581091  0.3224007459804383  0.2203594454054567
  0.3744585320972149  0.3501668536399336  0.1892362713071947
  0.3873533029345921  0.4185365174830977  0.1874374193725643
  0.3878327289113130  0.4515274079064682  0.1563051121741950
  0.3767567411613868  0.5207239763999283  0.1545036698823452
  0.3617373688887824  0.5593473508000955  0.5776511175319570
  0.3478132229171038  0.5825857503886809  0.5462392268243974
  0.3092679121012196  0.6177622999824166  0.5444656796685976
  0.2894397610968653  0.6250332293714749  0.5133804653555032
  0.2454581970994738  0.6239280090415775  0.5116100846291900
  0.2259626778624337  0.6144276692244333  0.4804756350820512
  0.1891306387683471  0.5752793867804158  0.4786606723527171
  0.1759370461067249  0.5503547587427846  0.4475078919642215
  0.1576287621433181  0.4852652400292214  0.4456903823622440
  0.1545777783490436  0.4527449304777065  0.4145393361692982
  0.1598346571562672  0.3817423634561692  0.4127179576625721
  0.1676167279646990  0.3513205579231808  0.3815620411963891
  0.1948136386986974  0.2951336528639246  0.3797322060929673
  0.2112373894233244  0.2757882001324816  0.3485680822925232
  0.2525410154452175  0.2511494896040602  0.3467577292375807
  0.2727512548409905  0.2486875426049195  0.3156006592056499
  0.3158563489605157  0.2631279151315908  0.3137647263879160
  0.3338345879006326  0.2783695666028052  0.2826228690089962
  0.3658015713008496  0.3275027486608124  0.2807877360470670
  0.3761962183370287  0.3558811944991405  0.2496497177269532
  0.3875834017599686  0.4249325663294883  0.2478291973780031
  0.3874005342884175  0.4579356779784547  0.2167184939576359
  0.3748781872566838  0.5265054357000949  0.2149328004468316
  0.3589491388384829  0.5643425259243600  0.6380285535813854
  0.3444219967170952  0.5871889772839083  0.6068415161116079
  0.3055057300621868  0.6206712635529783  0.6049843807981574
  0.2857114885740657  0.6270616109452476  0.5737379342604783
  0.2417565386628553  0.6225937060928004  0.5720047626187750
  0.2224878854945587  0.6117516266928291  0.5409204668716399
  0.1865111091789657  0.5704953517896882  0.5391175910179555
  0.1737556974527337  0.5448207344090008  0.5079789341785670
  0.1568145028789516  0.4788520553486038  0.5061668919876539
  0.1543761017060845  0.4461742599136471  0.4749903307144550
  0.1611346704138299  0.3755412558776712  0.4731707844656938
  0.1694883280968398  0.3455656784908498  0.4420073761295171
  0.1978572438294108  0.2909049301838067  0.4401784350806537
  0.2146626117822379  0.2724784240933786  0.4090387339148194
  0.2565278600404213  0.2504125401786581  0.4072268798626624
  0.2767790028630017  0.2491124781015586  0.3760874504327418
  0.3194580692034634  0.2663718622641085  0.3742672953667778
  0.3371226727029679  0.2822202563822245  0.3430632757803949
  0.3679945864416183  0.3330195598895713  0.3411790721051702
  0.3778472392894159  0.3617270174135001  0.3100524088315879
  0.3877190855141137  0.4314436230635081  0.3081821209390654
  0.3867933253079983  0.4643649253201758  0.2771027843547245
  0.3729129936269615  0.5322163928293406  0.2753566290618323
  0.3562749064625024  0.5692667549141390  0.6984580428130656
  0.3411537210474052  0.5912056957377985  0.6672975978695632
  0.3016376703997992  0.6226005857179544  0.6654493496873499
  0.2817173181229791  0.6283613400021295  0.6342396857143768
  0.2378941508214112  0.6211441024675679  0.6324690257761958
  0.2190417605513630  0.6089403205928434  0.6013384057012843
  0.1840389289827584  0.5655976714922488  0.5995506566579252
  0.1717986250104317  0.5392371164142062  0.5684115979619548
  0.1561499061540701  0.4724113944512922  0.5666091207440260
  0.1543444944495107  0.4396137476553434  0.5354572629005219
  0.1625645265323357  0.3693656169813195  0.5336390856971462
  0.1715756992822151  0.3398979592809965  0.5024843368487879
  0.2010851578653714  0.2869277713519693  0.5006840241414494
  0.2182647885464419  0.2695295493529883  0.4694970067820989
  0.2605148877076218  0.2501328809092769  0.4676791477939233
  0.2808046866015843  0.2502695706326605  0.4365262738780160
  0.3229074854047624  0.2705859770228329  0.4346962686654905
  0.3401178454766196  0.2873498854679610  0.4035391613104906
  0.3697981114388611  0.3400003913028726  0.4016458864865200
  0.3792828282078631  0.3682341539783778  0.3704402544673897
  0.3880351835282241  0.4380886197613592  0.3684772361945789
  0.3862107007219819  0.4709201944614421  0.3373865095551096
  0.3535223243573853  0.5740408482722472  0.7588911097704454
  0.3379360698750844  0.5950986371071139  0.7277296836768272
  0.2977415265619783  0.6241974545493960  0.7259052426788202
  0.2776805295359708  0.6288813022056843  0.6947384223581707
  0.2340710615847073  0.6192495323838045  0.6929353672984107
  0.2155075693397279  0.6060293275358788  0.6617690206838063
  0.1814995593013009  0.5606429283409682  0.6599812350209078
  0.1698874293097248  0.5336050653146884  0.6288422859232412
  0.1555770886402357  0.4659755125516583  0.6270453411492412
  0.1544727247739530  0.4330657202747332  0.5959018531940927
  0.1641423696297295  0.3633290032246208  0.5940837776898746
  0.1737813567351338  0.3343602030394237  0.5629259429139069
  0.2044353924167552  0.2830716013454406  0.5611260995114833
  0.2219432714350518  0.2665994694473852  0.5299580204153784
  0.2646440760084161  0.2493366510283295  0.5281322357366491
  0.2848771366279337  0.2510051062425731  0.4969619385416877
  0.3265129064058314  0.2736003566707197  0.4951440137994183
  0.3433083084014825  0.2928638926897875  0.4639763134360138
  0.3721304245225596  0.3462944344380645  0.4621710321189170
  0.3807943087307137  0.3762511038443535  0.4308157328509523
  0.3906434608578024  0.4449175260009213  0.4285393991338111
  0.3871479835072833  0.4774222355412476  0.3977398813588167
  0.3506369979596897  0.5786293336791601  0.8193279122490296
  0.3346181385551645  0.5987983995280004  0.7881701976223567
  0.2938165387820675  0.6255705055735348  0.7863586607790012
  0.2736604172946144  0.6290865740406488  0.7551981355984267
  0.2302914926724782  0.6170415358515697  0.7533837839518824
  0.2120068452964574  0.6028593174885302  0.7222203668754617
  0.1789768503744540  0.5555861435419089  0.7204264303069650
  0.1679910243562759  0.5278920153938671  0.6892795037470805
  0.1550930727062436  0.4595319988014239  0.6874806379978082
  0.1546725334074637  0.4265788709496761  0.6563320807286885
  0.1657888488012418  0.3573983987863372  0.6545182930994073
  0.1760595781232155  0.3289730181258435  0.6233728399611564
  0.2078033874166394  0.2794470158111295  0.6215793706489521
  0.2256962682692958  0.2639466443668752  0.5904236075392220
  0.2686958831985891  0.2488532354211515  0.5886023744909963
  0.2889029112903501  0.2511929201561216  0.5574125404527948
  0.3302684260480220  0.2754954233420435  0.5556028433937286
  0.3465250388222216  0.2954469092432461  0.5244577454286770
  0.3739567260018717  0.3512307328812057  0.5227500874719908
  0.3823182398525375  0.3823949848124144  0.4916814205867936
  0.3906150765350063  0.4516829420266788  0.4903910471107764
  0.3959794967289270  0.4887866190895949  0.4584446489201568
  0.3476470022122555  0.5830294158171156  0.8797732139505925
  0.3312109746183438  0.6022892262506119  0.8486128872766017
  0.2898643843608966  0.6267393513737076  0.8468056830200794
  0.2696483095593862  0.6291150003265926  0.8156466144293830
  0.2265568130826949  0.6146383047558501  0.8138280383678946
  0.2085753138931210  0.5994332371892455  0.7826742758650411
  0.1765596251528976  0.5503733016355028  0.7808765558351922
  0.1661703612425569  0.5220946799824517  0.7497181229260264
  0.1547217401827936  0.4530536446034219  0.7479169033441835
  0.1549842351207147  0.4201059666073590  0.7167707347966896
  0.1675386465072179  0.3515697482655753  0.7149649721886959
  0.1784182087545361  0.3237445200838778  0.6838183093119099
  0.2112056727189682  0.2760719591706646  0.6820283116355910
  0.2294211876157988  0.2615634864322871  0.6508774988543351
  0.2727181631429687  0.2488684307983675  0.6490675697465207
  0.2928835514549135  0.2520496935171579  0.6179073888766879
  0.3337993865542472  0.2783487498325670  0.6161247400989680
  0.3498400439233862  0.2985567705962779  0.5849662200737882
  0.3761339424980434  0.3557636760237415  0.5832557275215038
  0.3833555536257833  0.3867944085963089  0.5521345419759101
  0.3875784660419157  0.4577727304466563  0.5504499566552994
  0.3852771929215564  0.4903377321491362  0.5192892615013847
  0.3445548556142697  0.5872198604170222  0.9402188420212880
  0.3277217058634960  0.6055631565303017  0.9090585574952215
  0.2858798507602813  0.6276860530416357  0.9072506156086177
  0.2656279887245958  0.6289282361994140  0.8760931509399512
  0.2228736920508751  0.6120358747110686  0.8742736605164794
  0.2052285580410285  0.5958247561971177  0.8431180278964021
  0.1742668040153816  0.5450178856646843  0.8413197552724085
  0.1644609021974333  0.5161884870519557  0.8101638401476947
  0.1544864625814242  0.4465398353984256  0.8083568656482214
  0.1554476122763475  0.4136341587799990  0.7772097399068656
  0.1694423753219922  0.3458461563927031  0.7754111877561343
  0.1808821820858313  0.3186477116487154  0.7442587846216639
  0.2146776048425139  0.2728622243359453  0.7424661328437310
  0.2331922077118449  0.2594211296115319  0.7113238829314739
  0.2767415279133019  0.2492399468910094  0.7095195606855711
  0.2968296966207831  0.2535342369228601  0.6783678120601948
  0.3371581445769323  0.2820725258675907  0.6765799704149345
  0.3528212242437405  0.3028839310536640  0.6454102346606447
  0.3778765386514635  0.3616491121241694  0.6436311188601564
  0.3844585754923315  0.3927806566664316  0.6125067460029641
  0.3868117743931379  0.4642011294745387  0.6107357729193410
  0.3824598102855532  0.4964346260257813  0.5796421763767299
  0.3413736290395732  0.5912106431446702  0.0006671585235978
  0.3241655443013158  0.6086164853839833  0.9695079747418021
  0.2818809616484970  0.6283863574215971  0.9676954782524803
  0.2616131743993151  0.6285064213049054  0.9365385048664976
  0.2192432598945047  0.6092299953716847  0.9347187864128870
  0.2019528086711233  0.5920462676101721  0.9035612316554307
  0.1720915340513542  0.5395274901243994  0.9017599598050126
  0.1629062402528021  0.5101691627070792  0.8706084108422587
  0.1544150359631260  0.4400125641202308  0.8687945944515647
  0.1560646207873049  0.4071825367671593  0.8376452353644837
  0.1714928744310527  0.3402238084277514  0.8358492242590927
  0.1834901349389497  0.3136833695572605  0.8046986999444457
  0.2182529496582006  0.2698465925635887  0.8028998005845551
  0.2370315266394982  0.2574909339986391  0.7717555667276699
  0.2807722272923883  0.2498194335023030  0.7699510511294534
  0.3007416740671474  0.2552809735035240  0.7387988746776699
  0.3404435845390026  0.2860754524888449  0.7369989180239216
  0.3556563863442506  0.3077294630319969  0.7058456082665643
  0.3794869656671551  0.3678395889362704  0.7040315197727693
  0.3853627664090098  0.3992821892856853  0.6728841651346471
  0.3862608981696170  0.4707545269468838  0.6710809829272009
  0.3811155312396224  0.5025983361254731  0.6399349328762227
  0.2576093859586308  0.6278367740474877  0.9969826741908179
  0.2156704143673380  0.6062043896753977  0.9951643314838208
  0.1987568936627184  0.5880730311435727  0.9640055358551010
  0.1700254206848513  0.5339177878808172  0.9621976123637026
  0.1614739479204559  0.5040597594292819  0.9310457826548060
  0.1544806424718388  0.4334720434301502  0.9292273376685500
  0.1568313172069367  0.4007626289276303  0.8980776982326475
  0.1736775483041484  0.3347097401927996  0.8962802450581009
  0.1862336755139111  0.3088713753727177  0.8651321096256055
  0.2219058697574923  0.2670169038140102  0.8633234222022708
  0.2409366712926726  0.2557434063701720  0.8321768666586635
  0.2848165796353896  0.2505428531333322  0.8303716251027282
  0.3046485325818509  0.2571662523387772  0.7992216875574840
  0.3436792715478774  0.2901667924810027  0.7974136892638484
  0.3584072153907556  0.3127151418714647  0.7662635332098873
  0.3809798936654545  0.3740836303045185  0.7644390321676795
  0.3862118248728308  0.4058370944508098  0.7332806272777930
  0.3856337972562898  0.4773333198374630  0.7314679777174007
  0.3798125543790505  0.5088445021700494  0.7003184797366515
  0.1601589286951679  0.4978744201199845  0.9914786843775332
  0.1546703802845570  0.4269311415972510  0.9896562765531272
  0.1577229741486477  0.3943715140133861  0.9585076525828313
  0.1759642397206562  0.3293036619359597  0.9567051351757385
  0.1890704314495437  0.3041885152440145  0.9255581621943136
  0.2256114248326000  0.2643572595342292  0.9237415993209055
  0.2448752635416795  0.2541670689630990  0.8925959454659917
  0.2888425876170686  0.2514357834352339  0.8907917086491679
  0.3085240817554009  0.2591932896902165  0.8596419340849621
  0.3468332290134271  0.2943644336686333  0.8578295092205295
  0.3610746726352119  0.3177554015047264  0.8266795226827455
  0.3823385774130728  0.3803513509624779  0.8248558625857711
  0.3869118541443015  0.4123988273462160  0.7937005589926542
  0.3848251096739546  0.4838242475347982  0.7918865907560857
  0.3783551626392310  0.5150151042486115  0.7607318100290499
  0.1919925041178985  0.2996702793982848  0.9859804185529981
  0.2293560694119421  0.2619069544125381  0.9841592924249483
  0.2488312023960191  0.2527963388721943  0.9530161209115349
  0.2928338523223175  0.2525332033494152  0.9512135039228440
  0.3123442017360745  0.2614097741859851  0.9200653063629289
  0.3498806496318565  0.2987151091059772  0.9182490811141264
  0.3636244343691928  0.3228977189394442  0.8870998058821868
  0.3835417762558748  0.3866525294577698  0.8852840540966085
  0.3874360155307102  0.4189566353891436  0.8541281896481152
  0.3838249889632550  0.4902164259231085  0.8523153154163268
  0.3767158968862532  0.5210363852955453  0.8211582228549332
  0.3161068908869993  0.2638107100972888  0.9804881501621594
  0.3528304633320403  0.3032013948029046  0.9786705987118154
  0.3660548126884819  0.3281548615724290  0.9475238230561160
  0.3846148304694523  0.3929833107032792  0.9457158653502802
  0.3878195398139042  0.4255009247470554  0.9145611611154152
  0.3826974529648552  0.4965177843675903  0.9127483356893649
  0.3749347257507125  0.5269375003994199  0.8815945804747471
  0.3880621995346445  0.4320374391297079  0.9749974562160730
  0.3814278577740637  0.5027208559420870  0.9731844949531805
  0.3730241674232389  0.5326968582994240  0.9420326728641228
  0.4282693663804409  0.5084667136995975  0.4579587061456181
 
  0.00000000E+00  0.00000000E+00  0.00000000E+00
  0.00000000E+00  0.00000000E+00  0.00000000E+00
  0.00000000E+00  0.00000000E+00  0.00000000E+00
  0.00000000E+00  0.00000000E+00  0.00000000E+00
  0.00000000E+00  0.00000000E+00  0.00000000E+00
  0.00000000E+00  0.00000000E+00  0.00000000E+00
  0.00000000E+00  0.00000000E+00  0.00000000E+00
  0.00000000E+00  0.00000000E+00  0.00000000E+00
  0.00000000E+00  0.00000000E+00  0.00000000E+00
  0.00000000E+00  0.00000000E+00  0.00000000E+00
  0.00000000E+00  0.00000000E+00  0.00000000E+00
  0.00000000E+00  0.00000000E+00  0.00000000E+00
  0.00000000E+00  0.00000000E+00  0.00000000E+00
  0.00000000E+00  0.00000000E+00  0.00000000E+00
  0.00000000E+00  0.00000000E+00  0.00000000E+00
  0.00000000E+00  0.00000000E+00  0.00000000E+00
  0.00000000E+00  0.00000000E+00  0.00000000E+00
  0.00000000E+00  0.00000000E+00  0.00000000E+00
  0.00000000E+00  0.00000000E+00  0.00000000E+00
  0.00000000E+00  0.00000000E+00  0.00000000E+00
  0.00000000E+00  0.00000000E+00  0.00000000E+00
  0.00000000E+00  0.00000000E+00  0.00000000E+00
  0.00000000E+00  0.00000000E+00  0.00000000E+00
  0.00000000E+00  0.00000000E+00  0.00000000E+00
  0.00000000E+00  0.00000000E+00  0.00000000E+00
  0.00000000E+00  0.00000000E+00  0.00000000E+00
  0.00000000E+00  0.00000000E+00  0.00000000E+00
  0.00000000E+00  0.00000000E+00  0.00000000E+00
  0.00000000E+00  0.00000000E+00  0.00000000E+00
  0.00000000E+00  0.00000000E+00  0.00000000E+00
  0.00000000E+00  0.00000000E+00  0.00000000E+00
  0.00000000E+00  0.00000000E+00  0.00000000E+00
  0.00000000E+00  0.00000000E+00  0.00000000E+00
  0.00000000E+00  0.00000000E+00  0.00000000E+00
  0.00000000E+00  0.00000000E+00  0.00000000E+00
  0.00000000E+00  0.00000000E+00  0.00000000E+00
  0.00000000E+00  0.00000000E+00  0.00000000E+00
  0.00000000E+00  0.00000000E+00  0.00000000E+00
  0.00000000E+00  0.00000000E+00  0.00000000E+00
  0.00000000E+00  0.00000000E+00  0.00000000E+00
  0.00000000E+00  0.00000000E+00  0.00000000E+00
  0.00000000E+00  0.00000000E+00  0.00000000E+00
  0.00000000E+00  0.00000000E+00  0.00000000E+00
  0.00000000E+00  0.00000000E+00  0.00000000E+00
  0.00000000E+00  0.00000000E+00  0.00000000E+00
  0.00000000E+00  0.00000000E+00  0.00000000E+00
  0.00000000E+00  0.00000000E+00  0.00000000E+00
  0.00000000E+00  0.00000000E+00  0.00000000E+00
  0.00000000E+00  0.00000000E+00  0.00000000E+00
  0.00000000E+00  0.00000000E+00  0.00000000E+00
  0.00000000E+00  0.00000000E+00  0.00000000E+00
  0.00000000E+00  0.00000000E+00  0.00000000E+00
  0.00000000E+00  0.00000000E+00  0.00000000E+00
  0.00000000E+00  0.00000000E+00  0.00000000E+00
  0.00000000E+00  0.00000000E+00  0.00000000E+00
  0.00000000E+00  0.00000000E+00  0.00000000E+00
  0.00000000E+00  0.00000000E+00  0.00000000E+00
  0.00000000E+00  0.00000000E+00  0.00000000E+00
  0.00000000E+00  0.00000000E+00  0.00000000E+00
  0.00000000E+00  0.00000000E+00  0.00000000E+00
  0.00000000E+00  0.00000000E+00  0.00000000E+00
  0.00000000E+00  0.00000000E+00  0.00000000E+00
  0.00000000E+00  0.00000000E+00  0.00000000E+00
  0.00000000E+00  0.00000000E+00  0.00000000E+00
  0.00000000E+00  0.00000000E+00  0.00000000E+00
  0.00000000E+00  0.00000000E+00  0.00000000E+00
  0.00000000E+00  0.00000000E+00  0.00000000E+00
  0.00000000E+00  0.00000000E+00  0.00000000E+00
  0.00000000E+00  0.00000000E+00  0.00000000E+00
  0.00000000E+00  0.00000000E+00  0.00000000E+00
  0.00000000E+00  0.00000000E+00  0.00000000E+00
  0.00000000E+00  0.00000000E+00  0.00000000E+00
  0.00000000E+00  0.00000000E+00  0.00000000E+00
  0.00000000E+00  0.00000000E+00  0.00000000E+00
  0.00000000E+00  0.00000000E+00  0.00000000E+00
  0.00000000E+00  0.00000000E+00  0.00000000E+00
  0.00000000E+00  0.00000000E+00  0.00000000E+00
  0.00000000E+00  0.00000000E+00  0.00000000E+00
  0.00000000E+00  0.00000000E+00  0.00000000E+00
  0.00000000E+00  0.00000000E+00  0.00000000E+00
  0.00000000E+00  0.00000000E+00  0.00000000E+00
  0.00000000E+00  0.00000000E+00  0.00000000E+00
  0.00000000E+00  0.00000000E+00  0.00000000E+00
  0.00000000E+00  0.00000000E+00  0.00000000E+00
  0.00000000E+00  0.00000000E+00  0.00000000E+00
  0.00000000E+00  0.00000000E+00  0.00000000E+00
  0.00000000E+00  0.00000000E+00  0.00000000E+00
  0.00000000E+00  0.00000000E+00  0.00000000E+00
  0.00000000E+00  0.00000000E+00  0.00000000E+00
  0.00000000E+00  0.00000000E+00  0.00000000E+00
  0.00000000E+00  0.00000000E+00  0.00000000E+00
  0.00000000E+00  0.00000000E+00  0.00000000E+00
  0.00000000E+00  0.00000000E+00  0.00000000E+00
  0.00000000E+00  0.00000000E+00  0.00000000E+00
  0.00000000E+00  0.00000000E+00  0.00000000E+00
  0.00000000E+00  0.00000000E+00  0.00000000E+00
  0.00000000E+00  0.00000000E+00  0.00000000E+00
  0.00000000E+00  0.00000000E+00  0.00000000E+00
  0.00000000E+00  0.00000000E+00  0.00000000E+00
  0.00000000E+00  0.00000000E+00  0.00000000E+00
  0.00000000E+00  0.00000000E+00  0.00000000E+00
  0.00000000E+00  0.00000000E+00  0.00000000E+00
  0.00000000E+00  0.00000000E+00  0.00000000E+00
  0.00000000E+00  0.00000000E+00  0.00000000E+00
  0.00000000E+00  0.00000000E+00  0.00000000E+00
  0.00000000E+00  0.00000000E+00  0.00000000E+00
  0.00000000E+00  0.00000000E+00  0.00000000E+00
  0.00000000E+00  0.00000000E+00  0.00000000E+00
  0.00000000E+00  0.00000000E+00  0.00000000E+00
  0.00000000E+00  0.00000000E+00  0.00000000E+00
  0.00000000E+00  0.00000000E+00  0.00000000E+00
  0.00000000E+00  0.00000000E+00  0.00000000E+00
  0.00000000E+00  0.00000000E+00  0.00000000E+00
  0.00000000E+00  0.00000000E+00  0.00000000E+00
  0.00000000E+00  0.00000000E+00  0.00000000E+00
  0.00000000E+00  0.00000000E+00  0.00000000E+00
  0.00000000E+00  0.00000000E+00  0.00000000E+00
  0.00000000E+00  0.00000000E+00  0.00000000E+00
  0.00000000E+00  0.00000000E+00  0.00000000E+00
  0.00000000E+00  0.00000000E+00  0.00000000E+00
  0.00000000E+00  0.00000000E+00  0.00000000E+00
  0.00000000E+00  0.00000000E+00  0.00000000E+00
  0.00000000E+00  0.00000000E+00  0.00000000E+00
  0.00000000E+00  0.00000000E+00  0.00000000E+00
  0.00000000E+00  0.00000000E+00  0.00000000E+00
  0.00000000E+00  0.00000000E+00  0.00000000E+00
  0.00000000E+00  0.00000000E+00  0.00000000E+00
  0.00000000E+00  0.00000000E+00  0.00000000E+00
  0.00000000E+00  0.00000000E+00  0.00000000E+00
  0.00000000E+00  0.00000000E+00  0.00000000E+00
  0.00000000E+00  0.00000000E+00  0.00000000E+00
  0.00000000E+00  0.00000000E+00  0.00000000E+00
  0.00000000E+00  0.00000000E+00  0.00000000E+00
  0.00000000E+00  0.00000000E+00  0.00000000E+00
  0.00000000E+00  0.00000000E+00  0.00000000E+00
  0.00000000E+00  0.00000000E+00  0.00000000E+00
  0.00000000E+00  0.00000000E+00  0.00000000E+00
  0.00000000E+00  0.00000000E+00  0.00000000E+00
  0.00000000E+00  0.00000000E+00  0.00000000E+00
  0.00000000E+00  0.00000000E+00  0.00000000E+00
  0.00000000E+00  0.00000000E+00  0.00000000E+00
  0.00000000E+00  0.00000000E+00  0.00000000E+00
  0.00000000E+00  0.00000000E+00  0.00000000E+00
  0.00000000E+00  0.00000000E+00  0.00000000E+00
  0.00000000E+00  0.00000000E+00  0.00000000E+00
  0.00000000E+00  0.00000000E+00  0.00000000E+00
  0.00000000E+00  0.00000000E+00  0.00000000E+00
  0.00000000E+00  0.00000000E+00  0.00000000E+00
  0.00000000E+00  0.00000000E+00  0.00000000E+00
  0.00000000E+00  0.00000000E+00  0.00000000E+00
  0.00000000E+00  0.00000000E+00  0.00000000E+00