 C  H 
 1.0000000000000000
    32.3722991942999982    0.0000000000000000    0.0000000000000000
     0.0000000000000000   19.9214134216000005    0.0000000000000000
     0.0000000000000000    0.0000000000000000   40.4480476378999967
 C   H  
 364   1
Cartesian
 12.0096481995886322 10.7241035892394461  0.1000643918891305
 11.9396975142519626 10.8336057550839211  2.5447888687345062
 10.9452510602820148 11.8534576363650999  2.4719318517159157
 10.3766018199918406 12.1807799225550237  1.2116804935214187
  8.9950072342116609 12.5272393392922989  1.1381687790782056
 11.8656331265288415 10.9402920480981258  4.9894412146753027
 10.8367057225721961 11.9256245602594273  4.9167566628290649
 10.2572969841213357 12.2331920668272751  3.6566434888731791
  8.8644188192628217 12.5317009700096396  3.5829394906142396
  8.2099180743194538 12.4892250293574811  2.3227479096445900
  6.8678013851566480 12.0122622811881410  2.2492963220140925
  6.3331055546328869 11.6325203456371931  0.9888656548310827
  5.4406238848062234 10.5223855114480713  0.9153931561642380
 11.7863341387675042 11.0439397110572290  7.4341678361394079
 10.7249671836222387 11.9942825166292231  7.3617512487953585
 10.1357282807344564 12.2814817230840081  6.1014399798414374
  8.7337317500443703 12.5321378740527098  6.0277397052632171
  8.0811654891815099 12.4668355787787242  4.7674301526521985
  6.7563559483027946 11.9437751559319612  4.6940489937072689
  6.2349712310678314 11.5460946094270565  3.4337446884663998
  5.3811832513543525 10.4058048041194269  3.3598810207611085
  5.1459970169150093  9.7936949583375696  2.0998004090540676
  5.0172988342598659  8.3750575194736072  2.0260243188486977
  5.1387269578680224  7.7303123672034246  0.7659528746060377
  5.7736637526184431  6.4552892375481088  0.6927213592225049
 11.7028070690312536 11.1451146271827177  9.8781260147174113
 10.6114228517453437 12.0596650410055446  9.8065191471088333
 10.0126732475621445 12.3268390038151843  8.5463628212754212
  8.6025630743558779 12.5290237665997797  8.4725450868523531
  7.9530137322307519 12.4409807336529958  7.2124991292663925
  6.6468963183360952 11.8716625112603680  7.1388398276132392
  6.1398208279037343 11.4560836165544089  5.8786874578322026
  5.3258713254054317 10.2870235578378022  5.8045168299232985
  5.1120872231963865  9.6671800653956623  4.5442527051027568
  5.0321035844359603  8.2450915376575171  4.4704975124011597
  5.1755629733951967  7.6050640242673895  3.2101760967999371
  5.8538008028947992  6.3525634617965707  3.1365680444067254
  6.3120270395014479  5.8828239494985723  1.8768479777924389
  7.5468467864145437  5.1726942261767439  1.8030821795247811
  8.1836852049435205  5.0133540283331204  0.5434642700730180
  9.6073916035522320  5.0572291098720239  0.4704988925886022
 12.0139057141750083 10.7169440584297515 13.5793680280611166
 11.6221760419745621 11.2459877626366627 12.3226532213582587
 10.4967643629466849 12.1213049764331622 12.2512882205537768
  9.8891738398014351 12.3678429681518782 10.9930781702490137
  8.4713804864027189 12.5197092325292800 10.9183613889007969
  7.8257463997592938 12.4095319186694883  9.6580943681636793
  6.5403603655233722 11.7952816310119921  9.5837820827908189
  6.0481829348694633 11.3622571944567863  8.3232723537747066
  5.2754060743883313 10.1658693563813340  8.2489459890894068
  5.0826969624999219  9.5392859021478102  6.9886356438061634
  5.0516033080994882  8.1151431988594709  6.9149982719926610
  5.2164250059819350  7.4807490449267648  5.6546939028443051
  5.9373073807503678  6.2521436534710553  5.5806773151654454
  6.4116505286430803  5.7989610533114604  4.3208174565180455
  7.6700726087936673  5.1319458521020316  4.2469953801333977
  8.3121692994878842  4.9948392309767540  2.9872283340874395
  9.7334712097912597  5.0878835381032932  2.9142083388043978
 10.3521005308562479  5.3077886839733806  1.6547225488488013
 11.5133592590897145  6.1327847441642671  1.5812387542485293
 11.9246350598437481  6.6443605454141936  0.3215894987050887
 12.4808753082658157  7.9556847354839899  0.2487456640943055
 11.9735706090838701 10.8333224344333292 16.0214199445776551
 11.5471083341071843 11.3400519380637324 14.7746219588466605
 10.3769424185230328 12.1644061850764000 14.6993322444437204
  9.7627084912180688 12.3937595992194112 13.4410133688791955
  8.3411915995548682 12.4990513476966001 13.3648018556250445
  7.6996275847070299 12.3707431195200197 12.1029726763833203
  6.4352856814547161 11.7149136901234439 12.0280185820112635
  5.9585703305100166 11.2659445392278350 10.7675934638543804
  5.2275537230269942 10.0429806442791456 10.6931601731161212
  5.0575713371145277  9.4101494931411214  9.4331852752016569
  5.0760472411830033  7.9856927489804557  9.3596810420283436
  5.2627046976406069  7.3575801684386750  8.0992927799109236
  6.0250569930179418  6.1545585188905427  8.0250997334959084
  6.5139932988469997  5.7179808330752726  6.7647524222199715
  7.7943457669783855  5.0942974729139348  6.6909451659550685
  8.4406980316744136  4.9797248166334001  5.4311589078939226
  9.8580665871566833  5.1215606672241352  5.3579190586590926
 10.4690032170928156  5.3632943240459490  4.0986338519538901
 11.6012755161498937  6.2275208350808411  4.0253405148475867
 11.9949296153603999  6.7533611610106057  2.7657154140954727
 12.5059688598409160  8.0828928023654179  2.6931852621893335
 12.5654972644144429  8.7367265649653252  1.4333542904462229
 12.3021732927561835 10.1366411802882563  1.3600081707661276
 11.8776347921619898 10.9393163183701247 18.4716592273909690
 11.4363857521602039 11.4004330992919236 17.2242461961415927
 10.2419065268261900 12.1801112840847576 17.1437050273196085
  9.6275356270809773 12.4025345488041641 15.8827475870299768
  8.2056405036117930 12.4754048949142256 15.8076345251762937
  7.5701814249979815 12.3296034998219692 14.5466099737514352
  6.3262665216818004 11.6335884399098433 14.4716442899861431
  5.8690714899892136 11.1666207647732723 13.2116646928032591
  5.1824089768657133  9.9184679879399322 13.1375041349081556
  5.0364943705366088  9.2797228778295651 11.8773234572087123
  5.1054520272778836  7.8572725552190628 11.8040695575659633
  5.3134519217450826  7.2357827935790384 10.5436727193369411
  6.1165266343467870  6.0594314027535292 10.4694146501105347
  6.6196099556120735  5.6396466069067568  9.2091423056689692
  7.9203428406342971  5.0589869155097480  9.1353389939831473
  8.5699351136602182  4.9675319692117750  7.8753716434911736
  9.9814125275060590  5.1575917634490027  7.8018297645336991
 10.5834772077846910  5.4214914867528563  6.5423678576981761
 11.6850919520843775  6.3243080412061712  6.4691733330233001
 12.0610219355899044  6.8638124086927519  5.2099172599937997
 12.5258278964366294  8.2104421311321314  5.1374309327119256
 12.5633787873649077  8.8662566145977220  3.8779654446447838
 12.2522513536451072 10.2564004678630081  3.8047629625207349
 11.8151492586614797 11.0429486216518296 20.9225586564897483
 11.3384647124026525 11.4834202239577952 19.6471251206310775
 10.1198113566504162 12.2263462033658588 19.5793305321411815
  9.4940007954954790 12.4190139244673770 18.3238819698954032
  8.0670297217155067 12.4576576909192003 18.2502824484652386
  7.4382600509163037 12.2870756185456020 16.9910527692243427
  6.2194397960891408 11.5497427742931045 16.9164058410240052
  5.7798861454301864 11.0658583191164404 15.6554541036012207
  5.1404625359363090  9.7935378839500213 15.5819257506203321
  5.0179918473070728  9.1495615725613035 14.3216914721634172
  5.1379739689553698  7.7300106597840523 14.2483730123725820
  5.3680796159142607  7.1160688994877415 12.9885628848559627
  6.2106510642699675  5.9672453659992026 12.9143032457893199
  6.7281463930463827  5.5648388081669458 11.6539787321284951
  8.0472974257724417  5.0279050741763429 11.5805046403881864
  8.6997384773885926  4.9583689581980366 10.3198612117767041
 10.1037380790653959  5.1965673767579741 10.2458951353117573
 10.6962755610004514  5.4810305206232179  8.9864962723926869
 11.7655956167213347  6.4226785481086077  8.9131093452210663
 12.1220836369095206  6.9758186579019643  7.6542377166519673
 12.5395170164989089  8.3378389968175544  7.5814776679064071
 12.5550371376588181  8.9950641640881379  6.3222366232691058
 12.1964819483458644 10.3735576124025126  6.2493717996316152
 11.7102703354264932 11.1429898215654255 23.3648599200187697
 11.2595137160062340 11.6059315870260438 22.0943102682828076
 10.0117133817371222 12.3066981742282362 22.0225737484370718
  9.3698305449544037 12.4515453645468401 20.7652375190666696
  7.9460461961976581 12.4295278134330580 20.6936290751114349
  7.3149314145078517 12.2402676162900654 19.4343013766490316
  6.1225936250179549 11.4603784969772242 19.3608896777119455
  5.6954866959283104 10.9638446774599885 18.1008205325049261
  5.1028054497307460  9.6671694657541494 18.0273058175420395
  5.0040380895054604  9.0193189345799301 16.7673068171591026
  5.1742153430809514  7.6048474429490662 16.6936356125525265
  5.4261388676429307  6.9988020778947941 15.4334396191260215
  6.3065653990844597  5.8794795133291737 15.3594263616931723
  6.8382399714347901  5.4940907516381143 14.0988983976193634
  8.1753333108249020  5.0032528130262648 14.0256731510117021
  8.8295852273331974  4.9542073490343670 12.7654304981027735
 10.2249962309690439  5.2418799801000651 12.6911706000310858
 10.8069931609251277  5.5455152202861209 11.4315432692358279
 11.8418379118960821  6.5243176527824458 11.3573157237698936
 12.1783365357704607  7.0896564045901620 10.0978436754080576
 12.5469658445181818  8.4652573301511556 10.0242071816079505
 12.5410460040162164  9.1227259615095004  8.7658399676123384
 12.1356688392901049 10.4887324533012603  8.6936121514207549
 11.6200089180157580 11.2425007703292064 25.8070093296003904
 11.1497319268239536 11.6976343730791967 24.5455545523378937
  9.8899228991461854 12.3646488401456889 24.4704370547092083
  9.2491377913685575 12.4919535924548111 23.2065792966381395
  7.8262150017723204 12.4029466127608217 23.1364758875100165
  7.2024443963370324 12.1869570666840907 21.8791768123392423
  6.0377934294022051 11.3650737581035539 21.8062540039242592
  5.6248714246542502 10.8535990908214970 20.5467561287042102
  5.0764460052028069  9.5394097623823857 20.4734625598445028
  4.9975093528790246  8.8884218898162466 19.2124315242800385
  5.2162997612114275  7.4813126152060274 19.1388344309309772
  5.4867268670925258  6.8841567455319916 17.8783354059898585
  6.4050938950051428  5.7952373805733179 17.8043583113186870
  6.9491222944444182  5.4281553348302891 16.5448181951330007
  8.3043966369019593  4.9885717388521007 16.4715322361183638
  8.9599726913810773  4.9626726647404551 15.2120031111198006
 10.3415921962877988  5.3065039920447559 15.1383813923034900
 10.9134360259225307  5.6222264033401990 13.8762397215793314
 11.9128308541706929  6.6342203300393630 13.8000273615643803
 12.2317838800171668  7.2061134596566063 12.5410146026658396
 12.5513582396032621  8.5949667831611052 12.4653651088924313
 12.5213892532287510  9.2508056557936271 11.2082666221746905
 12.0720510031340371 10.6025027913060281 11.1376380497045702
 11.5334378674254285 11.3405983718172116 28.2512641887772666
 11.0439303289953035 11.7776530819974035 26.9908850272842109
  9.7647049144539935 12.4030836646176805 26.9161269967633636
  9.1198373104928052 12.5178460323329155 25.6537570216219386
  7.7011806269647360 12.3740684596450983 25.5821372840917149
  7.0908854086149029 12.1309518756116788 24.3229644803042540
  5.9577632724284788 11.2675050440914273 24.2506535218341028
  5.5615164900069942 10.7423655283588477 22.9911393923000382
  5.0549314811814234  9.4111026939387461 22.9182327079230355
  4.9964861533126266  8.7577272128610222 21.6582008778597199
  5.2625874912844077  7.3582851596091752 21.5846591597234578
  5.5542998716351493  6.7712477679948657 20.3245103941584233
  6.5095888939507436  5.7160067552409535 20.2516912600087267
  7.0657330384061439  5.3694095819983527 18.9902372961736958
  8.4334658894405639  4.9830005309295329 18.9167084492210762
  9.0902933298280377  4.9857235834195883 17.6566355210128627
 10.4532577296021412  5.3904551143593489 17.5826153829990730
 11.0103966550898118  5.7244158650566472 16.3223712204449640
 11.9712151049859852  6.7732883586502579 16.2457919501733095
 12.2782571940052989  7.3357448173563151 14.9835850596927020
 12.5615910590908317  8.7273445095641247 14.9041848030799500
 12.5025283558121458  9.3813958824466290 13.6466256108697568
 11.4443304559617065 11.4357050593174332 30.6956637599738826
 10.9397675625420128 11.8552059764414999 29.4352449128741860
  9.6385777804319197 12.4348955487889246 29.3614498364741543
  8.9891571825700538 12.5282044143536631 28.1008128034226736
  7.5774184383475456 12.3363259457502892 28.0278827464717999
  6.9764755133020380 12.0729607794564959 26.7672648739050416
  5.8755580373353338 11.1687995573768202 26.6949524342458595
  5.4996466909648625 10.6301671099937565 25.4354427377492804
  5.0363880612398777  9.2828908298835984 25.3627598299278603
  5.0006372637411962  8.6272812523160098 24.1030665455074598
  5.3136659001148816  7.2380272812954436 24.0295289409037380
  5.6257020746210804  6.6609278364785123 22.7692553555913513
  6.6180436892193057  5.6391863983169106 22.6964552039093874
  7.1848139870573240  5.3110382488405605 21.4357672558482726
  8.5671372085434090  4.9671385062925069 21.3619178301864707
  9.2221279005348649  5.0003764923909060 20.1011401643574281
 10.5699734969701211  5.4505058175346903 20.0276086577798687
 11.1136792754617240  5.8342626825323860 18.7669360287170761
 12.0467174419461855  6.8986745940398331 18.6939159240032247
 12.3271872937173370  7.4954537900167635 17.4256552855120965
 12.6460269931856448  8.8633859739798719 17.3335820308814945
 12.5328703545676188  9.5109257308817359 16.0878016686940413
 11.3509258065422145 11.5271141740875329 33.1402144257099707
 10.8323584971474460 11.9289104731897115 31.8799457002021072
  9.5115169016868162 12.4622486658896872 31.8066725716642225
  8.8590169062982902 12.5322937194416983 30.5462901647383909
  7.4550651026953716 12.2923395339981543 30.4729031829070820
  6.8631490271765632 12.0098096987526723 29.2124038044403882
  5.7938921491752851 11.0680612568107399 29.1398425726584946
  5.4382557024182141 10.5163550806228177 27.8800102033900714
  5.0207193526097793  9.1545269285773969 27.8072495958691910
  5.0071055286068704  8.4980540451079047 26.5473512675961310
  5.3669662164723704  7.1198812584404561 26.4739870991618531
  5.6994533390269373  6.5536074986364126 25.2142143269219936
  6.7270734310404698  5.5669795314058437 25.1416719947445948
  7.3063071234505506  5.2581902236765377 23.8814822042872521
  8.6983035231813091  4.9575081841274642 23.8078168831927819
  9.3524514823954608  5.0041180110090755 22.5462489901973981
 10.6915483024572264  5.4882582241556097 22.4730502773421712
 11.2178122350693119  5.8857200231686306 21.2132918711646461
 12.1058390198535442  6.9970126360980514 21.1442204407833678
 12.3765204479444613  7.6178485827945561 19.8875535225648754
 12.6451081273956838  8.9981626235980006 19.8353604347364119
 12.8187667429170666  9.7373203138299029 18.5431909988629791
 11.2541327696165734 11.6147700294466762 35.5851088684219761
 10.7220607667806735 11.9984526755140770 34.3247344906997967
  9.3835765763026249 12.4855337263011172 34.2516366068406910
  8.7291357542936332 12.5328600112360800 32.9913131161316002
  7.3341649376202032 12.2444637737927025 32.9177552649633682
  6.7520624658930695 11.9415573366949896 31.6576463951480989
  5.7156410110829787 10.9642140780918460 31.5849321297411301
  5.3793166513690229 10.4008639651483517 30.3246343511088021
  5.0086984650601201  9.0254689563073534 30.2517785356562285
  5.0171960297275628  8.3691046416661052 28.9919768265092088
  5.4236111913396314  7.0037663017263299 28.9189372545183083
  5.7758076355128729  6.4494484275684458 27.6591155507162547
  6.8372132287917431  5.4997436327498193 27.5867136394330004
  7.4268913270102823  5.2107143492126760 26.3267240800972786
  8.8285139729840783  4.9578108975191713 26.2535159813233143
  9.4813139567876608  5.0211861473428936 24.9931475010946578
 10.8058536124080025  5.5451005208000828 24.9210428384117151
 11.3251265720348080  5.9476728568662800 23.6607415361067481
 12.1763205236783669  7.0873152704570677 23.5915554518677375
 12.4101006797704034  7.7054913228103743 22.3327642563717959
 12.5468060639767849  9.1194798163625155 22.2646260690734934
 12.4723085619966465  9.7682206783526393 21.0042367870578559
 11.1540328747939430 11.6982496087417900 38.0300165121280997
 10.6091051146795241 12.0636739941291768 36.7696438392073546
  9.2545880624336547 12.5043933616148113 36.6965161196515908
  8.5989887253727009 12.5291394058462586 35.4362575044571813
  7.2149338416091906 12.1926196889697245 35.3626626691316304
  6.6437202841189347 11.8696712950268619 34.1024781567259012
  5.6414171192204154 10.8575266224924345 34.0297415399646326
  5.3239775316997981 10.2832042540322668 32.7695456007979757
  5.0010819881548656  8.8957046701852818 32.6964570101629235
  5.0321966136494529  8.2401770823521403 31.4366165843926346
  5.4852392701164483  6.8897442617703737 31.3638686613207902
  5.8555721174004240  6.3479127996008380 30.1038147753024923
  6.9496076542776475  5.4358011781336870 30.0313055107907267
  7.5489679178272233  5.1680355732898580 28.7716623027883180
  8.9587595410972156  4.9652120231934243 28.6986809906317539
  9.6090597487612222  5.0507603502701341 27.4386535782286494
 10.9145843320394533  5.6192834026831910 27.3663388741923548
 11.4216342333176666  6.0338760092794272 26.1055839175419422
 12.2327323677316908  7.2045614761801833 26.0336221568905337
 12.4458080336521277  7.8247458454595042 24.7747020408629943
 12.5219864925328448  9.2475426110359695 24.7030696372111080
 12.3811034083591807  9.8896794218570445 23.4453943630219470
 11.0510492563131226 11.7777516413349925  0.0269852597444178
 10.4939839886052990 12.1245006205354979 39.2147047476804573
  9.1251348276621211 12.5183444146888867 39.1413928033367213
  8.4690199548251073 12.5207362569453871 37.8811540595677414
  7.0974084056385243 12.1367226066387630 37.8075500008684386
  6.5376767454309332 11.7943984617773996 36.5472877417584243
  5.5709986291164233 10.7481501830863344 36.4744298121439243
  5.2736495500823120 10.1632908052392938 35.2144104757041845
  4.9987697442968084  8.7656722005373773 35.1410451439267675
  5.0521705977714984  8.1116516529943574 33.8811143836826716
  5.5516186407724835  6.7777391435604146 33.8084692409335403
  5.9399975474462723  6.2490160884307207 32.5484913495090780
  7.0653497863738748  5.3757255308693441 32.4757293825046247
  7.6732554988554327  5.1295833485008666 31.2160059278153774
  9.0892425473592109  4.9767562155492637 31.1430167949354342
  9.7356994530962453  5.0855578118322846 29.8829720777892156
 11.0209415774765525  5.6990273588015219 29.8101673453123226
 11.5134149490995537  6.1304058550673384 28.5500767881684503
 12.2848655929141852  7.3278845240308437 28.4767004503521903
 12.4750787725355572  7.9542655646417142 27.2168507661548240
 12.5041533626059440  9.3780955513986317 27.1439155663283174
 12.3375860048836277 10.0124692389638632 25.8841186501338463
  8.3394081175127663 12.5073959370836896 40.3260026998310295
  6.9817471812581582 12.0764482647122886 40.2524542873964890
  6.4342176285792929 11.7152459755045335 38.9921418374663276
  5.5041137890466167 10.6363969855199212 38.9190148619607612
  5.2272829541657329 10.0415828567829806 37.6589841698873471
  5.0008935778261598  8.6353757838777536 37.5854316204564114
  5.0769903236591922  7.9837580147946552 36.3254895206496116
  5.6223415570342761  6.6678911106171030 36.2527860490186740
  6.0288122637904831  6.1531543628980447 34.9929047832135112
  7.1836032087608501  5.3193541314344799 34.9197469081522556
  7.7996740099650239  5.0947701281485172 33.6599295457678807
  9.2201675314540434  4.9911677570962665 33.5869110493154963
  9.8621734458440837  5.1231152309243386 32.3269568915678605
 11.1256882054270516  5.7805326342337331 32.2538268904577166
 11.6024656100254564  6.2297276244157356 30.9938638944590501
 12.3331951047505815  7.4522746535492761 30.9200663893885732
 12.5025647471598038  8.0848485403754466 29.6597697440813448
 12.4838526642145968  9.5091544043868623 29.5864516083118865
 12.2954056481100249 10.1369016950377553 28.3265152300897611
  5.1847127583585220  9.9183621552496319 40.1033770576647655
  5.0070358270678419  8.5050717743144624 40.0296642191675502
  5.1058553089549479  7.8564379723630378 38.7697631929621096
  5.6963670157345678  6.5601943906730984 38.6968548830118877
  6.1206445756799353  6.0598651702786874 37.4370206360826501
  7.3035605463332738  5.2663702581825342 37.3635442144417880
  7.9271752966543181  5.0633672589702829 36.1037633236048308
  9.3504986663956693  5.0089561907971181 36.0307854668879557
  9.9876338832323999  5.1634966800233126 34.7708379014051729
 11.2277890601478365  5.8641555797279272 34.6975288541484304
 11.6888173340310200  6.3301367203221552 33.4375727147480291
 12.3771788215389975  7.5771365079875501 33.3638092242703976
 12.5252263041806451  8.2155675341470200 32.1036380203627090
 12.4576735878446634  9.6384628585353056 32.0302665467163763
 12.2482265266651478 10.2598288101050095 30.7701164917210122
  6.2152387863675038  5.9698555260596589 39.8809829396682431
  7.4247833010321278  5.2175567168443742 39.8073219432863468
  8.0552381328414420  5.0360603781399114 38.5476414583165052
  9.4797050815974870  5.0308183466046765 38.4747291204850299
 10.1112999502049856  5.2076521840060810 37.2148453417468801
 11.3264410721784046  5.9508271837784967 37.1413825763622043
 11.7713589837575707  6.4325789518843157 35.8814552078944331
 12.4161291344683509  7.7026648898356367 35.8080115931727931
 12.5421946134075490  8.3462083393097171 34.5478177037602734
 12.4252973809672973  9.7658040868734286 34.4744904804713386
 12.1951597252507451 10.3797812391685742 33.2142469162896532
 10.2331068491739927  5.2554822208939802 39.6588314061554854
 11.4219333238483980  6.0402003358743785 39.5853149985076982
 11.8500359178650676  6.5373086636923095 38.3254887330188225
 12.4508663665221633  7.8287830003091168 38.2523603736058462
 12.5546101762514155  8.4765798331592439 36.9922134125693063
 12.3887964482748796  9.8913360535636734 36.9188881633773960
 12.1374991203348355 10.4973397928014034 35.6587795883569285
 12.5624656293336887  8.6067964385123243 39.4367435558590955
 12.3476967329028771 10.0149100068828734 39.3634128123318234
 12.0756499545298119 10.6120743425702724 38.1033824284661975
 13.8640640642208322 10.1293756147320355 18.5235355623690339
