Ge Se                                   
    1.000000000000000     
     3.8499999999999996    0.0000000000000000    0.0000000000000000
     0.0000000000000000    4.3999999999999995    0.0000000000000000
     0.0000000000000000    0.0000000000000000   11.1422209999999993
   Ge   Se
     4     4
Selective dynamics
Direct
  0.2500000000000000  0.1069702432805428  0.1245452758588783   T   T   T
  0.7500000000000000  0.6069702432805428  0.3754547241411217   T   T   T
  0.7500000000000000  0.8930297567194572  0.8754547241411217   T   T   T
  0.2500000000000000  0.3930297567194572  0.6245452758588783   T   T   T
  0.2500000000000000  0.9981702822833114  0.3534834350255238   T   T   T
  0.7500000000000000  0.4981702822833114  0.1465165649744762   T   T   T
  0.7500000000000000  0.0018297177166886  0.6465165649744762   T   T   T
  0.2500000000000000  0.5018297177166886  0.8534834350255238   T   T   T
 
  0.00000000E+00  0.00000000E+00  0.00000000E+00
  0.00000000E+00  0.00000000E+00  0.00000000E+00
  0.00000000E+00  0.00000000E+00  0.00000000E+00
  0.00000000E+00  0.00000000E+00  0.00000000E+00
  0.00000000E+00  0.00000000E+00  0.00000000E+00
  0.00000000E+00  0.00000000E+00  0.00000000E+00
  0.00000000E+00  0.00000000E+00  0.00000000E+00
  0.00000000E+00  0.00000000E+00  0.00000000E+00
