 S  O                                   
    1.000000000000000     
    32.3722991942999982    0.0000000000000000    0.0000000000000000
     0.0000000000000000   19.9214134216000005    0.0000000000000000
     0.0000000000000000    0.0000000000000000   40.4480476378999967
   S    O 
     1     1
Direct
  0.4405864396928306  0.4513262356422211  0.4896798915565442
  0.4246775817434939  0.3807237658916868  0.4914401236605924
 
  0.00000000E+00  0.00000000E+00  0.00000000E+00
  0.00000000E+00  0.00000000E+00  0.00000000E+00
