 S  O 
 1.0000000000000000
    32.3722991942999982    0.0000000000000000    0.0000000000000000
     0.0000000000000000   19.9214134216000005    0.0000000000000000
     0.0000000000000000    0.0000000000000000   40.4480476378999967
 S   O  
   1   1
Cartesian
 14.2642707820000005  8.9945182799999994 19.8053874970000017
 13.7463150019999993  7.5810937880000004 19.8790016170000001
