Ge Se 
 1.0000000000000000
    12.4227782689350370    0.0000012399936045   -0.0000018199533287
     0.0000012496706107   12.5197261988892414   -0.0000009538605730
    -0.0000020907869214   -0.0000010873223388   11.0866048009378719
 Ge  Se 
  36  36
Cartesian
  1.0234563291710559  0.6217699463741837  1.4573313617766779
  2.7617419836655563 10.9568706010121470  4.2568966125960630
  7.1386094096960342  2.3785093524954544  4.1041534371013428
  7.1129601425638471  6.9954023189775008  3.9977371515538147
  6.8455868356535543 10.8834622333678581  4.1359366069404153
 10.9651653460081349  2.4008504845741307  4.1647734592989361
 11.1924143554374940  6.8484413693573254  3.9612702765477836
 11.4213621963155152 11.0100729970866951  3.9007905795334215
  0.8062181246907651  1.8316063152970623  6.9859475160278039
  1.0201637554578782  6.0978823476291986  7.0279673422738549
  0.8663702158405342 10.3483988241002258  7.1524925659003085
  4.8044192399445755  2.0542276457382065  7.0411785314514059
  5.1790082928863637  6.0749249392274640  6.8363489303484624
  4.8257429898765665 10.2699881066037815  7.0329348384094628
  8.9524072087849529  1.8653708951358592  6.9215001583164701
  9.0587769677041372  6.3289985640638164  6.9357808294808825
  2.7177555699399711  6.7583861480330754  3.9136517595410814
  3.0697828149317865  2.8157650255012920  4.1966268964391489
  9.0080919562653765 10.1266821189580867  7.2068078565599754
 11.2671606146588701  8.0800345530164996  9.6022356937286766
 11.2078409172659690 12.3062597416813677  9.6380542640428324
  0.6306995448497169  4.4295334965159618  1.5372966464673770
  0.9115472123803184  8.9785541197085497  1.4215761074329754
  4.9003735011982448  0.5247532661930242  1.1944895135892448
  4.9697799333232187  4.6072962756071991  1.3558597039034630
  8.6893482288632153  0.5333569657639823  1.2798016495654656
  9.0551086587952998  4.6787056338426245  1.3173049280952898
  4.7616147999470506  8.6365158536545863  1.4469488025072053
  2.7287064087738577  4.0961435386785201  9.7295127797055372
  2.9896701249432556  8.2497971264787289  9.5746448792418377
  3.0055248515987740 12.5184641397778318  9.7147491585812578
  7.3532954123000804  4.0626735506097447  9.8268307103127288
  6.9340423463277192  8.2095252137315988  9.9116395412712954
  7.1461486427664562 12.2985493336249938  9.5650537121666961
 11.1500451558079714  3.9972674096224354  9.6546768365641533
  9.0597830698398258  8.9411833109155019  1.4809374778171549
 11.2364198564646376  0.2165566517714444  7.0294199885206927
  2.7627364058290231  4.3243122718503644  7.1989485953836976
  2.8949053470941744  8.5248272800865141  7.0121436059876840
  6.8713821340993695  0.1854250359799977  7.0847847911198105
  7.1737608779042654  4.4778537331791517  7.1764419355026430
  7.0552080200823406  8.3290767250361331  7.2451524785889498
 11.4466128427952913  4.4714715599484371  7.1741653081650734
  9.4113570887202496  0.2232626024202411  3.7705312123897619
  1.0276300320434013  0.2704159341104039  3.9414556643289052
  1.2169434833574773  4.5291995630369879  4.0108996379846520
  0.8212178360656296  8.5745269801194031  3.9829751349382754
  4.8556568930788400  0.1167275936341893  3.6869170308616002
  5.0662632402660925  4.3225844400135882  3.9304706189979597
  5.2620168560495468  8.6893530088581787  4.1536534738073856
  3.1123435600723623  0.2819256917701500  7.0638357412360300
 11.3068105472867817  8.6408719219986949  7.0965113043488435
 11.4328193367570314 10.7035973728039373  1.4052379476726489
  3.0763729192954972  2.3544679823175563  1.5165914427012686
 11.3436110681851048  2.3583458733106970  1.6446180038023566
  9.0488476317112880  4.2732211433152711  3.9741669168233553
  0.7882059439696133  2.2246070909044953  9.4504571664452843
  0.9797912247601859  6.6639888630228112  9.4831151654532295
  0.9024259276099537 10.7803449916937470  9.6309923705625806
  4.8686839194638569  2.4811906827764711  9.5981343411839806
  4.9604166690295113  6.4399185942335286  9.5452855023056742
  5.1055734883029551 10.4419267151913342  9.6658547204000094
  9.1927326006574788  2.3634844432322413  9.5137640849413625
  9.2003347224980629  6.3902745415129036  9.4025080423657990
  9.1912189847009209 10.5569146140082442  9.6076856878684040
  3.1604214889949667  6.6005644987971266  1.4378679398369205
  2.8450783115745701 10.5707056463694453  1.6259418751011527
  6.7530258997922541  2.2929646846573846  1.5120641054600472
  6.9828803357921192  6.5920878774000213  1.5452355962382227
  7.1305887070039624 10.8219381722954395  1.6465111270800363
 11.1347550562651278  6.3288570447679762  1.5261616364821682
  9.3456948693131761  8.4751770306356971  4.0288491648035070
