Ge Se
 1.0000000000000000
     3.8581001758999998    0.0000000000000000    0.0000000000000000
     0.0000000000000000    4.5265750884999987    0.0000000000000000
     0.0000000000000000    0.0000000000000000   11.0851764678999984
 Ge  Se 
   4   4
Cartesian
  2.5301309124561593  3.7049280055443212  1.3858277334260516
  0.6010808245061597  1.4416404612943210  4.1567605005239479
  2.8935751319250000  3.9705688836513278  9.6993487344739471
  0.9645250439749999  1.7072813394013282  6.9284159673760515
  2.5301309124561593  3.1825373595549604  3.9326089097985673
  0.6010808245061597  0.9192498153049614  1.6099793241514317
  2.8935751319250000  4.4929595296406877  7.1525675581014312
  0.9645250439749999  2.2296719853906888  9.4751971437485665
