Ge Se
 1.0000000000000000
     3.8581001758999998    0.0000000000000000    0.0000000000000000
     0.0000000000000000    4.5265750884999987    0.0000000000000000
     0.0000000000000000    0.0000000000000000   11.0851764678999984
 Ge  Se 
   4   4
Cartesian
  3.1451903607880429  1.5400442675660613  1.3858277334260516
  1.2161402728380439  3.8033318118160602  4.1567605005239479
  2.8935751319250000  3.9705688836513278  9.6993487344739471
  0.9645250439749999  1.7072813394013282  6.9284159673760515
  3.1451903607880429  1.0176536215767009  3.9326089097985673
  1.2161402728380439  3.2809411658266994  1.6099793241514317
  2.8935751319250000  4.4929595296406877  7.1525675581014312
  0.9645250439749999  2.2296719853906888  9.4751971437485665
