Ge Se                                   
    1.000000000000000     
    12.4251608174341044    0.0000031345632587    0.0000007208828668
     0.0000031560077354   12.5101710841765446   -0.0000036563000756
     0.0000008266744365   -0.0000041643825255   11.0688521652969296
   Ge   Se
    36    36
Direct
  0.0763438166555375  0.0507275715574025  0.1242142852240633
  0.2291475022339284  0.8764973261087263  0.3777375412997799
  0.5598721629835168  0.1852018050880062  0.3739216562771190
  0.5774804030067529  0.5537694654725200  0.3884688641052350
  0.5391405747905935  0.8415990634627377  0.3717643737906187
  0.8698098960539369  0.1865580212205487  0.3772164984604061
  0.9049330384187328  0.5191067095964641  0.3667253198515255
  0.9266855082316781  0.8866092889482076  0.3702068546823796
  0.0795339174455236  0.1590017834692361  0.6383174361251278
  0.0670804255084363  0.5053676742483262  0.6487414749122067
  0.0746707165553318  0.8066093892727721  0.6098387003088916
  0.3842308918369000  0.1554315265752209  0.6209042205042863
  0.4206215309896848  0.4748553851857977  0.6223584263989395
  0.4190513765703159  0.8180263284482052  0.6269663760593502
  0.7417631059525363  0.1251354432485101  0.6305103106740475
  0.7371785704488474  0.4820250287045411  0.6218204638108205
  0.2115928703143624  0.5234229254894416  0.3887602141491868
  0.2539665390045940  0.2205145797279258  0.3772100467913333
  0.7448149360019940  0.8201392708823718  0.6111666098929760
  0.8807412445584646  0.6710790758216376  0.8723641924975141
  0.9089122252007655  0.9743427046104998  0.8722733024705107
  0.0478132954962831  0.3577876601213319  0.1340773596790612
  0.0583048963068649  0.7296723475642253  0.1104512254987995
  0.3873478269475683  0.0312112597067653  0.1231610868973974
  0.4199262624477029  0.3863652642206716  0.1185060825189410
  0.7064797628582582  0.0144331768460120  0.1320930902132034
  0.7217383927974126  0.3847554683291108  0.1117191998434990
  0.3709196729636162  0.6976944616851739  0.1192552483851372
  0.2177521033939200  0.3494928586910930  0.8907714720243547
  0.2333218294762673  0.6746559775911720  0.8543107306775113
  0.2354092759791655  0.9811337583082036  0.8821470329268379
  0.5739953348501672  0.3169780959734823  0.8644100470745428
  0.5661421980621952  0.6434603743586962  0.8762136707973127
  0.5408041933467018  0.0231967100233206  0.8984710796737474
  0.9086032606468493  0.3083323610338624  0.8522593173807849
  0.7567731460041784  0.7130515895786615  0.1221361025105026
  0.9146204492634737  0.9975803885820653  0.6489343466700888
  0.2462051315818670  0.3358205139710577  0.6535116253664981
  0.2591058334575180  0.6824984532621130  0.6371172148956532
  0.5814012742202976  0.0043131409491437  0.6534457242317728
  0.5717555125237510  0.3425316483184204  0.6294872687747386
  0.5832309216350779  0.6862499038075285  0.6474041419377201
  0.8956523271477153  0.3446757971863548  0.6255798049517907
  0.7402226327313386  0.0190264041231174  0.3540176363171668
  0.0763742677276298  0.0214779713039235  0.3524432331910674
  0.0944023633645230  0.3550897101083876  0.3635618724362573
  0.0568521073743042  0.6594114957828410  0.3411458912439898
  0.4088625392675880  0.9997640058367523  0.3538454018759793
  0.4122443906425843  0.3392199229496882  0.3494372281563471
  0.4169816592990472  0.6856591395485054  0.3438259028324921
  0.2412763886180471  0.0122723204818556  0.6513780243154415
  0.9195181235735177  0.6653936062844252  0.6327257519409386
  0.9123753935107928  0.8580027884809667  0.1365828852120785
  0.2488365852199621  0.1774099853047417  0.1534241360935624
  0.9185113370479669  0.1838313504982239  0.1496425218647133
  0.7229175235391239  0.3237691197223356  0.3352080169847866
  0.0650952280442070  0.1821327524663445  0.8696804244095304
  0.0901399183550282  0.5221524960774815  0.8626308180401736
  0.0842786056482083  0.8409619446763372  0.8331602538298171
  0.4004836943329622  0.1828832583489373  0.8596820774782969
  0.3986883465005420  0.5053225187270058  0.8559299864729013
  0.4085817534161933  0.8565705309839871  0.8525765998841095
  0.7372892364479000  0.1810420373455770  0.8561517793555851
  0.7343653276388409  0.5053849479192110  0.8478306314196402
  0.7468661073167411  0.8339615198759702  0.8380176194046882
  0.2486056986574994  0.5343013293702015  0.1489661053538143
  0.2243059183562792  0.8429650032663147  0.1500192915849041
  0.5661537252892686  0.1536348653252873  0.1377944984188204
  0.5685499511214687  0.5245024398156559  0.1502562450390741
  0.5911750683800676  0.8416122310646514  0.1447893245386496
  0.9024178386950510  0.5032644937554167  0.1482659133145319
  0.7529450989567792  0.6851877759681670  0.3550298775444176
 
  0.00000000E+00  0.00000000E+00  0.00000000E+00
  0.00000000E+00  0.00000000E+00  0.00000000E+00
  0.00000000E+00  0.00000000E+00  0.00000000E+00
  0.00000000E+00  0.00000000E+00  0.00000000E+00
  0.00000000E+00  0.00000000E+00  0.00000000E+00
  0.00000000E+00  0.00000000E+00  0.00000000E+00
  0.00000000E+00  0.00000000E+00  0.00000000E+00
  0.00000000E+00  0.00000000E+00  0.00000000E+00
  0.00000000E+00  0.00000000E+00  0.00000000E+00
  0.00000000E+00  0.00000000E+00  0.00000000E+00
  0.00000000E+00  0.00000000E+00  0.00000000E+00
  0.00000000E+00  0.00000000E+00  0.00000000E+00
  0.00000000E+00  0.00000000E+00  0.00000000E+00
  0.00000000E+00  0.00000000E+00  0.00000000E+00
  0.00000000E+00  0.00000000E+00  0.00000000E+00
  0.00000000E+00  0.00000000E+00  0.00000000E+00
  0.00000000E+00  0.00000000E+00  0.00000000E+00
  0.00000000E+00  0.00000000E+00  0.00000000E+00
  0.00000000E+00  0.00000000E+00  0.00000000E+00
  0.00000000E+00  0.00000000E+00  0.00000000E+00
  0.00000000E+00  0.00000000E+00  0.00000000E+00
  0.00000000E+00  0.00000000E+00  0.00000000E+00
  0.00000000E+00  0.00000000E+00  0.00000000E+00
  0.00000000E+00  0.00000000E+00  0.00000000E+00
  0.00000000E+00  0.00000000E+00  0.00000000E+00
  0.00000000E+00  0.00000000E+00  0.00000000E+00
  0.00000000E+00  0.00000000E+00  0.00000000E+00
  0.00000000E+00  0.00000000E+00  0.00000000E+00
  0.00000000E+00  0.00000000E+00  0.00000000E+00
  0.00000000E+00  0.00000000E+00  0.00000000E+00
  0.00000000E+00  0.00000000E+00  0.00000000E+00
  0.00000000E+00  0.00000000E+00  0.00000000E+00
  0.00000000E+00  0.00000000E+00  0.00000000E+00
  0.00000000E+00  0.00000000E+00  0.00000000E+00
  0.00000000E+00  0.00000000E+00  0.00000000E+00
  0.00000000E+00  0.00000000E+00  0.00000000E+00
  0.00000000E+00  0.00000000E+00  0.00000000E+00
  0.00000000E+00  0.00000000E+00  0.00000000E+00
  0.00000000E+00  0.00000000E+00  0.00000000E+00
  0.00000000E+00  0.00000000E+00  0.00000000E+00
  0.00000000E+00  0.00000000E+00  0.00000000E+00
  0.00000000E+00  0.00000000E+00  0.00000000E+00
  0.00000000E+00  0.00000000E+00  0.00000000E+00
  0.00000000E+00  0.00000000E+00  0.00000000E+00
  0.00000000E+00  0.00000000E+00  0.00000000E+00
  0.00000000E+00  0.00000000E+00  0.00000000E+00
  0.00000000E+00  0.00000000E+00  0.00000000E+00
  0.00000000E+00  0.00000000E+00  0.00000000E+00
  0.00000000E+00  0.00000000E+00  0.00000000E+00
  0.00000000E+00  0.00000000E+00  0.00000000E+00
  0.00000000E+00  0.00000000E+00  0.00000000E+00
  0.00000000E+00  0.00000000E+00  0.00000000E+00
  0.00000000E+00  0.00000000E+00  0.00000000E+00
  0.00000000E+00  0.00000000E+00  0.00000000E+00
  0.00000000E+00  0.00000000E+00  0.00000000E+00
  0.00000000E+00  0.00000000E+00  0.00000000E+00
  0.00000000E+00  0.00000000E+00  0.00000000E+00
  0.00000000E+00  0.00000000E+00  0.00000000E+00
  0.00000000E+00  0.00000000E+00  0.00000000E+00
  0.00000000E+00  0.00000000E+00  0.00000000E+00
  0.00000000E+00  0.00000000E+00  0.00000000E+00
  0.00000000E+00  0.00000000E+00  0.00000000E+00
  0.00000000E+00  0.00000000E+00  0.00000000E+00
  0.00000000E+00  0.00000000E+00  0.00000000E+00
  0.00000000E+00  0.00000000E+00  0.00000000E+00
  0.00000000E+00  0.00000000E+00  0.00000000E+00
  0.00000000E+00  0.00000000E+00  0.00000000E+00
  0.00000000E+00  0.00000000E+00  0.00000000E+00
  0.00000000E+00  0.00000000E+00  0.00000000E+00
  0.00000000E+00  0.00000000E+00  0.00000000E+00
  0.00000000E+00  0.00000000E+00  0.00000000E+00
  0.00000000E+00  0.00000000E+00  0.00000000E+00
