Ge Se
 1.0000000000000000
     4.3499999999999996    0.0000000000000000    0.0000000000000000
     0.0000000000000000    4.5499999999999989    0.0000000000000000
     0.0000000000000000    0.0000000000000000   11.1422209999999975
 Ge  Se 
   4   4
Selective dynamics
Cartesian
  1.0874999999999999  0.4887001106526133  1.4711760790879214   T   T   T
  3.2624999999999997  2.7637001106526125  4.0999344209120769   T   T   T
  3.2624999999999997  4.0612998893473868  9.6710449209120739   T   T   T
  1.0874999999999999  1.7862998893473854  7.0422865790879223   T   T   T
  1.0874999999999999 -0.1665289047322956  3.9327377234295020   T   T   T
  3.2624999999999997  2.1084710952677042  1.6383727765704956   T   T   T
  3.2624999999999997  4.7165289047322947  7.2094832765704950   T   T   T
  1.0874999999999999  2.4415289047322943  9.5038482234295056   T   T   T
