Ge Se                                   
    1.000000000000000     
    12.4553729611442954   -0.0000066800309709    0.0000000870754657
    -0.0000067038480362   12.4997779980652304   -0.0000038003568199
     0.0000000997303080   -0.0000043372059483   11.0819979462925957
   Ge   Se
    36    36
Direct
  0.0573519055882485  0.0229687112449781  0.1361179706119913
  0.2289181736158667  0.8679062140535692  0.3731472773607010
  0.5721831604732799  0.1935988673796416  0.3631268606482010
  0.5710663431810090  0.5465610030568016  0.3675525559088584
  0.5491497583737441  0.8560717802154514  0.3697872222127643
  0.9020593011128639  0.1816644720109295  0.3640461707723333
  0.8924419841450799  0.5435986108938025  0.3857689765541679
  0.9168660262397310  0.8768017420291585  0.3703361741862992
  0.0353070183865327  0.1771764292741125  0.6142132502353732
  0.0641837036499311  0.4874292207333326  0.6332809255526044
  0.0663342544377912  0.8417023205743703  0.6354896070899443
  0.4100976002140797  0.1441313466956231  0.6170374882327252
  0.3823454100235324  0.4909976773666855  0.6246226080921744
  0.3808560467518518  0.8371755517083841  0.6377989640511004
  0.7253648258562677  0.1529304494690820  0.6331234332150970
  0.7049458835189100  0.5077471014842203  0.6345732425743265
  0.2278389872581954  0.5278838850822041  0.3660518965910384
  0.2474232722478149  0.2143421829712366  0.3422172678184197
  0.7615884044706291  0.8279323350041210  0.6200116053930529
  0.8959143621420225  0.6429695111660365  0.8767666814222181
  0.9181378570146705  0.9858341535751549  0.8749833049716145
  0.0611214327785135  0.3599008453934331  0.1417745925841629
  0.0594163134798436  0.7165261427465595  0.1203342481656549
  0.3909886093170130  0.0373544398603372  0.1367040914295288
  0.4185014739558284  0.3558261235229239  0.1204167357129364
  0.7162398745800758  0.0093079510429632  0.1398603953688990
  0.7387328217043603  0.3725254666660618  0.1361974963082488
  0.3777650501033847  0.6877327276661376  0.1296958243908080
  0.2330667749900641  0.3264331747821743  0.8607976485262370
  0.2319667576026632  0.6453095137121707  0.8591966874578461
  0.2275200411404867  0.9814444539520082  0.8636871689624357
  0.5765538967283703  0.3141452545799908  0.8666647137455783
  0.5388787932890367  0.6789443027358217  0.8674618558845708
  0.5611460669750699  0.9839002248724853  0.8681283573303631
  0.8937750408858065  0.3316489316615190  0.8579036210614461
  0.7417025952633267  0.6750014828401518  0.1318989330717457
  0.8957569376618437  0.0196997864338329  0.6430434279821569
  0.2244934316187184  0.3534797555720530  0.6262241711756573
  0.2160161103864695  0.6916497469769425  0.6383545400259223
  0.5642155126905948  0.0038571316814000  0.6366288478102788
  0.5641150296606696  0.3549385715292530  0.6518674072577966
  0.5729916777645983  0.6805679385730485  0.6479481708331036
  0.9031556873920081  0.3495781838484362  0.6225435706465205
  0.7658430873180393  0.0161257340872467  0.3693338235464054
  0.0776833433775508  0.0122373091467765  0.3636561163527929
  0.0983855577973074  0.3523708961271197  0.3702531797081221
  0.0668454644895036  0.6630373380583450  0.3472646213487209
  0.4022133539105042  0.9967930439559183  0.3578943341925793
  0.4190414500223980  0.3402087242788170  0.3445990084793777
  0.4187544193861399  0.6914441731357783  0.3631066308282627
  0.2365337477400473  0.0101464787545922  0.6461742200819884
  0.9103097025037599  0.6838691258499594  0.6261875000491983
  0.9061366494442993  0.8302016000576273  0.1379560667249820
  0.2432184375062292  0.1914068212425022  0.1153208671748303
  0.9258222154110243  0.1788507515646600  0.1528416213902375
  0.7301790146661347  0.3215988760357718  0.3606352573347422
  0.0758786491791028  0.1834329690999326  0.8606664443345338
  0.0696241520360132  0.5115027634336755  0.8702104626041205
  0.0603420718636301  0.8409791391060324  0.8647778747870518
  0.4154238576399010  0.1872735872474536  0.8351591582691427
  0.4002275423221135  0.5179796632436791  0.8463491178542100
  0.4007853402294970  0.8382272995278157  0.8730411304045589
  0.7428634326862067  0.1814682413195357  0.8519787186154488
  0.7420871311475565  0.4923208485621160  0.8569948319333278
  0.7240780254457562  0.8456918811289000  0.8445356574750562
  0.2630378515522409  0.5120060382273195  0.1418221453786188
  0.2322027212208937  0.8441377208398606  0.1517356356118569
  0.5655328762361265  0.1696678903447975  0.1414559808674127
  0.5851909336311323  0.5051368438208215  0.1402806106300005
  0.5950761623320560  0.8356548594928697  0.1425391896331476
  0.9154207198793642  0.4938866383478100  0.1612182590086491
  0.7457603248421165  0.6828519348810431  0.3426166592978177
 
  0.00000000E+00  0.00000000E+00  0.00000000E+00
  0.00000000E+00  0.00000000E+00  0.00000000E+00
  0.00000000E+00  0.00000000E+00  0.00000000E+00
  0.00000000E+00  0.00000000E+00  0.00000000E+00
  0.00000000E+00  0.00000000E+00  0.00000000E+00
  0.00000000E+00  0.00000000E+00  0.00000000E+00
  0.00000000E+00  0.00000000E+00  0.00000000E+00
  0.00000000E+00  0.00000000E+00  0.00000000E+00
  0.00000000E+00  0.00000000E+00  0.00000000E+00
  0.00000000E+00  0.00000000E+00  0.00000000E+00
  0.00000000E+00  0.00000000E+00  0.00000000E+00
  0.00000000E+00  0.00000000E+00  0.00000000E+00
  0.00000000E+00  0.00000000E+00  0.00000000E+00
  0.00000000E+00  0.00000000E+00  0.00000000E+00
  0.00000000E+00  0.00000000E+00  0.00000000E+00
  0.00000000E+00  0.00000000E+00  0.00000000E+00
  0.00000000E+00  0.00000000E+00  0.00000000E+00
  0.00000000E+00  0.00000000E+00  0.00000000E+00
  0.00000000E+00  0.00000000E+00  0.00000000E+00
  0.00000000E+00  0.00000000E+00  0.00000000E+00
  0.00000000E+00  0.00000000E+00  0.00000000E+00
  0.00000000E+00  0.00000000E+00  0.00000000E+00
  0.00000000E+00  0.00000000E+00  0.00000000E+00
  0.00000000E+00  0.00000000E+00  0.00000000E+00
  0.00000000E+00  0.00000000E+00  0.00000000E+00
  0.00000000E+00  0.00000000E+00  0.00000000E+00
  0.00000000E+00  0.00000000E+00  0.00000000E+00
  0.00000000E+00  0.00000000E+00  0.00000000E+00
  0.00000000E+00  0.00000000E+00  0.00000000E+00
  0.00000000E+00  0.00000000E+00  0.00000000E+00
  0.00000000E+00  0.00000000E+00  0.00000000E+00
  0.00000000E+00  0.00000000E+00  0.00000000E+00
  0.00000000E+00  0.00000000E+00  0.00000000E+00
  0.00000000E+00  0.00000000E+00  0.00000000E+00
  0.00000000E+00  0.00000000E+00  0.00000000E+00
  0.00000000E+00  0.00000000E+00  0.00000000E+00
  0.00000000E+00  0.00000000E+00  0.00000000E+00
  0.00000000E+00  0.00000000E+00  0.00000000E+00
  0.00000000E+00  0.00000000E+00  0.00000000E+00
  0.00000000E+00  0.00000000E+00  0.00000000E+00
  0.00000000E+00  0.00000000E+00  0.00000000E+00
  0.00000000E+00  0.00000000E+00  0.00000000E+00
  0.00000000E+00  0.00000000E+00  0.00000000E+00
  0.00000000E+00  0.00000000E+00  0.00000000E+00
  0.00000000E+00  0.00000000E+00  0.00000000E+00
  0.00000000E+00  0.00000000E+00  0.00000000E+00
  0.00000000E+00  0.00000000E+00  0.00000000E+00
  0.00000000E+00  0.00000000E+00  0.00000000E+00
  0.00000000E+00  0.00000000E+00  0.00000000E+00
  0.00000000E+00  0.00000000E+00  0.00000000E+00
  0.00000000E+00  0.00000000E+00  0.00000000E+00
  0.00000000E+00  0.00000000E+00  0.00000000E+00
  0.00000000E+00  0.00000000E+00  0.00000000E+00
  0.00000000E+00  0.00000000E+00  0.00000000E+00
  0.00000000E+00  0.00000000E+00  0.00000000E+00
  0.00000000E+00  0.00000000E+00  0.00000000E+00
  0.00000000E+00  0.00000000E+00  0.00000000E+00
  0.00000000E+00  0.00000000E+00  0.00000000E+00
  0.00000000E+00  0.00000000E+00  0.00000000E+00
  0.00000000E+00  0.00000000E+00  0.00000000E+00
  0.00000000E+00  0.00000000E+00  0.00000000E+00
  0.00000000E+00  0.00000000E+00  0.00000000E+00
  0.00000000E+00  0.00000000E+00  0.00000000E+00
  0.00000000E+00  0.00000000E+00  0.00000000E+00
  0.00000000E+00  0.00000000E+00  0.00000000E+00
  0.00000000E+00  0.00000000E+00  0.00000000E+00
  0.00000000E+00  0.00000000E+00  0.00000000E+00
  0.00000000E+00  0.00000000E+00  0.00000000E+00
  0.00000000E+00  0.00000000E+00  0.00000000E+00
  0.00000000E+00  0.00000000E+00  0.00000000E+00
  0.00000000E+00  0.00000000E+00  0.00000000E+00
  0.00000000E+00  0.00000000E+00  0.00000000E+00
