Ge Se 
 1.0000000000000000
    12.4584926523245905   -0.0000066817041150    0.0000000870972754
    -0.0000067015130151   12.4954241933126724   -0.0000037990331154
     0.0000000996163932   -0.0000043322518682   11.0693397726801575
 Ge  Se 
  36  36
Cartesian
  0.9102930414189130  0.6818968678468931  1.4450493493471290
  2.8894603880876994 11.0026987368543150  3.9486698285807833
  7.0201619928737244  2.6799662535435167  4.1939987273939829
  7.1248834623406232  6.8758492753495952  3.9731920358270929
  6.9064845956850478 10.6410436760918259  4.0551326090393580
 10.9303458345233970  2.4045029577461712  4.0880984042631550
 11.2038349218781619  6.7778492436903663  3.9839641151369949
 11.2665955644160878 11.1160809206168931  4.1664320954002108
  0.5411594263904547  2.0682010478459136  6.9996965145626122
  0.9985968716613643  5.7413098004249976  6.9702753281784053
  0.6443099306997755 10.1237459492999893  6.8361331030575609
  5.0114291065766832  1.7803900525109853  6.9804059592055570
  5.0692787577507490  5.9177275539833714  7.0004862667821843
  4.6347842177495249 10.2778348191235267  6.9852546830431104
  9.1213141522444143  1.9466247926661355  6.8476858980632329
  8.9166918153483756  6.2805116786505222  6.8707495295908645
  2.5890819095778630  6.4815776282629196  4.1044917018023162
  2.9834189261583939  2.7402959221696630  4.3431258634314673
  9.2342556688334287 10.0488911971503327  7.0382805267471156
 11.2947795608306194  7.8664066765008620  9.6085094787564636
 11.2079020345470521 12.2085138102507411  9.6275307337842246
  0.6371342453510780  4.4494746940338983  1.2327183480969590
  0.8579598016959106  8.9298418496848537  1.5147319100580869
  5.0068348434695498  0.5144156820629939  1.2247355335181758
  4.7249091710991991  4.6255453743080936  1.4334252972744419
  8.8640923370712272  0.4607461909400509  1.2652015551523306
  9.0128619349805561  4.7165495409720295  1.3081137397445002
  4.7403103426434408  8.5332387684989452  1.4797371708421978
  3.1064559552364246  3.9060337838809267  9.7648572467167334
  2.7283939112955129  8.1438320752341831  9.8023006259908509
  2.7310771255438469 12.7543659510229990  9.7152612504282683
  6.8397432461694345  4.2037171173970140  9.8093746298958830
  6.7647522986931294  8.3432515315073559  9.6238314160786320
  7.3865649362523067 12.0356378182456005  9.4293810111855780
 10.7288307446958129  4.2481612669576387  9.8014553503978945
  9.2030507530539705  8.9322763707202011  1.3583851927382222
 11.2105322786002102  0.1686111787516436  7.1291053626788150
  3.1365094757045138  4.0710048457703794  7.3120697009062638
  2.8292297148047068  8.5689955015804422  7.1235487190059450
  7.3241269665297493  0.1071153478951159  6.8801803666593875
  6.9138279784350614  4.3677707540035806  7.1549556541068045
  7.3690219091295397  8.3258189227784598  6.9340311421823939
 11.5274218244397897  4.1292178099939418  7.2826724206431690
  9.3863492275213840  0.2162698131301921  3.9346309050126997
  1.0487393104184934  0.3750778203490658  4.0029221439783615
  1.0519506419399391  4.2646988400032484  3.8911932627253405
  0.9415948743539796  8.3023329717862815  4.0788563361568180
  5.0819534067805208 -0.0001984511543785  3.9058798957813274
  5.2386212006338040  4.4859312346783256  3.9454016850790468
  5.1441829919592417  8.4906307888248325  3.8817505744660830
  3.1033107362071206  0.1032114864105486  7.1024107112225510
 11.2609470887751701  8.1895941936557826  7.2571252174929359
 11.3898364440280844 10.6893980537704216  1.6394762687968876
  3.2271554729594607  2.2902939636947490  1.7244231612150513
 11.3503325918534550  2.1239571486997524  1.4715741874667636
  9.1273849832604590  4.2269604656223709  3.7911025273848646
  1.0749024860695848  2.2662834949088748  9.4619474346000985
  1.1006754767031326  6.2753350863224204  9.3497535277577484
  0.6364222919508528 10.7303153892682204  9.3971186281417580
  5.1845557729595857  1.9855931273031959  9.5677122512224191
  4.8594040539093397  6.5091204296963641  9.5244835398099159
  5.2174555065454715 10.3180214866384681  9.4086811463073481
  8.9888611648474992  2.4876031271111008  9.4161694531172788
  9.1778742204261050  6.2610041322537784  9.5381523426493473
  9.3034485303909964 10.2936051263314958  9.4706153232474168
  2.9454856064893371  6.3801024790816898  1.5514366279691654
  2.9923397246193746 10.4598910450235358  1.4155827549213258
  7.2351946726293912  2.1553224156163231  1.5367417658674438
  7.1082156413442847  6.5893295255894353  1.4155955146758643
  7.2512733816790034 10.6722247516295567  1.5368525669648059
 11.3750044365755070  6.3085266041637409  1.4283139906793973
  9.4009755933805970  8.5835345996449792  3.9822280910046546
