 C  S  O                                
    1.000000000000000     
    32.3722991942999982    0.0000000000000000    0.0000000000000000
     0.0000000000000000   19.9214134216000005    0.0000000000000000
     0.0000000000000000    0.0000000000000000   40.4480476378999967
   C    S    O 
   364     1     2
Selective dynamics
Direct
  0.3709786291445061  0.5383357495805621  0.0024623606766593   T   T   T
  0.3688191480305652  0.5438553750817633  0.0628975719140890   T   T   T
  0.3380842268075626  0.5950240873033689  0.0610900247041281   T   T   T
  0.3205125014577944  0.6114358800542744  0.0299371421339709   T   T   T
  0.2778315553774236  0.6288075166641952  0.0281224972771438   T   T   T
  0.3665398434736505  0.5492520768763430  0.1233355906372347   T   T   T
  0.3347356055124184  0.5986632052076015  0.1215208341566042   T   T   T
  0.3168242794363049  0.6140787006423120  0.0903684542457308   T   T   T
  0.2737972648060548  0.6290336968490331  0.0885435588888084   T   T   T
  0.2535739912558674  0.6268921429945173  0.0573964382209668   T   T   T
  0.2121187008439029  0.6029245918334494  0.0555854251846079   T   T   T
  0.1956022759593844  0.5838492054793361  0.0244353503496380   T   T   T
  0.1680454314687097  0.5281018050050522  0.0226256878514191   T   T   T
  0.3641263115832540  0.5545026153180872  0.1837833838136426   T   T   T
  0.3312882794647192  0.6020923960470355  0.1819528225606798   T   T   T
  0.3130761813013188  0.6165059357065374  0.1507970225371777   T   T   T
  0.2697567414559467  0.6290396118395918  0.1489641670295964   T   T   T
  0.2495959290357515  0.6257625293590906  0.1178160409401073   T   T   T
  0.2086752219312036  0.5994863895537667  0.1160061314184264   T   T   T
  0.1925708068895853  0.5795029560319472  0.0848567756957860   T   T   T
  0.1662133722371908  0.5222489497892437  0.0830420617670620   T   T   T
  0.1589564464068366  0.4915050425562761  0.0518981189262537   T   T   T
  0.1550068225004542  0.4202897852487059  0.0500848409589289   T   T   T
  0.1587650041549110  0.3879259328506653  0.0189388412737143   T   T   T
  0.1784027195904998  0.3239379449546449  0.0171342813451345   T   T   T
  0.3615707280537425  0.5596019156996259  0.2442332349868006   T   T   T
  0.3277315822455357  0.6052992390655060  0.2423805270207719   T   T   T
  0.3092449401630392  0.6186995517659769  0.2112216358060818   T   T   T
  0.2656896540322655  0.6288188620410746  0.2093814077738972   T   T   T
  0.2456245626942716  0.6244223667116260  0.1782291502910226   T   T   T
  0.2052846666081548  0.5958726153747980  0.1764215008283657   T   T   T
  0.1896229472209032  0.5749974164771289  0.1452744927562618   T   T   T
  0.1644961294301247  0.5162998787699120  0.1434567989346281   T   T   T
  0.1579074996179377  0.4851618310510886  0.1123129273640536   T   T   T
  0.1554725606858535  0.4137682459996425  0.1105049532024117   T   T   T
  0.1599181823171235  0.3816375534159054  0.0793571279807488   T   T   T
  0.1808985309347625  0.3187864086552831  0.0775518125628291   T   T   T
  0.1950546296844745  0.2952196485896038  0.0464083974370101   T   T   T
  0.2332098525650712  0.2596046450709790  0.0445935203350874   T   T   T
  0.2528721455623156  0.2516153750734867  0.0134458548413220   T   T   T
  0.2968515535558178  0.2538448851305040  0.0116438879124589   T   T   T
  0.3707291737233629  0.5383044191154118  0.3358926656395849   T   T   T
  0.3588360859118840  0.5646714776103775  0.3046727142928636   T   T   T
  0.3240606106292550  0.6084656244620343  0.3027866649906744   T   T   T
  0.3053189469672172  0.6207056069802998  0.2716227320256767   T   T   T
  0.2615841424779432  0.6283997455861783  0.2697900918194195   T   T   T
  0.2416469098307352  0.6228688648567220  0.2386387812637992   T   T   T
  0.2019346676159767  0.5920900387991401  0.2368364958218559   T   T   T
  0.1867536982853432  0.5703304706042558  0.2056879464177965   T   T   T
  0.1629012011147370  0.5102535349286980  0.2038706539310970   T   T   T
  0.1569883108963698  0.4787639133944630  0.1727267057716606   T   T   T
  0.1560736798262547  0.4072810376803407  0.1709238711831335   T   T   T
  0.1611967827018219  0.3754169554361975  0.1397783627877956   T   T   T
  0.1835020610332712  0.3137816963093152  0.1379695249175110   T   T   T
  0.1981568443361842  0.2910288182709315  0.1068276439766670   T   T   T
  0.2370481842005426  0.2575859339911515  0.1050188985526712   T   T   T
  0.2568664055963843  0.2507028921761840  0.0738713511392428   T   T   T
  0.3007729845044823  0.2554045406485380  0.0720734508243708   T   T   T
  0.3198603677311732  0.2664450474084475  0.0409236706037683   T   T   T
  0.3557199094225424  0.3078786663700407  0.0391064188354031   T   T   T
  0.3684087758660963  0.3335502793070516  0.0079529243290167   T   T   T
  0.3855734117234036  0.3993838687795474  0.0061493580715506   T   T   T
  0.3681819173168135  0.5445163943822937  0.3963265782880236   T   T   T
  0.3559292547335563  0.5700957195394170  0.3650632806778092   T   T   T
  0.3203237284504299  0.6120747198554028  0.3631732742899987   T   T   T
  0.3013237967951488  0.6228567149660720  0.3320050387114476   T   T   T
  0.2574481538363677  0.6279483766054554  0.3301934249341780   T   T   T
  0.2376675935092296  0.6211423027582940  0.2990455672164964   T   T   T
  0.1986512932651931  0.5881270061963101  0.2972595836030517   T   T   T
  0.1839492070127848  0.5655338637383082  0.2661066209024984   T   T   T
  0.1613977089512204  0.5041483822297654  0.2642953655015912   T   T   T
  0.1561779853182107  0.4723423261385670  0.2331459770133771   T   T   T
  0.1567907295052884  0.4008546304573942  0.2313443924698801   T   T   T
  0.1626056748272383  0.3692915431324721  0.2002003063809586   T   T   T
  0.1862070486841337  0.3089506641888658  0.1983852025601392   T   T   T
  0.2013388447997792  0.2870210607778111  0.1672466177768443   T   T   T
  0.2409166780659202  0.2557772323828301  0.1654460870424114   T   T   T
  0.2608743692345817  0.2500121991543950  0.1343007502716008   T   T   T
  0.3046543167763095  0.2571743807009989  0.1325051819788318   T   T   T
  0.3235016963128597  0.2692729254569077  0.1013567385407480   T   T   T
  0.3584628067443237  0.3126859642456767  0.0995466757394541   T   T   T
  0.3705975295267088  0.3390522361133704  0.0683908798176682   T   T   T
  0.3863598685227800  0.4058055054261597  0.0665901029493327   T   T   T
  0.3881786344578874  0.4386034201752623  0.0354341488064896   T   T   T
  0.3800236441890988  0.5088622455548395  0.0336143905908683   T   T   T
  0.3653810190600457  0.5508801011260374  0.4566836462970973   T   T   T
  0.3529314774516720  0.5760779354522715  0.4254337941679844   T   T   T
  0.3165618962716655  0.6162644214142183  0.4235868062115254   T   T   T
  0.2972979053240256  0.6255129395298870  0.3923948682838859   T   T   T
  0.2533279584650597  0.6276014131542920  0.3906185048640415   T   T   T
  0.2337242073280437  0.6193735469020666  0.3594735409544226   T   T   T
  0.1954937293871992  0.5840073623265746  0.3577003388018247   T   T   T
  0.1812723023925448  0.5605687451508022  0.3265452718322457   T   T   T
  0.1600462170962548  0.4979541259224378  0.3247426589651263   T   T   T
  0.1554901678383942  0.4658871155366791  0.2935803839802991   T   T   T
  0.1576214138996205  0.3944828067498715  0.2917747525884020   T   T   T
  0.1641050260043593  0.3632628377721107  0.2606257644405646   T   T   T
  0.1889756678963554  0.3042857718317450  0.2587997462193037   T   T   T
  0.2045910898625755  0.2832130127585713  0.2276663171661572   T   T   T
  0.2448108038609032  0.2542096877011144  0.2258699051385800   T   T   T
  0.2648900192149921  0.2495516302781666  0.1947293739119275   T   T   T
  0.3084927865633069  0.2591663796218528  0.1929414191664837   T   T   T
  0.3270725147485638  0.2723113234281747  0.1617946594144333   T   T   T
  0.3610968143599059  0.3176529598092823  0.1599966623890752   T   T   T
  0.3726694775356460  0.3446767416421728  0.1288363414854735   T   T   T
  0.3870013535732268  0.4122718815840415  0.1270355727054349   T   T   T
  0.3881280559643091  0.4451501317105408  0.0958768962496901   T   T   T
  0.3784879126693130  0.5149102668146923  0.0940510830726164   T   T   T
  0.3629900448267970  0.5564482106419893  0.5171322330322172   T   T   T
  0.3498258491851866  0.5813894494247707  0.4859582126924653   T   T   T
  0.3127412617371739  0.6195963968381902  0.4841279750790200   T   T   T
  0.2932814227849232  0.6280517226549192  0.4528873206696191   T   T   T
  0.2492948928770355  0.6270285641433406  0.4511157683447192   T   T   T
  0.2298931105287138  0.6175159800002503  0.4199478422155450   T   T   T
  0.1925374052103914  0.5797126539515487  0.4181681684163574   T   T   T
  0.1787952493644188  0.5554589050820881  0.3870129494102101   T   T   T
  0.1589069081006919  0.4916894475246280  0.3852143822893045   T   T   T
  0.1549804239666692  0.4593956194257982  0.3540405239957360   T   T   T
  0.1586176415325673  0.3881486342701028  0.3522276896385252   T   T   T
  0.1657243236554797  0.3573322805316422  0.3210637347552156   T   T   T
  0.1918054879074997  0.2997582484566702  0.3192210388929662   T   T   T
  0.2078672192195773  0.2795913264049390  0.2880793121773951   T   T   T
  0.2486716632984813  0.2528677462531307  0.2862744172569307   T   T   T
  0.2688808606179038  0.2493564468116109  0.2551534984023033   T   T   T
  0.3122559659687312  0.2614073287214667  0.2533766025933929   T   T   T
  0.3305698584276148  0.2755651782344885  0.2222352637710104   T   T   T
  0.3636274292324128  0.3227631742163320  0.2204649736523116   T   T   T
  0.3746190891505857  0.3504134531380406  0.1892950215435345   T   T   T
  0.3875094497242341  0.4187723354640182  0.1874937876308670   T   T   T
  0.3879283615725729  0.4516907842914458  0.1563277353714958   T   T   T
  0.3768038790830368  0.5208620121314309  0.1544963980091410   T   T   T
  0.3610724088137187  0.5607287120720970  0.5775484199417287   T   T   T
  0.3470133189160689  0.5853963758474426  0.5465333619717029   T   T   T
  0.3089736356942082  0.6212793089332679  0.5447147261414303   T   T   T
  0.2892795612472259  0.6292987795875088  0.5135107725648843   T   T   T
  0.2453443300329040  0.6257072986070688  0.5116818991267592   T   T   T
  0.2261686515758288  0.6152371057989398  0.4804674042078965   T   T   T
  0.1896985477982646  0.5752176325789650  0.4786542518523056   T   T   T
  0.1764963502471502  0.5502027599097919  0.4474871947578747   T   T   T
  0.1579769178688614  0.4853447784750329  0.4456854006405868   T   T   T
  0.1547107828508030  0.4528452817748447  0.4145152911505413   T   T   T
  0.1598531886696808  0.3818397579301170  0.4126973774033540   T   T   T
  0.1675344773962366  0.3514454622163130  0.3815155601625257   T   T   T
  0.1947227554959639  0.2952465250573319  0.3796621482746926   T   T   T
  0.2111559142734379  0.2760078461600708  0.3484928917053596   T   T   T
  0.2524555414437639  0.2514018291372503  0.3466650926495748   T   T   T
  0.2727910709791274  0.2492483284404468  0.3155585624476735   T   T   T
  0.3158820660937714  0.2637141796392011  0.3137935904118636   T   T   T
  0.3339435489597896  0.2790047433902410  0.2826803109325469   T   T   T
  0.3660036230130638  0.3280060653365127  0.2809519287574168   T   T   T
  0.3764423482066550  0.3562470756675402  0.2497792959475557   T   T   T
  0.3878765155473802  0.4252986786079572  0.2479804471385854   T   T   T
  0.3875967317700159  0.4582101526979412  0.2167958411433086   T   T   T
  0.3749867111963784  0.5267065274057425  0.2149536782255118   T   T   T
  0.3588022103257007  0.5648038104810438  0.6379887367006146   T   T   T
  0.3440918672566974  0.5881957669030023  0.6069474111388795   T   T   T
  0.3052306208416418  0.6217150442675677  0.6051751371896674   T   T   T
  0.2853251441918246  0.6291407357149589  0.5740433876406050   T   T   T
  0.2414666577531203  0.6236454438959677  0.5721932604283113   T   T   T
  0.2224704133206811  0.6124571298217263  0.5409875692087952   T   T   T
  0.1868171262954369  0.5705378677263714  0.5391411660359209   T   T   T
  0.1742339805892863  0.5447983359517915  0.5079597707714364   T   T   T
  0.1571048761553343  0.4789452902925384  0.5061510076939643   T   T   T
  0.1545961720301357  0.4462683877115595  0.4749815220590848   T   T   T
  0.1612296843099962  0.3755957897790028  0.4731614373193205   T   T   T
  0.1695406254760399  0.3456167479007547  0.4419815783766705   T   T   T
  0.1977525451558796  0.2907403134261112  0.4401387446267598   T   T   T
  0.2144721751646170  0.2722844655478633  0.4089347930536902   T   T   T
  0.2561514412398705  0.2494067505564696  0.4070810033086451   T   T   T
  0.2765747469076486  0.2486656449847984  0.3759566790669001   T   T   T
  0.3193147111148774  0.2656374900660730  0.3741827014243128   T   T   T
  0.3371071622071696  0.2823824260427508  0.3431330621237133   T   T   T
  0.3680194500969914  0.3333476659364424  0.3414523070176268   T   T   T
  0.3779980721094165  0.3621954556591537  0.3103024948467357   T   T   T
  0.3879486799084393  0.4318814801960922  0.3085030950757136   T   T   T
  0.3870740172366886  0.4647198965798779  0.2772934101858359   T   T   T
  0.3729892709239093  0.5324614288310195  0.2754216810438889   T   T   T
  0.3562607443451632  0.5693375708868114  0.6984436405094602   T   T   T
  0.3410559894263667  0.5913685460661451  0.6673333390770639   T   T   T
  0.3014831883191588  0.6226164246420760  0.6655785528739930   T   T   T
  0.2814457436796179  0.6286717126933761  0.6344678326941081   T   T   T
  0.2376899489354764  0.6213466152455364  0.6326353574795582   T   T   T
  0.2188494771918928  0.6092806524318172  0.6014655180153750   T   T   T
  0.1839849264591272  0.5656885857544895  0.5996137228658315   T   T   T
  0.1719437154797579  0.5393005236298017  0.5684274421844073   T   T   T
  0.1562167510275496  0.4725329597639162  0.5666153493225721   T   T   T
  0.1544669880722049  0.4397277138205357  0.5354491657483339   T   T   T
  0.1626053414290712  0.3694616536105979  0.5336332768787319   T   T   T
  0.1716215423799162  0.3399345525791215  0.5024675626320049   T   T   T
  0.2009162184459436  0.2865767601973408  0.5006623014011657   T   T   T
  0.2179166317681221  0.2687488140927309  0.4694437680636588   T   T   T
  0.2599412164881407  0.2476299014928688  0.4676005839175794   T   T   T
  0.2802664706376258  0.2475716780817373  0.4364040020170579   T   T   T
  0.3225763666276099  0.2671461653241010  0.4345839336392238   T   T   T
  0.3399512420168385  0.2854717047017385  0.4035833647422385   T   T   T
  0.3692853894494477  0.3388433364699978  0.4019018005965541   T   T   T
  0.3789064609499593  0.3683311112845535  0.3708283952888864   T   T   T
  0.3873267253209479  0.4385811452381658  0.3690296394534523   T   T   T
  0.3861361801910814  0.4712923108506595  0.3378047561298191   T   T   T
  0.3535290485205969  0.5740551685393702  0.7588916763018768   T   T   T
  0.3379056374199927  0.5950737702799536  0.7277494291063086   T   T   T
  0.2976883806723901  0.6240865682296608  0.7259856733269379   T   T   T
  0.2775621302488517  0.6287579353915561  0.6948645805479684   T   T   T
  0.2339663721071613  0.6191989287680144  0.6930506339548596   T   T   T
  0.2153403883572462  0.6060694277598183  0.6619105896350593   T   T   T
  0.1813447236103775  0.5607048927695845  0.6600751742183744   T   T   T
  0.1697908642638741  0.5336768034334847  0.6289040110773680   T   T   T
  0.1554794576495941  0.4660798992535743  0.6270913050866599   T   T   T
  0.1544044999027975  0.4332100065472799  0.5959208880690439   T   T   T
  0.1640347562525769  0.3634531971521177  0.5941115402535324   T   T   T
  0.1736910363842212  0.3344557749363404  0.5629542431325854   T   T   T
  0.2041818156590376  0.2828944912124693  0.5611837653239710   T   T   T
  0.2215402579991281  0.2658964051617921  0.5300113548699860   T   T   T
  0.2640016060684315  0.2472081132115427  0.5282230731242327   T   T   T
  0.2841415946172255  0.2475677262750416  0.4969767556935689   T   T   T
  0.3258889307184041  0.2697162635436243  0.4951479433396531   T   T   T
  0.3424607123963797  0.2887843044752526  0.4639926800852719   T   T   T
  0.3694662621199297  0.3449268119280555  0.4621965252954609   T   T   T
  0.3786520571536292  0.3748187123596479  0.4312477490283974   T   T   T
  0.3855786417440071  0.4454661489591468  0.4294341829447498   T   T   T
  0.3844210289205222  0.4780535137136149  0.3982414922470183   T   T   T
  0.3506368230282531  0.5786291860321263  0.8193360792446306   T   T   T
  0.3346089413726277  0.5987794131218639  0.7881862966294451   T   T   T
  0.2938012554741029  0.6255252581740104  0.7864094368511890   T   T   T
  0.2736238364204177  0.6290206876439375  0.7552719288214618   T   T   T
  0.2302491073600427  0.6170042014853699  0.7534688148850262   T   T   T
  0.2119214204188793  0.6028240446671294  0.7223340982810125   T   T   T
  0.1788863898417865  0.5556024397607509  0.7205205613809283   T   T   T
  0.1678665059438458  0.5279412086671830  0.6893664546994185   T   T   T
  0.1549853938823912  0.4595901313015568  0.6875551487254573   T   T   T
  0.1545495504959416  0.4266866092102590  0.6563914422678724   T   T   T
  0.1656644730006165  0.3575204513423693  0.6545841388726377   T   T   T
  0.1759050170463672  0.3291263932911729  0.6234271289999163   T   T   T
  0.2076056587003332  0.2795618622330548  0.6216616467068699   T   T   T
  0.2253524668318093  0.2637297709703098  0.5905178959481072   T   T   T
  0.2682691189731413  0.2480838590005336  0.5887354012867920   T   T   T
  0.2883281668419074  0.2492496040360201  0.5575378783081623   T   T   T
  0.3296612978281003  0.2736099770818861  0.5557033678219786   T   T   T
  0.3454904729840729  0.2930230164687002  0.5244393317978718   T   T   T
  0.3711178338650222  0.3508008109619787  0.5226060703961775   T   T   T
  0.3775874557925603  0.3816266764470491  0.4914767810987128   T   T   T
  0.3832358462248793  0.4522941761990892  0.4896527617025807   T   T   T
  0.3817441089026378  0.4847952579783822  0.4585055800233650   T   T   T
  0.3476403920636170  0.5830194844254168  0.8797811930897709   T   T   T
  0.3312033406124563  0.6022756271894452  0.8486280085799380   T   T   T
  0.2898521867598983  0.6267139946955713  0.8468399393806710   T   T   T
  0.2696305338169558  0.6290841736052959  0.8156972624069471   T   T   T
  0.2265399801371611  0.6146095813734831  0.8138907095045863   T   T   T
  0.2085420961088697  0.5994028890829536  0.7827531792808938   T   T   T
  0.1765269655123630  0.5503535416958507  0.7809518199135261   T   T   T
  0.1661103826970417  0.5220936835318923  0.7498049129820435   T   T   T
  0.1546816071522121  0.4530542852515406  0.7479917813864183   T   T   T
  0.1549271864103431  0.4201454753327832  0.7168393134010972   T   T   T
  0.1675060444964379  0.3516414262814424  0.7150305595722538   T   T   T
  0.1783371662714013  0.3238708653821622  0.6838734145714446   T   T   T
  0.2111516957351257  0.2762606774240544  0.6820873978239974   T   T   T
  0.2292887725631697  0.2617486499463374  0.6509422867618743   T   T   T
  0.2725790790425106  0.2490893630662047  0.6491277381017634   T   T   T
  0.2926251990501399  0.2518760982119777  0.6179585142542944   T   T   T
  0.3334987255099369  0.2782951982762600  0.6160826323819901   T   T   T
  0.3492232597070916  0.2981378617648913  0.5848138746878879   T   T   T
  0.3749244835415741  0.3561661794396619  0.5828972586681943   T   T   T
  0.3807492620507744  0.3873738124285655  0.5517029964781052   T   T   T
  0.3847629093013029  0.4585595128216781  0.5499041663583533   T   T   T
  0.3805495709570827  0.4911882905572745  0.5189449864956506   T   T   T
  0.3445429836071698  0.5872093310275925  0.9402198797770022   T   T   T
  0.3277066958659083  0.6055451950324047  0.9090672054101676   T   T   T
  0.2858632148873118  0.6276547286225957  0.9072697274613721   T   T   T
  0.2656094301845413  0.6288950809164299  0.8761237062648521   T   T   T
  0.2228563611188366  0.6119969763064103  0.8743126759936464   T   T   T
  0.2052075543944713  0.5957875662513514  0.8431701996528271   T   T   T
  0.1742512030768912  0.5449717710047368  0.8413727798166605   T   T   T
  0.1644446568145807  0.5161408749105632  0.8102288927096664   T   T   T
  0.1544906905242652  0.4464941477837029  0.8084121167913156   T   T   T
  0.1554510930521409  0.4136101108816489  0.7772664259399874   T   T   T
  0.1694771023074152  0.3458442471109129  0.7754564178131984   T   T   T
  0.1809068239458127  0.3186981840875251  0.7443002428157879   T   T   T
  0.2147317482533830  0.2729733464200845  0.7424919652799484   T   T   T
  0.2332219329669903  0.2596378268905585  0.7113433520083899   T   T   T
  0.2767772475116705  0.2495805273051003  0.7095088010302947   T   T   T
  0.2968003235947330  0.2539418944590082  0.6783447311544789   T   T   T
  0.3371347547942642  0.2824916363106443  0.6764683718788992   T   T   T
  0.3526626895216389  0.3032558620233440  0.6452455683534776   T   T   T
  0.3777400093087779  0.3620566654303550  0.6433215312169019   T   T   T
  0.3837921175535712  0.3932848424983648  0.6120903406154308   T   T   T
  0.3862502702113819  0.4647702751087015  0.6103041152753699   T   T   T
  0.3813117611030047  0.4972177297315651  0.5792540092875741   T   T   T
  0.3413559655865314  0.5912051265303560  0.0006567191601039   T   T   T
  0.3241450122817311  0.6086017028510480  0.9695036933583585   T   T   T
  0.2818566353789239  0.6283556796181131  0.9676967608981595   T   T   T
  0.2615880403320197  0.6284699044375426  0.9365505140432359   T   T   T
  0.2192183864788117  0.6091815138983229  0.9347373217802099   T   T   T
  0.2019292311687817  0.5919902349152102  0.9035911748102272   T   T   T
  0.1720760120623469  0.5394597895623384  0.9017923946871810   T   T   T
  0.1628973807148231  0.5100962630184500  0.8706482042258433   T   T   T
  0.1544258878925871  0.4399336621055884  0.8688293329835970   T   T   T
  0.1560877497373779  0.4071135420073839  0.8376842840397475   T   T   T
  0.1715447590456309  0.3401694477822199  0.8358754954434430   T   T   T
  0.1835573866166226  0.3136680456910619  0.8047243517900902   T   T   T
  0.2183402972150544  0.2698722090329709  0.8029057628674692   T   T   T
  0.2371228176251186  0.2575871420949622  0.7717527396152531   T   T   T
  0.2808737143269035  0.2499696022810844  0.7699160426993640   T   T   T
  0.3008247607877182  0.2555600267637615  0.7387542328984985   T   T   T
  0.3405364308254321  0.2863421178229991  0.7369029652645201   T   T   T
  0.3557203481531792  0.3080752926068050  0.7057169098139946   T   T   T
  0.3796361010052141  0.3681035322097856  0.7038342310909574   T   T   T
  0.3854665785794805  0.3995645620365760  0.6726208303144645   T   T   T
  0.3863704847806036  0.4710952156157205  0.6708325391219110   T   T   T
  0.3810445809795253  0.5030465821374377  0.6396843387487815   T   T   T
  0.2575768558000413  0.6277972425541409  0.9969746369799765   T   T   T
  0.2156416326139686  0.6061488990737399  0.9951620212164289   T   T   T
  0.1987286146909162  0.5880069879592540  0.9640136663823278   T   T   T
  0.1700073904777753  0.5338347268891730  0.9622095434853938   T   T   T
  0.1614620847772172  0.5039707487949542  0.9310663949692586   T   T   T
  0.1544885906871445  0.4333744730483177  0.9292472956487935   T   T   T
  0.1568546269661907  0.4006693151118726  0.8981017829188856   T   T   T
  0.1737234809707044  0.3346310357901139  0.8962970192224791   T   T   T
  0.1862973155187793  0.3088155209397229  0.8651468789250029   T   T   T
  0.2219849532005839  0.2669893021762188  0.8633239913716644   T   T   T
  0.2410282846627119  0.2557549702561210  0.8321730930165284   T   T   T
  0.2849124862719525  0.2505745798718671  0.8303477974844278   T   T   T
  0.3047497617190756  0.2572588849912760  0.7991863200949650   T   T   T
  0.3437819633566609  0.2902632972508050  0.7973519672158640   T   T   T
  0.3585149966541533  0.3128629475977718  0.7661841600167268   T   T   T
  0.3811064139606488  0.3742173561132320  0.7643358428196108   T   T   T
  0.3863719758437926  0.4059966863858806  0.7331489690216564   T   T   T
  0.3857637655112912  0.4774962593229785  0.7313585294139633   T   T   T
  0.3799200759213672  0.5090346660088483  0.7001838372404674   T   T   T
  0.1601487197750135  0.4977714655959896  0.9914825618971557   T   T   T
  0.1546808941849803  0.4268219530696584  0.9896646152590106   T   T   T
  0.1577455524344554  0.3942656669676274  0.9585192396654051   T   T   T
  0.1760070417877095  0.3292127950540365  0.9567164098379827   T   T   T
  0.1891228774196010  0.3041124765693927  0.9255684112142777   T   T   T
  0.2256765303071023  0.2643054516148876  0.9237456752981268   T   T   T
  0.2449487971617832  0.2541407296077898  0.8925964208401953   T   T   T
  0.2889177372216877  0.2514289255069069  0.8907807792110158   T   T   T
  0.3086056612530446  0.2592081423918252  0.8596238135199752   T   T   T
  0.3469112492740544  0.2943915555903133  0.8577996989622366   T   T   T
  0.3611588532207618  0.3178069329050872  0.8266390559937385   T   T   T
  0.3824089447975398  0.3804117051110700  0.8248084509889969   T   T   T
  0.3869948195932139  0.4124788060685589  0.7936395039374980   T   T   T
  0.3848798339252454  0.4838927988312058  0.7918396561811495   T   T   T
  0.3784227105217801  0.5150918625563580  0.7606725035203842   T   T   T
  0.1920474738112048  0.2995858245480202  0.9859898339358715   T   T   T
  0.2294217326214452  0.2618482765274312  0.9841697949220232   T   T   T
  0.2488967151090986  0.2527567395475503  0.9530214206183709   T   T   T
  0.2928987036991184  0.2525165952931577  0.9512148146639883   T   T   T
  0.3124080267944749  0.2614049002836850  0.9200607086175560   T   T   T
  0.3499382896515593  0.2987252677274989  0.9182380683891107   T   T   T
  0.3636820205133346  0.3229164618230576  0.8870829210371093   T   T   T
  0.3835850080661697  0.3866801157938932  0.8852639570813265   T   T   T
  0.3874793596440970  0.4189912544505394  0.8541002431268161   T   T   T
  0.3838466002936425  0.4902441264808520  0.8522974109094280   T   T   T
  0.3767367172997304  0.5210647874424260  0.8211382645106989   T   T   T
  0.3161690358322406  0.2638030944099372  0.9804927650170705   T   T   T
  0.3528854342135374  0.3032114388398378  0.9786729022520748   T   T   T
  0.3661012448528850  0.3281673619652945  0.9475194242727488   T   T   T
  0.3846479663820189  0.3930027902066967  0.9457083180373320   T   T   T
  0.3878471885459744  0.4255189091405269  0.9145502827416081   T   T   T
  0.3827075349803623  0.4965299660324898  0.9127405769289458   T   T   T
  0.3749403429599356  0.5269449849213254  0.8815870916997990   T   T   T
  0.3880853939216984  0.4320582795972367  0.9749920194282615   T   T   T
  0.3814329010224727  0.5027369011853056  0.9731779868089516   T   T   T
  0.3730234029181764  0.5327028555855600  0.9420278377512896   T   T   T
  0.4661254678518945  0.4034685485486009  0.5012275114644144   T   T   T
  0.4692966941468018  0.3396405028448484  0.4840136822523556   T   T   T
  0.4810901763657804  0.4634177085374168  0.4847863863336058   T   T   T
 
  0.00000000E+00  0.00000000E+00  0.00000000E+00
  0.00000000E+00  0.00000000E+00  0.00000000E+00
  0.00000000E+00  0.00000000E+00  0.00000000E+00
  0.00000000E+00  0.00000000E+00  0.00000000E+00
  0.00000000E+00  0.00000000E+00  0.00000000E+00
  0.00000000E+00  0.00000000E+00  0.00000000E+00
  0.00000000E+00  0.00000000E+00  0.00000000E+00
  0.00000000E+00  0.00000000E+00  0.00000000E+00
  0.00000000E+00  0.00000000E+00  0.00000000E+00
  0.00000000E+00  0.00000000E+00  0.00000000E+00
  0.00000000E+00  0.00000000E+00  0.00000000E+00
  0.00000000E+00  0.00000000E+00  0.00000000E+00
  0.00000000E+00  0.00000000E+00  0.00000000E+00
  0.00000000E+00  0.00000000E+00  0.00000000E+00
  0.00000000E+00  0.00000000E+00  0.00000000E+00
  0.00000000E+00  0.00000000E+00  0.00000000E+00
  0.00000000E+00  0.00000000E+00  0.00000000E+00
  0.00000000E+00  0.00000000E+00  0.00000000E+00
  0.00000000E+00  0.00000000E+00  0.00000000E+00
  0.00000000E+00  0.00000000E+00  0.00000000E+00
  0.00000000E+00  0.00000000E+00  0.00000000E+00
  0.00000000E+00  0.00000000E+00  0.00000000E+00
  0.00000000E+00  0.00000000E+00  0.00000000E+00
  0.00000000E+00  0.00000000E+00  0.00000000E+00
  0.00000000E+00  0.00000000E+00  0.00000000E+00
  0.00000000E+00  0.00000000E+00  0.00000000E+00
  0.00000000E+00  0.00000000E+00  0.00000000E+00
  0.00000000E+00  0.00000000E+00  0.00000000E+00
  0.00000000E+00  0.00000000E+00  0.00000000E+00
  0.00000000E+00  0.00000000E+00  0.00000000E+00
  0.00000000E+00  0.00000000E+00  0.00000000E+00
  0.00000000E+00  0.00000000E+00  0.00000000E+00
  0.00000000E+00  0.00000000E+00  0.00000000E+00
  0.00000000E+00  0.00000000E+00  0.00000000E+00
  0.00000000E+00  0.00000000E+00  0.00000000E+00
  0.00000000E+00  0.00000000E+00  0.00000000E+00
  0.00000000E+00  0.00000000E+00  0.00000000E+00
  0.00000000E+00  0.00000000E+00  0.00000000E+00
  0.00000000E+00  0.00000000E+00  0.00000000E+00
  0.00000000E+00  0.00000000E+00  0.00000000E+00
  0.00000000E+00  0.00000000E+00  0.00000000E+00
  0.00000000E+00  0.00000000E+00  0.00000000E+00
  0.00000000E+00  0.00000000E+00  0.00000000E+00
  0.00000000E+00  0.00000000E+00  0.00000000E+00
  0.00000000E+00  0.00000000E+00  0.00000000E+00
  0.00000000E+00  0.00000000E+00  0.00000000E+00
  0.00000000E+00  0.00000000E+00  0.00000000E+00
  0.00000000E+00  0.00000000E+00  0.00000000E+00
  0.00000000E+00  0.00000000E+00  0.00000000E+00
  0.00000000E+00  0.00000000E+00  0.00000000E+00
  0.00000000E+00  0.00000000E+00  0.00000000E+00
  0.00000000E+00  0.00000000E+00  0.00000000E+00
  0.00000000E+00  0.00000000E+00  0.00000000E+00
  0.00000000E+00  0.00000000E+00  0.00000000E+00
  0.00000000E+00  0.00000000E+00  0.00000000E+00
  0.00000000E+00  0.00000000E+00  0.00000000E+00
  0.00000000E+00  0.00000000E+00  0.00000000E+00
  0.00000000E+00  0.00000000E+00  0.00000000E+00