 C  S  O                                
    1.000000000000000     
    32.3722991942999982    0.0000000000000000    0.0000000000000000
     0.0000000000000000   19.9214134216000005    0.0000000000000000
     0.0000000000000000    0.0000000000000000   40.4480476378999967
   C    S    O 
   364     1     2
Selective dynamics
Direct
  0.3710210379944836  0.5383181024488393  0.0024667060666340   T   T   T
  0.3688351522776569  0.5438439865747946  0.0629285063938618   T   T   T
  0.3380874842026000  0.5949939344665390  0.0611117355449147   T   T   T
  0.3205332379077239  0.6113897937803188  0.0299456642515348   T   T   T
  0.2778511715843548  0.6287504259190025  0.0281254488764934   T   T   T
  0.3664932734582660  0.5492604380322202  0.1233851380225806   T   T   T
  0.3346808274883523  0.5986580614559009  0.1215572471825036   T   T   T
  0.3168033142551227  0.6140462564066910  0.0903889206187616   T   T   T
  0.2737767041974055  0.6289925417147409  0.0885544204290809   T   T   T
  0.2535801502212377  0.6268447250549671  0.0573979405206280   T   T   T
  0.2121237018537764  0.6028957235095826  0.0555836147122730   T   T   T
  0.1956189164397275  0.5838262568627317  0.0244307641460404   T   T   T
  0.1680520033523520  0.5280990821886264  0.0226210185316559   T   T   T
  0.3639851918641541  0.5545673216422710  0.1838369773118625   T   T   T
  0.3311582679404150  0.6021731456422583  0.1819949383096926   T   T   T
  0.3129871481166859  0.6165272315226092  0.1508231212519009   T   T   T
  0.2696705385797331  0.6290535028846237  0.1489795729862766   T   T   T
  0.2495472584057185  0.6257441572302295  0.1178205687388746   T   T   T
  0.2086265441488811  0.5994818574627957  0.1160075389174333   T   T   T
  0.1925495107177946  0.5794962117406385  0.0848522637415700   T   T   T
  0.1661835648688007  0.5222596030326837  0.0830373901937205   T   T   T
  0.1589444644437496  0.4915136076353775  0.0518919207434907   T   T   T
  0.1549945068462029  0.4203039947649836  0.0500787006501293   T   T   T
  0.1587689875545016  0.3879364142201141  0.0189348456160094   T   T   T
  0.1784179940469107  0.3239632933647494  0.0171314618263154   T   T   T
  0.3613391069896456  0.5597805706570259  0.2442794037576293   T   T   T
  0.3275487787311764  0.6055686466722485  0.2424243337117135   T   T   T
  0.3090911524919332  0.6188684606243210  0.2112495692530621   T   T   T
  0.2655379434098227  0.6289672303001895  0.2094023480598712   T   T   T
  0.2455087232423667  0.6244814436574465  0.1782402479463502   T   T   T
  0.2051758120261304  0.5959152710873648  0.1764320963731865   T   T   T
  0.1895453497783224  0.5750180440951796  0.1452771468858451   T   T   T
  0.1644158260187890  0.5163275554303812  0.1434605904696635   T   T   T
  0.1578502328882682  0.4851870045529018  0.1123110230398374   T   T   T
  0.1554160496191450  0.4137980466329541  0.1105015031143398   T   T   T
  0.1598902735024936  0.3816625820731346  0.0793537249246370   T   T   T
  0.1808831960766776  0.3188274371305292  0.0775480998284508   T   T   T
  0.1950657158221533  0.2952626684872969  0.0464083788952881   T   T   T
  0.2332264363957458  0.2596683316663028  0.0445956945572818   T   T   T
  0.2529003459509520  0.2516797670364373  0.0134481331088290   T   T   T
  0.2968799985604735  0.2539039957012144  0.0116472736160953   T   T   T
  0.3704317322893263  0.5383909527491199  0.3358985137067452   T   T   T
  0.3585716313738411  0.5649090405282470  0.3047126920215995   T   T   T
  0.3238811160923702  0.6088790029166917  0.3028486361173380   T   T   T
  0.3051495047758169  0.6210990402795903  0.2716713050761392   T   T   T
  0.2614064632953040  0.6287464743471853  0.2698273226978734   T   T   T
  0.2414851544868755  0.6230722225755861  0.2386656174951468   T   T   T
  0.2017986159246945  0.5922003288220806  0.2368625564779749   T   T   T
  0.1866371299199701  0.5703894845290056  0.2057083659973419   T   T   T
  0.1627981669423942  0.5102949755563481  0.2038936841594344   T   T   T
  0.1568910237191150  0.4788058638415885  0.1727400942380899   T   T   T
  0.1559739616353823  0.4073220973586827  0.1709338871985700   T   T   T
  0.1611171460399105  0.3754589429844236  0.1397814737336000   T   T   T
  0.1834289718313860  0.3138330382578715  0.1379692751509221   T   T   T
  0.1981200534323012  0.2910860657072049  0.1068300629754328   T   T   T
  0.2370149242125003  0.2576586585464127  0.1050255719793332   T   T   T
  0.2568632764826180  0.2507778044821533  0.0738826746960676   T   T   T
  0.3007707299911812  0.2554682007666068  0.0720923593129247   T   T   T
  0.3198778167053573  0.2664959205484553  0.0409395905042501   T   T   T
  0.3557498535309645  0.3079052763849884  0.0391267908879980   T   T   T
  0.3684504675095299  0.3335611266639528  0.0079606204297667   T   T   T
  0.3856266414892501  0.3993899380655376  0.0061555613081516   T   T   T
  0.3681125872078415  0.5440743165953759  0.3963159260067581   T   T   T
  0.3557100993902985  0.5699422341469308  0.3651344608292001   T   T   T
  0.3201678807471379  0.6120760164903313  0.3632729073707444   T   T   T
  0.3011856803670005  0.6232333240273196  0.3320965330982462   T   T   T
  0.2573013977371372  0.6283835357233089  0.3302632357526000   T   T   T
  0.2375110089535404  0.6215019325094887  0.2991007483925825   T   T   T
  0.1985424872469763  0.5883019331330734  0.2973017641072311   T   T   T
  0.1838502241122248  0.5656233521900182  0.2661494242124526   T   T   T
  0.1613446576603383  0.5041807679958805  0.2643394297377695   T   T   T
  0.1560950218452504  0.4723799950087451  0.2331818397515912   T   T   T
  0.1566916114551354  0.4008864277403826  0.2313753199399280   T   T   T
  0.1624876162750507  0.3693308229982606  0.2002177507512909   T   T   T
  0.1860698703101666  0.3089686375002832  0.1983965442981931   T   T   T
  0.2012300180139394  0.2870612411699318  0.1672536991210295   T   T   T
  0.2408047333101615  0.2558134210231404  0.1654564838399156   T   T   T
  0.2608057897076593  0.2500765841431873  0.1343181788172605   T   T   T
  0.3045863276462237  0.2572261942727383  0.1325348726438879   T   T   T
  0.3234725286223011  0.2693239937600145  0.1013916138556872   T   T   T
  0.3584477033754443  0.3127139033233290  0.0995918716244222   T   T   T
  0.3706142112690741  0.3390658830041060  0.0684288766700500   T   T   T
  0.3863879724249796  0.4058159888509612  0.0666306980421543   T   T   T
  0.3882240838054488  0.4386007979888524  0.0354582353655274   T   T   T
  0.3800606605905241  0.5088603887678461  0.0336346660231039   T   T   T
  0.3657364370067981  0.5497072230976678  0.4567091045242804   T   T   T
  0.3528227758151283  0.5749255700148221  0.4255441076631660   T   T   T
  0.3164349984543960  0.6151295586517762  0.4237023205157589   T   T   T
  0.2972015963356505  0.6252060481305601  0.3925305011974261   T   T   T
  0.2532317878589242  0.6278068478872975  0.3907118394136246   T   T   T
  0.2335930476524287  0.6197549900944244  0.3595466612123353   T   T   T
  0.1954107700128625  0.5842189532920751  0.3577480065665941   T   T   T
  0.1812271808221639  0.5606710050764044  0.3265977833384672   T   T   T
  0.1600923455043854  0.4979571473644160  0.3247927160912867   T   T   T
  0.1554929607380992  0.4658946103624123  0.2936304213142168   T   T   T
  0.1575740777382234  0.3944741738899871  0.2918206586153145   T   T   T
  0.1639955615943063  0.3632593008650214  0.2606569406042790   T   T   T
  0.1887936774070248  0.3041963795429046  0.2588267552314875   T   T   T
  0.2044076530082612  0.2831544240813979  0.2276796883011817   T   T   T
  0.2446086662835413  0.2540930857057573  0.2258860365833681   T   T   T
  0.2647314656591387  0.2495227553067983  0.1947510073015823   T   T   T
  0.3083323232223459  0.2591470966616275  0.1929738339590568   T   T   T
  0.3269615643685668  0.2723392622096042  0.1618406305809293   T   T   T
  0.3609901507424855  0.3176795141969219  0.1600574061551190   T   T   T
  0.3726180489918379  0.3446962925793987  0.1288992468121091   T   T   T
  0.3869597978512648  0.4122943556349764  0.1271027822504949   T   T   T
  0.3881286075644673  0.4451571203143546  0.0959314080999323   T   T   T
  0.3784800161857830  0.5149182071115314  0.0941000578607022   T   T   T
  0.3633503451974012  0.5550946331042588  0.5171380264871809   T   T   T
  0.3498570296597764  0.5796231177477547  0.4859804198458038   T   T   T
  0.3126696557025508  0.6177756648231191  0.4841562546965231   T   T   T
  0.2932204273142797  0.6268637790720415  0.4529797311101479   T   T   T
  0.2492200368762285  0.6268925612780548  0.4511751064671045   T   T   T
  0.2297597369883242  0.6177408280363963  0.4200087248068396   T   T   T
  0.1924126886082735  0.5799247813874262  0.4182032764532373   T   T   T
  0.1787569036295672  0.5555607798163190  0.3870503686922312   T   T   T
  0.1590085203119348  0.4916661954754370  0.3852480158279931   T   T   T
  0.1550754145926514  0.4593641616444005  0.3540847264594287   T   T   T
  0.1586144344677667  0.3880943721961130  0.3522706770261461   T   T   T
  0.1656442973124846  0.3572474321574519  0.3211021166342456   T   T   T
  0.1916043216098804  0.2995156731713970  0.3192663463183814   T   T   T
  0.2076356076947899  0.2793491591561009  0.2881102495789363   T   T   T
  0.2484170168860587  0.2525059462846572  0.2863169764992201   T   T   T
  0.2686385066944107  0.2491062233661014  0.2551860886960959   T   T   T
  0.3120043748181278  0.2612361066897978  0.2534113480458589   T   T   T
  0.3303513125741999  0.2755149782698462  0.2222871259953505   T   T   T
  0.3633701150978270  0.3227877970969149  0.2205200904867237   T   T   T
  0.3744371724807861  0.3504485361669389  0.1893687090683369   T   T   T
  0.3873259421920789  0.4188174512547461  0.1875710114338947   T   T   T
  0.3878294512210715  0.4517173253333565  0.1564009801688696   T   T   T
  0.3767088388714313  0.5208963019231732  0.1545634332436112   T   T   T
  0.3609707059644554  0.5600960683458166  0.5775482270478395   T   T   T
  0.3469085393902664  0.5839953592957871  0.5464331524614217   T   T   T
  0.3088878204699489  0.6199949270533188  0.5446261973507058   T   T   T
  0.2892378560104213  0.6280685152925143  0.5134633523261358   T   T   T
  0.2452648216479922  0.6255718853288750  0.5116563591036437   T   T   T
  0.2260081292588793  0.6153660053886301  0.4804804245001443   T   T   T
  0.1895174134072876  0.5754195320250762  0.4786620244122793   T   T   T
  0.1764077895438249  0.5502982270635707  0.4475017046644439   T   T   T
  0.1580581417721036  0.4853144562136826  0.4456994394715101   T   T   T
  0.1548193734197496  0.4528071603434851  0.4145384569360777   T   T   T
  0.1598159562037695  0.3817687627217862  0.4127214599021779   T   T   T
  0.1674418429709750  0.3513047233173437  0.3815500532245458   T   T   T
  0.1945196730277634  0.2949484857089792  0.3797156959179736   T   T   T
  0.2109352088055179  0.2756555654145345  0.3485494620409040   T   T   T
  0.2522503013140607  0.2510604479058384  0.3467521052709781   T   T   T
  0.2725356552664375  0.2488497254957536  0.3156217192864627   T   T   T
  0.3156045217308137  0.2634995282611387  0.3138471545791459   T   T   T
  0.3336311635737565  0.2788668136988721  0.2827288904267629   T   T   T
  0.3655721096875172  0.3280527665189071  0.2809739048349684   T   T   T
  0.3760637384102860  0.3563217534624539  0.2498326509166790   T   T   T
  0.3874783813317333  0.4253778594155165  0.2480310982769106   T   T   T
  0.3873255529314683  0.4582743303120921  0.2168626984743720   T   T   T
  0.3747689655341268  0.5268000681466189  0.2150198261654026   T   T   T
  0.3585115483238343  0.5649212179019777  0.6379707546809023   T   T   T
  0.3438845330464142  0.5879464957008871  0.6068606423921650   T   T   T
  0.3050928380434354  0.6216947089595154  0.6050779853517712   T   T   T
  0.2852580135307707  0.6287911597705683  0.5739298719737145   T   T   T
  0.2413623249988875  0.6238554522463192  0.5721242808036119   T   T   T
  0.2223188203729642  0.6126767849921048  0.5409528261840076   T   T   T
  0.1866853871503639  0.5707220916151168  0.5391221859251083   T   T   T
  0.1741436258175148  0.5448848121184920  0.5079563764574561   T   T   T
  0.1571804704054992  0.4789194860853106  0.5061498715821532   T   T   T
  0.1546667983870379  0.4462466268307186  0.4749871628225453   T   T   T
  0.1611183946256032  0.3755255819162299  0.4731694335494898   T   T   T
  0.1693691787546355  0.3454735996593833  0.4420035045037204   T   T   T
  0.1975529017839371  0.2905612435837034  0.4401797674296933   T   T   T
  0.2143233562615169  0.2721187558002240  0.4090052885443906   T   T   T
  0.2561203853898765  0.2497696201518330  0.4071989162827300   T   T   T
  0.2764339970848071  0.2487486853887099  0.3760588187781849   T   T   T
  0.3191426737551822  0.2659482243658087  0.3742768156485470   T   T   T
  0.3368155056370882  0.2823946916917661  0.3431655561080881   T   T   T
  0.3676296131556496  0.3334526439525084  0.3414150398976254   T   T   T
  0.3774946745424920  0.3623168800541824  0.3102834085550736   T   T   T
  0.3874262443668386  0.4319679193368907  0.3084762663567162   T   T   T
  0.3866156611609372  0.4648301804675747  0.2773115793463776   T   T   T
  0.3726713433029575  0.5326354175852730  0.2754654111029887   T   T   T
  0.3559731377004965  0.5696181877890493  0.6984036037710921   T   T   T
  0.3408194797345217  0.5917213088204514  0.6672886820315588   T   T   T
  0.3012960758089239  0.6231524573322118  0.6655206301592207   T   T   T
  0.2813038126906209  0.6291194103657588  0.6343841781687934   T   T   T
  0.2375326321245004  0.6218007999353180  0.6325798939406936   T   T   T
  0.2187074752449912  0.6096524803795881  0.6014144589304411   T   T   T
  0.1839289396072794  0.5658528726012556  0.5995794573168400   T   T   T
  0.1719304980777421  0.5393674423194298  0.5684060566381790   T   T   T
  0.1563368562951179  0.4725118720480845  0.5665971787995709   T   T   T
  0.1545534817654107  0.4397068427619212  0.5354387673208927   T   T   T
  0.1624968364915084  0.3693820467897989  0.5336249426686083   T   T   T
  0.1713975321727031  0.3397867697784575  0.5024649823745371   T   T   T
  0.2007120662903118  0.2864667485803055  0.5006576405713641   T   T   T
  0.2178309480940550  0.2688701885506477  0.4694777031610876   T   T   T
  0.2600636395528016  0.2488182865131348  0.4676622689725454   T   T   T
  0.2803476482739807  0.2488279296118742  0.4365034912091292   T   T   T
  0.3226490753230232  0.2685242089221029  0.4347017141467669   T   T   T
  0.3399188414240266  0.2860924548585712  0.4035954108303209   T   T   T
  0.3695579298324996  0.3389582264568968  0.4018329867411392   T   T   T
  0.3787910611538339  0.3683941165385886  0.3707123548930089   T   T   T
  0.3872229074060822  0.4385627257926530  0.3688998522262899   T   T   T
  0.3857374040975500  0.4713606881041948  0.3377449797050524   T   T   T
  0.3533190724016905  0.5742056407864277  0.7588438377675520   T   T   T
  0.3376852728757589  0.5953629491240243  0.7277206027101151   T   T   T
  0.2974888462624197  0.6244578716782654  0.7259569510608248   T   T   T
  0.2773688211312786  0.6292469020739622  0.6948256290436161   T   T   T
  0.2337759097409523  0.6195510464811406  0.6930212767894447   T   T   T
  0.2151839755844707  0.6064074326633011  0.6618649743658771   T   T   T
  0.1812876101613649  0.5608205630583851  0.6600347406533624   T   T   T
  0.1698088157582478  0.5337274841023241  0.6288612535451333   T   T   T
  0.1555844895192158  0.4660672803434066  0.6270490590299113   T   T   T
  0.1545113175654809  0.4331799011599543  0.5958893682860621   T   T   T
  0.1639719595041071  0.3633532888985836  0.5940795706335444   T   T   T
  0.1735189771135114  0.3342700104817248  0.5629259378164784   T   T   T
  0.2039810001459337  0.2826651955762582  0.5611330136364723   T   T   T
  0.2214513950302979  0.2659899077878102  0.5299640367919094   T   T   T
  0.2640918661386505  0.2483441223260688  0.5281476677433067   T   T   T
  0.2843258000093067  0.2493662404032929  0.4969704838066830   T   T   T
  0.3261511575232061  0.2714707600289805  0.4951563731978778   T   T   T
  0.3429577286345336  0.2899332832916658  0.4640053643489238   T   T   T
  0.3712466574389493  0.3446177917298312  0.4621984881191059   T   T   T
  0.3799120651551354  0.3745437022839906  0.4311158450756095   T   T   T
  0.3868684870968098  0.4451886735156833  0.4292985254574294   T   T   T
  0.3847326162366368  0.4778753051578805  0.3981517226157322   T   T   T
  0.3505265002666596  0.5786639002916844  0.8192893736212050   T   T   T
  0.3344542039491888  0.5988798072970123  0.7881553692049189   T   T   T
  0.2936494236433511  0.6256366632011507  0.7863880871889148   T   T   T
  0.2734432135783226  0.6292374961234262  0.7552575332970062   T   T   T
  0.2300761479514942  0.6171522985498326  0.7534541625963589   T   T   T
  0.2117557310749290  0.6029999981205896  0.7223066713843947   T   T   T
  0.1787806774130904  0.5556602324946571  0.7204868962588473   T   T   T
  0.1678270974693889  0.5279744417426294  0.6893187875752702   T   T   T
  0.1549880836364812  0.4595862940537349  0.6875035935993732   T   T   T
  0.1545926580768387  0.4266620405330938  0.6563433520835993   T   T   T
  0.1655853803399991  0.3574285600835704  0.6545367222866493   T   T   T
  0.1757705062062308  0.3289254402385183  0.6233856306190133   T   T   T
  0.2073817441177572  0.2791845109182011  0.6215985847138428   T   T   T
  0.2251870084871625  0.2634914816119247  0.5904362129318067   T   T   T
  0.2681880398530604  0.2483545904125052  0.5886104591825460   T   T   T
  0.2883551763844279  0.2503937534051253  0.5574355302684608   T   T   T
  0.3297053649830611  0.2748215341343636  0.5556071146976826   T   T   T
  0.3460337821302453  0.2940895224465666  0.5244374827475417   T   T   T
  0.3730981884539208  0.3503955168451846  0.5226304097368342   T   T   T
  0.3807076402677759  0.3808299162466683  0.4914823865659619   T   T   T
  0.3862531449585775  0.4518270195077811  0.4896633634124282   T   T   T
  0.3835270151656295  0.4843824116418485  0.4585046641108554   T   T   T
  0.3476111807670196  0.5830033570486515  0.8797427404279401   T   T   T
  0.3311332820314913  0.6022722808070213  0.8485966175678171   T   T   T
  0.2897777123904898  0.6266943397891631  0.8468201850468545   T   T   T
  0.2695159811071765  0.6291092535720370  0.8156866655847974   T   T   T
  0.2264278408263679  0.6146232802943244  0.8138814606560798   T   T   T
  0.2084051847908369  0.5994499640143116  0.7827408380801991   T   T   T
  0.1764068319129233  0.5503717016595961  0.7809321649078932   T   T   T
  0.1660065980448872  0.5221128503000277  0.7497712054623806   T   T   T
  0.1545898792617476  0.4530622069009622  0.7479549043193737   T   T   T
  0.1548636300859396  0.4201443165950501  0.7167963498825383   T   T   T
  0.1673772044986064  0.3515956519248347  0.7149914052968844   T   T   T
  0.1781783271660197  0.3237287421636330  0.6838369985087844   T   T   T
  0.2109078723449095  0.2759395446243780  0.6820442171553620   T   T   T
  0.2290393157093218  0.2613221218805195  0.6508866333741451   T   T   T
  0.2723459326540562  0.2487068999733107  0.6490501859334081   T   T   T
  0.2924337561674620  0.2518808106619843  0.6178727547872305   T   T   T
  0.3332571586186246  0.2785300399805257  0.6160264798921389   T   T   T
  0.3491836158705031  0.2986290619521230  0.5848423032029403   T   T   T
  0.3752671378863492  0.3562056908030320  0.5830027711585525   T   T   T
  0.3822486391294687  0.3870476234852844  0.5518511950451860   T   T   T
  0.3862354256958977  0.4582921826374182  0.5500449527178217   T   T   T
  0.3824510453627858  0.4907526309289512  0.5189518904632877   T   T   T
  0.3445610168905430  0.5871764173631655  0.9401997077453464   T   T   T
  0.3277023028294792  0.6055050509623857  0.9090439790086139   T   T   T
  0.2858535314837090  0.6275942755302533  0.9072540887885790   T   T   T
  0.2655696323748350  0.6288456560715824  0.8761140741019865   T   T   T
  0.2228161387692592  0.6119570319998854  0.8743063296632382   T   T   T
  0.2051317588002658  0.5957708951167324  0.8431673792012252   T   T   T
  0.1741690053198182  0.5449682300185082  0.8413662310829315   T   T   T
  0.1643411957579854  0.5161496602467007  0.8102157060325446   T   T   T
  0.1543816275619327  0.4465051229195323  0.8083972577428654   T   T   T
  0.1553335831274696  0.4136244291606019  0.7772421381129825   T   T   T
  0.1693368282760252  0.3458425779866892  0.7754378991502378   T   T   T
  0.1807351754625935  0.3186477968881258  0.7442799851868572   T   T   T
  0.2145154438135886  0.2728334467771183  0.7424755538093959   T   T   T
  0.2329636308690718  0.2593424367828077  0.7113189018313321   T   T   T
  0.2765166085513597  0.2492257232760791  0.7094765129789254   T   T   T
  0.2965228464528915  0.2535533124690387  0.6782988719996623   T   T   T
  0.3367953617192580  0.2823317681265629  0.6764458721657112   T   T   T
  0.3522969861192429  0.3032758488729167  0.6452586621555516   T   T   T
  0.3772591637905758  0.3621539203668889  0.6434026882000818   T   T   T
  0.3836413661835416  0.3933412612936441  0.6122455382478738   T   T   T
  0.3861107927009571  0.4647359913212192  0.6104436530519715   T   T   T
  0.3816278998679801  0.4969656419258472  0.5793282959889177   T   T   T
  0.3413843950770962  0.5911694751354085  0.0006579257527664   T   T   T
  0.3241718265504206  0.6085538016914528  0.9694952003190999   T   T   T
  0.2818805649533747  0.6282924461440998  0.9676900179760792   T   T   T
  0.2616002907270682  0.6284067345732287  0.9365433949910061   T   T   T
  0.2192293506548387  0.6091334963362428  0.9347325016034158   T   T   T
  0.2019142578038982  0.5919548184449217  0.9035905663096475   T   T   T
  0.1720482793398290  0.5394492054297810  0.9017912505306805   T   T   T
  0.1628374850928102  0.5100965698672508  0.8706477373446854   T   T   T
  0.1543575293722152  0.4399420104142435  0.8688281926855407   T   T   T
  0.1559921198800714  0.4071290813634219  0.8376780507950021   T   T   T
  0.1714485478568940  0.3401892713148921  0.8358735267286156   T   T   T
  0.1834259681962095  0.3136773661743598  0.8047160727162042   T   T   T
  0.2181980476114522  0.2698667713129863  0.8029005620919073   T   T   T
  0.2369289693558838  0.2575000431136440  0.7717412081394124   T   T   T
  0.2806732224586327  0.2498604403960544  0.7698997536993301   T   T   T
  0.3005784136006117  0.2553497988580323  0.7387231956366460   T   T   T
  0.3402525594566759  0.2862473103299052  0.7368707369445809   T   T   T
  0.3553429974891655  0.3080174870015140  0.7056869463298474   T   T   T
  0.3791264368732097  0.3681693419957664  0.7038295726845698   T   T   T
  0.3848807686219198  0.3996834374684690  0.6726641689932914   T   T   T
  0.3858221182221663  0.4711687473690804  0.6708671750323681   T   T   T
  0.3806184056166478  0.5030885598021151  0.6397375156400461   T   T   T
  0.2576052852790303  0.6277393417530456  0.9969720812102401   T   T   T
  0.2156686360327308  0.6061075137240310  0.9951587521734210   T   T   T
  0.1987477417862755  0.5879744285262634  0.9640113339880552   T   T   T
  0.1700151265697382  0.5338250990001587  0.9622081656959867   T   T   T
  0.1614492761368559  0.5039670198926447  0.9310677675520919   T   T   T
  0.1544693229185117  0.4333779237842469  0.9292487984655838   T   T   T
  0.1568131069407814  0.4006785924299153  0.8981027791858704   T   T   T
  0.1736897866150241  0.3346523672391346  0.8962992359308516   T   T   T
  0.1862353663577756  0.3088461625547766  0.8651441792322749   T   T   T
  0.2219263888440524  0.2670378857407487  0.8633208784450890   T   T   T
  0.2409263528120336  0.2557863719235894  0.8321613399812809   T   T   T
  0.2848067764673897  0.2506044988791841  0.8303266810808008   T   T   T
  0.3045926751075658  0.2572408967545857  0.7991518319888635   T   T   T
  0.3436148376780579  0.2902649028358670  0.7973060365127455   T   T   T
  0.3582669813263318  0.3128601622124149  0.7661258603680098   T   T   T
  0.3808131453168117  0.3742611530463318  0.7642761379897151   T   T   T
  0.3859447051766899  0.4060740414237273  0.7331063246675326   T   T   T
  0.3853637687679478  0.4775742543538199  0.7313128987324488   T   T   T
  0.3794763315422275  0.5091644154019935  0.7001731137065630   T   T   T
  0.1601550595167583  0.4977689233585929  0.9914796871775662   T   T   T
  0.1546842376059998  0.4268273446689094  0.9896625479636724   T   T   T
  0.1577446580087836  0.3942709545481454  0.9585193634514623   T   T   T
  0.1760163542607131  0.3292318540662036  0.9567166507664803   T   T   T
  0.1891208509024724  0.3041431874773837  0.9255668708126661   T   T   T
  0.2256806772240524  0.2643604579188243  0.9237420948463654   T   T   T
  0.2449258583990664  0.2542041630780309  0.8925847838047553   T   T   T
  0.2888924468798133  0.2514910036937993  0.8907608490717484   T   T   T
  0.3085417208949447  0.2592565509851783  0.8595895766152104   T   T   T
  0.3468531477952086  0.2944213821211306  0.8577517901508400   T   T   T
  0.3610483147152377  0.3178259297536860  0.8265756497173616   T   T   T
  0.3823014958385008  0.3804345476626098  0.8247371949730404   T   T   T
  0.3868003465954329  0.4125137439066624  0.7935642686052204   T   T   T
  0.3846916440748377  0.4839387411689852  0.7917694250052204   T   T   T
  0.3781578651408030  0.5151761668901168  0.7606223180033970   T   T   T
  0.1920709607455905  0.2996176128353668  0.9859881727208293   T   T   T
  0.2294516562843670  0.2619013429961899  0.9841677545081156   T   T   T
  0.2489183309543500  0.2528190741906215  0.9530144666071078   T   T   T
  0.2929196541081393  0.2525764810117657  0.9512035786397202   T   T   T
  0.3124090274704127  0.2614584147642665  0.9200365422952834   T   T   T
  0.3499491816524554  0.2987539347977280  0.9182058177684269   T   T   T
  0.3636672394476622  0.3229329902160886  0.8870331858909051   T   T   T
  0.3835835791082410  0.3866900198253119  0.8852070698642142   T   T   T
  0.3874351645672397  0.4190005059547864  0.8540322399860028   T   T   T
  0.3837983335800725  0.4902617942531523  0.8522331346896783   T   T   T
  0.3766303012334524  0.5210963674705534  0.8210777912505944   T   T   T
  0.3161968385565295  0.2638525751702874  0.9804876494698280   T   T   T
  0.3529239083992434  0.3032374766884883  0.9786647523482441   T   T   T
  0.3661338397314898  0.3281787475424272  0.9474953963316153   T   T   T
  0.3846936507992094  0.3930077861685802  0.9456810265394130   T   T   T
  0.3878764239881743  0.4255170676099600  0.9145059373953878   T   T   T
  0.3827292621729914  0.4965313196058481  0.9126996016086558   T   T   T
  0.3749288959846770  0.5269450476576177  0.8815394862113047   T   T   T
  0.3881396983337457  0.4320525057875605  0.9749813705567032   T   T   T
  0.3814797155023832  0.5027323557423304  0.9731666644560001   T   T   T
  0.3730577378087113  0.5326883182507091  0.9420029133900099   T   T   T
  0.4788450374642174  0.4011577282201690  0.5002866726394726   T   T   T
  0.4835399128754986  0.3368000343437748  0.4839729906136162   T   T   T
  0.4947943609229188  0.4606823733334603  0.4840886221122608   T   T   T
 
  0.00000000E+00  0.00000000E+00  0.00000000E+00
  0.00000000E+00  0.00000000E+00  0.00000000E+00
  0.00000000E+00  0.00000000E+00  0.00000000E+00
  0.00000000E+00  0.00000000E+00  0.00000000E+00
  0.00000000E+00  0.00000000E+00  0.00000000E+00
  0.00000000E+00  0.00000000E+00  0.00000000E+00
  0.00000000E+00  0.00000000E+00  0.00000000E+00
  0.00000000E+00  0.00000000E+00  0.00000000E+00
  0.00000000E+00  0.00000000E+00  0.00000000E+00
  0.00000000E+00  0.00000000E+00  0.00000000E+00
  0.00000000E+00  0.00000000E+00  0.00000000E+00
  0.00000000E+00  0.00000000E+00  0.00000000E+00
  0.00000000E+00  0.00000000E+00  0.00000000E+00
  0.00000000E+00  0.00000000E+00  0.00000000E+00
  0.00000000E+00  0.00000000E+00  0.00000000E+00
  0.00000000E+00  0.00000000E+00  0.00000000E+00
  0.00000000E+00  0.00000000E+00  0.00000000E+00
  0.00000000E+00  0.00000000E+00  0.00000000E+00
  0.00000000E+00  0.00000000E+00  0.00000000E+00
  0.00000000E+00  0.00000000E+00  0.00000000E+00
  0.00000000E+00  0.00000000E+00  0.00000000E+00
  0.00000000E+00  0.00000000E+00  0.00000000E+00
  0.00000000E+00  0.00000000E+00  0.00000000E+00
  0.00000000E+00  0.00000000E+00  0.00000000E+00
  0.00000000E+00  0.00000000E+00  0.00000000E+00
  0.00000000E+00  0.00000000E+00  0.00000000E+00
  0.00000000E+00  0.00000000E+00  0.00000000E+00
  0.00000000E+00  0.00000000E+00  0.00000000E+00
  0.00000000E+00  0.00000000E+00  0.00000000E+00
  0.00000000E+00  0.00000000E+00  0.00000000E+00
  0.00000000E+00  0.00000000E+00  0.00000000E+00
  0.00000000E+00  0.00000000E+00  0.00000000E+00
  0.00000000E+00  0.00000000E+00  0.00000000E+00
  0.00000000E+00  0.00000000E+00  0.00000000E+00
  0.00000000E+00  0.00000000E+00  0.00000000E+00
  0.00000000E+00  0.00000000E+00  0.00000000E+00
  0.00000000E+00  0.00000000E+00  0.00000000E+00
  0.00000000E+00  0.00000000E+00  0.00000000E+00
  0.00000000E+00  0.00000000E+00  0.00000000E+00
  0.00000000E+00  0.00000000E+00  0.00000000E+00
  0.00000000E+00  0.00000000E+00  0.00000000E+00
  0.00000000E+00  0.00000000E+00  0.00000000E+00
  0.00000000E+00  0.00000000E+00  0.00000000E+00
  0.00000000E+00  0.00000000E+00  0.00000000E+00
  0.00000000E+00  0.00000000E+00  0.00000000E+00
  0.00000000E+00  0.00000000E+00  0.00000000E+00
  0.00000000E+00  0.00000000E+00  0.00000000E+00
  0.00000000E+00  0.00000000E+00  0.00000000E+00
  0.00000000E+00  0.00000000E+00  0.00000000E+00
  0.00000000E+00  0.00000000E+00  0.00000000E+00
  0.00000000E+00  0.00000000E+00  0.00000000E+00
  0.00000000E+00  0.00000000E+00  0.00000000E+00
  0.00000000E+00  0.00000000E+00  0.00000000E+00
  0.00000000E+00  0.00000000E+00  0.00000000E+00
  0.00000000E+00  0.00000000E+00  0.00000000E+00
  0.00000000E+00  0.00000000E+00  0.00000000E+00
  0.00000000E+00  0.00000000E+00  0.00000000E+00
  0.00000000E+00  0.00000000E+00  0.00000000E+00