INCAR created by Atomic Simulation Environment
 SIGMA = 0.010000
 EDIFF = 1.00e-06
 EDIFFG = -1.00e-02
 ALGO = N
 GGA = PE
 PREC = Normal
 SYSTEM = 01_AOPT
 IBRION = 1
 ICHARG = 1
 ISIF = 2
 ISMEAR = 0
 ISPIN = 2
 ISTART = 1
 KPAR = 2
 NBANDS = 896
 NPAR = 32
 NSW = 400
 IVDW = 11
 LCHARG = .TRUE.
 LWAVE = .FALSE.
 LREAL = .FALSE.
 MAGMOM = 241*0.0000 2*1.0000 124*0.0000 
