 C  S  O                                
    1.000000000000000     
    32.3722991942999982    0.0000000000000000    0.0000000000000000
     0.0000000000000000   19.9214134216000005    0.0000000000000000
     0.0000000000000000    0.0000000000000000   40.4480476378999967
   C    S    O 
   364     1     2
Selective Dynamics
Direct
  0.3709852690496868  0.5383498237709216  0.0024627382934034  T  T  T
  0.3688232734997687  0.5438686498080775  0.0628700271641562  T  T  T
  0.3380857456545780  0.5950392477716167  0.0610696387117022  T  T  T
  0.3205103341615678  0.6114538730206834  0.0299288118883143  T  T  T
  0.2778269866221617  0.6288243557250432  0.0281184986062058  T  T  T
  0.3665393254439702  0.5492639967547334  0.1232813797945302  T  T  T
  0.3347330453148338  0.5986806699417022  0.1214806144598467  T  T  T
  0.3168205005416406  0.6140968223067045  0.0903395155605378  T  T  T
  0.2737914579774017  0.6290495025792566  0.0885233504700174  T  T  T
  0.2535649103026029  0.6269065633453766  0.0573839066514412  T  T  T
  0.2121097549760049  0.6029378090975512  0.0555770916399049  T  T  T
  0.1955892260502625  0.5838598216092652  0.0244339090648795  T  T  T
  0.1680312972281102  0.5281119886359757  0.0226258794106099  T  T  T
  0.3641268463305742  0.5545240149011629  0.1837029533870106  T  T  T
  0.3312915678319597  0.6021258436429275  0.1819005894222923  T  T  T
  0.3130728139596894  0.6165281214056545  0.1507534865324688  T  T  T
  0.2697533737743820  0.6290589432914661  0.1489345902947604  T  T  T
  0.2495882864478075  0.6257765614467311  0.1177922021333143  T  T  T
  0.2086673466094345  0.5994975802555840  0.1159881477180510  T  T  T
  0.1925596066968272  0.5795120456702489  0.0848437388039960  T  T  T
  0.1662023410868806  0.5222576579453764  0.0830314273231338  T  T  T
  0.1589422279683443  0.4915100199500721  0.0518911316175912  T  T  T
  0.1549932230179675  0.4202931751852256  0.0500780738921409  T  T  T
  0.1587508405140310  0.3879240986253984  0.0189374978171213  T  T  T
  0.1783894925508941  0.3239343899395898  0.0171327823429890  T  T  T
  0.3616048697867097  0.5596540757706991  0.2441221956069908  T  T  T
  0.3277807087816097  0.6053756966745819  0.2423240601048303  T  T  T
  0.3092669793280930  0.6187499915253797  0.2111758909703413  T  T  T
  0.2657081766991407  0.6288545031028983  0.2093560153952072  T  T  T
  0.2456309597334533  0.6244430239875587  0.1782076708239638  T  T  T
  0.2052920792477583  0.5958834363170965  0.1764054463551082  T  T  T
  0.1896207942217374  0.5750054930095594  0.1452581021440285  T  T  T
  0.1644947975539158  0.5163063396875621  0.1434420172033320  T  T  T
  0.1578991513068223  0.4851665322733543  0.1122990561817566  T  T  T
  0.1554633199028588  0.4137715710471084  0.1104902779215375  T  T  T
  0.1599064275032158  0.3816358973867040  0.0793445000738629  T  T  T
  0.1808859185659656  0.3187842617964741  0.0775367970877860  T  T  T
  0.1950431775871168  0.2952108002432842  0.0463982733912329  T  T  T
  0.2331984098899670  0.2595922062698679  0.0445801532085755  T  T  T
  0.2528650717688907  0.2515979071877752  0.0134417380320736  T  T  T
  0.2968459748270602  0.2538224482946221  0.0116382540612491  T  T  T
  0.3709568438018794  0.5381277311509218  0.3356539451035708  T  T  T
  0.3589644145574036  0.5646705574074842  0.3044929505580955  T  T  T
  0.3241887892019450  0.6084662117812271  0.3027195068333688  T  T  T
  0.3054155794979520  0.6207669744709657  0.2715990244576115  T  T  T
  0.2616695598224120  0.6284282295675715  0.2697889309958338  T  T  T
  0.2417022621232815  0.6228929342341867  0.2386346981250662  T  T  T
  0.2019927546090231  0.5920949939797192  0.2368322044298900  T  T  T
  0.1867835377550592  0.5703367631049568  0.2056807857123168  T  T  T
  0.1629277365786607  0.5102563438054990  0.2038622916786619  T  T  T
  0.1569958401214320  0.4787677101133277  0.1727152937500815  T  T  T
  0.1560783161395750  0.4072821189449938  0.1709104758265780  T  T  T
  0.1611911528346258  0.3754178666775983  0.1397603406807184  T  T  T
  0.1834943235615356  0.3137802444991571  0.1379476628391047  T  T  T
  0.1981461230705443  0.2910222810847389  0.1068060135165300  T  T  T
  0.2370363001757307  0.2575736889796668  0.1049909672275581  T  T  T
  0.2568585488242217  0.2506848761176260  0.0738480240264206  T  T  T
  0.3007656640966315  0.2553800037489105  0.0720441274141229  T  T  T
  0.3198610487089385  0.2664216323481587  0.0409052862116216  T  T  T
  0.3557232927414142  0.3078544429935817  0.0390861983859914  T  T  T
  0.3684184285395815  0.3335352319199557  0.0079474937051372  T  T  T
  0.3855840373514650  0.3993720899157005  0.0061456134038912  T  T  T
  0.3687787566566404  0.5440322033141576  0.3961740008935400  T  T  T
  0.3561785525319937  0.5694623320414411  0.3649522251676194  T  T  T
  0.3204425772888982  0.6114416624089692  0.3631297653149289  T  T  T
  0.3014728211704512  0.6226171130454321  0.3319531056206748  T  T  T
  0.2576171281733187  0.6277867245502056  0.3302020828131498  T  T  T
  0.2378122202939917  0.6211147780331218  0.2990661198060798  T  T  T
  0.1987807166966895  0.5881048991571892  0.2972692759280933  T  T  T
  0.1840405277147399  0.5655275069739510  0.2661152290376062  T  T  T
  0.1614807074557276  0.5041403722716006  0.2642970732458799  T  T  T
  0.1562275536558804  0.4723356554165685  0.2331426992585465  T  T  T
  0.1568366187477828  0.4008440864384638  0.2313399256473387  T  T  T
  0.1626232229665739  0.3692864231557415  0.2001879754612463  T  T  T
  0.1862205094725604  0.3089347514400130  0.1983711641678274  T  T  T
  0.2013360037505857  0.2870091424328553  0.1672220887219061  T  T  T
  0.2409091472497013  0.2557578703702675  0.1654116141438434  T  T  T
  0.2608648796829317  0.2499921831847939  0.1342629632229735  T  T  T
  0.3046452145408153  0.2571487112881219  0.1324557400940819  T  T  T
  0.3234991870200153  0.2692483773736117  0.1013153796492411  T  T  T
  0.3584628079526582  0.3126610449213643  0.0994972487183752  T  T  T
  0.3706047999056191  0.3390368720855709  0.0683553465688350  T  T  T
  0.3863684612037430  0.4057928102605406  0.0665554643539072  T  T  T
  0.3881896678842851  0.4386034339245438  0.0354150531410101  T  T  T
  0.3800330123218720  0.5088679354676211  0.0336004377564725  T  T  T
  0.3658973832959376  0.5519169912958799  0.4565281115546785  T  T  T
  0.3535036794740262  0.5757879102716584  0.4251998510288832  T  T  T
  0.3167710527631941  0.6149779615796684  0.4234878729878562  T  T  T
  0.2974744066734825  0.6244972307903459  0.3923788468595905  T  T  T
  0.2534875018552613  0.6269933822375936  0.3906348746174693  T  T  T
  0.2338432402660871  0.6191282799316382  0.3594482717964241  T  T  T
  0.1955863193431963  0.5838903062624203  0.3576941500041055  T  T  T
  0.1813954322846396  0.5605149756305574  0.3265427935633082  T  T  T
  0.1601736581542618  0.4979277197558835  0.3247392382189376  T  T  T
  0.1555985665752612  0.4658623787777528  0.2935801826871165  T  T  T
  0.1577286599293027  0.3944488153394832  0.2917785815619947  T  T  T
  0.1641798650604618  0.3632329006711432  0.2606226960121322  T  T  T
  0.1890429735170619  0.3042430516145596  0.2588031259717932  T  T  T
  0.2046177880485806  0.2831784641248637  0.2276484420246193  T  T  T
  0.2448288480548536  0.2541528817492179  0.2258417852453573  T  T  T
  0.2648882160447256  0.2495098290940006  0.1946887468168713  T  T  T
  0.3084899675098193  0.2591219932269498  0.1928774435646594  T  T  T
  0.3270684269925394  0.2722818183317546  0.1617303390050675  T  T  T
  0.3610903739098232  0.3176245544693551  0.1599166316210307  T  T  T
  0.3726707341760415  0.3446584713780884  0.1287703792301851  T  T  T
  0.3870036421622249  0.4122609338299283  0.1269680561314465  T  T  T
  0.3881346176021053  0.4451497109088628  0.0958270231475714  T  T  T
  0.3784924215936007  0.5149150209697593  0.0940094028540236  T  T  T
  0.3635794014756275  0.5573421734250122  0.5172281546014469  T  T  T
  0.3505259692488161  0.5812216751209157  0.4859326302322593  T  T  T
  0.3128681385290252  0.6177892307461794  0.4841380434130745  T  T  T
  0.2935016491005689  0.6261873018487927  0.4528906462186469  T  T  T
  0.2494606206497146  0.6258565977713563  0.4511305857552015  T  T  T 
  0.2299771556199348  0.6169045190198686  0.4199130320293213  T  T  T
  0.1925861044590453  0.5795536779633393  0.4181714838881983  T  T  T
  0.1788888817635153  0.5554039875355687  0.3870106468599512  T  T  T
  0.1590029491842156  0.4916650020205969  0.3852059358079279  T  T  T
  0.1551013411847029  0.4593696438990930  0.3540345027850036  T  T  T
  0.1587336750724482  0.3881434878478651  0.3522232241387775  T  T  T
  0.1658622346196113  0.3572897911396877  0.3210657616818462  T  T  T
  0.1919592719990009  0.2997273472807614  0.3192403547987098  T  T  T
  0.2079679718659712  0.2795361953924524  0.2880861691956589  T  T  T
  0.2487713468474452  0.2527778482198377  0.2862778613149903  T  T  T
  0.2689240295313025  0.2492566816847815  0.2551241548064340  T  T  T
  0.3122889036064269  0.2613145926734174  0.2533025206659164  T  T  T
  0.3305751996539549  0.2755059223762981  0.2221543757773456  T  T  T
  0.3636143375920428  0.3227340892577761  0.2203444883477327  T  T  T
  0.3746086051278867  0.3503981199157051  0.1891950484961963  T  T  T
  0.3874949255061647  0.4187634184628887  0.1873871897657046  T  T  T
  0.3879244271253993  0.4516917514877528  0.1562429264195456  T  T  T
  0.3768019401594389  0.5208687382445927  0.1544250854165215  T  T  T
  0.3615862832740489  0.5598601098418745  0.5776301822298837  T  T  T
  0.3474909611376823  0.5848019952314316  0.5466777720261730  T  T  T
  0.3092008074320622  0.6196707596738658  0.5447848733295403  T  T  T
  0.2895151302943406  0.6273668957039389  0.5135072921556002  T  T  T
  0.2455089894173826  0.6245419050596281  0.5116799925078813  T  T  T
  0.2262443214750857  0.6144811496520394  0.4804767567717153  T  T  T
  0.1896697298673651  0.5750503970207189  0.4786609391962028  T  T  T
  0.1764812014700621  0.5501367044988437  0.4474876666429718  T  T  T
  0.1579666389117754  0.4853497914327071  0.4456831462274758  T  T  T
  0.1547584346744396  0.4528262427965249  0.4145021549753127  T  T  T
  0.1599024733993652  0.3818627147414824  0.4126881690891404  T  T  T
  0.1676238249315251  0.3515028745801684  0.3815060951353170  T  T  T
  0.1948795392835005  0.2954413584608389  0.3796497644067945  T  T  T
  0.2113724188305923  0.2760964458556768  0.3485156496755951  T  T  T
  0.2526844841353548  0.2516347227446465  0.3466672629342883  T  T  T
  0.2729388965606579  0.2492378003235656  0.3155419632542146  T  T  T
  0.3160164910251869  0.2637069973737442  0.3136967070582236  T  T  T
  0.3340105974216196  0.2789204850077791  0.2825724218623249  T  T  T
  0.3660162464531168  0.3279711170995240  0.2807646711053876  T  T  T
  0.3764242299705141  0.3562488299803943  0.2496184251566552  T  T  T
  0.3878446713932453  0.4252784848693842  0.2477918438678992  T  T  T
  0.3875764291841692  0.4582142024024632  0.2166591939507731  T  T  T
  0.3749882526667186  0.5267299266755487  0.2148490255741191  T  T  T
  0.3590123667700514  0.5645148880673296  0.6381653916308180  T  T  T
  0.3443223579221558  0.5872607532873553  0.6069983850000960  T  T  T
  0.3053944386365377  0.6208398612725919  0.6051792645689333  T  T  T
  0.2855333317143507  0.6279168441509814  0.5740414244246597  T  T  T
  0.2416449930198133  0.6229935152759897  0.5721823356859275  T  T  T
  0.2225320645271537  0.6118502536744792  0.5410216275902114  T  T  T
  0.1868160599317739  0.5703960601697720  0.5391418463212057  T  T  T
  0.1741810304932541  0.5447582315168783  0.5079569849118559  T  T  T
  0.1570502861496234  0.4789516545771967  0.5061520303059469  T  T  T
  0.1545375932672290  0.4462809522074586  0.4749808871973465  T  T  T
  0.1611891392973683  0.3756362053484624  0.4731654906703361  T  T  T
  0.1695701236376424  0.3457198340418818  0.4419858622795245  T  T  T
  0.1979378326128916  0.2912693767731299  0.4401335287036808  T  T  T
  0.2147395494876872  0.2728569806756467  0.4089471282150463  T  T  T
  0.2565243692689927  0.2505237902505779  0.4070880937064105  T  T  T
  0.2768535567593556  0.2494122432170061  0.3759554758704613  T  T  T
  0.3196488851762608  0.2663763077631705  0.3741203761414049  T  T  T
  0.3373356723743901  0.2825677871405625  0.3429715955948004  T  T  T
  0.3683333091643683  0.3333650598107533  0.3412213144259851  T  T  T
  0.3781051403272592  0.3621882044445488  0.3100293525221027  T  T  T
  0.3880535903629299  0.4318377540070232  0.3082188413920869  T  T  T
  0.3870811416580482  0.4647396758891855  0.2770632701480406  T  T  T
  0.3730530907532627  0.5325010949576532  0.2752532433022110  T  T  T
  0.3563370268092220  0.5693992817875086  0.6985687297453493  T  T  T
  0.3411953549191153  0.5913310373365124  0.6674513082208076  T  T  T
  0.3016300158216085  0.6225610270920681  0.6656055914606633  T  T  T
  0.2816313950595760  0.6283475769678679  0.6344817036154511  T  T  T
  0.2378892275476564  0.6211706159444916  0.6326217562288804  T  T  T
  0.2189705617552918  0.6090308789534846  0.6014885239280213  T  T  T
  0.1840611158744566  0.5655769539183573  0.5996250944253158  T  T  T
  0.1719900121400890  0.5392446472988717  0.5684403776337758  T  T  T
  0.1562653879756803  0.4725237552020257  0.5666299592607210  T  T  T
  0.1544558350078360  0.4397191115791649  0.5354523084607785  T  T  T
  0.1625960378335227  0.3695122584431184  0.5336353183072865  T  T  T
  0.1716219019591600  0.3400703818477280  0.5024626298089644  T  T  T
  0.2011479470888007  0.2872449764412172  0.5006572876066905  T  T  T
  0.2182715665103455  0.2698340877443013  0.4694505945000797  T  T  T
  0.2604303863559739  0.2495255599966243  0.4676011217718988  T  T  T
  0.2807562625714081  0.2490524531630332  0.4363560187811194  T  T  T
  0.3231006304412852  0.2674381761576339  0.4344600056164854  T  T  T
  0.3405957494825071  0.2860115345309460  0.4035191648589092  T  T  T
  0.3706519954896748  0.3386203844914839  0.4018000601969074  T  T  T
  0.3797941024345619  0.3680328453144451  0.3706819591683952  T  T  T
  0.3882803720352971  0.4385401114387490  0.3688192246447584  T  T  T
  0.3864839991514414  0.4711669800849619  0.3375500738653041  T  T  T
  0.3535351787463210  0.5741023825452285  0.7589799567491150  T  T  T
  0.3379523155208579  0.5951504081872786  0.7278315162508806  T  T  T
  0.2977433617099347  0.6241691564463248  0.7260215412618213  T  T  T
  0.2776756262573514  0.6288052153821894  0.6948658647291741  T  T  T
  0.2340764271600564  0.6192087226450237  0.6930470362820285  T  T  T
  0.2155027436446032  0.6060391034009373  0.6618922589023828  T  T  T
  0.1814885327906820  0.5606900600039911  0.6600725007702233  T  T  T
  0.1699077125834956  0.5336294109422776  0.6289123813772597  T  T  T
  0.1555994951077499  0.4660556909185730  0.6270981999815484  T  T  T
  0.1544961118576140  0.4331905032042041  0.5959288444384365  T  T  T
  0.1641322272953453  0.3634557552762185  0.5941126415835930  T  T  T
  0.1737677991270319  0.3345511661751490  0.5629504164909167  T  T  T
  0.2043849903045395  0.2834103862970792  0.5611983311516021  T  T  T
  0.2219037929904571  0.2669804622565577  0.5300097533027613  T  T  T
  0.2644764235693660  0.2490800542779935  0.5282640742209176  T  T  T
  0.2845704650274928  0.2494380509694472  0.4969865871412788  T  T  T
  0.3265932056401866  0.2697831814805818  0.4952380318626156  T  T  T
  0.3429331500108181  0.2877220122071927  0.4638491824510717  T  T  T
  0.3688621579742957  0.3446932877397090  0.4618569215851300  T  T  T
  0.3800081217121887  0.3744464804892870  0.4311535086930112  T  T  T
  0.3869415336861449  0.4452648986159528  0.4293542095093684  T  T  T
  0.3858279209546382  0.4777671695364590  0.3981473210249780  T  T  T
  0.3506282371327796  0.5786476731491237  0.8194081392314786  T  T  T
  0.3346066150800187  0.5988127375093183  0.7882578506817000  T  T  T
  0.2938001602502607  0.6255623681885829  0.7864564812692468  T  T  T
  0.2736491458050639  0.6290685542033722  0.7553051344426505  T  T  T
  0.2302769891156003  0.6170278742154651  0.7534902658603145  T  T  T
  0.2119930362807524  0.6028410644612509  0.7223334994026184  T  T  T
  0.1789623660387002  0.5556062239964684  0.7205263791852663  T  T  T
  0.1679766108224840  0.5279364969376394  0.6893635534180406  T  T  T
  0.1550938751807233  0.4595732915530488  0.6875554195581589  T  T  T
  0.1546774788920893  0.4266583643027349  0.6563957329124654  T  T  T
  0.1657940148043059  0.3575123855357467  0.6545841104930995  T  T  T
  0.1760271106019658  0.3291699150415949  0.6234283760296239  T  T  T
  0.2077697701218766  0.2797298369163420  0.6216731187965101  T  T  T
  0.2256051545875262  0.2642626894697013  0.5904988699216762  T  T  T
  0.2686162100264626  0.2490867859934319  0.5887459660398934  T  T  T
  0.2887770708147697  0.2506440925498820  0.5576163735137205  T  T  T
  0.3303295304758470  0.2739014325062507  0.5559163773520587  T  T  T
  0.3460834087501025  0.2921329499348295  0.5246173704675946  T  T  T
  0.3708120885784498  0.3506647761525594  0.5229733195181030  T  T  T
  0.3731452714795536  0.3823122060998990  0.4915118717216314  T  T  T
  0.3787707904320200  0.4533326051105721  0.4895857902932988  T  T  T
  0.3810198538096347  0.4850299108859468  0.4581403339470457  T  T  T
  0.3476341351794143  0.5830341074566529  0.8798308122799459  T  T  T
  0.3311917926614870  0.6022928398216074  0.8486856902015650  T  T  T
  0.2898396936085088  0.6267323596464340  0.8468850734334963  T  T  T
  0.2696217814308051  0.6291060413152902  0.8157392097526484  T  T  T
  0.2265327218819306  0.6146266992944316  0.8139223768999460  T  T  T
  0.2085530317240574  0.5994176628704726  0.7827735015098626  T  T  T
  0.1765417296675585  0.5503563432113970  0.7809702591373232  T  T  T
  0.1661537272645742  0.5220907064043742  0.7498128067877962  T  T  T
  0.1547270766270684  0.4530454841606066  0.7480000717489668  T  T  T
  0.1550053674963865  0.4201251183861832  0.7168418122981171  T  T  T
  0.1675886662539295  0.3516136232710745  0.7150269699074037  T  T  T
  0.1784609173961373  0.3238376215065203  0.6838660127336812  T  T  T
  0.2112871158481707  0.2762206970382656  0.6820679164783776  T  T  T
  0.2294812468651088  0.2618174985151037  0.6509258008409599  T  T  T
  0.2727720840516289  0.2492474216482805  0.6491599856431460  T  T  T
  0.2928604953230274  0.2524932189900306  0.6179980779936959  T  T  T
  0.3338417875813382  0.2788869140342136  0.6161822383232907  T  T  T
  0.3499494480126873  0.2985447010781127  0.5849340686727988  T  T  T
  0.3765435690052950  0.3559061949048943  0.5829529109011180  T  T  T
  0.3826130820406358  0.3868631988322126  0.5517065700009103  T  T  T
  0.3865459718136261  0.4582812774050076  0.5500243137049854  T  T  T
  0.3803035274243029  0.4915925073676120  0.5192346241320496  T  T  T
  0.3445427040882386  0.5872243541181916  0.9402477746795265  T  T  T
  0.3276992037798249  0.6055630502003185  0.9091049663023061  T  T  T
  0.2858536712988831  0.6276710138832651  0.9073022954371480  T  T  T
  0.2655958709891254  0.6289107008625575  0.8761605841465762  T  T  T
  0.2228417839715445  0.6120109687307795  0.8743435356556661  T  T  T
  0.2051955998737218  0.5957988933681205  0.8432006269352699  T  T  T
  0.1742407754828942  0.5449781873760684  0.8413990515481111  T  T  T
  0.1644450061902849  0.5161440176620355  0.8102498379461677  T  T  T
  0.1544943586905721  0.4464944377349183  0.8084325811172984  T  T  T
  0.1554722081563387  0.4136047005575137  0.7772810670461950  T  T  T
  0.1695003001844839  0.3458333104144289  0.7754712810152683  T  T  T
  0.1809542161639019  0.3186762144611828  0.7443121796212298  T  T  T
  0.2147706411035708  0.2729284239327017  0.7425039825705980  T  T  T
  0.2332912922112002  0.2595688682216994  0.7113503475644039  T  T  T
  0.2768486356680192  0.2494657017245731  0.7095361568722059  T  T  T
  0.2969187815332599  0.2538692651721683  0.6784033983663227  T  T  T
  0.3372490880569172  0.2824312442654168  0.6766343869571492  T  T  T
  0.3528950076124034  0.3033310928398875  0.6454887858374576  T  T  T
  0.3780654054614829  0.3620292139291398  0.6436013149166245  T  T  T
  0.3847801667094312  0.3929870400453251  0.6122926809500137  T  T  T
  0.3871888379642317  0.4646701722878820  0.6104984442519638  T  T  T
  0.3827665266378238  0.4968643960699005  0.5793529455870973  T  T  T
  0.3413587490615529  0.5912200924546862  0.0006603757740455  T  T  T
  0.3241416088768473  0.6086195485061298  0.9695180066671300  T  T  T
  0.2818509659500715  0.6283718646592219  0.9677119223449117  T  T  T
  0.2615765896529779  0.6284850703898822  0.9365735675270720  T  T  T
  0.2192054850600719  0.6091969293622242  0.9347586343347107  T  T  T
  0.2019131246603796  0.5920027569030767  0.9036172709435507  T  T  T
  0.1720605393575564  0.5394708535529392  0.9018156802727858  T  T  T
  0.1628839628885102  0.5101029211190337  0.8706736341832964  T  T  T
  0.1544158622570012  0.4399384136388751  0.8688537887126105  T  T  T
  0.1560836914836653  0.4071150897245023  0.8377089248094046  T  T  T
  0.1715390210334810  0.3401703961282739  0.8359028436513842  T  T  T
  0.1835580423856498  0.3136612642972846  0.8047502850751329  T  T  T
  0.2183350452634109  0.2698518351868398  0.8029376185550526  T  T  T
  0.2371247061705700  0.2575425268099564  0.7717874006672845  T  T  T
  0.2808747793198167  0.2499041949533143  0.7699711514468183  T  T  T
  0.3008474135854036  0.2554535148069769  0.7388178663666700  T  T  T
  0.3405474553709568  0.2862681184906404  0.7370176525445177  T  T  T
  0.3557609039520892  0.3080066859574269  0.7058819241722232  T  T  T
  0.3796128833381148  0.3680700430931866  0.7040652586197751  T  T  T
  0.3855403703567377  0.3995644239131296  0.6729216641315556  T  T  T
  0.3864601203226443  0.4710454319584300  0.6711019974718048  T  T  T
  0.3813604862312971  0.5028468436214031  0.6398944955044761  T  T  T
  0.2575673634096464  0.6278134105850032  0.9969797221716392  T  T  T
  0.2156314228949895  0.6061644679010134  0.9951690038468729  T  T  T
  0.1987138735699924  0.5880193877882318  0.9640270509882540  T  T  T
  0.1699924112233426  0.5338459076907136  0.9622229583296141  T  T  T
  0.1614461094566561  0.5039775973719371  0.9310855647317052  T  T  T
  0.1544737656687646  0.4333790366669222  0.9292658254779543  T  T  T
  0.1568417867261062  0.4006711307052269  0.8981246833623125  T  T  T
  0.1737100945265218  0.3346326476415559  0.8963218631998445  T  T  T
  0.1862849737625502  0.3088135293783001  0.8651758514323781  T  T  T
  0.2219702698043829  0.2669815962119038  0.8633590618201286  T  T  T
  0.2410147971762569  0.2557374510191778  0.8322130262423516  T  T  T
  0.2848981336298998  0.2505506905204637  0.8304014437155861  T  T  T
  0.3047392124839911  0.2572196614150494  0.7992488854707490  T  T  T
  0.3437689837337765  0.2902316416007071  0.7974405400319856  T  T  T
  0.3585031557978860  0.3128318893563105  0.7662939972490241  T  T  T
  0.3810762490714220  0.3742072846886778  0.7644752777373778  T  T  T
  0.3863299050546807  0.4060103608573351  0.7333335654616595  T  T  T
  0.3857339392743339  0.4774892166467443  0.7315390281771462  T  T  T
  0.3799291338145553  0.5090569383116246  0.7003899639799844  T  T  T
  0.1601322114005936  0.4977761770498544  0.9914887237426476  T  T  T
  0.1546650609779825  0.4268265109010675  0.9896711903465831  T  T  T
  0.1577304310579431  0.3942653940688537  0.9585321299416001  T  T  T
  0.1759936793249930  0.3292113256295278  0.9567297988481065  T  T  T
  0.1891109895203495  0.3041080057308216  0.9255889729043826  T  T  T
  0.2256635501968882  0.2642973637294257  0.9237696761793294  T  T  T
  0.2449372562513884  0.2541278935901820  0.8926275570737786  T  T  T
  0.2889064021955153  0.2514089860079474  0.8908207080339882  T  T  T
  0.3085960617791784  0.2591860243440535  0.8596741245502468  T  T  T
  0.3469036059363166  0.2943698599583332  0.8578624687845059  T  T  T
  0.3611505938093035  0.3177904036891273  0.8267181685804296  T  T  T
  0.3823988096121095  0.3804004929545476  0.8249010871814196  T  T  T
  0.3869750507437149  0.4124817265441816  0.7937515403893760  T  T  T
  0.3848625516513043  0.4839000384802664  0.7919484673607673  T  T  T
  0.3784047504628569  0.5151126145252994  0.7608044519643249  T  T  T
  0.1920358961946036  0.2995779578232224  0.9859951744124852  T  T  T
  0.2294102123966259  0.2618363330763062  0.9841753469057509  T  T  T
  0.2488880705880682  0.2527409294216885  0.9530362308475754  T  T  T
  0.2928914801741889  0.2524955509336126  0.9512334211967609  T  T  T
  0.3124051297416033  0.2613839037240032  0.9200905460570242  T  T  T
  0.3499371650864743  0.2987028837651363  0.9182751788706878  T  T  T
  0.3636829320394189  0.3229022990475876  0.8871331491672730  T  T  T
  0.3835869459321261  0.3866689225274308  0.8853216106519238  T  T  T
  0.3874774186013373  0.4189913818879650  0.8541755875573452  T  T  T
  0.3838432941360300  0.4902506782066207  0.8523703608743365  T  T  T
  0.3767271424573114  0.5210811132972294  0.8212251573446709  T  T  T
  0.3161698014081193  0.2637817749578760  0.9804991250029166  T  T  T
  0.3528886270062069  0.3031877402512138  0.9786811220888960  T  T  T
  0.3661087091861785  0.3281523590199230  0.9475417581919541  T  T  T
  0.3846567124429016  0.3929909385156175  0.9457359172587100  T  T  T
  0.3878542899693891  0.4255206614599870  0.9145925821467376  T  T  T
  0.3827116897693098  0.4965344999251702  0.9127843580494035  T  T  T
  0.3749374944316303  0.5269591040369392  0.8816443075319442  T  T  T
  0.3880964828294081  0.4320592054149377  0.9750035428867840  T  T  T
  0.3814421571456325  0.5027415690725936  0.9731925396017216  T  T  T
  0.3730267903010925  0.5327167688808367  0.9420555437478449  T  T  T
  0.4486176894465427  0.4080074135788246  0.4909590584124784  T  T  T
  0.4610407812517296  0.3360169115121799  0.4885978343394554  T  T  T
  0.4735502328640352  0.4686507934359251  0.4895247709401477  T  T  T
   
  0.00000000E+00  0.00000000E+00  0.00000000E+00
  0.00000000E+00  0.00000000E+00  0.00000000E+00
  0.00000000E+00  0.00000000E+00  0.00000000E+00
  0.00000000E+00  0.00000000E+00  0.00000000E+00
  0.00000000E+00  0.00000000E+00  0.00000000E+00
  0.00000000E+00  0.00000000E+00  0.00000000E+00
  0.00000000E+00  0.00000000E+00  0.00000000E+00
  0.00000000E+00  0.00000000E+00  0.00000000E+00
  0.00000000E+00  0.00000000E+00  0.00000000E+00
  0.00000000E+00  0.00000000E+00  0.00000000E+00
  0.00000000E+00  0.00000000E+00  0.00000000E+00
  0.00000000E+00  0.00000000E+00  0.00000000E+00
  0.00000000E+00  0.00000000E+00  0.00000000E+00
  0.00000000E+00  0.00000000E+00  0.00000000E+00
  0.00000000E+00  0.00000000E+00  0.00000000E+00
  0.00000000E+00  0.00000000E+00  0.00000000E+00
  0.00000000E+00  0.00000000E+00  0.00000000E+00
  0.00000000E+00  0.00000000E+00  0.00000000E+00
  0.00000000E+00  0.00000000E+00  0.00000000E+00
  0.00000000E+00  0.00000000E+00  0.00000000E+00
  0.00000000E+00  0.00000000E+00  0.00000000E+00
  0.00000000E+00  0.00000000E+00  0.00000000E+00
  0.00000000E+00  0.00000000E+00  0.00000000E+00
  0.00000000E+00  0.00000000E+00  0.00000000E+00
  0.00000000E+00  0.00000000E+00  0.00000000E+00
  0.00000000E+00  0.00000000E+00  0.00000000E+00
  0.00000000E+00  0.00000000E+00  0.00000000E+00
  0.00000000E+00  0.00000000E+00  0.00000000E+00
  0.00000000E+00  0.00000000E+00  0.00000000E+00
  0.00000000E+00  0.00000000E+00  0.00000000E+00
  0.00000000E+00  0.00000000E+00  0.00000000E+00
  0.00000000E+00  0.00000000E+00  0.00000000E+00
  0.00000000E+00  0.00000000E+00  0.00000000E+00
  0.00000000E+00  0.00000000E+00  0.00000000E+00
  0.00000000E+00  0.00000000E+00  0.00000000E+00
  0.00000000E+00  0.00000000E+00  0.00000000E+00
  0.00000000E+00  0.00000000E+00  0.00000000E+00
  0.00000000E+00  0.00000000E+00  0.00000000E+00
  0.00000000E+00  0.00000000E+00  0.00000000E+00
  0.00000000E+00  0.00000000E+00  0.00000000E+00
  0.00000000E+00  0.00000000E+00  0.00000000E+00
  0.00000000E+00  0.00000000E+00  0.00000000E+00
  0.00000000E+00  0.00000000E+00  0.00000000E+00
  0.00000000E+00  0.00000000E+00  0.00000000E+00
  0.00000000E+00  0.00000000E+00  0.00000000E+00
  0.00000000E+00  0.00000000E+00  0.00000000E+00
  0.00000000E+00  0.00000000E+00  0.00000000E+00
  0.00000000E+00  0.00000000E+00  0.00000000E+00
  0.00000000E+00  0.00000000E+00  0.00000000E+00
  0.00000000E+00  0.00000000E+00  0.00000000E+00
  0.00000000E+00  0.00000000E+00  0.00000000E+00
  0.00000000E+00  0.00000000E+00  0.00000000E+00
  0.00000000E+00  0.00000000E+00  0.00000000E+00
  0.00000000E+00  0.00000000E+00  0.00000000E+00
  0.00000000E+00  0.00000000E+00  0.00000000E+00
  0.00000000E+00  0.00000000E+00  0.00000000E+00
  0.00000000E+00  0.00000000E+00  0.00000000E+00
  0.00000000E+00  0.00000000E+00  0.00000000E+00
  0.00000000E+00  0.00000000E+00  0.00000000E+00
  0.00000000E+00  0.00000000E+00  0.00000000E+00
  0.00000000E+00  0.00000000E+00  0.00000000E+00
  0.00000000E+00  0.00000000E+00  0.00000000E+00
  0.00000000E+00  0.00000000E+00  0.00000000E+00
  0.00000000E+00  0.00000000E+00  0.00000000E+00
  0.00000000E+00  0.00000000E+00  0.00000000E+00
  0.00000000E+00  0.00000000E+00  0.00000000E+00
  0.00000000E+00  0.00000000E+00  0.00000000E+00
  0.00000000E+00  0.00000000E+00  0.00000000E+00
  0.00000000E+00  0.00000000E+00  0.00000000E+00
  0.00000000E+00  0.00000000E+00  0.00000000E+00
  0.00000000E+00  0.00000000E+00  0.00000000E+00
  0.00000000E+00  0.00000000E+00  0.00000000E+00
  0.00000000E+00  0.00000000E+00  0.00000000E+00
  0.00000000E+00  0.00000000E+00  0.00000000E+00
  0.00000000E+00  0.00000000E+00  0.00000000E+00
  0.00000000E+00  0.00000000E+00  0.00000000E+00
  0.00000000E+00  0.00000000E+00  0.00000000E+00
  0.00000000E+00  0.00000000E+00  0.00000000E+00
  0.00000000E+00  0.00000000E+00  0.00000000E+00
  0.00000000E+00  0.00000000E+00  0.00000000E+00
  0.00000000E+00  0.00000000E+00  0.00000000E+00