 C  S  O                                
    1.000000000000000     
    32.3722991942999982    0.0000000000000000    0.0000000000000000
     0.0000000000000000   19.9214134216000005    0.0000000000000000
     0.0000000000000000    0.0000000000000000   40.4480476378999967
   C    S    O 
   364     1     2
Selective dynamics
Direct
  0.3709968105245238  0.5383277102616759  0.0024644630996207   F   F   F
  0.3688352982204606  0.5438471744305318  0.0629149981138468   F   F   F
  0.3380988761844250  0.5950132443339911  0.0611026467507116   F   F   F
  0.3205327423813316  0.6114247132348538  0.0299431908908190   F   F   F
  0.2778523157124653  0.6287964188613060  0.0281245148128448   F   F   F
  0.3665464364585489  0.5492396651561364  0.1233673361734660   F   F   F
  0.3347351232851636  0.5986409388722223  0.1215448852462444   F   F   F
  0.3168351519527803  0.6140595989315827  0.0903844095024127   F   F   F
  0.2738080179678661  0.6290143782959206  0.0885524330750869   F   F   F
  0.2535926166635534  0.6268797160261528  0.0574001048664385   F   F   F
  0.2121372665465557  0.6029153329168011  0.0555847501414064   F   F   F
  0.1956240912653797  0.5838429519714126  0.0244325790358886   F   F   F
  0.1680662657048089  0.5280974302246904  0.0226215963951546   F   F   F
  0.3641045509014376  0.5544943389492829  0.1838241310761859   F   F   F
  0.3312560001559746  0.6020654765326796  0.1819824333142392   F   F   F
  0.3130621168374788  0.6164713531663537  0.1508190538143737   F   F   F
  0.2697438844268305  0.6290068324650591  0.1489769235697480   F   F   F
  0.2495977754106349  0.6257404808031239  0.1178228467948230   F   F   F
  0.2086760060229622  0.5994740201962330  0.1160070771795532   F   F   F
  0.1925816140962340  0.5794957019426121  0.0848546080301844   F   F   F
  0.1662226492510257  0.5222461911682998  0.0830372688157581   F   F   F
  0.1589723805038830  0.4915014878206705  0.0518928764175186   F   F   F
  0.1550227148806371  0.4202869102268565  0.0500797118856582   F   F   F
  0.1587852386594690  0.3879210395462778  0.0189345173810409   F   F   F
  0.1784243855278191  0.3239345028528788  0.0171313656280816   F   F   F
  0.3615007194395403  0.5596495081165429  0.2442760701011721   F   F   F
  0.3276634034002370  0.6053514026914257  0.2424082354883552   F   F   F
  0.3091938432845538  0.6186896455941522  0.2112415279344049   F   F   F
  0.2656408519134743  0.6288020458961086  0.2093931359947874   F   F   F
  0.2455957874550947  0.6243957681906522  0.1782366818340932   F   F   F
  0.2052534627595151  0.5958641247595509  0.1764249678644703   F   F   F
  0.1896077296977126  0.5749926797747449  0.1452731481357290   F   F   F
  0.1644774045364272  0.5163035359941546  0.1434532393043568   F   F   F
  0.1579043404605471  0.4851630526697974  0.1123075966230616   F   F   F
  0.1554705001679082  0.4137729699494699  0.1104995344346165   F   F   F
  0.1599285248924573  0.3816378394152835  0.0793530132114171   F   F   F
  0.1809117216227634  0.3187907263349743  0.0775505398073904   F   F   F
  0.1950748075071473  0.2952210694475497  0.0464081568916868   F   F   F
  0.2332313526767891  0.2596108505467853  0.0445963612798224   F   F   F
  0.2528955571867471  0.2516212430674685  0.0134467798059177   F   F   F
  0.2968744612106207  0.2538548757804051  0.0116457160981795   F   F   F
  0.3705316986606420  0.5383969846874876  0.3359290825882013   F   F   F
  0.3587093717322176  0.5648122063456853  0.3047111870307120   F   F   F
  0.3239735654659910  0.6086844711422117  0.3028185228081881   F   F   F
  0.3052447330784887  0.6208355158585803  0.2716447711935359   F   F   F
  0.2615056909759019  0.6284889750271745  0.2698001957918521   F   F   F
  0.2415849592486694  0.6228833691160389  0.2386466678810493   F   F   F
  0.2018744657013656  0.5921035390141469  0.2368439504582369   F   F   F
  0.1867048421943807  0.5703376999440977  0.2056918741938603   F   F   F
  0.1628463142874850  0.5102702142112037  0.2038744711241520   F   F   F
  0.1569502093070625  0.4787783585923577  0.1727256899645369   F   F   F
  0.1560383993408578  0.4072978002999150  0.1709220114661960   F   F   F
  0.1611821347542417  0.3754302978012376  0.1397758156387994   F   F   F
  0.1834941748867038  0.3138038090522954  0.1379696814268172   F   F   F
  0.1981640379292671  0.2910453093800598  0.1068299979081786   F   F   F
  0.2370579206220427  0.2576106873368147  0.1050280820825904   F   F   F
  0.2568831476338715  0.2507196139859076  0.0738800657011112   F   F   F
  0.3007898383031815  0.2554226522615650  0.0720874345834304   F   F   F
  0.3198785257473915  0.2664576581800873  0.0409329804765477   F   F   F
  0.3557374403151954  0.3078909168906776  0.0391176164746128   F   F   F
  0.3684249425395905  0.3335575150296179  0.0079569670337989   F   F   F
  0.3855889853776304  0.3993896007299540  0.0061519757280166   F   F   F
  0.3680119708713576  0.5444015680852132  0.3963512215194953   F   F   F
  0.3557597475171690  0.5701337753971032  0.3651172173554045   F   F   F
  0.3202203842981532  0.6122637068322732  0.3632215375904337   F   F   F
  0.3012444035095569  0.6231336281445081  0.3320387549344659   F   F   F
  0.2573635747328922  0.6282015785216899  0.3302113731166756   F   F   F
  0.2375904404783569  0.6212770914417831  0.2990608163608854   F   F   F
  0.1985927411348243  0.5881889590445724  0.2972718255680249   F   F   F
  0.1838900956956735  0.5655604851497529  0.2661216287346377   F   F   F
  0.1613393595343311  0.5041704944562255  0.2643121213676238   F   F   F
  0.1561136157759293  0.4723663599426047  0.2331570215513210   F   F   F
  0.1567291402552868  0.4008787207032327  0.2313528152790312   F   F   F
  0.1625566004505856  0.3693183658921129  0.2002039547647883   F   F   F
  0.1861680082033388  0.3089889685870943  0.1983887510258526   F   F   F
  0.2013198700191978  0.2870606654420698  0.1672516767386938   F   F   F
  0.2409017266814359  0.2558312596575760  0.1654583477656857   F   F   F
  0.2608744742515654  0.2500553645917876  0.1343152268332233   F   F   F
  0.3046551205306258  0.2572114525993925  0.1325296977745296   F   F   F
  0.3235113016394209  0.2692951983904734  0.1013785055525531   F   F   F
  0.3584770062025981  0.3127000938640734  0.0995736407542793   F   F   F
  0.3706124892442162  0.3390597158708673  0.0684105404143267   F   F   F
  0.3863762235337873  0.4058109356975876  0.0666106124155661   F   F   F
  0.3881940307624063  0.4386024313328534  0.0354459783892764   F   F   F
  0.3800393607327521  0.5088602940821829  0.0336240358705027   F   F   F
  0.3653891499333710  0.5504586837334244  0.4567153237736861   F   F   F
  0.3527717339924834  0.5757009271787439  0.4255036822238907   F   F   F
  0.3164485044861536  0.6160406251997088  0.4236445960321404   F   F   F
  0.2972171993535184  0.6256445615824617  0.3924513317203306   F   F   F
  0.2532455103429498  0.6279214281628498  0.3906489418046561   F   F   F
  0.2336401082295367  0.6196446632560111  0.3594937889218386   F   F   F
  0.1954554588534734  0.5841327049921503  0.3577151909876548   F   F   F
  0.1812442053060153  0.5606175402854419  0.3265695839946190   F   F   F
  0.1600495416411860  0.4979631374506113  0.3247694242689789   F   F   F
  0.1554551428743096  0.4659038979593220  0.2936048132461266   F   F   F
  0.1575749709185388  0.3944924662406279  0.2917951271827022   F   F   F
  0.1640415919077682  0.3632837860378544  0.2606362409191547   F   F   F
  0.1889061313326010  0.3043006105041215  0.2588060839101090   F   F   F
  0.2045356902187621  0.2832501408292742  0.2276705672297084   F   F   F
  0.2447518394803652  0.2542459624239299  0.2258785793528233   F   F   F
  0.2648560559487834  0.2496090678112139  0.1947452089188459   F   F   F
  0.3084597935355120  0.2592072683580326  0.1929692079049019   F   F   F
  0.3270614827253553  0.2723463770122692  0.1618250548705333   F   F   F
  0.3610998181844280  0.3176657448556028  0.1600386534579670   F   F   F
  0.3726824541837601  0.3446812206550973  0.1288719959582494   F   F   F
  0.3870205453364122  0.4122766762939776  0.1270736446967646   F   F   F
  0.3881455539873073  0.4451487765934701  0.0959057690493452   F   F   F
  0.3785014778406008  0.5149077301342473  0.0940774495012775   F   F   F
  0.3629955175294981  0.5559821237763671  0.5171423418644920   F   F   F
  0.3497229075992649  0.5807699555804859  0.4859743578820215   F   F   F
  0.3126458578667197  0.6191191793935218  0.4841451804434342   F   F   F
  0.2932028390431327  0.6278894712230851  0.4529283482710156   F   F   F
  0.2492059374529276  0.6273137018507882  0.4511378912477113   F   F   F
  0.2297920319506517  0.6178470954664306  0.4199667144299681   F   F   F
  0.1925000432148067  0.5798873401284439  0.4181810815595384   F   F   F
  0.1788058107097683  0.5555250877597899  0.3870332679498887   F   F   F
  0.1590042987316238  0.4916740042443521  0.3852373323144320   F   F   F
  0.1550352369364631  0.4593850737784777  0.3540694580653110   F   F   F
  0.1586242336183261  0.3881241014403187  0.3522521752922714   F   F   F
  0.1656789753848571  0.3573053141159335  0.3210789966328207   F   F   F
  0.1917088836119234  0.2996674137959943  0.3192324204561316   F   F   F
  0.2077713636747944  0.2795351870663652  0.2880845129159084   F   F   F
  0.2485616541951430  0.2527511545634553  0.2862851634602492   F   F   F
  0.2687952788935348  0.2493213042647682  0.2551685421767615   F   F   F
  0.3121706458642635  0.2613672348473983  0.2534025731105771   F   F   F
  0.3305151917316778  0.2755762983487102  0.2222737459571107   F   F   F
  0.3635806932892081  0.3227680232474697  0.2205142011305838   F   F   F
  0.3746095393502458  0.3504141666611602  0.1893469128546315   F   F   F
  0.3875081122629354  0.4187790088447301  0.1875488622454284   F   F   F
  0.3879416933730866  0.4516883499228683  0.1563739507343769   F   F   F
  0.3768036091746367  0.5208592321856926  0.1545380976576354   F   F   F
  0.3608877443631329  0.5606092156792570  0.5775424110852470   F   F   F
  0.3468574523638353  0.5849861435818511  0.5464868628080737   F   F   F
  0.3088755414480673  0.6210774953764329  0.5446809922074678   F   F   F
  0.2892056168550567  0.6291541983768880  0.5134941696538604   F   F   F
  0.2452509279755546  0.6260061551224325  0.5116754510314721   F   F   F
  0.2260499492698997  0.6155793402071055  0.4804728459626801   F   F   F
  0.1896537463705883  0.5754032803492635  0.4786581495875879   F   F   F
  0.1765243057491261  0.5502738226064992  0.4474960864285862   F   F   F
  0.1581398912209551  0.4853118454525855  0.4456974450712821   F   F   F
  0.1548552879116016  0.4528134630221956  0.4145345343581326   F   F   F
  0.1598968818207425  0.3817824524448241  0.4127136565074707   F   F   F
  0.1675084064690893  0.3513553101477811  0.3815286495131360   F   F   F
  0.1945949499398267  0.2950224886546806  0.3796756928583136   F   F   F
  0.2110270643586176  0.2757895718254204  0.3485033172517618   F   F   F
  0.2523189882326875  0.2511280439157275  0.3466896839173614   F   F   F
  0.2726589244967670  0.2490233621105773  0.3155823062213372   F   F   F
  0.3157423686038072  0.2635609761232587  0.3138253303789540   F   F   F
  0.3338172507081580  0.2789325484937279  0.2827237904427946   F   F   F
  0.3658297982821850  0.3280156228239832  0.2809972605656554   F   F   F
  0.3763342780806482  0.3562624015177178  0.2498401295245642   F   F   F
  0.3877664995028951  0.4253237012998383  0.2480413640419528   F   F   F
  0.3875568531126916  0.4582186966015058  0.2168551220411743   F   F   F
  0.3749427923464168  0.5267221734779781  0.2150049657040540   F   F   F
  0.3586083713634522  0.5649824775428698  0.6379687349577523   F   F   F
  0.3439337840549186  0.5882988883507991  0.6069118485577576   F   F   F
  0.3051264110585805  0.6220078586288551  0.6051451315405032   F   F   F
  0.2852456100304011  0.6293487116762506  0.5740090454579203   F   F   F
  0.2413730046013498  0.6240055032409444  0.5721779021607318   F   F   F
  0.2223637047967060  0.6127968137705082  0.5409808710639226   F   F   F
  0.1867973979748072  0.5706925584520377  0.5391353972449124   F   F   F
  0.1742798164158188  0.5448589148309537  0.5079575061938115   F   F   F
  0.1572889267905850  0.4789101630601493  0.5061491063971104   F   F   F
  0.1547783523705704  0.4462321015119031  0.4749855752732088   F   F   F
  0.1612687207461647  0.3755191072759061  0.4731669970895140   F   F   F
  0.1694955903957123  0.3454794014433631  0.4419895137725902   F   F   F
  0.1975914528383953  0.2904509602783492  0.4401512092519440   F   F   F
  0.2143274452185366  0.2719933546971518  0.4089539008042777   F   F   F
  0.2560468053523408  0.2492855327396555  0.4071248939949896   F   F   F
  0.2764413782006017  0.2484921089585512  0.3759999470380748   F   F   F
  0.3191581687364646  0.2656545898626845  0.3742376886932419   F   F   F
  0.3369146940909786  0.2823214141666242  0.3431741011289446   F   F   F
  0.3677361786530327  0.3334068106982784  0.3414755063595081   F   F   F
  0.3777201045431298  0.3622579599155102  0.3103431995512764   F   F   F
  0.3876577111089645  0.4319315694785857  0.3085419605215094   F   F   F
  0.3868889034760272  0.4647654195963540  0.2773450428348454   F   F   F
  0.3728653103839719  0.5325396995873106  0.2754726535103913   F   F   F
  0.3561398709894448  0.5694774768974611  0.6984125320084615   F   F   F
  0.3409350694585598  0.5916166737657633  0.6673185628525786   F   F   F
  0.3013801571613044  0.6229397815190936  0.6655669088269462   F   F   F
  0.2813478714273216  0.6290503942229435  0.6344538064558876   F   F   F
  0.2375910222344331  0.6216414220145694  0.6326299834909292   F   F   F
  0.2187588767396704  0.6095672696749403  0.6014566086956137   F   F   F
  0.1839744488490496  0.5657947633251084  0.5996015317068171   F   F   F
  0.1719969059913211  0.5393451120259840  0.5684129931083959   F   F   F
  0.1563663724233066  0.4725102207210341  0.5665986689575391   F   F   F
  0.1546380009995332  0.4396960411121853  0.5354380614192138   F   F   F
  0.1626314490351390  0.3693823104512930  0.5336281085245460   F   F   F
  0.1715525827376894  0.3397729321321989  0.5024667325684433   F   F   F
  0.2007347534105648  0.2862615006580285  0.5006631430100725   F   F   F
  0.2177652253571551  0.2684752668590207  0.4694559015846380   F   F   F
  0.2598786410164564  0.2477915856817603  0.4676278103531715   F   F   F
  0.2801973344037378  0.2478439557990626  0.4364512168821832   F   F   F
  0.3224772479364688  0.2676524045722104  0.4346551418964992   F   F   F
  0.3397964515645242  0.2856980522872732  0.4036141588614726   F   F   F
  0.3692075903642902  0.3389331754481333  0.4019092805977351   F   F   F
  0.3786605732603121  0.3684037440852066  0.3708218809872932   F   F   F
  0.3870762981229987  0.4386101213380869  0.3690166943172528   F   F   F
  0.3858347606894199  0.4713478074270938  0.3378244923456322   F   F   F
  0.3534725451783061  0.5740735757743920  0.7588597309322793   F   F   F
  0.3378236988164147  0.5951587104458227  0.7277337554511121   F   F   F
  0.2976041053339884  0.6241689568742288  0.7259780919276650   F   F   F
  0.2774648013939043  0.6289413295357491  0.6948628166862889   F   F   F
  0.2338730192600806  0.6193084938571047  0.6930503690118002   F   F   F
  0.2152542530996868  0.6062155489562784  0.6619019795251262   F   F   F
  0.1813009704891115  0.5607570354251337  0.6600597272622082   F   F   F
  0.1698011157759538  0.5337088207844332  0.6288797337815382   F   F   F
  0.1555322089311630  0.4660762600061616  0.6270626028626864   F   F   F
  0.1545041601852120  0.4331902889400254  0.5958972579145723   F   F   F
  0.1640362852957722  0.3633888804860916  0.5940938867436998   F   F   F
  0.1736289348541220  0.3342963876029117  0.5629458657177508   F   F   F
  0.2040120664441432  0.2825690729319419  0.5611737557796701   F   F   F
  0.2213829407562358  0.2655909575477722  0.5299987356941358   F   F   F
  0.2639206312952851  0.2473147677310905  0.5281964294392623   F   F   F
  0.2841021873571776  0.2480439449784626  0.4969766282765349   F   F   F
  0.3258507816986125  0.2703868518026837  0.4951606264437842   F   F   F
  0.3425113580621044  0.2892668564392196  0.4640123375559213   F   F   F
  0.3700615652034713  0.3448112485491137  0.4622212352716204   F   F   F
  0.3790092543541732  0.3747370339660350  0.4312220302385654   F   F   F
  0.3859500915316261  0.4453865781705773  0.4294097404643935   F   F   F
  0.3843522746434971  0.4780158343227825  0.3982425043966842   F   F   F
  0.3506244930730347  0.5786094650744715  0.8193073672527902   F   F   F
  0.3345709084366604  0.5987604472532411  0.7881621989665035   F   F   F
  0.2937580937859892  0.6254888604788107  0.7863956467927409   F   F   F
  0.2735573951345955  0.6290157732867101  0.7552681876428764   F   F   F
  0.2301847026135775  0.6169965398977766  0.7534654840172337   F   F   F
  0.2118450706521102  0.6028457366870299  0.7223299302651256   F   F   F
  0.1788155233132329  0.5556162330180996  0.7205095343331465   F   F   F
  0.1678147979923850  0.5279606801307182  0.6893458481519303   F   F   F
  0.1549410054762603  0.4595970842131862  0.6875292604238155   F   F   F
  0.1545440551588797  0.4266842998686897  0.6563650738550990   F   F   F
  0.1656177034028374  0.3574913385461684  0.6545630423840976   F   F   F
  0.1758404780723311  0.3290173969619090  0.6234164892131417   F   F   F
  0.2074595713145015  0.2793032957039472  0.6216511565763696   F   F   F
  0.2251919820353407  0.2633856069756746  0.5905003530496842   F   F   F
  0.2681365190252549  0.2478759241058981  0.5886961240371420   F   F   F
  0.2882221256007327  0.2494145276004076  0.5574973942403219   F   F   F
  0.3295246121843292  0.2740084329523427  0.5556577126325024   F   F   F
  0.3455367262104332  0.2934490146125697  0.5244418754664082   F   F   F
  0.3717555442075877  0.3506527124430434  0.5226264479494702   F   F   F
  0.3787500599331253  0.3813285102203849  0.4914983356076519   F   F   F
  0.3843566895985262  0.4521306813677128  0.4896797598268279   F   F   F
  0.3823537951837750  0.4846683615797716  0.4585280783887953   F   F   F
  0.3476505832802985  0.5830056517197875  0.8797579705786447   F   F   F
  0.3312018777179375  0.6022497482896085  0.8486035151034699   F   F   F
  0.2898476620293735  0.6266789701528666  0.8468241566131169   F   F   F
  0.2696080159553134  0.6290428287725334  0.8156857323179523   F   F   F
  0.2265157300371357  0.6145810128995990  0.8138841168972135   F   F   F
  0.2084963054462321  0.5993845197186332  0.7827502073742068   F   F   F
  0.1764736014230905  0.5503520836613447  0.7809471337258032   F   F   F
  0.1660412681162953  0.5221019497207564  0.7497953812340725   F   F   F
  0.1546091450658764  0.4530650566913508  0.7479803813985697   F   F   F
  0.1548579246422079  0.4201586833098006  0.7168231227537873   F   F   F
  0.1674328729625927  0.3516487656556748  0.7150180967281798   F   F   F
  0.1782560172449479  0.3238391422048892  0.6838649097484009   F   F   F
  0.2110357060408674  0.2761582398093623  0.6820828203317504   F   F   F
  0.2291415621625603  0.2615044197290786  0.6509386414689047   F   F   F
  0.2724288683553127  0.2487855895186115  0.6491127375430494   F   F   F
  0.2924621621130896  0.2516348021326138  0.6179300251799020   F   F   F
  0.3332852501280854  0.2782695822206236  0.6160535917175025   F   F   F
  0.3490185229593337  0.2982962684975377  0.5848158521092444   F   F   F
  0.3747877963918285  0.3562375000006455  0.5829298298865453   F   F   F
  0.3811240173903343  0.3872934345047128  0.5517656791162295   F   F   F
  0.3851481634736373  0.4584956559490365  0.5499665118258932   F   F   F
  0.3811791658500212  0.4910690847289345  0.5189537333653007   F   F   F
  0.3445613152234941  0.5872005069986983  0.9402078332010504   F   F   F
  0.3277234587170028  0.6055310605481239  0.9090502514800036   F   F   F
  0.2858786836109033  0.6276377946924043  0.9072573396543859   F   F   F
  0.2656173103059984  0.6288713214770141  0.8761118004014250   F   F   F
  0.2228633090336913  0.6119781764378942  0.8743063107844193   F   F   F
  0.2051988668318998  0.5957699406770232  0.8431671595632224   F   F   F
  0.1742369743401824  0.5449654305064229  0.8413718172882625   F   F   F
  0.1644080343358709  0.5161418423692297  0.8102281023501661   F   F   F
  0.1544495412446310  0.4465009723514655  0.8084114638361655   F   F   F
  0.1553898917777659  0.4136240637871822  0.7772610367949184   F   F   F
  0.1694215506606866  0.3458643001765864  0.7754530401477879   F   F   F
  0.1808354259261975  0.3187182908476913  0.7442961423647176   F   F   F
  0.2146568341835859  0.2729932503283621  0.7424915299890600   F   F   F
  0.2331159462212256  0.2595818564682304  0.7113436571001301   F   F   F
  0.2766653570029050  0.2494712469894296  0.7095026395671198   F   F   F
  0.2966581948001092  0.2537194417030832  0.6783313316144017   F   F   F
  0.3369635333767178  0.2823687890572018  0.6764504003375649   F   F   F
  0.3524083093635966  0.3032128245413688  0.6452301651070087   F   F   F
  0.3773590365426003  0.3621252285326975  0.6433262227608623   F   F   F
  0.3834463801704118  0.3933691991666208  0.6121329277872647   F   F   F
  0.3859270909198074  0.4647999508415026  0.6103407894102304   F   F   F
  0.3811995027951056  0.4971730910714385  0.5792749712541294   F   F   F
  0.3413750295313989  0.5911968551892528  0.0006567351808471   F   F   F
  0.3241668516396103  0.6085916481517160  0.9694975014593652   F   F   F
  0.2818789344934842  0.6283453760241571  0.9676914815500623   F   F   F
  0.2616093286928844  0.6284582546998863  0.9365426071676595   F   F   F
  0.2192396137562440  0.6091711839872929  0.9347320347736812   F   F   F
  0.2019442289545026  0.5919794475831281  0.9035873236603962   F   F   F
  0.1720888352821319  0.5394540565390997  0.9017908459038537   F   F   F
  0.1628969336154782  0.5100928148930564  0.8706489069151715   F   F   F
  0.1544229974489255  0.4399353078727017  0.8688303598348952   F   F   F
  0.1560674722061108  0.4071200859209583  0.8376843691094251   F   F   F
  0.1715278156617970  0.3401836503805740  0.8358754206801962   F   F   F
  0.1835237297089662  0.3136938062260839  0.8047205633102550   F   F   F
  0.2183119133706910  0.2699162859423012  0.8029007248025906   F   F   F
  0.2370709100239381  0.2576310826334236  0.7717466001458533   F   F   F
  0.2808172549745152  0.2500086105296617  0.7699046688019067   F   F   F
  0.3007400523687380  0.2555371154280479  0.7387377027389306   F   F   F
  0.3404504707127742  0.2863192959081786  0.7368731712885364   F   F   F
  0.3555704469196996  0.3080366671507946  0.7056799361799335   F   F   F
  0.3794282748288111  0.3681261056058389  0.7037957138991260   F   F   F
  0.3851265040097474  0.3996315126293553  0.6725978437398084   F   F   F
  0.3860510422401688  0.4711465899977085  0.6708085968238038   F   F   F
  0.3807103978737558  0.5031133027511459  0.6396838372087217   F   F   F
  0.2576006871931611  0.6277882918230162  0.9969727017491650   F   F   F
  0.2156654883930784  0.6061411380601598  0.9951591487265290   F   F   F
  0.1987516954047166  0.5880001818145715  0.9640099187813647   F   F   F
  0.1700293855027795  0.5338299427122237  0.9622067810989066   F   F   F
  0.1614798595224585  0.5039663409543849  0.9310649756457821   F   F   F
  0.1545049449021434  0.4333710162037363  0.9292458988705263   F   F   F
  0.1568639817092503  0.4006682237106318  0.8981009971767620   F   F   F
  0.1737342848240218  0.3346338647224414  0.8962945738627681   F   F   F
  0.1862990807303504  0.3088281942083313  0.8651422262942319   F   F   F
  0.2219899272345742  0.2670136365915354  0.8633156225532801   F   F   F
  0.2410198690613896  0.2557979862799939  0.8321605820694842   F   F   F
  0.2849033891855726  0.2506222919543646  0.8303274342046549   F   F   F
  0.3047204399170340  0.2573080681016862  0.7991616533880119   F   F   F
  0.3437604437311137  0.2902865117909670  0.7973173330221215   F   F   F
  0.3584684945883865  0.3128697193618279  0.7661406154541481   F   F   F
  0.3810685122362969  0.3742250160786043  0.7642841931049702   F   F   F
  0.3862569113301291  0.4060157802983895  0.7330966281161722   F   F   F
  0.3856512745276817  0.4775284891506075  0.7313066761507088   F   F   F
  0.3797353100671117  0.5091019600483548  0.7001520387745117   F   F   F
  0.1601701543364484  0.4977661560727853  0.9914788918505835   F   F   F
  0.1547017970770668  0.4268175593269063  0.9896610752705826   F   F   F
  0.1577657688750804  0.3942605029364756  0.9585166583099891   F   F   F
  0.1760285245748605  0.3292088797899595  0.9567127879229602   F   F   F
  0.1891423704706909  0.3041131017221943  0.9255636630297133   F   F   F
  0.2256975459397665  0.2643121502093848  0.9237379791514684   F   F   F
  0.2449642744597256  0.2541590587370166  0.8925845152560186   F   F   F
  0.2889329267314125  0.2514497388498000  0.8907633314415406   F   F   F
  0.3086108360194615  0.2592382984921571  0.8596000527582959   F   F   F
  0.3469217613090692  0.2944089487384147  0.8577687206200508   F   F   F
  0.3611619334819736  0.3178177142305501  0.8266010209388739   F   F   F
  0.3824271654818503  0.3804149378165249  0.8247655430898888   F   F   F
  0.3869984223873644  0.4124790698892795  0.7935882703538368   F   F   F
  0.3848758919262423  0.4839035458758971  0.7917933425363870   F   F   F
  0.3783777941836988  0.5151125631602795  0.7606299797710321   F   F   F
  0.1920709558857538  0.2995833456903227  0.9859864970725880   F   F   F
  0.2294467788652383  0.2618494425706501  0.9841662123103134   F   F   F
  0.2489200905523603  0.2527628228966776  0.9530145212997496   F   F   F
  0.2929216592045236  0.2525262776424668  0.9512056112621394   F   F   F
  0.3124265763149978  0.2614175811513277  0.9200450571545034   F   F   F
  0.3499572504802728  0.2987357337458505  0.9182195544481431   F   F   F
  0.3636987079467957  0.3229230759660169  0.8870563924459987   F   F   F
  0.3836059199061452  0.3866836658070838  0.8852344423295833   F   F   F
  0.3875025670433487  0.4189885341613433  0.8540637719912354   F   F   F
  0.3838649441389848  0.4902447596953863  0.8522626534526694   F   F   F
  0.3767434287579690  0.5210618723013170  0.8210987154319582   F   F   F
  0.3161898844400142  0.2638127279984488  0.9804894078387392   F   F   F
  0.3529049193266260  0.3032219339989055  0.9786681245101221   F   F   F
  0.3661187116776929  0.3281733067381225  0.9475071456780810   F   F   F
  0.3846652677116040  0.3930073223405302  0.9456951455264999   F   F   F
  0.3878657951550508  0.4255176933229450  0.9145282642897214   F   F   F
  0.3827251482096017  0.4965277062740725  0.9127199048241295   F   F   F
  0.3749572455177343  0.5269377010267675  0.8815600057272377   F   F   F
  0.3881011540962405  0.4320568065331187  0.9749868807269380   F   F   F
  0.3814493693589540  0.5027338784350093  0.9731719031527817   F   F   F
  0.3730416907033955  0.5326949407080264  0.9420138778785230   F   F   F
  0.4745404649154993  0.4015912038160692  0.5003806066239945   T   T   T
  0.4782799877976143  0.3377272869813276  0.4834269460766880   T   T   T
  0.4891219960542532  0.4617033116787373  0.4838872284990526   T   T   T
 
  0.00000000E+00  0.00000000E+00  0.00000000E+00
  0.00000000E+00  0.00000000E+00  0.00000000E+00
  0.00000000E+00  0.00000000E+00  0.00000000E+00
  0.00000000E+00  0.00000000E+00  0.00000000E+00
  0.00000000E+00  0.00000000E+00  0.00000000E+00
  0.00000000E+00  0.00000000E+00  0.00000000E+00
  0.00000000E+00  0.00000000E+00  0.00000000E+00
  0.00000000E+00  0.00000000E+00  0.00000000E+00
  0.00000000E+00  0.00000000E+00  0.00000000E+00
  0.00000000E+00  0.00000000E+00  0.00000000E+00
  0.00000000E+00  0.00000000E+00  0.00000000E+00
  0.00000000E+00  0.00000000E+00  0.00000000E+00
  0.00000000E+00  0.00000000E+00  0.00000000E+00
  0.00000000E+00  0.00000000E+00  0.00000000E+00
  0.00000000E+00  0.00000000E+00  0.00000000E+00
  0.00000000E+00  0.00000000E+00  0.00000000E+00
  0.00000000E+00  0.00000000E+00  0.00000000E+00
  0.00000000E+00  0.00000000E+00  0.00000000E+00
  0.00000000E+00  0.00000000E+00  0.00000000E+00
  0.00000000E+00  0.00000000E+00  0.00000000E+00
  0.00000000E+00  0.00000000E+00  0.00000000E+00
  0.00000000E+00  0.00000000E+00  0.00000000E+00
  0.00000000E+00  0.00000000E+00  0.00000000E+00
  0.00000000E+00  0.00000000E+00  0.00000000E+00
  0.00000000E+00  0.00000000E+00  0.00000000E+00
  0.00000000E+00  0.00000000E+00  0.00000000E+00
  0.00000000E+00  0.00000000E+00  0.00000000E+00
  0.00000000E+00  0.00000000E+00  0.00000000E+00
  0.00000000E+00  0.00000000E+00  0.00000000E+00
  0.00000000E+00  0.00000000E+00  0.00000000E+00
  0.00000000E+00  0.00000000E+00  0.00000000E+00
  0.00000000E+00  0.00000000E+00  0.00000000E+00
  0.00000000E+00  0.00000000E+00  0.00000000E+00
  0.00000000E+00  0.00000000E+00  0.00000000E+00
  0.00000000E+00  0.00000000E+00  0.00000000E+00
  0.00000000E+00  0.00000000E+00  0.00000000E+00
  0.00000000E+00  0.00000000E+00  0.00000000E+00
  0.00000000E+00  0.00000000E+00  0.00000000E+00
  0.00000000E+00  0.00000000E+00  0.00000000E+00
  0.00000000E+00  0.00000000E+00  0.00000000E+00
  0.00000000E+00  0.00000000E+00  0.00000000E+00
  0.00000000E+00  0.00000000E+00  0.00000000E+00
  0.00000000E+00  0.00000000E+00  0.00000000E+00
  0.00000000E+00  0.00000000E+00  0.00000000E+00
  0.00000000E+00  0.00000000E+00  0.00000000E+00
  0.00000000E+00  0.00000000E+00  0.00000000E+00
  0.00000000E+00  0.00000000E+00  0.00000000E+00
  0.00000000E+00  0.00000000E+00  0.00000000E+00
  0.00000000E+00  0.00000000E+00  0.00000000E+00
  0.00000000E+00  0.00000000E+00  0.00000000E+00
  0.00000000E+00  0.00000000E+00  0.00000000E+00
  0.00000000E+00  0.00000000E+00  0.00000000E+00
  0.00000000E+00  0.00000000E+00  0.00000000E+00
  0.00000000E+00  0.00000000E+00  0.00000000E+00
  0.00000000E+00  0.00000000E+00  0.00000000E+00
  0.00000000E+00  0.00000000E+00  0.00000000E+00
  0.00000000E+00  0.00000000E+00  0.00000000E+00
  0.00000000E+00  0.00000000E+00  0.00000000E+00