 C  S  O                                
    1.000000000000000     
    32.3722991942999982    0.0000000000000000    0.0000000000000000
     0.0000000000000000   19.9214134216000005    0.0000000000000000
     0.0000000000000000    0.0000000000000000   40.4480476378999967
   C    S    O 
   364     1     2
Selective dynamics
Direct
  0.3709786951505814  0.5383444382315604  0.0024626462682119   T   T   T
  0.3688178772564465  0.5438640006168104  0.0628802423879714   T   T   T
  0.3380816559079427  0.5950334887638653  0.0610778120413848   T   T   T
  0.3205072299405014  0.6114463416571458  0.0299325978432463   T   T   T
  0.2778254939454020  0.6288156066898971  0.0281204551646719   T   T   T
  0.3665358737649472  0.5492595525980914  0.1233018205960081   T   T   T
  0.3347312552686997  0.5986744120500368  0.1214960167606367   T   T   T
  0.3168184061010746  0.6140900252896453  0.0903507639470217   T   T   T
  0.2737901333196399  0.6290432577327552  0.0885332720687779   T   T   T
  0.2535657275380500  0.6268986845924486  0.0573908324246454   T   T   T
  0.2121110041718604  0.6029290523865372  0.0555834132672374   T   T   T
  0.1955942805171203  0.5838526158604125  0.0244366250233900   T   T   T
  0.1680376126657752  0.5281049747024502  0.0226276644591522   T   T   T
  0.3641253237530692  0.5545232744931373  0.1837275378200459   T   T   T
  0.3312922081139892  0.6021194905271594  0.1819162981128722   T   T   T
  0.3130729231387342  0.6165226247780647  0.1507712086105860   T   T   T
  0.2697524648194207  0.6290551155877833  0.1489483534609011   T   T   T
  0.2495884582627103  0.6257718181381259  0.1178055101390257   T   T   T
  0.2086681262855233  0.5994917651599089  0.1160007962845841   T   T   T
  0.1925632395058381  0.5795058130548214  0.0848538212293980   T   T   T
  0.1662067467782084  0.5222510623103411  0.0830413402214599   T   T   T
  0.1589493514754031  0.4915078045328100  0.0518988350207023   T   T   T
  0.1549997825719110  0.4202921773846059  0.0500853086239702   T   T   T
  0.1587575265565232  0.3879274121897534  0.0189398531342417   T   T   T
  0.1783945848971837  0.3239393526093046  0.0171349463733967   T   T   T
  0.3616038434404173  0.5596291880953553  0.2441774442895626   T   T   T
  0.3277752066118714  0.6053549109188614  0.2423411770207417   T   T   T
  0.3092623608110092  0.6187453620132491  0.2111870957656937   T   T   T
  0.2657067594843162  0.6288492144950170  0.2093641635457853   T   T   T
  0.2456293585198226  0.6244388490497390  0.1782199531105475   T   T   T
  0.2052904419611687  0.5958808628648888  0.1764166748626015   T   T   T
  0.1896216364827331  0.5750028826475116  0.1452731399469980   T   T   T
  0.1644956382843348  0.5163019327611458  0.1434564849686667   T   T   T
  0.1579031859592764  0.4851639424472113  0.1123126856449032   T   T   T
  0.1554679614104850  0.4137714934206728  0.1105034525782700   T   T   T
  0.1599115466591204  0.3816400867615396  0.0793562167696995   T   T   T
  0.1808902151677642  0.3187886706181410  0.0775477417615924   T   T   T
  0.1950464938622112  0.2952185458721065  0.0464057571762077   T   T   T
  0.2331999660099460  0.2596004594874624  0.0445876015517092   T   T   T
  0.2528648438011711  0.2516080273872253  0.0134440718905887   T   T   T
  0.2968445979729951  0.2538329400757492  0.0116406252070808   T   T   T
  0.3708951421708368  0.5381069457660892  0.3358055186344591   T   T   T
  0.3589064265269150  0.5645584014188196  0.3046176887311343   T   T   T
  0.3241471512623121  0.6083654827101900  0.3027568204472617   T   T   T
  0.3053916425388160  0.6207299992818981  0.2716107293077492   T   T   T
  0.2616450668376852  0.6284211733570874  0.2697826348072205   T   T   T
  0.2416853016334754  0.6228920166207178  0.2386318467455490   T   T   T
  0.2019756317197273  0.5920908373273234  0.2368346391804059   T   T   T
  0.1867767567176939  0.5703338379801982  0.2056912992144470   T   T   T
  0.1629230956868753  0.5102517459754345  0.2038733679554214   T   T   T
  0.1569961305739482  0.4787664158902863  0.1727295873199274   T   T   T
  0.1560793213228665  0.4072783580495440  0.1709260596113203   T   T   T
  0.1611937574564982  0.3754193779356536  0.1397761060375076   T   T   T
  0.1834966559254892  0.3137808878117469  0.1379639398942883   T   T   T
  0.1981478107282463  0.2910279227363846  0.1068197557254599   T   T   T
  0.2370374219182374  0.2575799318749750  0.1050058077994124   T   T   T
  0.2568574910724497  0.2506938941288081  0.0738595394673699   T   T   T
  0.3007648025369435  0.2553910266688214  0.0720574758829102   T   T   T
  0.3198569217746828  0.2664321310570373  0.0409129354623872   T   T   T
  0.3557181257629148  0.3078644784200877  0.0390949100763246   T   T   T
  0.3684108824490198  0.3335415081970233  0.0079501692026380   T   T   T
  0.3855766171966374  0.3993769312784192  0.0061468244454524   T   T   T
  0.3685653195057252  0.5444988641236377  0.3962671822314963   T   T   T
  0.3561061111506299  0.5698366122691157  0.3649999527963986   T   T   T
  0.3204188679095313  0.6116470954782961  0.3631300512587003   T   T   T
  0.3014100065787951  0.6226082075812555  0.3319889844278633   T   T   T
  0.2575418465320088  0.6278096766595032  0.3301934047228369   T   T   T
  0.2377498865473884  0.6211237243321229  0.2990499960997498   T   T   T
  0.1987249004631954  0.5881091400524118  0.2972574233960367   T   T   T
  0.1840074183424197  0.5655200291604191  0.2661058553334895   T   T   T
  0.1614559932728927  0.5041333319203831  0.2642943835068374   T   T   T
  0.1562166667472364  0.4723304692771083  0.2331510468472956   T   T   T
  0.1568280819844516  0.4008372524649185  0.2313490556650718   T   T   T
  0.1626217674638674  0.3692826306319472  0.2002019543721602   T   T   T
  0.1862203306547607  0.3089347328333857  0.1983859322249852   T   T   T
  0.2013370359052174  0.2870112761451933  0.1672387915381226   T   T   T
  0.2409129995207822  0.2557611435937530  0.1654308458489944   T   T   T
  0.2608662110473001  0.2499994621393441  0.1342819831520637   T   T   T
  0.3046451599404539  0.2571581937514135  0.1324768983123792   T   T   T
  0.3234958812005669  0.2692583895962558  0.1013331595938972   T   T   T
  0.3584586891964879  0.3126701153286767  0.0995159770619642   T   T   T
  0.3705979274658196  0.3390425456212645  0.0683693491024107   T   T   T
  0.3863613176358414  0.4057973819634549  0.0665690729381185   T   T   T
  0.3881817528724691  0.4386041441006029  0.0354223730616398   T   T   T
  0.3800258390148391  0.5088653194991867  0.0336053543096371   T   T   T
  0.3654487410584289  0.5514875888402788  0.4566176911264648   T   T   T
  0.3532561240401532  0.5764062036320217  0.4252808803364107   T   T   T
  0.3166836017157497  0.6160242056839565  0.4235016165872031   T   T   T
  0.2973717796166072  0.6250324661492104  0.3923580306535779   T   T   T
  0.2534148848410923  0.6271869421597057  0.3906105175639918   T   T   T
  0.2338031617247335  0.6191810053855242  0.3594603430751363   T   T   T
  0.1955395610359962  0.5839406154170920  0.3576894706909521   T   T   T
  0.1813351954605658  0.5605438281663407  0.3265349509251587   T   T   T
  0.1601098579622353  0.4979313306049604  0.3247330170079900   T   T   T
  0.1555587858790294  0.4658679880191626  0.2935745675224486   T   T   T
  0.1576924190203440  0.3944586502917580  0.2917709975277708   T   T   T
  0.1641608541961637  0.3632413774618898  0.2606243102077133   T   T   T
  0.1890258721515007  0.3042480033811520  0.2588004510900748   T   T   T
  0.2046149378212829  0.2831813798130043  0.2276569257767045   T   T   T
  0.2448262905619802  0.2541562720822446  0.2258532902268869   T   T   T
  0.2648893619186441  0.2495148094279585  0.1947032691384556   T   T   T
  0.3084909877904506  0.2591261492582369  0.1929025513563695   T   T   T
  0.3270673666826783  0.2722898505642040  0.1617534740741783   T   T   T
  0.3610899121839624  0.3176354235410533  0.1599504798073289   T   T   T
  0.3726667133122679  0.3446654593798688  0.1287963249604703   T   T   T
  0.3869990262074589  0.4122644875958694  0.1269937277379852   T   T   T
  0.3881282252075736  0.4451498050419729  0.0958461233758271   T   T   T
  0.3784872336234602  0.5149126569455441  0.0940245124316750   T   T   T
  0.3630911077114718  0.5570104332856437  0.5171420214064260   T   T   T
  0.3500581113803242  0.5819809768745210  0.4859274941466888   T   T   T
  0.3128063523395258  0.6194930509764343  0.4841202481165287   T   T   T
  0.2933595639983770  0.6275155626860678  0.4528419799650553   T   T   T
  0.2494026691198839  0.6263607360500467  0.4511025605581584   T   T   T
  0.2299789964683540  0.6171063068482547  0.4199367047154933   T   T   T
  0.1925369711432868  0.5796025962751098  0.4181636908545903   T   T   T
  0.1788045339580323  0.5554322453300629  0.3869953779504740   T   T   T
  0.1589121528217508  0.4916763477769324  0.3851928855698623   T   T   T
  0.1550268301847750  0.4593803976296174  0.3540216652297306   T   T   T
  0.1586685768908696  0.3881494710608841  0.3522109327636609   T   T   T
  0.1658023124064684  0.3573125785700811  0.3210600203894064   T   T   T
  0.1918924231477157  0.2997454175120600  0.3192232845676094   T   T   T
  0.2079356723386609  0.2795510234380675  0.2880833192957297   T   T   T
  0.2487488740779000  0.2528160402523762  0.2862763571853049   T   T   T
  0.2689178618961752  0.2492754690471631  0.2551351990606563   T   T   T
  0.3122962921663244  0.2613438138443330  0.2533400447861279   T   T   T
  0.3305801039531020  0.2755149665820443  0.2221872895382525   T   T   T
  0.3636154251236470  0.3227471693529155  0.2203986041892077   T   T   T
  0.3746067033568610  0.3504059628705625  0.1892340687618611   T   T   T
  0.3874925072848986  0.4187661625672841  0.1874334139243929   T   T   T
  0.3879216426337118  0.4516915534340766  0.1562753963167555   T   T   T
  0.3767992339347439  0.5208665066694835  0.1544504806451154   T   T   T
  0.3614308402802821  0.5605485876777095  0.5775693194732830   T   T   T
  0.3472996611814919  0.5856321553057893  0.5466343894017526   T   T   T
  0.3090964163734822  0.6209053698355756  0.5447737949238011   T   T   T
  0.2893602014680282  0.6287386923883225  0.5135409467706190   T   T   T
  0.2454546852912388  0.6250460107627011  0.5116980253087511   T   T   T
  0.2262731950170406  0.6147256533115334  0.4804682431406989   T   T   T
  0.1896747342380785  0.5750908527942885  0.4786564080056671   T   T   T
  0.1764440849424473  0.5501796492961855  0.4474763218135535   T   T   T
  0.1578972632422769  0.4853562879331369  0.4456740062167922   T   T   T
  0.1546733973115932  0.4528552733944628  0.4144978609418691   T   T   T
  0.1598289400433075  0.3818648106067994  0.4126820691243245   T   T   T
  0.1675669296704875  0.3514878627724477  0.3815053651745116   T   T   T
  0.1948257800877989  0.2954060801710419  0.3796531329052130   T   T   T
  0.2112736203075000  0.2761149109647156  0.3485025394010746   T   T   T
  0.2526021259813187  0.2516506924576505  0.3466625451783404   T   T   T
  0.2729059134309384  0.2493372512767597  0.3155556008679634   T   T   T
  0.3159845847775358  0.2638479591536649  0.3137605718301192   T   T   T
  0.3340053216108968  0.2790033658992806  0.2826285117081100   T   T   T
  0.3660387553556737  0.3280144363026239  0.2808737335057960   T   T   T
  0.3764297300389444  0.3562582300753324  0.2496979962333426   T   T   T
  0.3878519146474424  0.4252940459984013  0.2478906603699410   T   T   T
  0.3875752649764264  0.4582153305101035  0.2167219457465814   T   T   T
  0.3749921904025444  0.5267200929241872  0.2148899930759998   T   T   T
  0.3589451919032626  0.5644825472510749  0.6380396349839917   T   T   T
  0.3442348339449688  0.5877196009268458  0.6069804049386303   T   T   T
  0.3053392734056042  0.6211145375802490  0.6051908933710320   T   T   T
  0.2854148982644261  0.6285221346678111  0.5740611687109484   T   T   T
  0.2415671190532033  0.6231982816768907  0.5721946960267027   T   T   T
  0.2225480469109335  0.6120564264624689  0.5409950711690380   T   T   T
  0.1867867526617207  0.5704410898245001  0.5391478970410323   T   T   T
  0.1741558144609483  0.5447833444659030  0.5079691363957078   T   T   T
  0.1569978332589023  0.4789647928210214  0.5061591877536187   T   T   T
  0.1544895931322096  0.4462859521302228  0.4749786729510587   T   T   T
  0.1611557885849655  0.3756333045610707  0.4731591037235200   T   T   T
  0.1695260829754879  0.3457116689255847  0.4419770977137814   T   T   T
  0.1978913317851048  0.2910986538279784  0.4401351606195757   T   T   T
  0.2146286359459613  0.2726789356294681  0.4089370850270656   T   T   T
  0.2563172789863088  0.2499439191588888  0.4070544880553280   T   T   T
  0.2767499543895304  0.2491386569362011  0.3759392183862129   T   T   T
  0.3195130678280706  0.2659385945485961  0.3741242786905323   T   T   T
  0.3372848610523067  0.2826008646245834  0.3430675555747782   T   T   T
  0.3683456207249284  0.3333412438623388  0.3413822388592133   T   T   T
  0.3781625973448106  0.3621855576374514  0.3102012047949769   T   T   T
  0.3881150354674947  0.4318400871956358  0.3083972479526809   T   T   T
  0.3870998272945896  0.4647166530215329  0.2772005354574923   T   T   T
  0.3730371047894740  0.5324411368348825  0.2753415735735899   T   T   T
  0.3563229005827788  0.5693209955300980  0.6984942186811373   T   T   T
  0.3411422026170232  0.5911880168239592  0.6673595439137257   T   T   T
  0.3015883406446524  0.6224724550009596  0.6655810536865701   T   T   T
  0.2815584576613285  0.6283523418096764  0.6344694499016282   T   T   T
  0.2377983452447067  0.6211956223097449  0.6326290894047967   T   T   T
  0.2189281899620047  0.6090790357874333  0.6014799022416870   T   T   T
  0.1840146855006877  0.5656238522499494  0.5996276845025246   T   T   T
  0.1719207903339992  0.5392752115413517  0.5684473604720782   T   T   T
  0.1561808014977709  0.4725298394417407  0.5666367294080592   T   T   T
  0.1543842853736293  0.4397452529245089  0.5354633049634336   T   T   T
  0.1625505895637490  0.3694924215812043  0.5336475807262546   T   T   T
  0.1716136333382521  0.3400516746462108  0.5024709230674347   T   T   T
  0.2010999501798947  0.2870319661836697  0.5006690263457725   T   T   T
  0.2181355615157601  0.2693675188560552  0.4694382015880448   T   T   T
  0.2601144051257849  0.2481994534420988  0.4675753893372747   T   T   T
  0.2804251871769139  0.2478461140229616  0.4363453860488361   T   T   T
  0.3228166677392687  0.2666912605435321  0.4344603432268251   T   T   T
  0.3403011221985411  0.2853679694222206  0.4035218905878231   T   T   T
  0.3697952041030355  0.3386110423279112  0.4018645720495652   T   T   T
  0.3795103988110871  0.3681524084234903  0.3707896617047531   T   T   T
  0.3879656681326087  0.4385031910121241  0.3689937544043556   T   T   T
  0.3864881229415657  0.4711999845725559  0.3377333154180900   T   T   T
  0.3535423508595376  0.5740945186434171  0.7589430073585471   T   T   T
  0.3379553381480417  0.5951231707032553  0.7277887962241788   T   T   T
  0.2977368061051245  0.6241519893280599  0.7260085991075668   T   T   T
  0.2776478814762348  0.6287751791051674  0.6948651851211852   T   T   T
  0.2340411408346011  0.6192080718935747  0.6930523042801837   T   T   T
  0.2154306265584123  0.6060476682776572  0.6619089690793803   T   T   T
  0.1814245253496997  0.5606890317187664  0.6600810160049513   T   T   T
  0.1698450458517261  0.5336550216242116  0.6289228637294242   T   T   T
  0.1555285071088105  0.4660701778907745  0.6271115152402845   T   T   T
  0.1544131533646231  0.4332107661142123  0.5959448587016988   T   T   T
  0.1640499102440017  0.3634663125589706  0.5941307756743330   T   T   T
  0.1737070727058928  0.3345464285854691  0.5629637552690239   T   T   T
  0.2043359706501050  0.2832557785151574  0.5611967477624600   T   T   T
  0.2217646163793349  0.2665257928886645  0.5300251105993063   T   T   T
  0.2641893781061652  0.2478203529050746  0.5282704808530436   T   T   T
  0.2842483957207422  0.2477504306117852  0.4969869659051991   T   T   T
  0.3260722061632344  0.2690779388370060  0.4951644062443794   T   T   T
  0.3424980047516122  0.2880937689660784  0.4639241863118665   T   T   T
  0.3684831282011285  0.3451560185260141  0.4620727573692309   T   T   T
  0.3784718953153766  0.3748487437259857  0.4312491673017690   T   T   T
  0.3853621600080147  0.4455152621158438  0.4294412528495412   T   T   T
  0.3849585024150322  0.4780545855914440  0.3982093101538713   T   T   T
  0.3506298897467658  0.5786437254152309  0.8193819712763525   T   T   T
  0.3346091894466736  0.5988120894777430  0.7882319653130814   T   T   T
  0.2938029555717381  0.6255600629482930  0.7864401413406584   T   T   T
  0.2736452603483701  0.6290664249280998  0.7552939985312234   T   T   T
  0.2302742712197783  0.6170249475513788  0.7534810963865891   T   T   T
  0.2119742739840583  0.6028396470909537  0.7223375629918755   T   T   T
  0.1789428284577063  0.5556030312685905  0.7205246967282579   T   T   T
  0.1679389569826027  0.5279322110363367  0.6893736058822058   T   T   T
  0.1550556620945486  0.4595781364698065  0.6875615312338641   T   T   T
  0.1546180036985727  0.4266720454156870  0.6564041609032042   T   T   T
  0.1657352572112978  0.3575125515022311  0.6545959133075514   T   T   T
  0.1759658576823874  0.3291584118531815  0.6234389967065398   T   T   T
  0.2077260843883471  0.2797005328503594  0.6216690902707407   T   T   T
  0.2255224104659722  0.2641145690734166  0.5905196587753340   T   T   T
  0.2684488186882164  0.2486267014165605  0.5887615807726215   T   T   T
  0.2885326711207347  0.2496279858670766  0.5575999941712338   T   T   T
  0.3299935072919145  0.2733509925850242  0.5558077505291404   T   T   T
  0.3455754966459888  0.2924740078625980  0.5244575769934089   T   T   T
  0.3702724084000265  0.3510891892272470  0.5226170779419888   T   T   T
  0.3752393411659194  0.3822352959794935  0.4914138147990021   T   T   T
  0.3808562590777523  0.4525865645749565  0.4895588134247508   T   T   T
  0.3806466452203538  0.4848866919651177  0.4583709056890658   T   T   T
  0.3476328557481849  0.5830300830508199  0.8798113889855275   T   T   T
  0.3311924262037205  0.6022888362542818  0.8486625710373231   T   T   T
  0.2898420204645300  0.6267274332749125  0.8468649862901328   T   T   T
  0.2696252297998821  0.6291019929964491  0.8157191296689922   T   T   T
  0.2265349249817432  0.6146223581682626  0.8139042416780948   T   T   T
  0.2085530412177379  0.5994138201620600  0.7827587784807984   T   T   T
  0.1765402413748541  0.5503574976469026  0.7809554520374737   T   T   T
  0.1661451895075574  0.5220940999262471  0.7498031436586905   T   T   T
  0.1547178500662365  0.4530501251784126  0.7479912135190518   T   T   T
  0.1549840122815870  0.4201360474092554  0.7168421129305649   T   T   T
  0.1675635923991229  0.3516250715999351  0.7150326908328778   T   T   T
  0.1784147862733350  0.3238510884727700  0.6838755483692591   T   T   T
  0.2112365564187946  0.2762316780967444  0.6820806123639722   T   T   T
  0.2294107261490370  0.2618323777576783  0.6509397381136255   T   T   T
  0.2727187583166065  0.2493020967285753  0.6491296749000782   T   T   T
  0.2928103983725340  0.2523377356096939  0.6179815265681068   T   T   T
  0.3337334224687360  0.2786004090364072  0.6161113512869389   T   T   T
  0.3496618353749519  0.2981364830164923  0.5848346394813863   T   T   T
  0.3756460364721019  0.3559435311188828  0.5828536555590687   T   T   T
  0.3808660358820221  0.3873220461465145  0.5515862271985635   T   T   T
  0.3848077176342049  0.4585764559552316  0.5498064987927076   T   T   T
  0.3796094863544375  0.4912854635873706  0.5189576254293230   T   T   T
  0.3445393281417147  0.5872181406535186  0.9402363266881938   T   T   T
  0.3276981377638393  0.6055563011482135  0.9090892450941992   T   T   T
  0.2858535415349097  0.6276646189831496  0.9072869566928121   T   T   T
  0.2655974361900464  0.6289046218450426  0.8761428882743361   T   T   T
  0.2228442962689610  0.6120044293231836  0.8743261198856361   T   T   T
  0.2051988172930717  0.5957945181297426  0.8431812062561805   T   T   T
  0.1742444643932538  0.5449739275115781  0.8413802074243334   T   T   T
  0.1644470607265177  0.5161444538546097  0.8102315249408771   T   T   T
  0.1544949545536418  0.4464922176577061  0.8084144325767034   T   T   T
  0.1554697462086818  0.4136051956580978  0.7772667738384623   T   T   T
  0.1694949887767233  0.3458338751531573  0.7754572289054769   T   T   T
  0.1809421866719982  0.3186796824428041  0.7443063904272487   T   T   T
  0.2147593083165573  0.2729323894270582  0.7425013652879506   T   T   T
  0.2332757701792764  0.2595817627642023  0.7113524528119174   T   T   T
  0.2768428781327485  0.2495152739666774  0.7095178093882774   T   T   T
  0.2969040759721187  0.2539997533378511  0.6783689735756719   T   T   T
  0.3372230392490136  0.2825799548377549  0.6765114524344725   T   T   T
  0.3528595291412142  0.3034212495532174  0.6453134323300846   T   T   T
  0.3781129700571170  0.3620393328356125  0.6433649712256991   T   T   T
  0.3845300822754855  0.3931056063409292  0.6120909426053271   T   T   T
  0.3869538299394710  0.4646962057464101  0.6102998730582643   T   T   T
  0.3819537259307322  0.4972041394411047  0.5792248182552170   T   T   T
  0.3413541344369482  0.5912137559601381  0.0006583053485974   T   T   T
  0.3241389945676958  0.6086118662706977  0.9695124230947316   T   T   T
  0.2818498088066805  0.6283639538035621  0.9677051615661389   T   T   T
  0.2615775534912064  0.6284772340704714  0.9365626925719589   T   T   T
  0.2192084166993236  0.6091874217021060  0.9347466113327759   T   T   T
  0.2019179170767344  0.5919946079359124  0.9036019553477412   T   T   T
  0.1720662540532928  0.5394625325935799  0.9017997006897924   T   T   T
  0.1628897973758110  0.5100977157812935  0.8706559570027055   T   T   T
  0.1544197489167902  0.4399365116824841  0.8688360316148206   T   T   T
  0.1560848154894562  0.4071153254900166  0.8376904476402741   T   T   T
  0.1715397184134446  0.3401694026841547  0.8358836460753793   T   T   T
  0.1835576031165699  0.3136604486664774  0.8047337789996871   T   T   T
  0.2183369450961845  0.2698555065163431  0.8029206669788533   T   T   T
  0.2371282535332663  0.2575500855408348  0.7717749642131793   T   T   T
  0.2808761526231372  0.2499124888037182  0.7699552792100715   T   T   T
  0.3008516903689640  0.2554784242131167  0.7387960099463127   T   T   T
  0.3405599483700238  0.2862916711865456  0.7369567249471175   T   T   T
  0.3557636738911416  0.3080675772158784  0.7057936839259840   T   T   T
  0.3796437129302484  0.3680973638265969  0.7039211877174426   T   T   T
  0.3856146719416890  0.3995453325097831  0.6727139341858142   T   T   T
  0.3865166158682232  0.4710361687240633  0.6709219003959763   T   T   T
  0.3813788495948676  0.5028943965573495  0.6397250661259198   T   T   T
  0.2575689174736340  0.6278038952142202  0.9969779514465156   T   T   T
  0.2156336324344123  0.6061542041236381  0.9951658883216832   T   T   T
  0.1987193599523998  0.5880109004764384  0.9640197064892798   T   T   T
  0.1699985696533627  0.5338383453704126  0.9622150695707190   T   T   T
  0.1614533577107272  0.5039739260214715  0.9310726883119689   T   T   T
  0.1544806233765919  0.4333770955164079  0.9292529605904516   T   T   T
  0.1568469473650522  0.4006729767672699  0.8981087836057400   T   T   T
  0.1737144462444573  0.3346352341193293  0.8963065660773768   T   T   T
  0.1862873466430372  0.3088172971263118  0.8651585053184871   T   T   T
  0.2219720274109560  0.2669847535936101  0.8633412584833654   T   T   T
  0.2410166743270606  0.2557414946558004  0.8321939949196564   T   T   T
  0.2849011547812321  0.2505551298808080  0.8303794772502796   T   T   T
  0.3047425770981775  0.2572247962516110  0.7992289934992621   T   T   T
  0.3437710644831366  0.2902352747151279  0.7974117434379187   T   T   T
  0.3585109355350662  0.3128395590953271  0.7662505409995305   T   T   T
  0.3810765571311658  0.3742137618656310  0.7644103820762423   T   T   T
  0.3863343963345646  0.4060026989829282  0.7332378760702211   T   T   T
  0.3857387063192412  0.4774852747782090  0.7314370020407335   T   T   T
  0.3799438276167738  0.5090045843231701  0.7002579939856935   T   T   T
  0.1601403631202438  0.4977734225604054  0.9914858500259645   T   T   T
  0.1546730698195046  0.4268249372534534  0.9896681710804057   T   T   T
  0.1577378240976660  0.3942677459127120  0.9585242996169920   T   T   T
  0.1759988962430626  0.3292148111302658  0.9567218353778839   T   T   T
  0.1891141760466416  0.3041133909198970  0.9255768749189354   T   T   T
  0.2256654301779611  0.2643028936302513  0.9237580153614919   T   T   T
  0.2449372888028908  0.2541333734926037  0.8926134309958269   T   T   T
  0.2889065903005746  0.2514166118559873  0.8908049797595423   T   T   T
  0.3085958005103960  0.2591942292792380  0.8596544256206461   T   T   T
  0.3469020332835941  0.2943791046426378  0.8578393098982730   T   T   T
  0.3611484991383409  0.3177966220657436  0.8266903687667435   T   T   T
  0.3823985493995499  0.3804053103140539  0.8248652964589905   T   T   T
  0.3869741628837600  0.4124814609148477  0.7937035619767285   T   T   T
  0.3848634453959953  0.4838973144242327  0.7919033920568039   T   T   T
  0.3784071550985807  0.5151035363692541  0.7607424934132057   T   T   T
  0.1920392931274673  0.2995852584072560  0.9859926237759679   T   T   T
  0.2294128403112865  0.2618446333428885  0.9841728111641049   T   T   T
  0.2488883430668153  0.2527503281190808  0.9530292689135511   T   T   T
  0.2928904542946202  0.2525053103020971  0.9512261515984011   T   T   T
  0.3124019212200512  0.2613926168093557  0.9200788208876833   T   T   T
  0.3499341887055801  0.2987116689919014  0.9182614642477335   T   T   T
  0.3636785739788841  0.3229078447444951  0.8871145729338733   T   T   T
  0.3835827143265877  0.3866737014203143  0.8853007506320307   T   T   T
  0.3874747943217348  0.4189922463311196  0.8541479880380600   T   T   T
  0.3838410883922843  0.4902488128713252  0.8523422108567987   T   T   T
  0.3767275938362104  0.5210753995637180  0.8211897527144676   T   T   T
  0.3161655495224698  0.2637909576454796  0.9804970708249885   T   T   T
  0.3528838150753377  0.3031975214689945  0.9786783299599645   T   T   T
  0.3661020886967759  0.3281582289113079  0.9475337895315107   T   T   T
  0.3846496435614781  0.3929958574483177  0.9457257681924907   T   T   T
  0.3878475939765372  0.4255204126025401  0.9145764381039783   T   T   T
  0.3827066111299579  0.4965335394957238  0.9127680416211781   T   T   T
  0.3749347792298257  0.5269551950885222  0.8816226882850419   T   T   T
  0.3880887354514629  0.4320590855578934  0.9749998802852058   T   T   T
  0.3814351379312243  0.5027396980645248  0.9731865530499992   T   T   T
  0.3730215070780415  0.5327125304087046  0.9420449038096274   T   T   T
  0.4592067959226900  0.4051911111523575  0.4999174092237765   T   T   T
  0.4669305744948035  0.3398542700993166  0.4849657727254041   T   T   T
  0.4789090289026534  0.4636390320537180  0.4859133244075309   T   T   T
 
  0.00000000E+00  0.00000000E+00  0.00000000E+00
  0.00000000E+00  0.00000000E+00  0.00000000E+00
  0.00000000E+00  0.00000000E+00  0.00000000E+00
  0.00000000E+00  0.00000000E+00  0.00000000E+00
  0.00000000E+00  0.00000000E+00  0.00000000E+00
  0.00000000E+00  0.00000000E+00  0.00000000E+00
  0.00000000E+00  0.00000000E+00  0.00000000E+00
  0.00000000E+00  0.00000000E+00  0.00000000E+00
  0.00000000E+00  0.00000000E+00  0.00000000E+00
  0.00000000E+00  0.00000000E+00  0.00000000E+00
  0.00000000E+00  0.00000000E+00  0.00000000E+00
  0.00000000E+00  0.00000000E+00  0.00000000E+00
  0.00000000E+00  0.00000000E+00  0.00000000E+00
  0.00000000E+00  0.00000000E+00  0.00000000E+00
  0.00000000E+00  0.00000000E+00  0.00000000E+00
  0.00000000E+00  0.00000000E+00  0.00000000E+00
  0.00000000E+00  0.00000000E+00  0.00000000E+00
  0.00000000E+00  0.00000000E+00  0.00000000E+00
  0.00000000E+00  0.00000000E+00  0.00000000E+00
  0.00000000E+00  0.00000000E+00  0.00000000E+00
  0.00000000E+00  0.00000000E+00  0.00000000E+00
  0.00000000E+00  0.00000000E+00  0.00000000E+00
  0.00000000E+00  0.00000000E+00  0.00000000E+00
  0.00000000E+00  0.00000000E+00  0.00000000E+00
  0.00000000E+00  0.00000000E+00  0.00000000E+00
  0.00000000E+00  0.00000000E+00  0.00000000E+00
  0.00000000E+00  0.00000000E+00  0.00000000E+00
  0.00000000E+00  0.00000000E+00  0.00000000E+00
  0.00000000E+00  0.00000000E+00  0.00000000E+00
  0.00000000E+00  0.00000000E+00  0.00000000E+00
  0.00000000E+00  0.00000000E+00  0.00000000E+00
  0.00000000E+00  0.00000000E+00  0.00000000E+00
  0.00000000E+00  0.00000000E+00  0.00000000E+00
  0.00000000E+00  0.00000000E+00  0.00000000E+00
  0.00000000E+00  0.00000000E+00  0.00000000E+00
  0.00000000E+00  0.00000000E+00  0.00000000E+00
  0.00000000E+00  0.00000000E+00  0.00000000E+00
  0.00000000E+00  0.00000000E+00  0.00000000E+00
  0.00000000E+00  0.00000000E+00  0.00000000E+00
  0.00000000E+00  0.00000000E+00  0.00000000E+00
  0.00000000E+00  0.00000000E+00  0.00000000E+00
  0.00000000E+00  0.00000000E+00  0.00000000E+00
  0.00000000E+00  0.00000000E+00  0.00000000E+00
  0.00000000E+00  0.00000000E+00  0.00000000E+00
  0.00000000E+00  0.00000000E+00  0.00000000E+00
  0.00000000E+00  0.00000000E+00  0.00000000E+00
  0.00000000E+00  0.00000000E+00  0.00000000E+00
  0.00000000E+00  0.00000000E+00  0.00000000E+00
  0.00000000E+00  0.00000000E+00  0.00000000E+00
  0.00000000E+00  0.00000000E+00  0.00000000E+00
  0.00000000E+00  0.00000000E+00  0.00000000E+00
  0.00000000E+00  0.00000000E+00  0.00000000E+00
  0.00000000E+00  0.00000000E+00  0.00000000E+00
  0.00000000E+00  0.00000000E+00  0.00000000E+00
  0.00000000E+00  0.00000000E+00  0.00000000E+00
  0.00000000E+00  0.00000000E+00  0.00000000E+00
  0.00000000E+00  0.00000000E+00  0.00000000E+00
  0.00000000E+00  0.00000000E+00  0.00000000E+00