 C  S  O                                
    1.000000000000000     
    32.3722991942999982    0.0000000000000000    0.0000000000000000
     0.0000000000000000   19.9214134216000005    0.0000000000000000
     0.0000000000000000    0.0000000000000000   40.4480476378999967
   C    S    O 
   364     1     2
Selective dynamics
Direct
  0.3709968105245242  0.5383277102616733  0.0024644630996215   F   F   F
  0.3688352982204639  0.5438471744305329  0.0629149981138487   F   F   F
  0.3380988761844237  0.5950132443339944  0.0611026467507139   F   F   F
  0.3205327423813281  0.6114247132348515  0.0299431908908180   F   F   F
  0.2778523157124667  0.6287964188613046  0.0281245148128419   F   F   F
  0.3665464364585503  0.5492396651561393  0.1233673361734651   F   F   F
  0.3347351232851637  0.5986409388722226  0.1215448852462474   F   F   F
  0.3168351519527772  0.6140595989315855  0.0903844095024107   F   F   F
  0.2738080179678649  0.6290143782959180  0.0885524330750845   F   F   F
  0.2535926166635529  0.6268797160261531  0.0574001048664397   F   F   F
  0.2121372665465536  0.6029153329168041  0.0555847501414038   F   F   F
  0.1956240912653791  0.5838429519714112  0.0244325790358861   F   F   F
  0.1680662657048062  0.5280974302246938  0.0226215963951513   F   F   F
  0.3641045509014369  0.5544943389492855  0.1838241310761830   F   F   F
  0.3312560001559715  0.6020654765326781  0.1819824333142381   F   F   F
  0.3130621168374776  0.6164713531663559  0.1508190538143735   F   F   F
  0.2697438844268278  0.6290068324650597  0.1489769235697501   F   F   F
  0.2495977754106365  0.6257404808031242  0.1178228467948247   F   F   F
  0.2086760060229612  0.5994740201962315  0.1160070771795555   F   F   F
  0.1925816140962373  0.5794957019426150  0.0848546080301852   F   F   F
  0.1662226492510231  0.5222461911683005  0.0830372688157589   F   F   F
  0.1589723805038808  0.4915014878206673  0.0518928764175183   F   F   F
  0.1550227148806370  0.4202869102268551  0.0500797118856564   F   F   F
  0.1587852386594698  0.3879210395462780  0.0189345173810421   F   F   F
  0.1784243855278176  0.3239345028528761  0.0171313656280842   F   F   F
  0.3615007194395407  0.5596495081165447  0.2442760701011723   F   F   F
  0.3276634034002351  0.6053514026914292  0.2424082354883538   F   F   F
  0.3091938432845561  0.6186896455941496  0.2112415279344084   F   F   F
  0.2656408519134777  0.6288020458961071  0.2093931359947842   F   F   F
  0.2455957874550972  0.6243957681906531  0.1782366818340966   F   F   F
  0.2052534627595150  0.5958641247595492  0.1764249678644692   F   F   F
  0.1896077296977093  0.5749926797747423  0.1452731481357291   F   F   F
  0.1644774045364278  0.5163035359941542  0.1434532393043547   F   F   F
  0.1579043404605452  0.4851630526697994  0.1123075966230612   F   F   F
  0.1554705001679084  0.4137729699494697  0.1104995344346173   F   F   F
  0.1599285248924578  0.3816378394152827  0.0793530132114137   F   F   F
  0.1809117216227602  0.3187907263349709  0.0775505398073906   F   F   F
  0.1950748075071479  0.2952210694475493  0.0464081568916863   F   F   F
  0.2332313526767887  0.2596108505467851  0.0445963612798227   F   F   F
  0.2528955571867435  0.2516212430674672  0.0134467798059173   F   F   F
  0.2968744612106217  0.2538548757804042  0.0116457160981772   F   F   F
  0.3705316986606440  0.5383969846874876  0.3359290825881979   F   F   F
  0.3587093717322156  0.5648122063456856  0.3047111870307124   F   F   F
  0.3239735654659880  0.6086844711422104  0.3028185228081854   F   F   F
  0.3052447330784903  0.6208355158585773  0.2716447711935345   F   F   F
  0.2615056909758985  0.6284889750271758  0.2698001957918550   F   F   F
  0.2415849592486660  0.6228833691160367  0.2386466678810506   F   F   F
  0.2018744657013656  0.5921035390141464  0.2368439504582353   F   F   F
  0.1867048421943776  0.5703376999440946  0.2056918741938606   F   F   F
  0.1628463142874881  0.5102702142112057  0.2038744711241487   F   F   F
  0.1569502093070609  0.4787783585923580  0.1727256899645386   F   F   F
  0.1560383993408599  0.4072978002999168  0.1709220114661956   F   F   F
  0.1611821347542391  0.3754302978012404  0.1397758156387978   F   F   F
  0.1834941748867015  0.3138038090522955  0.1379696814268150   F   F   F
  0.1981640379292669  0.2910453093800601  0.1068299979081807   F   F   F
  0.2370579206220439  0.2576106873368178  0.1050280820825891   F   F   F
  0.2568831476338742  0.2507196139859067  0.0738800657011122   F   F   F
  0.3007898383031814  0.2554226522615649  0.0720874345834302   F   F   F
  0.3198785257473906  0.2664576581800888  0.0409329804765483   F   F   F
  0.3557374403151960  0.3078909168906772  0.0391176164746141   F   F   F
  0.3684249425395920  0.3335575150296190  0.0079569670337962   F   F   F
  0.3855889853776338  0.3993896007299522  0.0061519757280197   F   F   F
  0.3680119708713602  0.5444015680852108  0.3963512215194985   F   F   F
  0.3557597475171655  0.5701337753971015  0.3651172173554049   F   F   F
  0.3202203842981557  0.6122637068322720  0.3632215375904367   F   F   F
  0.3012444035095591  0.6231336281445116  0.3320387549344657   F   F   F
  0.2573635747328953  0.6282015785216870  0.3302113731166750   F   F   F
  0.2375904404783577  0.6212770914417866  0.2990608163608835   F   F   F
  0.1985927411348226  0.5881889590445707  0.2972718255680253   F   F   F
  0.1838900956956753  0.5655604851497519  0.2661216287346407   F   F   F
  0.1613393595343345  0.5041704944562261  0.2643121213676243   F   F   F
  0.1561136157759294  0.4723663599426076  0.2331570215513190   F   F   F
  0.1567291402552898  0.4008787207032318  0.2313528152790316   F   F   F
  0.1625566004505846  0.3693183658921119  0.2002039547647850   F   F   F
  0.1861680082033384  0.3089889685870960  0.1983887510258552   F   F   F
  0.2013198700192004  0.2870606654420669  0.1672516767386922   F   F   F
  0.2409017266814386  0.2558312596575789  0.1654583477656870   F   F   F
  0.2608744742515668  0.2500553645917910  0.1343152268332241   F   F   F
  0.3046551205306288  0.2572114525993923  0.1325296977745278   F   F   F
  0.3235113016394221  0.2692951983904747  0.1013785055525566   F   F   F
  0.3584770062025998  0.3127000938640759  0.0995736407542759   F   F   F
  0.3706124892442183  0.3390597158708684  0.0684105404143251   F   F   F
  0.3863762235337849  0.4058109356975896  0.0666106124155690   F   F   F
  0.3881940307624052  0.4386024313328545  0.0354459783892748   F   F   F
  0.3800393607327546  0.5088602940821861  0.0336240358705054   F   F   F
  0.3653891499333695  0.5504586837334270  0.4567153237736839   F   F   F
  0.3527717339924822  0.5757009271787442  0.4255036822238907   F   F   F
  0.3164485044861518  0.6160406251997056  0.4236445960321404   F   F   F
  0.2972171993535195  0.6256445615824591  0.3924513317203308   F   F   F
  0.2532455103429465  0.6279214281628529  0.3906489418046594   F   F   F
  0.2336401082295338  0.6196446632560110  0.3594937889218351   F   F   F
  0.1954554588534766  0.5841327049921526  0.3577151909876519   F   F   F
  0.1812442053060173  0.5606175402854451  0.3265695839946222   F   F   F
  0.1600495416411827  0.4979631374506082  0.3247694242689763   F   F   F
  0.1554551428743101  0.4659038979593189  0.2936048132461236   F   F   F
  0.1575749709185410  0.3944924662406253  0.2917951271827028   F   F   F
  0.1640415919077713  0.3632837860378575  0.2606362409191547   F   F   F
  0.1889061313326044  0.3043006105041237  0.2588060839101097   F   F   F
  0.2045356902187620  0.2832501408292763  0.2276705672297099   F   F   F
  0.2447518394803665  0.2542459624239304  0.2258785793528234   F   F   F
  0.2648560559487829  0.2496090678112127  0.1947452089188454   F   F   F
  0.3084597935355124  0.2592072683580314  0.1929692079049003   F   F   F
  0.3270614827253526  0.2723463770122721  0.1618250548705368   F   F   F
  0.3610998181844284  0.3176657448556057  0.1600386534579639   F   F   F
  0.3726824541837579  0.3446812206550969  0.1288719959582525   F   F   F
  0.3870205453364126  0.4122766762939801  0.1270736446967660   F   F   F
  0.3881455539873074  0.4451487765934678  0.0959057690493483   F   F   F
  0.3785014778405983  0.5149077301342497  0.0940774495012793   F   F   F
  0.3629955175294972  0.5559821237763705  0.5171423418644928   F   F   F
  0.3497229075992672  0.5807699555804852  0.4859743578820183   F   F   F
  0.3126458578667216  0.6191191793935187  0.4841451804434377   F   F   F
  0.2932028390431323  0.6278894712230826  0.4529283482710136   F   F   F
  0.2492059374529255  0.6273137018507856  0.4511378912477099   F   F   F
  0.2297920319506528  0.6178470954664289  0.4199667144299650   F   F   F
  0.1925000432148100  0.5798873401284454  0.4181810815595417   F   F   F
  0.1788058107097713  0.5555250877597901  0.3870332679498857   F   F   F
  0.1590042987316209  0.4916740042443526  0.3852373323144307   F   F   F
  0.1550352369364638  0.4593850737784785  0.3540694580653114   F   F   F
  0.1586242336183253  0.3881241014403208  0.3522521752922722   F   F   F
  0.1656789753848555  0.3573053141159335  0.3210789966328240   F   F   F
  0.1917088836119238  0.2996674137959946  0.3192324204561351   F   F   F
  0.2077713636747940  0.2795351870663673  0.2880845129159053   F   F   F
  0.2485616541951447  0.2527511545634571  0.2862851634602483   F   F   F
  0.2687952788935319  0.2493213042647685  0.2551685421767640   F   F   F
  0.3121706458642646  0.2613672348473952  0.2534025731105751   F   F   F
  0.3305151917316748  0.2755762983487098  0.2222737459571093   F   F   F
  0.3635806932892046  0.3227680232474662  0.2205142011305811   F   F   F
  0.3746095393502448  0.3504141666611593  0.1893469128546287   F   F   F
  0.3875081122629340  0.4187790088447291  0.1875488622454306   F   F   F
  0.3879416933730870  0.4516883499228713  0.1563739507343774   F   F   F
  0.3768036091746389  0.5208592321856907  0.1545380976576323   F   F   F
  0.3608877443631333  0.5606092156792541  0.5775424110852456   F   F   F
  0.3468574523638379  0.5849861435818516  0.5464868628080769   F   F   F
  0.3088755414480701  0.6210774953764362  0.5446809922074651   F   F   F
  0.2892056168550582  0.6291541983768899  0.5134941696538629   F   F   F
  0.2452509279755548  0.6260061551224320  0.5116754510314709   F   F   F
  0.2260499492699005  0.6155793402071031  0.4804728459626766   F   F   F
  0.1896537463705893  0.5754032803492618  0.4786581495875893   F   F   F
  0.1765243057491246  0.5502738226064985  0.4474960864285851   F   F   F
  0.1581398912209584  0.4853118454525863  0.4456974450712790   F   F   F
  0.1548552879116052  0.4528134630221956  0.4145345343581295   F   F   F
  0.1598968818207391  0.3817824524448258  0.4127136565074672   F   F   F
  0.1675084064690923  0.3513553101477841  0.3815286495131353   F   F   F
  0.1945949499398241  0.2950224886546800  0.3796756928583151   F   F   F
  0.2110270643586180  0.2757895718254216  0.3485033172517596   F   F   F
  0.2523189882326899  0.2511280439157273  0.3466896839173624   F   F   F
  0.2726589244967674  0.2490233621105780  0.3155823062213395   F   F   F
  0.3157423686038038  0.2635609761232621  0.3138253303789547   F   F   F
  0.3338172507081610  0.2789325484937257  0.2827237904427925   F   F   F
  0.3658297982821878  0.3280156228239851  0.2809972605656531   F   F   F
  0.3763342780806517  0.3562624015177152  0.2498401295245634   F   F   F
  0.3877664995028919  0.4253237012998359  0.2480413640419544   F   F   F
  0.3875568531126931  0.4582186966015056  0.2168551220411760   F   F   F
  0.3749427923464190  0.5267221734779785  0.2150049657040550   F   F   F
  0.3586083713634518  0.5649824775428720  0.6379687349577502   F   F   F
  0.3439337840549214  0.5882988883508016  0.6069118485577569   F   F   F
  0.3051264110585821  0.6220078586288570  0.6051451315405041   F   F   F
  0.2852456100304004  0.6293487116762539  0.5740090454579234   F   F   F
  0.2413730046013503  0.6240055032409436  0.5721779021607318   F   F   F
  0.2223637047967048  0.6127968137705082  0.5409808710639222   F   F   F
  0.1867973979748096  0.5706925584520386  0.5391353972449106   F   F   F
  0.1742798164158170  0.5448589148309513  0.5079575061938144   F   F   F
  0.1572889267905841  0.4789101630601527  0.5061491063971091   F   F   F
  0.1547783523705677  0.4462321015119037  0.4749855752732053   F   F   F
  0.1612687207461644  0.3755191072759085  0.4731669970895112   F   F   F
  0.1694955903957132  0.3454794014433613  0.4419895137725931   F   F   F
  0.1975914528383939  0.2904509602783472  0.4401512092519446   F   F   F
  0.2143274452185373  0.2719933546971530  0.4089539008042755   F   F   F
  0.2560468053523403  0.2492855327396580  0.4071248939949916   F   F   F
  0.2764413782005987  0.2484921089585492  0.3759999470380740   F   F   F
  0.3191581687364633  0.2656545898626828  0.3742376886932447   F   F   F
  0.3369146940909762  0.2823214141666222  0.3431741011289421   F   F   F
  0.3677361786530349  0.3334068106982790  0.3414755063595054   F   F   F
  0.3777201045431327  0.3622579599155103  0.3103431995512743   F   F   F
  0.3876577111089632  0.4319315694785884  0.3085419605215126   F   F   F
  0.3868889034760247  0.4647654195963573  0.2773450428348462   F   F   F
  0.3728653103839690  0.5325396995873092  0.2754726535103900   F   F   F
  0.3561398709894431  0.5694774768974596  0.6984125320084639   F   F   F
  0.3409350694585607  0.5916166737657653  0.6673185628525785   F   F   F
  0.3013801571613034  0.6229397815190966  0.6655669088269481   F   F   F
  0.2813478714273240  0.6290503942229468  0.6344538064558862   F   F   F
  0.2375910222344349  0.6216414220145724  0.6326299834909299   F   F   F
  0.2187588767396732  0.6095672696749391  0.6014566086956146   F   F   F
  0.1839744488490525  0.5657947633251051  0.5996015317068158   F   F   F
  0.1719969059913233  0.5393451120259836  0.5684129931083985   F   F   F
  0.1563663724233050  0.4725102207210368  0.5665986689575359   F   F   F
  0.1546380009995338  0.4396960411121875  0.5354380614192125   F   F   F
  0.1626314490351395  0.3693823104512934  0.5336281085245440   F   F   F
  0.1715525827376862  0.3397729321321979  0.5024667325684437   F   F   F
  0.2007347534105625  0.2862615006580255  0.5006631430100696   F   F   F
  0.2177652253571533  0.2684752668590195  0.4694559015846384   F   F   F
  0.2598786410164594  0.2477915856817584  0.4676278103531719   F   F   F
  0.2801973344037368  0.2478439557990608  0.4364512168821857   F   F   F
  0.3224772479364680  0.2676524045722077  0.4346551418965018   F   F   F
  0.3397964515645227  0.2856980522872725  0.4036141588614718   F   F   F
  0.3692075903642933  0.3389331754481346  0.4019092805977347   F   F   F
  0.3786605732603121  0.3684037440852098  0.3708218809872942   F   F   F
  0.3870762981229962  0.4386101213380854  0.3690166943172504   F   F   F
  0.3858347606894231  0.4713478074270960  0.3378244923456329   F   F   F
  0.3534725451783092  0.5740735757743928  0.7588597309322825   F   F   F
  0.3378236988164141  0.5951587104458261  0.7277337554511111   F   F   F
  0.2976041053339882  0.6241689568742252  0.7259780919276678   F   F   F
  0.2774648013939015  0.6289413295357499  0.6948628166862874   F   F   F
  0.2338730192600778  0.6193084938571075  0.6930503690117973   F   F   F
  0.2152542530996900  0.6062155489562802  0.6619019795251255   F   F   F
  0.1813009704891136  0.5607570354251357  0.6600597272622075   F   F   F
  0.1698011157759522  0.5337088207844323  0.6288797337815404   F   F   F
  0.1555322089311598  0.4660762600061588  0.6270626028626874   F   F   F
  0.1545041601852110  0.4331902889400286  0.5958972579145732   F   F   F
  0.1640362852957690  0.3633888804860923  0.5940938867437007   F   F   F
  0.1736289348541252  0.3342963876029135  0.5629458657177523   F   F   F
  0.2040120664441436  0.2825690729319422  0.5611737557796694   F   F   F
  0.2213829407562345  0.2655909575477728  0.5299987356941338   F   F   F
  0.2639206312952818  0.2473147677310921  0.5281964294392656   F   F   F
  0.2841021873571746  0.2480439449784598  0.4969766282765346   F   F   F
  0.3258507816986154  0.2703868518026827  0.4951606264437828   F   F   F
  0.3425113580621015  0.2892668564392227  0.4640123375559233   F   F   F
  0.3700615652034717  0.3448112485491161  0.4622212352716173   F   F   F
  0.3790092543541729  0.3747370339660359  0.4312220302385621   F   F   F
  0.3859500915316279  0.4453865781705804  0.4294097404643941   F   F   F
  0.3843522746435000  0.4780158343227815  0.3982425043966814   F   F   F
  0.3506244930730379  0.5786094650744735  0.8193073672527909   F   F   F
  0.3345709084366595  0.5987604472532442  0.7881621989665041   F   F   F
  0.2937580937859915  0.6254888604788084  0.7863956467927444   F   F   F
  0.2735573951345933  0.6290157732867108  0.7552681876428748   F   F   F
  0.2301847026135775  0.6169965398977733  0.7534654840172346   F   F   F
  0.2118450706521134  0.6028457366870322  0.7223299302651257   F   F   F
  0.1788155233132300  0.5556162330181006  0.7205095343331451   F   F   F
  0.1678147979923827  0.5279606801307148  0.6893458481519328   F   F   F
  0.1549410054762588  0.4595970842131848  0.6875292604238185   F   F   F
  0.1545440551588795  0.4266842998686864  0.6563650738551006   F   F   F
  0.1656177034028369  0.3574913385461719  0.6545630423840942   F   F   F
  0.1758404780723337  0.3290173969619068  0.6234164892131429   F   F   F
  0.2074595713145017  0.2793032957039500  0.6216511565763669   F   F   F
  0.2251919820353378  0.2633856069756773  0.5905003530496872   F   F   F
  0.2681365190252548  0.2478759241058966  0.5886961240371387   F   F   F
  0.2882221256007338  0.2494145276004055  0.5574973942403242   F   F   F
  0.3295246121843327  0.2740084329523444  0.5556577126325002   F   F   F
  0.3455367262104329  0.2934490146125662  0.5244418754664076   F   F   F
  0.3717555442075869  0.3506527124430444  0.5226264479494692   F   F   F
  0.3787500599331275  0.3813285102203869  0.4914983356076532   F   F   F
  0.3843566895985248  0.4521306813677120  0.4896797598268265   F   F   F
  0.3823537951837725  0.4846683615797734  0.4585280783887962   F   F   F
  0.3476505832802972  0.5830056517197848  0.8797579705786476   F   F   F
  0.3312018777179387  0.6022497482896094  0.8486035151034664   F   F   F
  0.2898476620293746  0.6266789701528657  0.8468241566131176   F   F   F
  0.2696080159553155  0.6290428287725344  0.8156857323179518   F   F   F
  0.2265157300371373  0.6145810128996007  0.8138841168972121   F   F   F
  0.2084963054462311  0.5993845197186325  0.7827502073742081   F   F   F
  0.1764736014230905  0.5503520836613438  0.7809471337258003   F   F   F
  0.1660412681162932  0.5221019497207534  0.7497953812340737   F   F   F
  0.1546091450658736  0.4530650566913479  0.7479803813985700   F   F   F
  0.1548579246422051  0.4201586833097999  0.7168231227537897   F   F   F
  0.1674328729625912  0.3516487656556729  0.7150180967281781   F   F   F
  0.1782560172449504  0.3238391422048917  0.6838649097484027   F   F   F
  0.2110357060408663  0.2761582398093648  0.6820828203317502   F   F   F
  0.2291415621625605  0.2615044197290811  0.6509386414689079   F   F   F
  0.2724288683553109  0.2487855895186105  0.6491127375430495   F   F   F
  0.2924621621130867  0.2516348021326135  0.6179300251799009   F   F   F
  0.3332852501280878  0.2782695822206266  0.6160535917175017   F   F   F
  0.3490185229593341  0.2982962684975403  0.5848158521092472   F   F   F
  0.3747877963918262  0.3562375000006476  0.5829298298865419   F   F   F
  0.3811240173903322  0.3872934345047132  0.5517656791162268   F   F   F
  0.3851481634736346  0.4584956559490393  0.5499665118258904   F   F   F
  0.3811791658500225  0.4910690847289330  0.5189537333653000   F   F   F
  0.3445613152234920  0.5872005069986980  0.9402078332010533   F   F   F
  0.3277234587170053  0.6055310605481221  0.9090502514800013   F   F   F
  0.2858786836109006  0.6276377946924048  0.9072573396543843   F   F   F
  0.2656173103059984  0.6288713214770173  0.8761118004014260   F   F   F
  0.2228633090336914  0.6119781764378960  0.8743063107844210   F   F   F
  0.2051988668318969  0.5957699406770246  0.8431671595632193   F   F   F
  0.1742369743401852  0.5449654305064208  0.8413718172882610   F   F   F
  0.1644080343358693  0.5161418423692310  0.8102281023501661   F   F   F
  0.1544495412446288  0.4465009723514640  0.8084114638361676   F   F   F
  0.1553898917777687  0.4136240637871844  0.7772610367949178   F   F   F
  0.1694215506606837  0.3458643001765884  0.7754530401477909   F   F   F
  0.1808354259261999  0.3187182908476944  0.7442961423647162   F   F   F
  0.2146568341835880  0.2729932503283634  0.7424915299890610   F   F   F
  0.2331159462212237  0.2595818564682293  0.7113436571001294   F   F   F
  0.2766653570029062  0.2494712469894281  0.7095026395671177   F   F   F
  0.2966581948001075  0.2537194417030853  0.6783313316144015   F   F   F
  0.3369635333767160  0.2823687890572013  0.6764504003375619   F   F   F
  0.3524083093635954  0.3032128245413657  0.6452301651070059   F   F   F
  0.3773590365426022  0.3621252285326976  0.6433262227608595   F   F   F
  0.3834463801704127  0.3933691991666236  0.6121329277872642   F   F   F
  0.3859270909198085  0.4647999508415009  0.6103407894102300   F   F   F
  0.3811995027951087  0.4971730910714373  0.5792749712541322   F   F   F
  0.3413750295314019  0.5911968551892551  0.0006567351808447   F   F   F
  0.3241668516396108  0.6085916481517164  0.9694975014593618   F   F   F
  0.2818789344934867  0.6283453760241546  0.9676914815500613   F   F   F
  0.2616093286928842  0.6284582546998895  0.9365426071676564   F   F   F
  0.2192396137562442  0.6091711839872952  0.9347320347736825   F   F   F
  0.2019442289545013  0.5919794475831294  0.9035873236603995   F   F   F
  0.1720888352821348  0.5394540565391001  0.9017908459038537   F   F   F
  0.1628969336154757  0.5100928148930594  0.8706489069151683   F   F   F
  0.1544229974489290  0.4399353078727007  0.8688303598348964   F   F   F
  0.1560674722061087  0.4071200859209552  0.8376843691094273   F   F   F
  0.1715278156617985  0.3401836503805742  0.8358754206801965   F   F   F
  0.1835237297089694  0.3136938062260811  0.8047205633102577   F   F   F
  0.2183119133706921  0.2699162859423027  0.8029007248025929   F   F   F
  0.2370709100239360  0.2576310826334244  0.7717466001458556   F   F   F
  0.2808172549745141  0.2500086105296641  0.7699046688019044   F   F   F
  0.3007400523687389  0.2555371154280471  0.7387377027389275   F   F   F
  0.3404504707127712  0.2863192959081814  0.7368731712885396   F   F   F
  0.3555704469196965  0.3080366671507954  0.7056799361799351   F   F   F
  0.3794282748288116  0.3681261056058359  0.7037957138991251   F   F   F
  0.3851265040097472  0.3996315126293529  0.6725978437398061   F   F   F
  0.3860510422401717  0.4711465899977106  0.6708085968238048   F   F   F
  0.3807103978737587  0.5031133027511446  0.6396838372087219   F   F   F
  0.2576006871931597  0.6277882918230173  0.9969727017491684   F   F   F
  0.2156654883930800  0.6061411380601599  0.9951591487265263   F   F   F
  0.1987516954047137  0.5880001818145705  0.9640099187813648   F   F   F
  0.1700293855027792  0.5338299427122211  0.9622067810989039   F   F   F
  0.1614798595224608  0.5039663409543842  0.9310649756457825   F   F   F
  0.1545049449021418  0.4333710162037366  0.9292458988705272   F   F   F
  0.1568639817092530  0.4006682237106324  0.8981009971767614   F   F   F
  0.1737342848240186  0.3346338647224444  0.8962945738627709   F   F   F
  0.1862990807303484  0.3088281942083320  0.8651422262942350   F   F   F
  0.2219899272345744  0.2670136365915375  0.8633156225532785   F   F   F
  0.2410198690613893  0.2557979862799951  0.8321605820694860   F   F   F
  0.2849033891855701  0.2506222919543633  0.8303274342046524   F   F   F
  0.3047204399170370  0.2573080681016852  0.7991616533880110   F   F   F
  0.3437604437311166  0.2902865117909695  0.7973173330221213   F   F   F
  0.3584684945883889  0.3128697193618283  0.7661406154541508   F   F   F
  0.3810685122362958  0.3742250160786061  0.7642841931049700   F   F   F
  0.3862569113301261  0.4060157802983871  0.7330966281161698   F   F   F
  0.3856512745276813  0.4775284891506106  0.7313066761507122   F   F   F
  0.3797353100671125  0.5091019600483561  0.7001520387745130   F   F   F
  0.1601701543364494  0.4977661560727824  0.9914788918505822   F   F   F
  0.1547017970770681  0.4268175593269030  0.9896610752705804   F   F   F
  0.1577657688750786  0.3942605029364783  0.9585166583099888   F   F   F
  0.1760285245748579  0.3292088797899618  0.9567127879229571   F   F   F
  0.1891423704706901  0.3041131017221909  0.9255636630297154   F   F   F
  0.2256975459397664  0.2643121502093862  0.9237379791514714   F   F   F
  0.2449642744597261  0.2541590587370143  0.8925845152560170   F   F   F
  0.2889329267314109  0.2514497388497988  0.8907633314415422   F   F   F
  0.3086108360194628  0.2592382984921538  0.8596000527582928   F   F   F
  0.3469217613090723  0.2944089487384181  0.8577687206200508   F   F   F
  0.3611619334819729  0.3178177142305497  0.8266010209388713   F   F   F
  0.3824271654818532  0.3804149378165241  0.8247655430898915   F   F   F
  0.3869984223873635  0.4124790698892783  0.7935882703538361   F   F   F
  0.3848758919262396  0.4839035458758990  0.7917933425363862   F   F   F
  0.3783777941836982  0.5151125631602782  0.7606299797710355   F   F   F
  0.1920709558857537  0.2995833456903247  0.9859864970725863   F   F   F
  0.2294467788652370  0.2618494425706490  0.9841662123103143   F   F   F
  0.2489200905523578  0.2527628228966743  0.9530145212997515   F   F   F
  0.2929216592045251  0.2525262776424697  0.9512056112621419   F   F   F
  0.3124265763149958  0.2614175811513266  0.9200450571545052   F   F   F
  0.3499572504802703  0.2987357337458491  0.9182195544481432   F   F   F
  0.3636987079467944  0.3229230759660142  0.8870563924459963   F   F   F
  0.3836059199061417  0.3866836658070815  0.8852344423295816   F   F   F
  0.3875025670433502  0.4189885341613415  0.8540637719912368   F   F   F
  0.3838649441389829  0.4902447596953854  0.8522626534526713   F   F   F
  0.3767434287579664  0.5210618723013146  0.8210987154319588   F   F   F
  0.3161898844400149  0.2638127279984455  0.9804894078387357   F   F   F
  0.3529049193266255  0.3032219339989071  0.9786681245101246   F   F   F
  0.3661187116776931  0.3281733067381200  0.9475071456780788   F   F   F
  0.3846652677116059  0.3930073223405318  0.9456951455265018   F   F   F
  0.3878657951550510  0.4255176933229451  0.9145282642897185   F   F   F
  0.3827251482096003  0.4965277062740723  0.9127199048241328   F   F   F
  0.3749572455177344  0.5269377010267650  0.8815600057272348   F   F   F
  0.3881011540962386  0.4320568065331180  0.9749868807269386   F   F   F
  0.3814493693589531  0.5027338784350086  0.9731719031527815   F   F   F
  0.3730416907033933  0.5326949407080236  0.9420138778785196   F   F   F
  0.4703827040373267  0.4024830181625261  0.5010235639787329   T   T   T
  0.4728771512719142  0.3389314482194040  0.4836327151600538   T   T   T
  0.4841819068690184  0.4627925282588738  0.4842600597228230   T   T   T
 
  0.00000000E+00  0.00000000E+00  0.00000000E+00
  0.00000000E+00  0.00000000E+00  0.00000000E+00
  0.00000000E+00  0.00000000E+00  0.00000000E+00
  0.00000000E+00  0.00000000E+00  0.00000000E+00
  0.00000000E+00  0.00000000E+00  0.00000000E+00
  0.00000000E+00  0.00000000E+00  0.00000000E+00
  0.00000000E+00  0.00000000E+00  0.00000000E+00
  0.00000000E+00  0.00000000E+00  0.00000000E+00
  0.00000000E+00  0.00000000E+00  0.00000000E+00
  0.00000000E+00  0.00000000E+00  0.00000000E+00
  0.00000000E+00  0.00000000E+00  0.00000000E+00
  0.00000000E+00  0.00000000E+00  0.00000000E+00
  0.00000000E+00  0.00000000E+00  0.00000000E+00
  0.00000000E+00  0.00000000E+00  0.00000000E+00
  0.00000000E+00  0.00000000E+00  0.00000000E+00
  0.00000000E+00  0.00000000E+00  0.00000000E+00
  0.00000000E+00  0.00000000E+00  0.00000000E+00
  0.00000000E+00  0.00000000E+00  0.00000000E+00
  0.00000000E+00  0.00000000E+00  0.00000000E+00
  0.00000000E+00  0.00000000E+00  0.00000000E+00
  0.00000000E+00  0.00000000E+00  0.00000000E+00
  0.00000000E+00  0.00000000E+00  0.00000000E+00
  0.00000000E+00  0.00000000E+00  0.00000000E+00
  0.00000000E+00  0.00000000E+00  0.00000000E+00
  0.00000000E+00  0.00000000E+00  0.00000000E+00
  0.00000000E+00  0.00000000E+00  0.00000000E+00
  0.00000000E+00  0.00000000E+00  0.00000000E+00
  0.00000000E+00  0.00000000E+00  0.00000000E+00
  0.00000000E+00  0.00000000E+00  0.00000000E+00
  0.00000000E+00  0.00000000E+00  0.00000000E+00
  0.00000000E+00  0.00000000E+00  0.00000000E+00
  0.00000000E+00  0.00000000E+00  0.00000000E+00
  0.00000000E+00  0.00000000E+00  0.00000000E+00
  0.00000000E+00  0.00000000E+00  0.00000000E+00
  0.00000000E+00  0.00000000E+00  0.00000000E+00
  0.00000000E+00  0.00000000E+00  0.00000000E+00
  0.00000000E+00  0.00000000E+00  0.00000000E+00
  0.00000000E+00  0.00000000E+00  0.00000000E+00
  0.00000000E+00  0.00000000E+00  0.00000000E+00
  0.00000000E+00  0.00000000E+00  0.00000000E+00
  0.00000000E+00  0.00000000E+00  0.00000000E+00
  0.00000000E+00  0.00000000E+00  0.00000000E+00
  0.00000000E+00  0.00000000E+00  0.00000000E+00
  0.00000000E+00  0.00000000E+00  0.00000000E+00
  0.00000000E+00  0.00000000E+00  0.00000000E+00
  0.00000000E+00  0.00000000E+00  0.00000000E+00
  0.00000000E+00  0.00000000E+00  0.00000000E+00
  0.00000000E+00  0.00000000E+00  0.00000000E+00
  0.00000000E+00  0.00000000E+00  0.00000000E+00
  0.00000000E+00  0.00000000E+00  0.00000000E+00
  0.00000000E+00  0.00000000E+00  0.00000000E+00
  0.00000000E+00  0.00000000E+00  0.00000000E+00
  0.00000000E+00  0.00000000E+00  0.00000000E+00
  0.00000000E+00  0.00000000E+00  0.00000000E+00
  0.00000000E+00  0.00000000E+00  0.00000000E+00
  0.00000000E+00  0.00000000E+00  0.00000000E+00
  0.00000000E+00  0.00000000E+00  0.00000000E+00
  0.00000000E+00  0.00000000E+00  0.00000000E+00