Ge Se
 1.0000000000000000
     4.2500000000000000    0.0000000000000000    0.0000000000000000
     0.0000000000000000    4.7999999999999998    0.0000000000000000
     0.0000000000000000    0.0000000000000000   11.1422209999999993
 Ge  Se 
   4   4
Selective dynamics
Cartesian
  1.0625000000000000  0.5578269006843950  1.4495142704989517   T   T   T
  3.1875000000000000  2.9578269006843949  4.1215962295010478   T   T   T
  3.1875000000000000  4.2421730993156013  9.6927067295010474   T   T   T
  1.0625000000000000  1.8421730993156045  7.0206247704989515   T   T   T
  1.0625000000000000 -0.2046084225001945  3.8934264393209297   T   T   T
  3.1875000000000000  2.1953915774998056  1.6776840606790715   T   T   T
  3.1875000000000000  5.0046084225001941  7.2487945606790714   T   T   T
  1.0625000000000000  2.6046084225001933  9.4645369393209275   T   T   T
