 C  S  O 
 1.0000000000000000
    32.3722991942999982    0.0000000000000000    0.0000000000000000
     0.0000000000000000   19.9214134216000005    0.0000000000000000
     0.0000000000000000    0.0000000000000000   40.4480476378999967
 C   S   O  
 364   1   3
Cartesian
 12.0098877410265050 10.7241733765640053  0.0998589541708008
 11.9385299201287935 10.8341871194938300  2.5458299474170074
 10.9429967921177251 11.8530178000705249  2.4721583930572852
 10.3749380001844731 12.1794180549591040  1.2113045864901955
  8.9931022852270424 12.5247851380474131  1.1375465422243158
 11.8615366478417421 10.9419224832817683  4.9915301317603644
 10.8318018269230070 11.9261085392310928  4.9172873138891484
 10.2535755090015694 12.2325106793353093  3.6562875826346337
  8.8606396858664755 12.5299312647656045  3.5817751293831637
  8.2071703133522274 12.4867634855876659  2.3214372153624376
  6.8652263654733980 12.0094331219205852  2.2479601727366210
  6.3311087319738757 11.6294498646556903  0.9879435161043796
  5.4385951588558399 10.5193861192770051  0.9147648440997270
 11.7785673629391265 11.0472197424785925  7.4369045664021929
 10.7163902919499243 11.9961639606328418  7.3620519488194116
 10.1289939104582167 12.2822252501260731  6.1008420525108304
  8.7267546589499183 12.5317449614576493  6.0258260549429679
  8.0758665255135611 12.4653270699479481  4.7653277816613553
  6.7513556495096330 11.9417288081942701  4.6918137423586410
  6.2313395555155706 11.5433066953499566  3.4316817066512577
  5.3779148312011111 10.4030048509916870  3.3583105362324637
  5.1436170700293724  9.7905377946616277  2.0986150695745849
  5.0156762669502761  8.3719684149594489  2.0252965837693657
  5.1379189882408438  7.7271783260840889  0.7656738066965205
  5.7742054320078511  6.4528702005555969  0.6927103726988774
 11.6907420671992170 11.1503643143922719  9.8817675233667703
 10.5978780342593240 12.0636835081937193  9.8063804247106958
 10.0014609028416590 12.3291456401963071  8.5450318804854977
  8.5916429206840750 12.5307828706405893  8.4697986889962955
  7.9440253331159854 12.4408686243783144  7.2091005034431692
  6.6386587635149512 11.8710905203679680  7.1357229826872031
  6.1334215578442359 11.4542748189091892  5.8755657408069242
  5.3204149388909316 10.2847495364240196  5.8021477571148212
  5.1081019324729278  9.6643858366858204  4.5422821923009149
  5.0293041833930801  8.2422181801839880  4.4691522300205273
  5.1741422378619157  7.6021138416084089  3.2093185422736412
  5.8538123917506351  6.3504119837450572  3.1362550616256590
  6.3131842948201777  5.8811641477923491  1.8767911181732388
  7.5487226667737142  5.1724639535285322  1.8034553746106528
  8.1858601897245276  5.0136625191289035  0.5437538418114138
  9.6095671625701176  5.0583235136110813  0.4709770250401967
 11.9814249501132881 10.7223111237507940 13.5872949232653717
 11.5990388582255584 11.2516560119290627 12.3260401324116362
 10.4774742582812426 12.1293970552443966 12.2503671846061390
  9.8722960629607854 12.3737149218421418 10.9890396331811910
  8.4563240265251238 12.5270513249025619 10.9138943905374681
  7.8122737536916915 12.4136089960728917  9.6531107163401320
  6.5280012500665574 11.7977158613043649  9.5798995448080593
  6.0382904301908784 11.3624110509663598  8.3197228405646104
  5.2675794833002065 10.1645952259907997  8.2463998410579045
  5.0769075826072028  9.5371537260126669  6.9863970288404724
  5.0474449016474177  8.1130922364976303  6.9134524899242980
  5.2138459312002770  7.4783743853701825  5.6533933397871516
  5.9359417985736895  6.2506106570447981  5.5800566642646228
  6.4116697884242457  5.7976259596095243  4.3205444642119284
  7.6708448162482323  5.1318275777014506  4.2474919121895551
  8.3137422687372755  4.9952789926676298  2.9879838136900814
  9.7351005860655970  5.0890608835619755  2.9156722973060165
 10.3538904693610174  5.3091533332424943  1.6557929433106349
 11.5151274138178579  6.1341322564415854  1.5826535981485035
 11.9264965860685432  6.6452933641740568  0.3220443261284833
 12.4827157181084996  7.9566615543811299  0.2490973053479020
 11.9045009166475353 10.8339995553495232 16.0303918316385214
 11.5046618420764712 11.3508826521101174 14.7696908524564794
 10.3555013759009231 12.1923121567994190 14.6943629697637625
  9.7422874357540401 12.4161044668713725 13.4330719619409891
  8.3218118799906318 12.5203348101252256 13.3584155341879818
  7.6819621051441676 12.3831194560082789 12.0975881252443269
  6.4209415310889293 11.7208759440394701 12.0245003859228863
  5.9467841691795122 11.2680077052113710 10.7643710206626828
  5.2199134073280682 10.0429678886999092 10.6912512274397322
  5.0509182777796644  9.4091630667837869  9.4310828711122134
  5.0708682897680921  7.9849088674380919  9.3581921266339840
  5.2583068049371509  7.3562429101691391  8.0979482001165426
  6.0212487880206487  6.1534083532705921  8.0242632395594988
  6.5119256676339790  5.7169465891232631  6.7645098338621130
  7.7928675380028247  5.0941180086418303  6.6917045239077400
  8.4407246370926607  4.9803736560336054  5.4323196364500888
  9.8579608602534652  5.1231402165663624  5.3602954482155782
 10.4696712757190173  5.3648771080873141  4.1008963672515089
 11.6017367343530431  6.2295366946990827  4.0284019471277102
 11.9959777471413531  6.7547774481165082  2.7680792938936225
 12.5066744399150895  8.0845448882438244  2.6955662163564758
 12.5666028477102376  8.7376990890045061  1.4345669640944068
 12.3023410802352764 10.1373976643414618  1.3608099687463979
 11.8247740731319748 10.9412960259963654 18.4727491187170720
 11.4084652901648536 11.4465360907007945 17.2126736200333639
 10.2328613568703961 12.2502375893056961 17.1384453063604880
  9.6116487057012456 12.4543956802678775 15.8774434041969403
  8.1883859572539794 12.5091926016809971 15.8035153354881626
  7.5534210455789070 12.3490515493760569 14.5425959172295567
  6.3177246059595769 11.6403892785689536 14.4695175311629320
  5.8602751534820410 11.1701005282871400 13.2093873647814846
  5.1785197490711381  9.9194331852310853 13.1364849307690115
  5.0310960630723756  9.2802050732205092 11.8761126090167402
  5.0997068933223897  7.8574316004965565 11.8031947076996140
  5.3074508240004468  7.2354460809350201 10.5426923844223506
  6.1094864113612282  6.0583130140279833 10.4687012266583981
  6.6144825379784393  5.6387010988546509  9.2087001041868266
  7.9154559085371510  5.0587780682081505  9.1360108289123119
  8.5671135612756455  4.9681015239421988  7.8766417752733870
  9.9785650469468461  5.1600233044695534  7.8048479105017501
 10.5818834018331991  5.4238740708718396  6.5458489306515784
 11.6830048313829078  6.3277037147855291  6.4741134284486437
 12.0597961284154511  6.8665086259831085  5.2141190255716934
 12.5237982793070266  8.2132793487714650  5.1418138327200742
 12.5624078016034915  8.8681120426799218  3.8809875609915041
 12.2501645464161051 10.2579124310681742  3.8069346682937169
 11.7483333853133960 11.0473748751211129 20.9173908031467981
 11.3101324414679887 11.5351933595424487 19.6571648190309816
 10.1099486236831790 12.3006256944587662 19.5834700974073712
  9.4814816099479078 12.4848594518779379 18.3224614605170579
  8.0572424405045044 12.4904833960078729 18.2492329777735911
  7.4276037324765536 12.3093971076906179 16.9882372260242995
  6.2188656957511323 11.5556619245259320 16.9149966836090115
  5.7785560354242724 11.0691491220117140 15.6547087303500838
  5.1423037739909772  9.7946480500403261 15.5819207373242588
  5.0171106880114991  9.1505770452347424 14.3214899983634751
  5.1337736685110489  7.7309089188309699 14.2484211568502097
  5.3612868876577240  7.1161589660363296 12.9877300928403034
  6.2008187164597972  5.9654031349440295 12.9135631340923087
  6.7189420052708613  5.5627660960541165 11.6532274709257138
  8.0384649065252471  5.0261648716102503 11.5805362636189724
  8.6930875507917200  4.9584528136223316 10.3211757247562357
 10.0969489475211347  5.1999159281936533 10.2493958025661165
 10.6909686983976275  5.4856112808277135  8.9906881470458124
 11.7589704670674990  6.4283848801212935  8.9196274471766461
 12.1172952637366311  6.9803675713495839  7.6600146119992880
 12.5337311218900744  8.3426553189763482  7.5877705005670970
 12.5509536532685786  8.9983985040783825  6.3271158145882866
 12.1912216848050985 10.3766213195648476  6.2528772223810130
 11.6738042430336311 11.1514575758196255 23.3600847905511095
 11.2174240020518940 11.6256740855081837 22.1019009065987682
  9.9884591360783226 12.3455277805460835 22.0288592230085385
  9.3524026016054513 12.5082432695384878 20.7688108010858201
  7.9287478313842499 12.4640583025856788 20.6957745987039416
  7.3053690586031594 12.2617703115030299 19.4345942860629606
  6.1238391367364642 11.4661930498002764 19.3609009296548749
  5.7011968133260487 10.9648163594684664 18.1002224487812562
  5.1108013153297120  9.6685369226887410 18.0273671426642146
  5.0082530083770171  9.0204750142108949 16.7668817100467002
  5.1728869552774315  7.6055983949957868 16.6936418983473658
  5.4200039948230279  6.9985076442831256 15.4329349278787618
  6.2956913467773949  5.8750176478562199 15.3588822431861285
  6.8261425180992212  5.4894339752739771 14.0981205632266224
  8.1625762092454224  4.9966993104135184 14.0252988936538614
  8.8190705266515685  4.9519263149033215 12.7658458255742300
 10.2134998334739375  5.2430562266240059 12.6939707650888494
 10.7968123574529145  5.5506326045169914 11.4354144371423860
 11.8295031303842606  6.5318957205759691 11.3647060862940350
 12.1686614599035785  7.0963454924445220 10.1055494467204046
 12.5366639221547196  8.4724489624044583 10.0331692420761343
 12.5324420445483735  9.1283122333850617  8.7727430179410035
 12.1262449406129456 10.4935151233102193  8.6983825230297800
 11.5962685200074347 11.2496038931648368 25.8034518407656961
 11.1220853250782721 11.7079065443258141 24.5452883344790891
  9.8673995015237210 12.3824090537520686 24.4735934167291802
  9.2246514673546542 12.5246014060499213 23.2141945994065040
  7.8033830786376557 12.4299778550886462 23.1415428928392437
  7.1857437694136266 12.2084692543243385 21.8809307749463926
  6.0323938614011690 11.3724081443061618 21.8068739861596939
  5.6273070497127522 10.8571272479903165 20.5459999745246904
  5.0818819406262401  9.5412692738132865 20.4728604290634664
  5.0029065966495434  8.8901994358098140 19.2122746852441750
  5.2149318804856275  7.4816442267657370 19.1388631869486581
  5.4827823605525170  6.8830799350851883 17.8782908555390279
  6.3943334293875393  5.7885355033109605 17.8046790425243984
  6.9362191155467476  5.4195397372541896 16.5436394475827839
  8.2882406944982048  4.9709090778221539 16.4705157359105456
  8.9453911207825207  4.9489241839397167 15.2107665006855157
 10.3285514291520073  5.2899906021531065 15.1386321263834454
 10.9001574184009780  5.6189024417192774 13.8799755636658109
 11.8958695820913256  6.6377287943172787 13.8092137426198853
 12.2141067991222485  7.2144526508089246 12.5504553343373377
 12.5331122175345513  8.6026225866863104 12.4777710748769817
 12.5072177630415169  9.2579062824040044 11.2176595725879000
 12.0559775338681359 10.6087910038717581 11.1432266945597505
 11.5163557643722267 11.3448254989308062 28.2476211317404982
 11.0249714536530394 11.7847848032016049 26.9892575783909408
  9.7463851518986502 12.4127563922052691 26.9182894769695054
  9.0983575995490558 12.5323369314518249 25.6592891410279584
  7.6811101472491909 12.3886121946457948 25.5869179006438969
  7.0704725019668162 12.1475078710122109 24.3266004812150562
  5.9447951772445897 11.2745034628906691 24.2525551545015539
  5.5564318310934473 10.7466467169039976 22.9915607401996169
  5.0553358903205821  9.4133313806431111 22.9182122162707813
  4.9993355412036973  8.7598552578228208 21.6576698080542833
  5.2596845736961830  7.3594672893799551 21.5841900876689081
  5.5482468805599892  6.7701353705506300 20.3238336342748092
  6.4965044447115980  5.7070031991494474 20.2507947761426976
  7.0499276375919306  5.3553065769342147 18.9898286016691173
  8.4162644332021124  4.9520868840887200 18.9165077590547384
  9.0726699335402028  4.9509798111831094 17.6559525388419623
 10.4424322559994813  5.3416630878772446 17.5832040006645762
 11.0011703930739682  5.6907282044335039 16.3244179563096026
 11.9586167119477267  6.7459882696849753 16.2530845394336581
 12.2552857319874260  7.3342143474995201 14.9944248371403042
 12.5241384463281928  8.7327222924344987 14.9211861785300552
 12.4764894606159888  9.3868857310272116 13.6615824898537035
 11.4327123748762904 11.4376023386923222 30.6923914635984652
 10.9258013147220208 11.8587549847435376 29.4336619125533083
  9.6250371342552459 12.4395362627990913 29.3628781137654720
  8.9728711423938989 12.5353704252417639 28.1040365180008180
  7.5614535958156042 12.3432135259538054 28.0316883377687631
  6.9584350542632656 12.0818979729039295 26.7718261068790504
  5.8616616948030513 11.1730559074124169 26.6980232927030272
  5.4898247375652129 10.6332649854462460 25.4370900932867414
  5.0323016848104807  9.2843606734019541 25.3635626716415423
  4.9986789467221850  8.6294412977515886 24.1029820712830727
  5.3074003526378322  7.2388763667172835 24.0295539004695122
  5.6170884856292256  6.6600662942147864 22.7693530892561320
  6.6024761220934689  5.6314236794378942 22.6967951522919975
  7.1673722966068452  5.2981251800018816 21.4360547491004354
  8.5469484886179661  4.9430943171492574 21.3624939758152408
  9.2017645130620291  4.9610645602347159 20.1016407430522825
 10.5573210596985980  5.3993853413647610 20.0281399264456716
 11.1005646985028239  5.7675862040009074 18.7686668586702865
 12.0165039793308779  6.8582478185260145 18.6964341916473487
 12.2910821398433487  7.4560504784541859 17.4371029294434017
 12.5098799765144015  8.8626934495472689 17.3623243550891715
 12.4407531928124957  9.5149806332233453 16.1040493068309694
 11.3441839672663267 11.5273194330495379 33.1375856614726203
 10.8231688973410627 11.9298406910080104 31.8783648642717559
  9.5023942358312521 12.4633636894512652 31.8073625051263562
  8.8475195123094839 12.5353519669012261 30.5485064456510678
  7.4435706359279283 12.2947401215738257 30.4761018914298596
  6.8495903709912129 12.0130149175615895 29.2165746754530176
  5.7827601924549299 11.0692078102830891 29.1431804086715438
  5.4278323519226044 10.5176264427835449 27.8825315399162079
  5.0142028573836068  9.1546246900254875 27.8088722800986226
  5.0020628553412951  8.4989899875068957 26.5483415528495321
  5.3594080664776698  7.1201551240088472 26.4749646253188402
  5.6895229791880979  6.5528578522678842 25.2147967178585404
  6.7121953112754200  5.5612438801994051 25.1424306447860815
  7.2882783612302520  5.2480383110177611 23.8820053717966374
  8.6798256620904155  4.9435192444692886 23.8081261480065400
  9.3328130406983707  4.9830676329006778 22.5471382040246944
 10.6720068019898751  5.4679004311974317 22.4728140128021607
 11.2011265723341502  5.8512454837808683 21.2117126495104742
 12.0787319196335581  6.9726545399081248 21.1377183992372082
 12.3272800541650458  7.5768390758307937 19.8794238566961958
 12.5150545547602885  8.9936377176437059 19.8058603494260446
 12.4035304813575991  9.6423472785400381 18.5439788507300776
 11.2510808800203748 11.6141194384757043 35.5831699357102309
 10.7171398042056705 11.9978678265353249 34.3233747121519102
  9.3782988562849123 12.4843179901131265 34.2519071937781661
  8.7218075704804505 12.5325414539259761 32.9928333683837423
  7.3269667900085507 12.2436873014286558 32.9202209533093679
  6.7429171842116551 11.9414984430921720 31.6608953721549291
  5.7075784828453306 10.9632151264289242 31.5878873498770503
  5.3705949084059910 10.4001867386628959 30.3276064097537166
  5.0021963208694658  9.0242973293276698 30.2539523260211567
  5.0113498211061875  8.3686786343661819 28.9935435559532948
  5.4170980334910093  7.0032916331887325 28.9202830492351026
  5.7669309095385266  6.4484991983721143 27.6600247173404341
  6.8258846690075323  5.4957423063455559 27.5874691184606924
  7.4126883321648105  5.2041667299799785 26.3271744025889731
  8.8141914568339015  4.9506634744539175 26.2529110639816636
  9.4646521872635905  5.0126317300935304 24.9917587703743038
 10.7868100975156533  5.5422046850261886 24.9167993420820011
 11.3025893276826164  5.9418361698584681 23.6554645238260015
 12.1456950503522609  7.0901800665161074 23.5805676940724815
 12.3699992626541579  7.7047040657797270 22.3211902249626455
 12.4925169726594749  9.1232042866563194 22.2493968758373626
 12.3712766508889072  9.7690819167921408 20.9918265648582043
 11.1529638705426315 11.6972816370433161 38.0289035610545838
 10.6069137424272597 12.0622687894533396 36.7686600793805383
  9.2520192922922142 12.5019323056915166 36.6964752954640900
  8.5950416489457968 12.5268730024675516 35.4370422146860946
  7.2110865152441050 12.1900940579405965 35.3641770083631215
  6.6382008300023134 11.8676733629672864 34.1048544586413556
  5.6361779928217937 10.8553057694524693 34.0320904339391888
  5.3178560289884134 10.2810897551108802 32.7722575351173546
  4.9959232884529214  8.8935844799980153 32.6985724285514792
  5.0268253371449161  8.2385625741119544 31.4383906990886146
  5.4802588907657483  6.8882798348499232 31.3652712110155676
  5.8492995048589904  6.3466566546260053 30.1049299173185503
  6.9424254049989020  5.4334703189088156 30.0319124679646947
  7.5394247997698001  5.1643280517143912 28.7716490018333992
  8.9492149141447541  4.9615538780056943 28.6971539294877402
  9.5969034294952067  5.0467424349994916 27.4360699458528146
 10.9008751295038167  5.6196213468263814 27.3609509929418770
 11.4026708616364960  6.0363010024177095 26.0993479453735304
 12.2090876768584220  7.2102865692767626 26.0239108807238217
 12.4140625422337916  7.8314105895452286 24.7634513668667360
 12.4899508242312205  9.2534281853635676 24.6904993141848976
 12.3422738642694743  9.8940920106796035 23.4321043592063560
 11.0501697206973937 11.7767945925204920  0.0266267819304744
 10.4929014610095273 12.1229063962503325 39.2140572878730822
  9.1236845274811973 12.5156296700142597 39.1410622115237246
  8.4670678232514476 12.5178109393186183 37.8812921688796749
  7.0954858498439943 12.1336124483672450 37.8081420994567665
  6.5347679537098182 11.7913810027830195 36.5486614956003351
  5.5679803302184361 10.7453637546385359 36.4759215477142007
  5.2696872822187233 10.1605182263283105 35.2163545168983845
  4.9952528421671065  8.7629323854481065 35.1426832348680236
  5.0482036140578064  8.1091685947253715 33.8828138375982704
  5.5485455203559955  6.7756479465869086 33.8097489085763314
  5.9362305138815223  6.2474226390833527 32.5494981139777337
  7.0617100588544179  5.3744097118540548 32.4760808892812136
  7.6678753467816447  5.1276993877483301 31.2157437953143528
  9.0839449032921706  4.9750195711067455 31.1412776351680520
  9.7282249522660980  5.0837415574360545 29.8801984101365541
 11.0124793766227569  5.6993850627453897 29.8050679741091464
 11.5007661680494575  6.1325814855035805 28.5435451054169214
 12.2692631540529078  7.3317222093102812 28.4679604571557014
 12.4544025945093804  7.9590801889161122 27.2070890315566132
 12.4824633467487498  9.3831380279688315 27.1340475451871015
 12.3121020917896118 10.0180176980039679 25.8749245057580417
  8.3378205745321452 12.5043973212842712 40.3254590234212031
  6.9802959033405463 12.0732783886748631 40.2521116625158015
  6.4325100141131388 11.7120354706145893 38.9923502802697186
  5.5022627668277861 10.6334068251150402 38.9194339904022044
  5.2248723815629754 10.0385481828854708 37.6599884475288746
  4.9988417409930808  8.6323454272281932 37.5863920396856912
  5.0747516972908935  7.9808259775960630 36.3267074345052166
  5.6211704125271709  6.6655323701586324 36.2537421820501677
  6.0272762549737324  6.1513334266383621 34.9936775988974986
  7.1826944217453637  5.3184917065195023 34.9199655362682506
  7.7975960243834654  5.0940706881999800 33.6596352318064405
  9.2180962340279251  4.9909123726558642 33.5854376004378423
  9.8584023671009877  5.1226407697057894 32.3243966143901247
 11.1213952239761866  5.7809310661824611 32.2495029533901629
 11.5953376010419209  6.2306240489067983 30.9881362152132986
 12.3241930919693488  7.4543569041598854 30.9128201913945801
 12.4892797347354740  8.0876861253946490 29.6517840047739369
 12.4692020357665978  9.5120150698321275 29.5788470616913841
 12.2772402511749128 10.1405323198418191 28.3191428018334364
  5.1829346053107788  9.9151753666944575 40.1033067208039924
  5.0057191820346301  8.5019431137619446 40.0298119156445011
  5.1048514832973373  7.8533231418277509 38.7702388037746246
  5.6965228661501452  6.5577619493573023 38.6973290187879471
  6.1208532848627177  6.0579389505645818 37.4375015117412104
  7.3045613069973463  5.2657137226059154 37.3637243075968755
  7.9274678245231858  5.0632536993811348 36.1035613685482062
  9.3507700406178529  5.0095492807451292 36.0297746421531713
  9.9866214126959214  5.1639620639785608 34.7688922389752904
 11.2266275337764547  5.8648182248867355 34.6943550443344364
 11.6857101763411695  6.3307807025386715 33.4331219020458050
 12.3732329230010762  7.5782672170360446 33.3583452930069768
 12.5179738652739836  8.2169788156272556 32.0971876040041408
 12.4491776300603103  9.6398091677686857 32.0242489354786173
 12.2365710942731596 10.2615275467516440 30.7642564676090622
  6.2163994422045352  5.9679827692647249 39.8812044137422816
  7.4267419562985815  5.2170639791419529 39.8075827593491525
  8.0570063562356200  5.0362252275314674 38.5476251463107431
  9.4814045812724945  5.0317706260569679 38.4743733167334838
 10.1121860328643400  5.2086255177901668 37.2137485952046205
 11.3273613026662883  5.9517327709181425 37.1395611951575262
 11.7711122793083458  6.4332334074622981 35.8785133710930992
 12.4157480875020898  7.7034127603265992 35.8043702272747808
 12.5398107257082021  8.3468493529160916 34.5431386548907255
 12.4219748385255251  9.7664534085204817 34.4701565099759932
 12.1891121981687931 10.3803704202236702 33.2098065652244543
 10.2349576209836393  5.2566427456262437 39.6587735844666369
 11.4238987551657161  6.0412595605866262 39.5850462113925090
 11.8514717253777810  6.5380427844824025 38.3242181199636534
 12.4524131362382633  7.8294809732617923 38.2506946620829709
 12.5551464337922951  8.4769795907081225 36.9894820293610849
 12.3885421161717364  9.8917173177867213 36.9163031217371440
 12.1355135893245016 10.4973933098054228 35.6557417007093918
 12.5641621207188070  8.6072859503083663 39.4360115161058644
 12.3485607901314740 10.0153566266877601 39.3625499847461882
 12.0757465034041100 10.6120059449834674 38.1018231825072462
 15.5396363224537044  9.0716972310127293 19.8157745108396632
 15.5629052497379678  7.6344885217573673 19.8126830743400362
 15.5898670762542437  9.7862851444660066 21.0618363900798506
 15.5964424281732850  9.7923533064435944 18.5735148235086598
