Ge Se
 1.0000000000000000
     3.8000000000000003    0.0000000000000000    0.0000000000000000
     0.0000000000000000    3.8500000000000010    0.0000000000000000
     0.0000000000000000    0.0000000000000000   11.1422210000000010
 Ge  Se 
   4   4
Selective dynamics
Cartesian
  0.9500000000000001  0.2695795195281959  1.3307688727994347   T   T   T
  2.8500000000000001  2.1945795195281965  4.2403416272005670   T   T   T
  2.8500000000000001  3.5804204804718056  9.8114521272005639   T   T   T
  0.9500000000000001  1.6554204804718049  6.9018793727994341   T   T   T
  0.9500000000000001  0.0963865936452597  3.9498548058637999   T   T   T
  2.8500000000000001  2.0213865936452606  1.6212556941362020   T   T   T
  2.8500000000000001  3.7536134063547415  7.1923661941362020   T   T   T
  0.9500000000000001  1.8286134063547408  9.5209653058637898   T   T   T
