
     Program PWSCF v.7.2 starts on  1Jun2024 at 17:40:11 

     This program is part of the open-source Quantum ESPRESSO suite
     for quantum simulation of materials; please cite
         "P. Giannozzi et al., J. Phys.:Condens. Matter 21 395502 (2009);
         "P. Giannozzi et al., J. Phys.:Condens. Matter 29 465901 (2017);
         "P. Giannozzi et al., J. Chem. Phys. 152 154105 (2020);
          URL http://www.quantum-espresso.org", 
     in publications or presentations arising from this work. More details at
     http://www.quantum-espresso.org/quote

     Parallel version (MPI & OpenMP), running on    6144 processor cores
     Number of MPI processes:              1536
     Threads/MPI process:                     4

     MPI processes distributed on    24 nodes
     482500 MiB available memory on the printing compute node when the environment starts

     Reading input from espresso.pwi
Warning: card &IONS ignored
Warning: card / ignored
Warning: card &CELL ignored
Warning: card / ignored

     Current dimensions of program PWSCF are:
     Max number of different atomic species (ntypx) = 10
     Max number of k-points (npk) =  40000
     Max angular momentum in pseudopotentials (lmaxx) =  4

     Atomic positions and unit cell read from directory:
     ./CNT_PBE.save/
     Atomic positions from file used, from input discarded


     K-points division:     npool     =       2
     R & G space division:  proc/nbgrp/npool/nimage =     768
     WARNING: too many processors for an effective parallelization!
     wavefunctions fft division:  task group distribution
                                  #TG    x Z-proc =      12     64
     Subspace diagonalization in iterative solution of the eigenvalue problem:
     one sub-group per band group will be used
     custom distributed-memory algorithm (size of sub-group:  9*  9 procs)


     Parallelization info
     --------------------
     sticks:   dense  smooth     PW     G-vecs:    dense   smooth      PW
     Min          57      57     14                14383    14383    1818
     Max          58      58     15                14402    14402    1843
     Sum       43977   43977  11115             11053081 11053081 1403735

     Using Pencil Decomposition



     bravais-lattice index     =            0
     lattice parameter (alat)  =      61.1748  a.u.
     unit-cell volume          =  176044.1909 (a.u.)^3
     number of atoms/cell      =          365
     number of atomic types    =            2
     number of electrons       =      1462.00
     number of Kohn-Sham states=          896
     kinetic-energy cutoff     =      60.0000  Ry
     charge density cutoff     =     240.0000  Ry
     Exchange-correlation= PBE
                           (   1   4   3   4   0   0   0)

     celldm(1)=  61.174780  celldm(2)=   0.000000  celldm(3)=   0.000000
     celldm(4)=   0.000000  celldm(5)=   0.000000  celldm(6)=   0.000000

     crystal axes: (cart. coord. in units of alat)
               a(1) = (   1.000000   0.000000   0.000000 )  
               a(2) = (   0.000000   0.615409   0.000000 )  
               a(3) = (   0.000000   0.000000   1.249513 )  

     reciprocal axes: (cart. coord. in units 2 pi/alat)
               b(1) = (  1.000000  0.000000  0.000000 )  
               b(2) = (  0.000000  1.624937  0.000000 )  
               b(3) = (  0.000000  0.000000  0.800312 )  


     PseudoPot. # 1 for C  read from file:
     ./C_ONCV_PBE-1.2.upf
     MD5 check sum: 1a5f83a7b1f58d24996abe00ed223ac6
     Pseudo is Norm-conserving, Zval =  4.0
     Generated using ONCVPSP code by D. R. Hamann
     Using radial grid of  602 points,  4 beta functions with: 
                l(1) =   0
                l(2) =   0
                l(3) =   1
                l(4) =   1

     PseudoPot. # 2 for Se read from file:
     ./Se_ONCV_PBE-1.2.upf
     MD5 check sum: e78e48a4f5d8ce1f8dc76ec1271f249c
     Pseudo is Norm-conserving, Zval =  6.0
     Generated using ONCVPSP code by D. R. Hamann
     Using radial grid of  602 points,  6 beta functions with: 
                l(1) =   0
                l(2) =   0
                l(3) =   1
                l(4) =   1
                l(5) =   2
                l(6) =   2

     atomic species   valence    mass     pseudopotential
        C              4.00    12.01100     C ( 1.00)
        Se             6.00    78.96000     Se( 1.00)

     No symmetry found


                                    s                        frac. trans.

      isym =  1     identity                                     

 cryst.   s( 1) = (     1          0          0      )
                  (     0          1          0      )
                  (     0          0          1      )

 cart.    s( 1) = (  1.0000000  0.0000000  0.0000000 )
                  (  0.0000000  1.0000000  0.0000000 )
                  (  0.0000000  0.0000000  1.0000000 )


   Cartesian axes

     site n.     atom                  positions (alat units)
         1           C   tau(   1) = (   0.3709674   0.3312861   0.0030677  )
         2           C   tau(   2) = (   0.3687916   0.3346859   0.0785815  )
         3           C   tau(   3) = (   0.3380511   0.3661709   0.0763205  )
         4           C   tau(   4) = (   0.3204902   0.3762662   0.0373925  )
         5           C   tau(   5) = (   0.2778085   0.3869502   0.0351224  )
         6           C   tau(   6) = (   0.3664736   0.3380178   0.1540889  )
         7           C   tau(   7) = (   0.3346638   0.3684191   0.1518235  )
         8           C   tau(   8) = (   0.3167735   0.3778963   0.1128952  )
         9           C   tau(   9) = (   0.2737464   0.3870941   0.1106151  )
        10           C   tau(  10) = (   0.2535408   0.3857706   0.0716953  )
        11           C   tau(  11) = (   0.2120893   0.3710174   0.0694330  )
        12           C   tau(  12) = (   0.1955852   0.3592753   0.0305108  )
        13           C   tau(  13) = (   0.1680334   0.3249688   0.0282515  )
        14           C   tau(  14) = (   0.3640036   0.3412890   0.2295879  )
        15           C   tau(  15) = (   0.3311740   0.3705826   0.2273190  )
        16           C   tau(  16) = (   0.3129824   0.3794154   0.1883908  )
        17           C   tau(  17) = (   0.2696637   0.3871204   0.1861073  )
        18           C   tau(  18) = (   0.2495270   0.3850840   0.1471845  )
        19           C   tau(  19) = (   0.2086129   0.3689094   0.1449275  )
        20           C   tau(  20) = (   0.1925298   0.3566063   0.1060044  )
        21           C   tau(  21) = (   0.1661789   0.3213721   0.1037407  )
        22           C   tau(  22) = (   0.1589380   0.3024500   0.0648275  )
        23           C   tau(  23) = (   0.1549926   0.2586275   0.0625644  )
        24           C   tau(  24) = (   0.1587592   0.2387095   0.0236496  )
        25           C   tau(  25) = (   0.1783988   0.1993356   0.0213978  )
        26           C   tau(  26) = (   0.3614212   0.3445216   0.3050823  )
        27           C   tau(  27) = (   0.3276129   0.3726919   0.3028167  )
        28           C   tau(  28) = (   0.3091226   0.3808525   0.2638813  )
        29           C   tau(  29) = (   0.2655697   0.3870478   0.2616009  )
        30           C   tau(  30) = (   0.2455204   0.3842918   0.2226731  )
        31           C   tau(  31) = (   0.2051923   0.3667063   0.2204249  )
        32           C   tau(  32) = (   0.1895496   0.3538457   0.1815031  )
        33           C   tau(  33) = (   0.1644317   0.3177209   0.1792376  )
        34           C   tau(  34) = (   0.1578626   0.2985545   0.1403192  )
        35           C   tau(  35) = (   0.1554338   0.2546238   0.1380612  )
        36           C   tau(  36) = (   0.1598936   0.2348474   0.0991439  )
        37           C   tau(  37) = (   0.1808775   0.1961727   0.0968890  )
        38           C   tau(  38) = (   0.1950459   0.1816676   0.0579786  )
        39           C   tau(  39) = (   0.2332014   0.1597544   0.0557112  )
        40           C   tau(  40) = (   0.2528698   0.1548355   0.0167936  )
        41           C   tau(  41) = (   0.2968492   0.1562102   0.0145415  )
        42           C   tau(  42) = (   0.3706924   0.3313775   0.4194920  )
        43           C   tau(  43) = (   0.3587352   0.3476926   0.3805739  )
        44           C   tau(  44) = (   0.3240039   0.3747017   0.3783302  )
        45           C   tau(  45) = (   0.3052348   0.3822225   0.3393778  )
        46           C   tau(  46) = (   0.2614910   0.3868911   0.3371069  )
        47           C   tau(  47) = (   0.2415439   0.3834063   0.2981779  )
        48           C   tau(  48) = (   0.2018572   0.3644093   0.2959334  )
        49           C   tau(  49) = (   0.1866744   0.3509915   0.2570102  )
        50           C   tau(  50) = (   0.1628376   0.3140122   0.2547443  )
        51           C   tau(  51) = (   0.1569212   0.2946309   0.2158224  )
        52           C   tau(  52) = (   0.1560129   0.2506406   0.2135685  )
        53           C   tau(  53) = (   0.1611460   0.2310310   0.1746482  )
        54           C   tau(  54) = (   0.1834534   0.1931049   0.1723850  )
        55           C   tau(  55) = (   0.1981230   0.1790992   0.1334731  )
        56           C   tau(  56) = (   0.2370144   0.1585213   0.1312118  )
        57           C   tau(  57) = (   0.2568474   0.1542805   0.0922973  )
        58           C   tau(  58) = (   0.3007556   0.1571738   0.0900500  )
        59           C   tau(  59) = (   0.3198522   0.1639668   0.0511295  )
        60           C   tau(  60) = (   0.3557115   0.1894656   0.0488582  )
        61           C   tau(  61) = (   0.3684036   0.2052632   0.0099307  )
        62           C   tau(  62) = (   0.3855665   0.2457784   0.0076751  )
        63           C   tau(  63) = (   0.3683361   0.3344310   0.4949707  )
        64           C   tau(  64) = (   0.3559081   0.3505770   0.4560626  )
        65           C   tau(  65) = (   0.3203157   0.3764007   0.4538623  )
        66           C   tau(  66) = (   0.3013282   0.3834380   0.4149142  )
        67           C   tau(  67) = (   0.2574370   0.3866060   0.4126498  )
        68           C   tau(  68) = (   0.2376235   0.3824088   0.3737037  )
        69           C   tau(  69) = (   0.1986505   0.3619971   0.3714518  )
        70           C   tau(  70) = (   0.1839264   0.3480554   0.3325278  )
        71           C   tau(  71) = (   0.1614064   0.3102550   0.3302633  )
        72           C   tau(  72) = (   0.1561455   0.2906809   0.2913407  )
        73           C   tau(  73) = (   0.1567569   0.2466853   0.2890870  )
        74           C   tau(  74) = (   0.1625484   0.2272654   0.2501587  )
        75           C   tau(  75) = (   0.1861377   0.1901280   0.2478842  )
        76           C   tau(  76) = (   0.2012700   0.1766343   0.2089716  )
        77           C   tau(  77) = (   0.2408451   0.1573995   0.2067162  )
        78           C   tau(  78) = (   0.2608236   0.1538607   0.1678026  )
        79           C   tau(  79) = (   0.3046025   0.1582646   0.1655547  )
        80           C   tau(  80) = (   0.3234713   0.1657097   0.1266401  )
        81           C   tau(  81) = (   0.3584362   0.1924243   0.1243758  )
        82           C   tau(  82) = (   0.3705829   0.2086496   0.0854503  )
        83           C   tau(  83) = (   0.3863435   0.2497324   0.0831996  )
        84           C   tau(  84) = (   0.3881661   0.2699141   0.0442687  )
        85           C   tau(  85) = (   0.3800070   0.3131507   0.0419941  )
        86           C   tau(  86) = (   0.3660946   0.3367459   0.5704571  )
        87           C   tau(  87) = (   0.3528034   0.3526340   0.5316271  )
        88           C   tau(  88) = (   0.3165015   0.3774372   0.5294336  )
        89           C   tau(  89) = (   0.2973601   0.3841970   0.4904885  )
        90           C   tau(  90) = (   0.2534147   0.3860293   0.4882136  )
        91           C   tau(  91) = (   0.2337402   0.3812674   0.4492403  )
        92           C   tau(  92) = (   0.1955155   0.3594775   0.4469757  )
        93           C   tau(  93) = (   0.1813192   0.3450075   0.4080527  )
        94           C   tau(  94) = (   0.1601561   0.3064308   0.4057892  )
        95           C   tau(  95) = (   0.1555629   0.2866914   0.3668579  )
        96           C   tau(  96) = (   0.1576665   0.2427481   0.3646010  )
        97           C   tau(  97) = (   0.1640884   0.2235365   0.3256708  )
        98           C   tau(  98) = (   0.1889121   0.1872070   0.3233898  )
        99           C   tau(  99) = (   0.2045030   0.1742541   0.2844740  )
       100           C   tau( 100) = (   0.2446993   0.1563643   0.2822214  )
       101           C   tau( 101) = (   0.2647932   0.1535365   0.2433037  )
       102           C   tau( 102) = (   0.3083929   0.1594545   0.2410530  )
       103           C   tau( 103) = (   0.3270004   0.1675697   0.2021498  )
       104           C   tau( 104) = (   0.3610246   0.1954814   0.1998939  )
       105           C   tau( 105) = (   0.3726241   0.2121153   0.1609708  )
       106           C   tau( 106) = (   0.3869521   0.2537186   0.1587190  )
       107           C   tau( 107) = (   0.3880967   0.2739485   0.1197892  )
       108           C   tau( 108) = (   0.3784479   0.3168789   0.1175086  )
       109           C   tau( 109) = (   0.3636219   0.3398082   0.6463095  )
       110           C   tau( 110) = (   0.3499454   0.3548395   0.6072282  )
       111           C   tau( 111) = (   0.3128670   0.3781781   0.6049560  )
       112           C   tau( 112) = (   0.2933890   0.3844291   0.5660214  )
       113           C   tau( 113) = (   0.2494463   0.3851148   0.5637553  )
       114           C   tau( 114) = (   0.2299099   0.3798624   0.5247983  )
       115           C   tau( 115) = (   0.1924279   0.3568140   0.5225177  )
       116           C   tau( 116) = (   0.1787861   0.3418604   0.4835705  )
       117           C   tau( 117) = (   0.1590029   0.3025743   0.4813082  )
       118           C   tau( 118) = (   0.1551086   0.2826824   0.4423752  )
       119           C   tau( 119) = (   0.1586802   0.2388289   0.4401152  )
       120           C   tau( 120) = (   0.1657620   0.2198462   0.4011911  )
       121           C   tau( 121) = (   0.1917679   0.1843543   0.3989122  )
       122           C   tau( 122) = (   0.2077934   0.1719421   0.3599803  )
       123           C   tau( 123) = (   0.2485641   0.1554172   0.3577287  )
       124           C   tau( 124) = (   0.2687486   0.1532849   0.3188195  )
       125           C   tau( 125) = (   0.3121267   0.1607348   0.3165601  )
       126           C   tau( 126) = (   0.3304391   0.1695307   0.2776573  )
       127           C   tau( 127) = (   0.3634472   0.1986311   0.2754029  )
       128           C   tau( 128) = (   0.3744915   0.2156582   0.2364867  )
       129           C   tau( 129) = (   0.3873672   0.2577383   0.2342297  )
       130           C   tau( 130) = (   0.3878425   0.2779878   0.1953055  )
       131           C   tau( 131) = (   0.3767126   0.3205613   0.1930232  )
       132           C   tau( 132) = (   0.3611377   0.3440826   0.7217329  )
       133           C   tau( 133) = (   0.3468325   0.3579269   0.6827852  )
       134           C   tau( 134) = (   0.3089584   0.3802284   0.6804532  )
       135           C   tau( 135) = (   0.2893909   0.3850656   0.6415441  )
       136           C   tau( 136) = (   0.2454897   0.3842600   0.6392855  )
       137           C   tau( 137) = (   0.2261180   0.3782095   0.6003343  )
       138           C   tau( 138) = (   0.1894794   0.3540081   0.5980555  )
       139           C   tau( 139) = (   0.1763118   0.3386274   0.5590933  )
       140           C   tau( 140) = (   0.1579116   0.2986799   0.5568390  )
       141           C   tau( 141) = (   0.1547330   0.2786642   0.5179073  )
       142           C   tau( 142) = (   0.1597802   0.2349604   0.5156429  )
       143           C   tau( 143) = (   0.1675210   0.2162095   0.4767084  )
       144           C   tau( 144) = (   0.1946983   0.1816205   0.4744354  )
       145           C   tau( 145) = (   0.2111370   0.1697316   0.4355114  )
       146           C   tau( 146) = (   0.2524809   0.1546536   0.4332649  )
       147           C   tau( 147) = (   0.2727167   0.1531929   0.3943550  )
       148           C   tau( 148) = (   0.3157967   0.1621603   0.3920754  )
       149           C   tau( 149) = (   0.3337855   0.1715856   0.3531548  )
       150           C   tau( 150) = (   0.3657098   0.2018755   0.3508833  )
       151           C   tau( 151) = (   0.3761653   0.2192791   0.3119922  )
       152           C   tau( 152) = (   0.3875651   0.2617926   0.3097245  )
       153           C   tau( 153) = (   0.3873790   0.2820362   0.2708040  )
       154           C   tau( 154) = (   0.3748170   0.3242050   0.2685277  )
       155           C   tau( 155) = (   0.3587512   0.3476308   0.7972257  )
       156           C   tau( 156) = (   0.3440455   0.3614933   0.7583138  )
       157           C   tau( 157) = (   0.3052416   0.3821537   0.7560041  )
       158           C   tau( 158) = (   0.2854245   0.3862786   0.7170530  )
       159           C   tau( 159) = (   0.2415176   0.3835840   0.7148125  )
       160           C   tau( 160) = (   0.2224173   0.3767474   0.6759057  )
       161           C   tau( 161) = (   0.1866190   0.3511693   0.6736284  )
       162           C   tau( 162) = (   0.1740131   0.3352792   0.6346946  )
       163           C   tau( 163) = (   0.1570211   0.2947534   0.6324301  )
       164           C   tau( 164) = (   0.1545134   0.2746397   0.5934529  )
       165           C   tau( 165) = (   0.1610308   0.2311810   0.5911773  )
       166           C   tau( 166) = (   0.1693547   0.2126813   0.5522475  )
       167           C   tau( 167) = (   0.1977761   0.1790973   0.5499828  )
       168           C   tau( 168) = (   0.2146083   0.1677712   0.5110737  )
       169           C   tau( 169) = (   0.2565039   0.1543649   0.5088327  )
       170           C   tau( 170) = (   0.2767278   0.1534824   0.4698876  )
       171           C   tau( 171) = (   0.3194153   0.1639860   0.4675718  )
       172           C   tau( 172) = (   0.3370744   0.1738003   0.4286591  )
       173           C   tau( 173) = (   0.3679198   0.2052295   0.4263468  )
       174           C   tau( 174) = (   0.3776706   0.2229983   0.3874469  )
       175           C   tau( 175) = (   0.3875894   0.2658538   0.3851643  )
       176           C   tau( 176) = (   0.3867316   0.2860919   0.3462636  )
       177           C   tau( 177) = (   0.3728009   0.3278303   0.3440118  )
       178           C   tau( 178) = (   0.3561183   0.3505654   0.8727292  )
       179           C   tau( 179) = (   0.3409872   0.3641276   0.8338118  )
       180           C   tau( 180) = (   0.3014283   0.3834023   0.8315448  )
       181           C   tau( 181) = (   0.2814553   0.3869675   0.7926299  )
       182           C   tau( 182) = (   0.2376719   0.3825184   0.7903749  )
       183           C   tau( 183) = (   0.2188160   0.3750423   0.7514507  )
       184           C   tau( 184) = (   0.1839712   0.3481922   0.7491730  )
       185           C   tau( 185) = (   0.1718633   0.3319226   0.7102329  )
       186           C   tau( 186) = (   0.1562342   0.2908002   0.7079750  )
       187           C   tau( 187) = (   0.1544023   0.2706195   0.6690453  )
       188           C   tau( 188) = (   0.1624326   0.2273770   0.6667776  )
       189           C   tau( 189) = (   0.1714272   0.2092339   0.6278183  )
       190           C   tau( 190) = (   0.2010091   0.1767860   0.6255555  )
       191           C   tau( 191) = (   0.2182949   0.1661527   0.5866033  )
       192           C   tau( 192) = (   0.2606476   0.1545765   0.5843379  )
       193           C   tau( 193) = (   0.2808005   0.1544549   0.5454309  )
       194           C   tau( 194) = (   0.3229863   0.1667749   0.5431007  )
       195           C   tau( 195) = (   0.3402564   0.1766763   0.5041522  )
       196           C   tau( 196) = (   0.3702074   0.2088257   0.5017792  )
       197           C   tau( 197) = (   0.3792645   0.2267545   0.4627890  )
       198           C   tau( 198) = (   0.3877122   0.2698719   0.4604948  )
       199           C   tau( 199) = (   0.3860340   0.2901065   0.4216989  )
       200           C   tau( 200) = (   0.3533948   0.3533731   0.9482250  )
       201           C   tau( 201) = (   0.3377911   0.3663965   0.9093255  )
       202           C   tau( 202) = (   0.2975710   0.3842724   0.9070810  )
       203           C   tau( 203) = (   0.2774745   0.3871720   0.8681723  )
       204           C   tau( 204) = (   0.2338929   0.3811873   0.8659067  )
       205           C   tau( 205) = (   0.2153040   0.3731016   0.8269742  )
       206           C   tau( 206) = (   0.1813744   0.3450903   0.8246992  )
       207           C   tau( 207) = (   0.1698473   0.3284353   0.7857667  )
       208           C   tau( 208) = (   0.1556049   0.2868077   0.7835044  )
       209           C   tau( 209) = (   0.1544980   0.2665722   0.7445732  )
       210           C   tau( 210) = (   0.1640341   0.2236337   0.7422994  )
       211           C   tau( 211) = (   0.1735935   0.2057919   0.7033525  )
       212           C   tau( 212) = (   0.2042772   0.1742528   0.7010871  )
       213           C   tau( 213) = (   0.2219275   0.1643648   0.6621326  )
       214           C   tau( 214) = (   0.2646824   0.1542126   0.6598545  )
       215           C   tau( 215) = (   0.2851002   0.1554813   0.6209227  )
       216           C   tau( 216) = (   0.3267704   0.1690005   0.6186618  )
       217           C   tau( 217) = (   0.3437114   0.1802152   0.5795765  )
       218           C   tau( 218) = (   0.3741633   0.2114420   0.5768545  )
       219           C   tau( 219) = (   0.3820194   0.2300914   0.5382424  )
       220           C   tau( 220) = (   0.3889906   0.2739529   0.5359354  )
       221           C   tau( 221) = (   0.3853467   0.2939135   0.4971185  )
       222           C   tau( 222) = (   0.3505543   0.3561169   1.0237305  )
       223           C   tau( 223) = (   0.3344985   0.3685514   0.9848284  )
       224           C   tau( 224) = (   0.2936898   0.3850007   0.9825895  )
       225           C   tau( 225) = (   0.2735053   0.3871958   0.9436787  )
       226           C   tau( 226) = (   0.2301434   0.3797437   0.9414127  )
       227           C   tau( 227) = (   0.2118430   0.3710278   0.9024974  )
       228           C   tau( 228) = (   0.1788525   0.3419138   0.9002260  )
       229           C   tau( 229) = (   0.1678980   0.3248791   0.8612889  )
       230           C   tau( 230) = (   0.1550553   0.2828029   0.8590198  )
       231           C   tau( 231) = (   0.1546599   0.2625430   0.8200885  )
       232           C   tau( 232) = (   0.1657196   0.2199562   0.8178177  )
       233           C   tau( 233) = (   0.1759373   0.2024507   0.7788925  )
       234           C   tau( 234) = (   0.2076408   0.1719408   0.7766371  )
       235           C   tau( 235) = (   0.2255418   0.1624908   0.7376697  )
       236           C   tau( 236) = (   0.2685850   0.1534476   0.7353823  )
       237           C   tau( 237) = (   0.2888035   0.1552999   0.6964403  )
       238           C   tau( 238) = (   0.3300829   0.1704282   0.6942612  )
       239           C   tau( 239) = (   0.3468726   0.1825731   0.6554316  )
       240           C   tau( 240) = (   0.3761252   0.2150155   0.6537131  )
       241           C   tau( 241) = (   0.3899921   0.2312240   0.6140930  )
       242           C   tau( 242) = (   0.3959520   0.2789930   0.6117933  )
       243           C   tau( 243) = (   0.3864841   0.2981121   0.5721705  )
       244           C   tau( 244) = (   0.3476004   0.3587908   1.0992435  )
       245           C   tau( 245) = (   0.3311373   0.3706460   1.0603269  )
       246           C   tau( 246) = (   0.2897822   0.3856714   1.0580861  )
       247           C   tau( 247) = (   0.2695385   0.3871435   1.0191801  )
       248           C   tau( 248) = (   0.2264504   0.3782177   1.0169129  )
       249           C   tau( 249) = (   0.2084510   0.3688613   0.9780045  )
       250           C   tau( 250) = (   0.1764553   0.3386629   0.9757420  )
       251           C   tau( 251) = (   0.1660616   0.3212722   0.9368091  )
       252           C   tau( 252) = (   0.1546477   0.2787794   0.9345379  )
       253           C   tau( 253) = (   0.1549396   0.2585216   0.8956118  )
       254           C   tau( 254) = (   0.1674983   0.2163533   0.8933463  )
       255           C   tau( 255) = (   0.1783507   0.1992288   0.8544171  )
       256           C   tau( 256) = (   0.2111123   0.1698644   0.8521660  )
       257           C   tau( 257) = (   0.2292897   0.1609301   0.8132263  )
       258           C   tau( 258) = (   0.2726085   0.1531909   0.8109542  )
       259           C   tau( 259) = (   0.2927512   0.1553445   0.7720089  )
       260           C   tau( 260) = (   0.3335950   0.1716326   0.7698245  )
       261           C   tau( 261) = (   0.3496112   0.1842433   0.7309203  )
       262           C   tau( 262) = (   0.3760433   0.2193505   0.7287619  )
       263           C   tau( 263) = (   0.3844855   0.2378132   0.6899498  )
       264           C   tau( 264) = (   0.3885073   0.2820462   0.6876531  )
       265           C   tau( 265) = (   0.3854774   0.3020589   0.6490368  )
       266           C   tau( 266) = (   0.3445254   0.3613616   1.1747572  )
       267           C   tau( 267) = (   0.3276780   0.3726454   1.1358344  )
       268           C   tau( 268) = (   0.2858291   0.3862417   1.1335861  )
       269           C   tau( 269) = (   0.2655578   0.3870011   1.0946764  )
       270           C   tau( 270) = (   0.2228078   0.3765944   1.0924091  )
       271           C   tau( 271) = (   0.2051430   0.3666188   1.0534987  )
       272           C   tau( 272) = (   0.1741922   0.3353443   1.0512457  )
       273           C   tau( 273) = (   0.1643775   0.3176043   1.0123282  )
       274           C   tau( 274) = (   0.1544273   0.2747445   1.0100540  )
       275           C   tau( 275) = (   0.1553958   0.2545082   0.9711284  )
       276           C   tau( 276) = (   0.1694188   0.2128063   0.9688688  )
       277           C   tau( 277) = (   0.1808515   0.1960828   0.9299380  )
       278           C   tau( 278) = (   0.2146478   0.1679085   0.9276853  )
       279           C   tau( 279) = (   0.2331365   0.1596327   0.8887614  )
       280           C   tau( 280) = (   0.2766834   0.1533873   0.8864903  )
       281           C   tau( 281) = (   0.2967357   0.1560706   0.8475399  )
       282           C   tau( 282) = (   0.3370349   0.1737249   0.8453090  )
       283           C   tau( 283) = (   0.3526390   0.1866094   0.8063967  )
       284           C   tau( 284) = (   0.3776366   0.2228574   0.8041793  )
       285           C   tau( 285) = (   0.3842289   0.2420718   0.7653873  )
       286           C   tau( 286) = (   0.3866333   0.2859440   0.7631076  )
       287           C   tau( 287) = (   0.3822701   0.3055587   0.7241166  )
       288           C   tau( 288) = (   0.3413408   0.3638195   0.0008083  )
       289           C   tau( 289) = (   0.3241300   0.3745229   1.2113469  )
       290           C   tau( 290) = (   0.2818393   0.3866722   1.2090874  )
       291           C   tau( 291) = (   0.2615647   0.3867382   1.1701721  )
       292           C   tau( 292) = (   0.2191981   0.3748625   1.1679048  )
       293           C   tau( 293) = (   0.2018982   0.3642813   1.1289928  )
       294           C   tau( 294) = (   0.1720476   0.3319536   1.1267431  )
       295           C   tau( 295) = (   0.1628568   0.3138829   1.0878317  )
       296           C   tau( 296) = (   0.1543874   0.2707102   1.0855569  )
       297           C   tau( 297) = (   0.1560339   0.2505148   1.0466369  )
       298           C   tau( 298) = (   0.1714917   0.2093222   1.0443811  )
       299           C   tau( 299) = (   0.1834913   0.1930111   1.0054543  )
       300           C   tau( 300) = (   0.2182657   0.1660559   1.0031926  )
       301           C   tau( 301) = (   0.2370282   0.1584613   0.9642662  )
       302           C   tau( 302) = (   0.2807694   0.1537518   0.9619922  )
       303           C   tau( 303) = (   0.3007087   0.1571199   0.9230559  )
       304           C   tau( 304) = (   0.3403964   0.1761301   0.9207954  )
       305           C   tau( 305) = (   0.3555373   0.1895235   0.8818737  )
       306           C   tau( 306) = (   0.3792971   0.2265627   0.8796131  )
       307           C   tau( 307) = (   0.3851038   0.2459780   0.8407152  )
       308           C   tau( 308) = (   0.3860247   0.2899583   0.8384488  )
       309           C   tau( 309) = (   0.3809296   0.3095873   0.7995518  )
       310           C   tau( 310) = (   0.2575602   0.3863262   1.2456676  )
       311           C   tau( 311) = (   0.2156271   0.3729990   1.2434016  )
       312           C   tau( 312) = (   0.1987151   0.3618316   1.2044849  )
       313           C   tau( 313) = (   0.1699979   0.3284944   1.2022320  )
       314           C   tau( 314) = (   0.1614472   0.3101158   1.1633219  )
       315           C   tau( 315) = (   0.1544756   0.2666742   1.1610496  )
       316           C   tau( 316) = (   0.1568301   0.2465493   1.1221355  )
       317           C   tau( 317) = (   0.1736995   0.2059142   1.1198826  )
       318           C   tau( 318) = (   0.1862586   0.1900312   1.0809583  )
       319           C   tau( 319) = (   0.2219444   0.1642972   1.0786864  )
       320           C   tau( 320) = (   0.2409660   0.1573777   1.0397618  )
       321           C   tau( 321) = (   0.2848490   0.1541924   1.0374899  )
       322           C   tau( 322) = (   0.3046624   0.1582847   0.9985584  )
       323           C   tau( 323) = (   0.3436828   0.1786143   0.9962870  )
       324           C   tau( 324) = (   0.3583681   0.1925253   0.9573533  )
       325           C   tau( 325) = (   0.3809057   0.2303173   0.9550741  )
       326           C   tau( 326) = (   0.3860706   0.2499020   0.9161561  )
       327           C   tau( 327) = (   0.3854830   0.2939151   0.9139016  )
       328           C   tau( 328) = (   0.3796237   0.3133633   0.8750151  )
       329           C   tau( 329) = (   0.1601410   0.3063025   1.2388062  )
       330           C   tau( 330) = (   0.1546760   0.2626432   1.2365376  )
       331           C   tau( 331) = (   0.1577404   0.2426084   1.1976251  )
       332           C   tau( 332) = (   0.1760027   0.2025795   1.1953742  )
       333           C   tau( 333) = (   0.1891111   0.1871348   1.1564549  )
       334           C   tau( 334) = (   0.2256654   0.1626430   1.1541793  )
       335           C   tau( 335) = (   0.2449249   0.1563915   1.1152573  )
       336           C   tau( 336) = (   0.2888928   0.1547280   1.1129916  )
       337           C   tau( 337) = (   0.3085628   0.1595175   1.0740597  )
       338           C   tau( 338) = (   0.3468675   0.1811704   1.0717847  )
       339           C   tau( 339) = (   0.3610899   0.1955802   1.0328544  )
       340           C   tau( 340) = (   0.3823391   0.2341164   1.0305757  )
       341           C   tau( 341) = (   0.3868668   0.2538659   0.9916511  )
       342           C   tau( 342) = (   0.3847536   0.2978223   0.9893997  )
       343           C   tau( 343) = (   0.3782395   0.3170538   0.9504913  )
       344           C   tau( 344) = (   0.1920457   0.1843492   1.2319502  )
       345           C   tau( 345) = (   0.2294215   0.1611293   1.2296771  )
       346           C   tau( 346) = (   0.2488933   0.1555375   1.1907566  )
       347           C   tau( 347) = (   0.2928945   0.1553934   1.1884994  )
       348           C   tau( 348) = (   0.3123954   0.1608655   1.1495697  )
       349           C   tau( 349) = (   0.3499263   0.1838339   1.1472937  )
       350           C   tau( 350) = (   0.3636590   0.1987233   1.1083656  )
       351           C   tau( 351) = (   0.3835640   0.2379650   1.1060948  )
       352           C   tau( 352) = (   0.3874400   0.2578561   1.0671626  )
       353           C   tau( 353) = (   0.3838032   0.3017088   1.0649093  )
       354           C   tau( 354) = (   0.3766629   0.3206908   1.0259915  )
       355           C   tau( 355) = (   0.3161669   0.1623386   1.2250828  )
       356           C   tau( 356) = (   0.3528824   0.1865930   1.2228077  )
       357           C   tau( 357) = (   0.3660944   0.2019517   1.1838793  )
       358           C   tau( 358) = (   0.3846402   0.2418520   1.1816171  )
       359           C   tau( 359) = (   0.3878360   0.2618641   1.1426842  )
       360           C   tau( 360) = (   0.3826926   0.3055662   1.1404243  )
       361           C   tau( 361) = (   0.3749114   0.3242887   1.1015040  )
       362           C   tau( 362) = (   0.3880788   0.2658850   1.2182085  )
       363           C   tau( 363) = (   0.3814238   0.3093806   1.2159411  )
       364           C   tau( 364) = (   0.3730108   0.3278223   1.1770175  )
       365           Se  tau( 365) = (   0.4513413   0.2478162   0.6129330  )

   Crystallographic axes

     site n.     atom                  positions (cryst. coord.)
         1           C   tau(   1) = (  0.3709674  0.5383191  0.0024551  )
         2           C   tau(   2) = (  0.3687916  0.5438434  0.0628897  )
         3           C   tau(   3) = (  0.3380511  0.5950046  0.0610801  )
         4           C   tau(   4) = (  0.3204902  0.6114088  0.0299257  )
         5           C   tau(   5) = (  0.2778085  0.6287696  0.0281089  )
         6           C   tau(   6) = (  0.3664736  0.5492576  0.1233191  )
         7           C   tau(   7) = (  0.3346638  0.5986578  0.1215061  )
         8           C   tau(   8) = (  0.3167735  0.6140576  0.0903513  )
         9           C   tau(   9) = (  0.2737464  0.6290035  0.0885266  )
        10           C   tau(  10) = (  0.2535408  0.6268528  0.0573785  )
        11           C   tau(  11) = (  0.2120893  0.6028798  0.0555680  )
        12           C   tau(  12) = (  0.1955852  0.5837997  0.0244182  )
        13           C   tau(  13) = (  0.1680334  0.5280537  0.0226100  )
        14           C   tau(  14) = (  0.3640036  0.5545731  0.1837419  )
        15           C   tau(  15) = (  0.3311740  0.6021732  0.1819260  )
        16           C   tau(  16) = (  0.3129824  0.6165261  0.1507714  )
        17           C   tau(  17) = (  0.2696637  0.6290461  0.1489438  )
        18           C   tau(  18) = (  0.2495270  0.6257372  0.1177934  )
        19           C   tau(  19) = (  0.2086129  0.5994544  0.1159872  )
        20           C   tau(  20) = (  0.1925298  0.5794627  0.0848365  )
        21           C   tau(  21) = (  0.1661789  0.5222094  0.0830249  )
        22           C   tau(  22) = (  0.1589380  0.4914622  0.0518822  )
        23           C   tau(  23) = (  0.1549926  0.4202533  0.0500710  )
        24           C   tau(  24) = (  0.1587592  0.3878878  0.0189270  )
        25           C   tau(  25) = (  0.1783988  0.3239078  0.0171249  )
        26           C   tau(  26) = (  0.3614212  0.5598258  0.2441609  )
        27           C   tau(  27) = (  0.3276129  0.6056008  0.2423477  )
        28           C   tau(  28) = (  0.3091226  0.6188613  0.2111873  )
        29           C   tau(  29) = (  0.2655697  0.6289282  0.2093622  )
        30           C   tau(  30) = (  0.2455204  0.6244499  0.1782079  )
        31           C   tau(  31) = (  0.2051923  0.5958745  0.1764086  )
        32           C   tau(  32) = (  0.1895496  0.5749769  0.1452590  )
        33           C   tau(  33) = (  0.1644317  0.5162764  0.1434459  )
        34           C   tau(  34) = (  0.1578626  0.4851322  0.1122990  )
        35           C   tau(  35) = (  0.1554338  0.4137475  0.1104920  )
        36           C   tau(  36) = (  0.1598936  0.3816122  0.0793460  )
        37           C   tau(  37) = (  0.1808775  0.3187682  0.0775414  )
        38           C   tau(  38) = (  0.1950459  0.2951984  0.0464009  )
        39           C   tau(  39) = (  0.2332014  0.2595907  0.0445863  )
        40           C   tau(  40) = (  0.2528698  0.2515980  0.0134401  )
        41           C   tau(  41) = (  0.2968492  0.2538316  0.0116377  )
        42           C   tau(  42) = (  0.3706924  0.5384675  0.3357242  )
        43           C   tau(  43) = (  0.3587352  0.5649785  0.3045776  )
        44           C   tau(  44) = (  0.3240039  0.6088666  0.3027820  )
        45           C   tau(  45) = (  0.3052348  0.6210874  0.2716080  )
        46           C   tau(  46) = (  0.2614910  0.6286736  0.2697906  )
        47           C   tau(  47) = (  0.2415439  0.6230110  0.2386352  )
        48           C   tau(  48) = (  0.2018572  0.5921422  0.2368389  )
        49           C   tau(  49) = (  0.1866744  0.5703390  0.2056882  )
        50           C   tau(  50) = (  0.1628376  0.5102501  0.2038748  )
        51           C   tau(  51) = (  0.1569212  0.4787565  0.1727251  )
        52           C   tau(  52) = (  0.1560129  0.4072752  0.1709213  )
        53           C   tau(  53) = (  0.1611460  0.3754107  0.1397729  )
        54           C   tau(  54) = (  0.1834534  0.3137833  0.1379617  )
        55           C   tau(  55) = (  0.1981230  0.2910248  0.1068201  )
        56           C   tau(  56) = (  0.2370144  0.2575872  0.1050103  )
        57           C   tau(  57) = (  0.2568474  0.2506960  0.0738666  )
        58           C   tau(  58) = (  0.3007556  0.2553975  0.0720681  )
        59           C   tau(  59) = (  0.3198522  0.2664357  0.0409195  )
        60           C   tau(  60) = (  0.3557115  0.3078697  0.0391018  )
        61           C   tau(  61) = (  0.3684036  0.3335397  0.0079476  )
        62           C   tau(  62) = (  0.3855665  0.3993744  0.0061425  )
        63           C   tau(  63) = (  0.3683361  0.5434292  0.3961307  )
        64           C   tau(  64) = (  0.3559081  0.5696655  0.3649921  )
        65           C   tau(  65) = (  0.3203157  0.6116273  0.3632312  )
        66           C   tau(  66) = (  0.3013282  0.6230625  0.3320606  )
        67           C   tau(  67) = (  0.2574370  0.6282104  0.3302484  )
        68           C   tau(  68) = (  0.2376235  0.6213902  0.2990794  )
        69           C   tau(  69) = (  0.1986505  0.5882224  0.2972771  )
        70           C   tau(  70) = (  0.1839264  0.5655681  0.2661259  )
        71           C   tau(  71) = (  0.1614064  0.5041448  0.2643135  )
        72           C   tau(  72) = (  0.1561455  0.4723382  0.2331633  )
        73           C   tau(  73) = (  0.1567569  0.4008480  0.2313597  )
        74           C   tau(  74) = (  0.1625484  0.3692920  0.2002049  )
        75           C   tau(  75) = (  0.1861377  0.3089460  0.1983846  )
        76           C   tau(  76) = (  0.2012700  0.2870195  0.1672424  )
        77           C   tau(  77) = (  0.2408451  0.2557642  0.1654374  )
        78           C   tau(  78) = (  0.2608236  0.2500139  0.1342944  )
        79           C   tau(  79) = (  0.3046025  0.2571699  0.1324953  )
        80           C   tau(  80) = (  0.3234713  0.2692679  0.1013516  )
        81           C   tau(  81) = (  0.3584362  0.3126773  0.0995394  )
        82           C   tau(  82) = (  0.3705829  0.3390424  0.0683868  )
        83           C   tau(  83) = (  0.3863435  0.4057994  0.0665856  )
        84           C   tau(  84) = (  0.3881661  0.4385934  0.0354288  )
        85           C   tau(  85) = (  0.3800070  0.5088502  0.0336083  )
        86           C   tau(  86) = (  0.3660946  0.5471909  0.4565434  )
        87           C   tau(  87) = (  0.3528034  0.5730080  0.4254673  )
        88           C   tau(  88) = (  0.3165015  0.6133116  0.4237118  )
        89           C   tau(  89) = (  0.2973601  0.6242958  0.3925436  )
        90           C   tau(  90) = (  0.2534147  0.6272731  0.3907229  )
        91           C   tau(  91) = (  0.2337402  0.6195354  0.3595322  )
        92           C   tau(  92) = (  0.1955155  0.5841282  0.3577198  )
        93           C   tau(  93) = (  0.1813192  0.5606154  0.3265693  )
        94           C   tau(  94) = (  0.1601561  0.4979306  0.3247578  )
        95           C   tau(  95) = (  0.1555629  0.4658555  0.2936006  )
        96           C   tau(  96) = (  0.1576665  0.3944503  0.2917944  )
        97           C   tau(  97) = (  0.1640884  0.3632327  0.2606381  )
        98           C   tau(  98) = (  0.1889121  0.3041995  0.2588126  )
        99           C   tau(  99) = (  0.2045030  0.2831519  0.2276678  )
       100           C   tau( 100) = (  0.2446993  0.2540821  0.2258651  )
       101           C   tau( 101) = (  0.2647932  0.2494871  0.1947187  )
       102           C   tau( 102) = (  0.3083929  0.2591035  0.1929175  )
       103           C   tau( 103) = (  0.3270004  0.2722901  0.1617828  )
       104           C   tau( 104) = (  0.3610246  0.3176449  0.1599774  )
       105           C   tau( 105) = (  0.3726241  0.3446740  0.1288268  )
       106           C   tau( 106) = (  0.3869521  0.4122767  0.1270246  )
       107           C   tau( 107) = (  0.3880967  0.4451490  0.0958686  )
       108           C   tau( 108) = (  0.3784479  0.5149082  0.0940435  )
       109           C   tau( 109) = (  0.3636219  0.5521668  0.5172489  )
       110           C   tau( 110) = (  0.3499454  0.5765918  0.4859717  )
       111           C   tau( 111) = (  0.3128670  0.6145154  0.4841533  )
       112           C   tau( 112) = (  0.2933890  0.6246730  0.4529935  )
       113           C   tau( 113) = (  0.2494463  0.6257871  0.4511799  )
       114           C   tau( 114) = (  0.2299099  0.6172524  0.4200021  )
       115           C   tau( 115) = (  0.1924279  0.5798002  0.4181769  )
       116           C   tau( 116) = (  0.1787861  0.5555016  0.3870070  )
       117           C   tau( 117) = (  0.1590029  0.4916641  0.3851965  )
       118           C   tau( 118) = (  0.1551086  0.4593411  0.3540380  )
       119           C   tau( 119) = (  0.1586802  0.3880818  0.3522292  )
       120           C   tau( 120) = (  0.1657620  0.3572362  0.3210779  )
       121           C   tau( 121) = (  0.1917679  0.2995641  0.3192541  )
       122           C   tau( 122) = (  0.2077934  0.2793950  0.2880964  )
       123           C   tau( 123) = (  0.2485641  0.2525431  0.2862944  )
       124           C   tau( 124) = (  0.2687486  0.2490782  0.2551550  )
       125           C   tau( 125) = (  0.3121267  0.2611838  0.2533467  )
       126           C   tau( 126) = (  0.3304391  0.2754767  0.2222123  )
       127           C   tau( 127) = (  0.3634472  0.3227630  0.2204081  )
       128           C   tau( 128) = (  0.3744915  0.3504309  0.1892630  )
       129           C   tau( 129) = (  0.3873672  0.4188085  0.1874568  )
       130           C   tau( 130) = (  0.3878425  0.4517126  0.1563052  )
       131           C   tau( 131) = (  0.3767126  0.5208919  0.1544787  )
       132           C   tau( 132) = (  0.3611377  0.5591124  0.5776112  )
       133           C   tau( 133) = (  0.3468325  0.5816085  0.5464409  )
       134           C   tau( 134) = (  0.3089584  0.6178471  0.5445746  )
       135           C   tau( 135) = (  0.2893909  0.6257073  0.5134351  )
       136           C   tau( 136) = (  0.2454897  0.6243982  0.5116275  )
       137           C   tau( 137) = (  0.2261180  0.6145665  0.4804544  )
       138           C   tau( 138) = (  0.1894794  0.5752408  0.4786307  )
       139           C   tau( 139) = (  0.1763118  0.5502480  0.4474488  )
       140           C   tau( 140) = (  0.1579116  0.4853359  0.4456447  )
       141           C   tau( 141) = (  0.1547330  0.4528117  0.4144872  )
       142           C   tau( 142) = (  0.1597802  0.3817959  0.4126749  )
       143           C   tau( 143) = (  0.1675210  0.3513268  0.3815152  )
       144           C   tau( 144) = (  0.1946983  0.2951218  0.3796962  )
       145           C   tau( 145) = (  0.2111370  0.2758032  0.3485448  )
       146           C   tau( 146) = (  0.2524809  0.2513023  0.3467469  )
       147           C   tau( 147) = (  0.2727167  0.2489288  0.3156068  )
       148           C   tau( 148) = (  0.3157967  0.2635002  0.3137825  )
       149           C   tau( 149) = (  0.3337855  0.2788157  0.2826339  )
       150           C   tau( 150) = (  0.3657098  0.3280350  0.2808159  )
       151           C   tau( 151) = (  0.3761653  0.3563146  0.2496910  )
       152           C   tau( 152) = (  0.3875651  0.4253964  0.2478761  )
       153           C   tau( 153) = (  0.3873790  0.4582910  0.2167276  )
       154           C   tau( 154) = (  0.3748170  0.5268127  0.2149058  )
       155           C   tau( 155) = (  0.3587512  0.5648781  0.6380289  )
       156           C   tau( 156) = (  0.3440455  0.5874037  0.6068873  )
       157           C   tau( 157) = (  0.3052416  0.6209757  0.6050388  )
       158           C   tau( 158) = (  0.2854245  0.6276783  0.5738658  )
       159           C   tau( 159) = (  0.2415176  0.6232997  0.5720727  )
       160           C   tau( 160) = (  0.2224173  0.6121907  0.5409351  )
       161           C   tau( 161) = (  0.1866190  0.5706279  0.5391125  )
       162           C   tau( 162) = (  0.1740131  0.5448075  0.5079534  )
       163           C   tau( 163) = (  0.1570211  0.4789557  0.5061411  )
       164           C   tau( 164) = (  0.1545134  0.4462722  0.4749472  )
       165           C   tau( 165) = (  0.1610308  0.3756546  0.4731260  )
       166           C   tau( 166) = (  0.1693547  0.3455937  0.4419700  )
       167           C   tau( 167) = (  0.1977761  0.2910218  0.4401576  )
       168           C   tau( 168) = (  0.2146083  0.2726176  0.4090182  )
       169           C   tau( 169) = (  0.2565039  0.2508332  0.4072246  )
       170           C   tau( 170) = (  0.2767278  0.2493992  0.3760564  )
       171           C   tau( 171) = (  0.3194153  0.2664668  0.3742031  )
       172           C   tau( 172) = (  0.3370744  0.2824146  0.3430608  )
       173           C   tau( 173) = (  0.3679198  0.3334849  0.3412102  )
       174           C   tau( 174) = (  0.3776706  0.3623582  0.3100782  )
       175           C   tau( 175) = (  0.3875894  0.4319956  0.3082514  )
       176           C   tau( 176) = (  0.3867316  0.4648813  0.2771187  )
       177           C   tau( 177) = (  0.3728009  0.5327035  0.2753166  )
       178           C   tau( 178) = (  0.3561183  0.5696466  0.6984552  )
       179           C   tau( 179) = (  0.3409872  0.5916844  0.6673092  )
       180           C   tau( 180) = (  0.3014283  0.6230045  0.6654949  )
       181           C   tau( 181) = (  0.2814553  0.6287978  0.6343508  )
       182           C   tau( 182) = (  0.2376719  0.6215682  0.6325462  )
       183           C   tau( 183) = (  0.2188160  0.6094200  0.6013946  )
       184           C   tau( 184) = (  0.1839712  0.5657904  0.5995718  )
       185           C   tau( 185) = (  0.1718633  0.5393532  0.5684076  )
       186           C   tau( 186) = (  0.1562342  0.4725320  0.5666005  )
       187           C   tau( 187) = (  0.1544023  0.4397396  0.5354446  )
       188           C   tau( 188) = (  0.1624326  0.3694733  0.5336298  )
       189           C   tau( 189) = (  0.1714272  0.3399919  0.5024502  )
       190           C   tau( 190) = (  0.2010091  0.2872661  0.5006392  )
       191           C   tau( 191) = (  0.2182949  0.2699876  0.4694654  )
       192           C   tau( 192) = (  0.2606476  0.2511770  0.4676523  )
       193           C   tau( 193) = (  0.2808005  0.2509795  0.4365146  )
       194           C   tau( 194) = (  0.3229863  0.2709987  0.4346498  )
       195           C   tau( 195) = (  0.3402564  0.2870879  0.4034788  )
       196           C   tau( 196) = (  0.3702074  0.3393286  0.4015797  )
       197           C   tau( 197) = (  0.3792645  0.3684617  0.3703754  )
       198           C   tau( 198) = (  0.3877122  0.4385248  0.3685393  )
       199           C   tau( 199) = (  0.3860340  0.4714047  0.3374905  )
       200           C   tau( 200) = (  0.3533948  0.5742089  0.7588754  )
       201           C   tau( 201) = (  0.3377911  0.5953711  0.7277436  )
       202           C   tau( 202) = (  0.2975710  0.6244184  0.7259474  )
       203           C   tau( 203) = (  0.2774745  0.6291301  0.6948083  )
       204           C   tau( 204) = (  0.2338929  0.6194052  0.6929951  )
       205           C   tau( 205) = (  0.2153040  0.6062665  0.6618370  )
       206           C   tau( 206) = (  0.1813744  0.5607499  0.6600163  )
       207           C   tau( 207) = (  0.1698473  0.5336866  0.6288581  )
       208           C   tau( 208) = (  0.1556049  0.4660444  0.6270476  )
       209           C   tau( 209) = (  0.1544980  0.4331630  0.5958905  )
       210           C   tau( 210) = (  0.1640341  0.3633907  0.5940707  )
       211           C   tau( 211) = (  0.1735935  0.3343989  0.5629011  )
       212           C   tau( 212) = (  0.2042772  0.2831498  0.5610881  )
       213           C   tau( 213) = (  0.2219275  0.2670824  0.5299123  )
       214           C   tau( 214) = (  0.2646824  0.2505858  0.5280892  )
       215           C   tau( 215) = (  0.2851002  0.2526472  0.4969316  )
       216           C   tau( 216) = (  0.3267704  0.2746152  0.4951221  )
       217           C   tau( 217) = (  0.3437114  0.2928383  0.4638417  )
       218           C   tau( 218) = (  0.3741633  0.3435799  0.4616633  )
       219           C   tau( 219) = (  0.3820194  0.3738839  0.4307616  )
       220           C   tau( 220) = (  0.3889906  0.4451561  0.4289153  )
       221           C   tau( 221) = (  0.3853467  0.4775908  0.3978497  )
       222           C   tau( 222) = (  0.3505543  0.5786675  0.8193033  )
       223           C   tau( 223) = (  0.3344985  0.5988728  0.7881695  )
       224           C   tau( 224) = (  0.2936898  0.6256018  0.7863777  )
       225           C   tau( 225) = (  0.2735053  0.6291687  0.7552369  )
       226           C   tau( 226) = (  0.2301434  0.6170595  0.7534234  )
       227           C   tau( 227) = (  0.2118430  0.6028967  0.7222791  )
       228           C   tau( 228) = (  0.1788525  0.5555884  0.7204613  )
       229           C   tau( 229) = (  0.1678980  0.5279081  0.6892994  )
       230           C   tau( 230) = (  0.1550553  0.4595369  0.6874835  )
       231           C   tau( 231) = (  0.1546599  0.4266158  0.6563263  )
       232           C   tau( 232) = (  0.1657196  0.3574149  0.6545089  )
       233           C   tau( 233) = (  0.1759373  0.3289697  0.6233566  )
       234           C   tau( 234) = (  0.2076408  0.2793929  0.6215516  )
       235           C   tau( 235) = (  0.2255418  0.2640373  0.5903655  )
       236           C   tau( 236) = (  0.2685850  0.2493427  0.5885349  )
       237           C   tau( 237) = (  0.2888035  0.2523525  0.5573692  )
       238           C   tau( 238) = (  0.3300829  0.2769351  0.5556253  )
       239           C   tau( 239) = (  0.3468726  0.2966698  0.5245494  )
       240           C   tau( 240) = (  0.3761252  0.3493866  0.5231741  )
       241           C   tau( 241) = (  0.3899921  0.3757243  0.4914657  )
       242           C   tau( 242) = (  0.3959520  0.4533460  0.4896252  )
       243           C   tau( 243) = (  0.3864841  0.4844133  0.4579146  )
       244           C   tau( 244) = (  0.3476004  0.5830124  0.8797372  )
       245           C   tau( 245) = (  0.3311373  0.6022763  0.8485918  )
       246           C   tau( 246) = (  0.2897822  0.6266916  0.8467985  )
       247           C   tau( 247) = (  0.2695385  0.6290837  0.8156616  )
       248           C   tau( 248) = (  0.2264504  0.6145799  0.8138471  )
       249           C   tau( 249) = (  0.2084510  0.5993763  0.7827083  )
       250           C   tau( 250) = (  0.1764553  0.5503058  0.7808975  )
       251           C   tau( 251) = (  0.1660616  0.5220471  0.7497391  )
       252           C   tau( 252) = (  0.1546477  0.4529990  0.7479214  )
       253           C   tau( 253) = (  0.1549396  0.4200813  0.7167684  )
       254           C   tau( 254) = (  0.1674983  0.3515604  0.7149553  )
       255           C   tau( 255) = (  0.1783507  0.3237342  0.6837999  )
       256           C   tau( 256) = (  0.2111123  0.2760189  0.6819983  )
       257           C   tau( 257) = (  0.2292897  0.2615012  0.6508344  )
       258           C   tau( 258) = (  0.2726085  0.2489256  0.6490160  )
       259           C   tau( 259) = (  0.2927512  0.2524251  0.6178476  )
       260           C   tau( 260) = (  0.3335950  0.2788922  0.6160994  )
       261           C   tau( 261) = (  0.3496112  0.2993837  0.5849639  )
       262           C   tau( 262) = (  0.3760433  0.3564307  0.5832365  )
       263           C   tau( 263) = (  0.3844855  0.3864314  0.5521748  )
       264           C   tau( 264) = (  0.3885073  0.4583072  0.5503367  )
       265           C   tau( 265) = (  0.3854774  0.4908267  0.5194316  )
       266           C   tau( 266) = (  0.3445254  0.5871898  0.9401717  )
       267           C   tau( 267) = (  0.3276780  0.6055253  0.9090213  )
       268           C   tau( 268) = (  0.2858291  0.6276184  0.9072220  )
       269           C   tau( 269) = (  0.2655578  0.6288523  0.8760821  )
       270           C   tau( 270) = (  0.2228078  0.6119421  0.8742676  )
       271           C   tau( 271) = (  0.2051430  0.5957323  0.8431271  )
       272           C   tau( 272) = (  0.1741922  0.5449133  0.8413240  )
       273           C   tau( 273) = (  0.1643775  0.5160870  0.8101779  )
       274           C   tau( 274) = (  0.1544273  0.4464425  0.8083579  )
       275           C   tau( 275) = (  0.1553958  0.4135597  0.7772052  )
       276           C   tau( 276) = (  0.1694188  0.3457967  0.7753968  )
       277           C   tau( 277) = (  0.1808515  0.3186222  0.7442401  )
       278           C   tau( 278) = (  0.2146478  0.2728408  0.7424372  )
       279           C   tau( 279) = (  0.2331365  0.2593931  0.7112860  )
       280           C   tau( 280) = (  0.2766834  0.2492447  0.7094684  )
       281           C   tau( 281) = (  0.2967357  0.2536048  0.6782959  )
       282           C   tau( 282) = (  0.3370349  0.2822920  0.6765105  )
       283           C   tau( 283) = (  0.3526390  0.3032285  0.6453685  )
       284           C   tau( 284) = (  0.3776366  0.3621292  0.6435939  )
       285           C   tau( 285) = (  0.3842289  0.3933515  0.6125483  )
       286           C   tau( 286) = (  0.3866333  0.4646409  0.6107238  )
       287           C   tau( 287) = (  0.3822701  0.4965135  0.5795189  )
       288           C   tau( 288) = (  0.3413408  0.5911836  0.0006469  )
       289           C   tau( 289) = (  0.3241300  0.6085761  0.9694549  )
       290           C   tau( 290) = (  0.2818393  0.6283179  0.9676466  )
       291           C   tau( 291) = (  0.2615647  0.6284252  0.9365022  )
       292           C   tau( 292) = (  0.2191981  0.6091279  0.9346876  )
       293           C   tau( 293) = (  0.2018982  0.5919341  0.9035459  )
       294           C   tau( 294) = (  0.1720476  0.5394037  0.9017455  )
       295           C   tau( 295) = (  0.1628568  0.5100399  0.8706042  )
       296           C   tau( 296) = (  0.1543874  0.4398870  0.8687837  )
       297           C   tau( 297) = (  0.1560339  0.4070708  0.8376355  )
       298           C   tau( 298) = (  0.1714917  0.3401354  0.8358303  )
       299           C   tau( 299) = (  0.1834913  0.3136309  0.8046767  )
       300           C   tau( 300) = (  0.2182657  0.2698303  0.8028666  )
       301           C   tau( 301) = (  0.2370282  0.2574897  0.7717134  )
       302           C   tau( 302) = (  0.2807694  0.2498369  0.7698934  )
       303           C   tau( 303) = (  0.3007087  0.2553100  0.7387323  )
       304           C   tau( 304) = (  0.3403964  0.2862003  0.7369231  )
       305           C   tau( 305) = (  0.3555373  0.3079637  0.7057737  )
       306           C   tau( 306) = (  0.3792971  0.3681501  0.7039645  )
       307           C   tau( 307) = (  0.3851038  0.3996986  0.6728341  )
       308           C   tau( 308) = (  0.3860247  0.4711639  0.6710202  )
       309           C   tau( 309) = (  0.3809296  0.5030599  0.6398905  )
       310           C   tau( 310) = (  0.2575602  0.6277557  0.9969221  )
       311           C   tau( 311) = (  0.2156271  0.6060998  0.9951086  )
       312           C   tau( 312) = (  0.1987151  0.5879535  0.9639631  )
       313           C   tau( 313) = (  0.1699979  0.5337826  0.9621601  )
       314           C   tau( 314) = (  0.1614472  0.5039185  0.9310199  )
       315           C   tau( 315) = (  0.1544756  0.4333287  0.9292013  )
       316           C   tau( 316) = (  0.1568301  0.4006271  0.8980579  )
       317           C   tau( 317) = (  0.1736995  0.3345976  0.8962549  )
       318           C   tau( 318) = (  0.1862586  0.3087886  0.8651034  )
       319           C   tau( 319) = (  0.2219444  0.2669726  0.8632852  )
       320           C   tau( 320) = (  0.2409660  0.2557288  0.8321333  )
       321           C   tau( 321) = (  0.2848490  0.2505530  0.8303151  )
       322           C   tau( 322) = (  0.3046624  0.2572026  0.7991578  )
       323           C   tau( 323) = (  0.3436828  0.2902370  0.7973400  )
       324           C   tau( 324) = (  0.3583681  0.3128414  0.7661808  )
       325           C   tau( 325) = (  0.3809057  0.3742511  0.7643568  )
       326           C   tau( 326) = (  0.3860706  0.4060749  0.7332103  )
       327           C   tau( 327) = (  0.3854830  0.4775934  0.7314060  )
       328           C   tau( 328) = (  0.3796237  0.5091955  0.7002846  )
       329           C   tau( 329) = (  0.1601410  0.4977222  0.9914309  )
       330           C   tau( 330) = (  0.1546760  0.4267786  0.9896153  )
       331           C   tau( 331) = (  0.1577404  0.3942233  0.9584732  )
       332           C   tau( 332) = (  0.1760027  0.3291789  0.9566717  )
       333           C   tau( 333) = (  0.1891111  0.3040822  0.9255242  )
       334           C   tau( 334) = (  0.2256654  0.2642846  0.9237030  )
       335           C   tau( 335) = (  0.2449249  0.2541263  0.8925532  )
       336           C   tau( 336) = (  0.2888928  0.2514232  0.8907400  )
       337           C   tau( 337) = (  0.3085628  0.2592059  0.8595823  )
       338           C   tau( 338) = (  0.3468675  0.2943905  0.8577616  )
       339           C   tau( 339) = (  0.3610899  0.3178054  0.8266053  )
       340           C   tau( 340) = (  0.3823391  0.3804244  0.8247816  )
       341           C   tau( 341) = (  0.3868668  0.4125161  0.7936298  )
       342           C   tau( 342) = (  0.3847536  0.4839424  0.7918280  )
       343           C   tau( 343) = (  0.3782395  0.5151925  0.7606891  )
       344           C   tau( 344) = (  0.1920457  0.2995558  0.9859439  )
       345           C   tau( 345) = (  0.2294215  0.2618249  0.9841247  )
       346           C   tau( 346) = (  0.2488933  0.2527386  0.9529762  )
       347           C   tau( 347) = (  0.2928945  0.2525045  0.9511697  )
       348           C   tau( 348) = (  0.3123954  0.2613962  0.9200138  )
       349           C   tau( 349) = (  0.3499263  0.2987185  0.9181923  )
       350           C   tau( 350) = (  0.3636590  0.3229127  0.8870378  )
       351           C   tau( 351) = (  0.3835640  0.3866781  0.8852204  )
       352           C   tau( 352) = (  0.3874400  0.4189999  0.8540625  )
       353           C   tau( 353) = (  0.3838032  0.4902578  0.8522592  )
       354           C   tau( 354) = (  0.3766629  0.5211023  0.8211128  )
       355           C   tau( 355) = (  0.3161669  0.2637900  0.9804479  )
       356           C   tau( 356) = (  0.3528824  0.3032019  0.9786270  )
       357           C   tau( 357) = (  0.3660944  0.3281587  0.9474723  )
       358           C   tau( 358) = (  0.3846402  0.3929941  0.9456618  )
       359           C   tau( 359) = (  0.3878360  0.4255127  0.9145033  )
       360           C   tau( 360) = (  0.3826926  0.4965258  0.9126947  )
       361           C   tau( 361) = (  0.3749114  0.5269487  0.8815463  )
       362           C   tau( 362) = (  0.3880788  0.4320463  0.9749462  )
       363           C   tau( 363) = (  0.3814238  0.5027240  0.9731317  )
       364           C   tau( 364) = (  0.3730108  0.5326905  0.9419806  )
       365           Se  tau( 365) = (  0.4513413  0.4026857  0.4905373  )

     number of k points=     2
                       cart. coord. in units 2pi/alat
        k(    1) = (   0.0000000   0.0000000   0.0008003), wk =   1.0000000
        k(    2) = (   0.0000000   0.0000000   0.4009561), wk =   1.0000000

                       cryst. coord.
        k(    1) = (   0.0000000   0.0000000   0.0010000), wk =   1.0000000
        k(    2) = (   0.0000000   0.0000000   0.5010000), wk =   1.0000000

     Dense  grid: 11053081 G-vectors     FFT dimensions: ( 320, 192, 384)

     Dynamical RAM for                 wfc:      24.60 MB

     Dynamical RAM for     wfc (w. buffer):      24.60 MB

     Dynamical RAM for           str. fact:       0.44 MB

     Dynamical RAM for           local pot:       0.00 MB

     Dynamical RAM for          nlocal pot:      80.43 MB

     Dynamical RAM for                qrad:       2.49 MB

     Dynamical RAM for          rho,v,vnew:       2.07 MB

     Dynamical RAM for           G-vectors:       0.93 MB

     Dynamical RAM for          h,s,v(r/c):       1.81 MB

     Dynamical RAM for          <psi|beta>:      40.06 MB

     Dynamical RAM for                 psi:      49.19 MB

     Dynamical RAM for                hpsi:      49.19 MB

     Dynamical RAM for      wfcinit/wfcrot:      67.57 MB

     Estimated static dynamical RAM per process >     113.96 MB

     Estimated max dynamical RAM per process >     254.21 MB

     Estimated total dynamical RAM >     381.31 GB

     The potential is recalculated from file :
     ./CNT_PBE.save/charge-density

     Starting wfcs are random

     Band Structure Calculation
     Davidson diagonalization with overlap

     Computing kpt #:     1  of     1 on this pool
     c_bands:  5 eigenvalues not converged
     total cpu time spent up to now is     2562.1 secs

     ethr =  5.03E-12,  avg # of iterations =120.0

     total cpu time spent up to now is     2562.1 secs

     End of band structure calculation

          k = 0.0000 0.0000 0.0008 (****** PWs)   bands (ev):

   -22.6786 -22.6154 -22.6062 -22.4732 -22.4608 -22.4205 -22.4098 -22.4014
   -22.3953 -22.3940 -22.3933 -22.2112 -22.1979 -22.1978 -22.1968 -22.0857
   -22.0813 -21.8909 -21.8707 -21.8703 -21.8681 -21.8396 -21.8326 -21.7808
   -21.7680 -21.7662 -21.7661 -21.6292 -21.6228 -21.5850 -21.5724 -21.5720
   -21.5707 -21.4252 -21.4137 -21.4133 -21.4107 -21.2628 -21.2488 -21.2473
   -21.2448 -21.0435 -21.0372 -20.8716 -20.8301 -20.8299 -20.8267 -20.8192
   -20.8179 -20.8021 -20.7967 -20.7948 -20.7917 -20.7608 -20.7568 -20.7516
   -20.7513 -20.5768 -20.5630 -20.5616 -20.5595 -20.3381 -20.3271 -20.2699
   -20.2458 -20.2423 -20.2393 -20.2233 -20.2185 -20.2178 -20.2139 -20.1325
   -20.1227 -20.1223 -20.1205 -19.8215 -19.8027 -19.7977 -19.7946 -19.5659
   -19.5208 -19.5199 -19.5167 -19.5043 -19.4991 -19.4652 -19.4631 -19.4135
   -19.4032 -19.3950 -19.3943 -19.3177 -19.2997 -19.2984 -19.2972 -19.2519
   -19.2391 -19.2328 -19.2291 -19.2151 -19.2144 -19.2101 -19.2082 -18.9256
   -18.9059 -18.9040 -18.8993 -18.7381 -18.7123 -18.7112 -18.7079 -18.5998
   -18.5645 -18.5614 -18.5592 -18.5544 -18.5506 -18.4896 -18.4774 -18.4765
   -18.4707 -18.3879 -18.3730 -18.3714 -18.3689 -18.0038 -17.9404 -17.9372
   -17.9310 -17.8891 -17.8750 -17.8518 -17.8273 -17.8245 -17.8217 -17.8154
   -17.8121 -17.8057 -17.8047 -17.7982 -17.7963 -17.7907 -17.7895 -17.6544
   -17.6515 -17.6301 -17.6254 -17.5555 -17.5417 -17.4358 -17.3860 -17.3782
   -17.3693 -17.3636 -17.3624 -17.3426 -17.3312 -17.3218 -17.3159 -17.3123
   -17.3024 -17.2491 -17.2197 -17.2083 -17.0653 -17.0382 -16.9785 -16.9754
   -16.9357 -16.9271 -16.7997 -16.7712 -16.5592 -16.4889 -16.4811 -16.4795
   -16.4698 -16.4543 -16.4325 -16.4226 -16.2484 -16.2130 -16.2111 -16.0619
   -16.0189 -16.0153 -15.9580 -15.8919 -15.7835 -15.7780 -15.6102 -15.6053
   -15.5964 -15.5926 -15.5741 -15.5509 -15.5238 -15.5139 -15.5135 -15.4589
   -15.4555 -15.4506 -15.4203 -15.4177 -15.4151 -15.4095 -15.4032 -15.3988
   -15.3763 -15.3716 -15.3662 -15.3601 -15.3593 -15.3251 -15.3220 -15.2300
   -15.1424 -15.1256 -15.1126 -15.0661 -15.0644 -15.0536 -15.0372 -15.0181
   -14.9876 -14.9116 -14.8729 -14.8565 -14.8439 -14.8361 -14.8027 -14.7227
   -14.6003 -14.5696 -14.5421 -14.5389 -14.5359 -14.5061 -14.4685 -14.4554
   -14.4128 -14.3944 -14.3369 -14.3235 -14.2790 -14.2742 -14.2617 -14.2515
   -14.0034 -13.9962 -13.8672 -13.8552 -13.5596 -13.5196 -13.5134 -13.5000
   -13.4766 -13.4570 -13.4392 -13.4264 -13.4129 -13.4080 -13.4065 -13.4030
   -13.4005 -13.3957 -13.3878 -13.3822 -13.3744 -13.3699 -13.3589 -13.3559
   -13.3462 -13.3384 -13.3349 -13.3321 -13.3292 -13.3033 -13.1414 -13.1278
   -13.0762 -13.0727 -13.0697 -13.0660 -13.0534 -13.0495 -13.0445 -13.0380
   -13.0200 -13.0099 -12.9938 -12.9776 -12.8678 -12.8641 -12.5715 -12.5643
   -12.3819 -12.3798 -12.3666 -12.3569 -12.2523 -12.2483 -12.2454 -12.2419
   -12.1885 -12.1839 -12.1472 -12.1449 -12.1327 -12.1278 -12.0622 -12.0597
   -12.0209 -12.0146 -11.9968 -11.9942 -11.9724 -11.9713 -11.9012 -11.8987
   -11.8814 -11.8761 -11.6938 -11.6919 -11.6471 -11.6449 -11.5859 -11.5792
   -11.5505 -11.5474 -11.5086 -11.4909 -11.4679 -11.4668 -11.4069 -11.3821
   -11.3635 -11.3616 -11.3469 -11.3415 -11.3127 -11.3104 -11.2867 -11.2776
   -11.2145 -11.2128 -11.1934 -11.1833 -11.1219 -11.1168 -11.1045 -11.1019
   -11.0493 -11.0462 -11.0279 -11.0251 -11.0194 -11.0154 -11.0096 -11.0079
   -10.9440 -10.9403 -10.9348 -10.9326 -10.8845 -10.8822 -10.8033 -10.8015
   -10.7971 -10.7329 -10.7296 -10.7265 -10.7189 -10.6352 -10.6325 -10.5652
   -10.5558 -10.5044 -10.5017 -10.4985 -10.4959 -10.4913 -10.4885 -10.4859
   -10.4733 -10.4640 -10.4614 -10.4252 -10.4234 -10.4112 -10.4093 -10.3024
   -10.2982 -10.2950 -10.2937 -10.2775 -10.2691 -10.2642 -10.2555 -10.2490
   -10.2414 -10.1960 -10.1908 -10.1303 -10.1172 -10.0907 -10.0758 -10.0639
   -10.0623 -10.0507 -10.0481 -10.0395 -10.0389 -10.0262 -10.0193 -10.0160
   -10.0098  -9.9866  -9.9814  -9.9745  -9.9706  -9.9683  -9.9667  -9.9653
    -9.9609  -9.9477  -9.9360  -9.9321  -9.9294  -9.9279  -9.9195  -9.9036
    -9.8868  -9.8783  -9.8732  -9.8704  -9.8694  -9.8671  -9.8641  -9.8546
    -9.8531  -9.8238  -9.8216  -9.8117  -9.8038  -9.7877  -9.7863  -9.7774
    -9.7756  -9.6896  -9.6761  -9.6697  -9.6628  -9.6403  -9.6293  -9.5757
    -9.5623  -9.5562  -9.5344  -9.5143  -9.5108  -9.5050  -9.5017  -9.4855
    -9.3997  -9.3938  -9.3806  -9.3776  -9.3709  -9.3510  -9.3478  -9.3431
    -9.3365  -9.3287  -9.3225  -9.3184  -9.2443  -9.2367  -9.2151  -9.2143
    -9.2040  -9.1944  -9.1858  -9.1845  -9.1589  -9.1512  -9.1425  -9.1279
    -9.1105  -9.1058  -9.0870  -9.0851  -9.0362  -9.0331  -9.0200  -9.0149
    -9.0128  -9.0076  -8.9935  -8.9896  -8.9844  -8.9833  -8.9805  -8.9759
    -8.9316  -8.9306  -8.9293  -8.9240  -8.8818  -8.8813  -8.7992  -8.7677
    -8.6978  -8.6586  -8.6207  -8.5899  -8.5888  -8.5791  -8.5737  -8.5629
    -8.5395  -8.5268  -8.5250  -8.5188  -8.5079  -8.5076  -8.4796  -8.4655
    -8.3591  -8.3560  -8.3357  -8.3227  -8.3049  -8.2961  -8.2569  -8.2328
    -8.2093  -8.2067  -8.2048  -8.2040  -8.1757  -8.1663  -8.1609  -8.1512
    -8.1374  -8.1304  -8.0952  -8.0844  -8.0409  -8.0311  -8.0146  -8.0101
    -8.0070  -8.0037  -7.9922  -7.9911  -7.9725  -7.9615  -7.9536  -7.9441
    -7.9339  -7.9219  -7.9084  -7.9042  -7.8567  -7.8338  -7.8261  -7.8190
    -7.7355  -7.7087  -7.6980  -7.6971  -7.6878  -7.6815  -7.6720  -7.6692
    -7.6678  -7.6668  -7.6559  -7.6533  -7.6196  -7.6141  -7.5888  -7.5786
    -7.5187  -7.5133  -7.4282  -7.4217  -7.4024  -7.3800  -7.3431  -7.3239
    -7.2609  -7.2467  -7.2333  -7.2300  -7.2202  -7.2131  -7.1989  -7.1944
    -7.1128  -7.0875  -7.0642  -7.0581  -7.0481  -7.0452  -7.0255  -7.0211
    -7.0107  -7.0089  -6.9768  -6.9722  -6.9536  -6.9372  -6.9200  -6.9167
    -6.9139  -6.9131  -6.8930  -6.8641  -6.8514  -6.8431  -6.8393  -6.8240
    -6.7943  -6.7631  -6.7511  -6.7499  -6.6807  -6.6571  -6.6521  -6.6457
    -6.6310  -6.6290  -6.5855  -6.5608  -6.5529  -6.5440  -6.5414  -6.5408
    -6.5320  -6.5291  -6.3370  -6.3346  -6.3255  -6.3155  -6.2882  -6.2669
    -6.2444  -6.2428  -6.2367  -6.2112  -6.2091  -6.2033  -6.1954  -6.1874
    -6.1731  -6.0784  -6.0678  -6.0444  -6.0344  -6.0008  -5.9895  -5.9362
    -5.9292  -5.9278  -5.9043  -5.8845  -5.8783  -5.7748  -5.7570  -5.7459
    -5.6421  -5.5670  -5.5331  -5.4975  -5.4712  -5.4672  -5.4603  -5.4110
    -5.3921  -5.3137  -5.2958  -5.2951  -5.2758  -5.2681  -5.2379  -5.2328
    -5.2101  -5.2055  -5.2037  -5.1735  -5.1673  -5.1263  -5.0856  -5.0699
    -5.0590  -5.0284  -5.0214  -5.0096  -4.9702  -4.9492  -4.9305  -4.9139
    -4.9081  -4.9031  -4.9007  -4.8341  -4.7496  -4.7124  -4.7092  -4.6490
    -4.5967  -4.5645  -4.5516  -4.4226  -4.2837  -4.2267  -4.1619  -4.0994
    -4.0849  -4.0468  -4.0236  -4.0024  -3.9911  -3.8238  -3.7770  -3.7164
    -3.6029  -3.3633  -3.3147  -2.4604  -2.4031  -2.2227  -2.0195  -1.9735
    -1.9430  -1.8479  -1.8374  -1.8315  -1.7932  -1.7873  -1.6774  -1.6705
    -1.6590  -1.6521  -1.5625  -1.5563  -1.5370  -1.4982  -1.4555  -1.4473
    -1.4440  -1.3552  -1.3506  -1.3277  -1.3223  -1.2998  -1.2966  -1.2822
    -1.2765  -1.2726  -1.2712  -1.2430  -1.2262  -1.1988  -1.1784  -1.1688
    -1.1606  -1.1028  -1.0896  -1.0870  -1.0786  -1.0357  -1.0246  -1.0172
    -1.0148  -1.0058  -0.9989  -0.9903  -0.9736  -0.9639  -0.9157  -0.9075
    -0.6970  -0.6740  -0.6631  -0.6603  -0.5811  -0.5738  -0.5084  -0.4909
    -0.4460  -0.4392  -0.4147  -0.4070  -0.2576  -0.2451  -0.1989  -0.1746
    -0.1545  -0.0523  -0.0089   0.0046   0.0985   0.1051   0.1241   0.1582
     0.2439   0.2471   0.3053   0.3665   0.3804   0.4166   0.4171   0.4503
     0.4911   0.5096   0.5103   0.5159   0.5183   0.5219   0.5277   0.5635
     0.6124   0.6454   0.6522   0.6767   0.7373   0.7779   0.7826   0.8191
     0.8208   0.8215   0.8388   0.8418   0.8623   0.8663   0.8711   0.9082
     0.9162   0.9495   0.9523   0.9542   0.9571   1.0901   1.1142   1.1415
     1.1788   1.1810   1.1838   1.2191   1.2227   1.2239   1.2300   1.2335
     1.2371   1.2569   1.2960   1.3034   1.3129   1.3155   1.3283   1.3396
     1.3434   1.3703   1.3883   1.4043   1.4385   1.5008   1.5022   1.5063
     1.5120   1.5277   1.5597   1.5676   1.5690   1.5726   1.5822   1.5980
     1.6021   1.6028   1.6051   1.6304   1.6314   1.6492   1.6595   1.6684
     1.6690   1.6718   1.6984   1.7201   1.7604   1.7769   1.7876   1.7879

          k = 0.0000 0.0000 0.4010 (****** PWs)   bands (ev):

   -22.6680 -22.6542 -22.5347 -22.5234 -22.4625 -22.4465 -22.4418 -22.4412
   -22.3280 -22.3137 -22.3112 -22.3111 -22.2660 -22.2610 -22.0653 -22.0500
   -22.0496 -22.0491 -21.8779 -21.8674 -21.8350 -21.8188 -21.8137 -21.8135
   -21.7073 -21.6870 -21.6844 -21.6843 -21.6637 -21.6575 -21.6570 -21.6559
   -21.4432 -21.4259 -21.4252 -21.4243 -21.3498 -21.3450 -21.1539 -21.1370
   -21.1365 -21.1348 -21.0527 -21.0378 -21.0362 -21.0347 -20.8270 -20.8072
   -20.7982 -20.7980 -20.7118 -20.6970 -20.6825 -20.6769 -20.6715 -20.6704
   -20.5451 -20.5228 -20.5212 -20.5189 -20.4979 -20.4911 -20.4907 -20.4888
   -20.4286 -20.4193 -20.4181 -20.4144 -20.0618 -20.0387 -20.0358 -20.0319
   -19.9388 -19.9267 -19.8979 -19.8841 -19.8831 -19.8802 -19.7436 -19.7251
   -19.7238 -19.7229 -19.5587 -19.5348 -19.5302 -19.5264 -19.4628 -19.4530
   -19.4399 -19.4397 -19.3397 -19.3259 -19.3172 -19.3157 -19.1597 -19.1291
   -19.1280 -19.1256 -19.0881 -19.0768 -19.0714 -19.0681 -19.0482 -19.0437
   -18.9307 -18.9121 -18.9068 -18.9030 -18.8600 -18.8480 -18.8463 -18.8448
   -18.7197 -18.7067 -18.7044 -18.6989 -18.3332 -18.2747 -18.2733 -18.2686
   -18.2379 -18.2217 -18.2203 -18.2133 -18.1924 -18.1833 -18.1797 -18.1760
   -18.0744 -18.0616 -17.9256 -17.8810 -17.8779 -17.8734 -17.8682 -17.8560
   -17.8496 -17.8487 -17.7567 -17.7516 -17.7330 -17.7291 -17.6594 -17.6342
   -17.6291 -17.6257 -17.5350 -17.5243 -17.5028 -17.4916 -17.4604 -17.4335
   -17.4276 -17.4198 -17.4133 -17.4105 -17.3822 -17.3723 -17.1928 -17.1858
   -17.1553 -17.1411 -17.0855 -17.0525 -17.0314 -17.0113 -16.9972 -16.9837
   -16.9532 -16.9421 -16.8749 -16.8591 -16.7443 -16.7398 -16.7047 -16.6926
   -16.3490 -16.2818 -16.2268 -16.2065 -16.1196 -16.0436 -16.0390 -16.0350
   -16.0345 -16.0322 -15.9376 -15.9178 -15.8868 -15.8642 -15.8464 -15.7777
   -15.7664 -15.7514 -15.7448 -15.5670 -15.5525 -15.5524 -15.5106 -15.4590
   -15.4485 -15.4475 -15.3989 -15.3979 -15.3942 -15.3906 -15.3641 -15.3631
   -15.3470 -15.2594 -15.2494 -15.2466 -15.2031 -15.2010 -15.1637 -15.0953
   -15.0904 -15.0849 -15.0813 -15.0767 -15.0539 -15.0364 -14.9963 -14.9643
   -14.9566 -14.9551 -14.9204 -14.9123 -14.8934 -14.8864 -14.8640 -14.8527
   -14.7969 -14.7179 -14.6926 -14.6888 -14.6838 -14.6618 -14.5733 -14.4409
   -14.4285 -14.3395 -14.3223 -13.9714 -13.9666 -13.9607 -13.9531 -13.9460
   -13.9381 -13.8863 -13.8762 -13.8392 -13.8354 -13.8034 -13.7964 -13.6643
   -13.6592 -13.5687 -13.5356 -13.5344 -13.5331 -13.5318 -13.5189 -13.5121
   -13.4951 -13.4793 -13.4626 -13.4166 -13.4023 -13.3980 -13.3832 -13.3643
   -13.3544 -13.2667 -13.2584 -13.2420 -13.2210 -13.0904 -13.0848 -13.0678
   -13.0558 -13.0442 -13.0328 -12.8892 -12.8870 -12.8543 -12.8471 -12.8323
   -12.8279 -12.8090 -12.8050 -12.7682 -12.7622 -12.7483 -12.7430 -12.7139
   -12.7019 -12.6094 -12.6067 -12.5311 -12.5277 -12.5048 -12.5008 -12.4327
   -12.4299 -12.2417 -12.2357 -12.1116 -12.1084 -12.0038 -12.0016 -11.9873
   -11.9799 -11.8566 -11.8544 -11.7813 -11.7779 -11.7460 -11.7420 -11.6819
   -11.6712 -11.6507 -11.6473 -11.6308 -11.6296 -11.6043 -11.6007 -11.5639
   -11.5621 -11.5258 -11.5205 -11.4993 -11.4962 -11.4922 -11.4899 -11.4499
   -11.4448 -11.4312 -11.4147 -11.3761 -11.3624 -11.3446 -11.3421 -11.3250
   -11.3142 -11.2906 -11.2889 -11.2569 -11.2548 -11.2412 -11.2324 -11.1700
   -11.1653 -11.1638 -11.1603 -11.1596 -11.1576 -11.1415 -11.1367 -10.7836
   -10.7790 -10.7693 -10.7649 -10.7544 -10.7513 -10.7460 -10.7431 -10.7191
   -10.7164 -10.6995 -10.6975 -10.6316 -10.6256 -10.5502 -10.5436 -10.5427
   -10.5312 -10.4908 -10.4903 -10.4795 -10.4769 -10.4634 -10.4556 -10.4351
   -10.4291 -10.4196 -10.4162 -10.4007 -10.3984 -10.3951 -10.3923 -10.3908
   -10.3781 -10.3335 -10.3245 -10.3178 -10.3134 -10.3014 -10.2984 -10.2940
   -10.2916 -10.2430 -10.2336 -10.2175 -10.2161 -10.1897 -10.1838 -10.1310
   -10.1222 -10.1151 -10.1092 -10.1023 -10.1003 -10.0910 -10.0828 -10.0677
   -10.0660 -10.0472 -10.0353 -10.0216 -10.0131  -9.9803  -9.9748  -9.9660
    -9.9640  -9.9444  -9.9356  -9.9328  -9.9240  -9.9034  -9.8968  -9.8950
    -9.8919  -9.8875  -9.8771  -9.8108  -9.7997  -9.7964  -9.7883  -9.7819
    -9.7812  -9.7724  -9.7690  -9.7377  -9.7296  -9.7098  -9.7085  -9.6946
    -9.6933  -9.6804  -9.6784  -9.6462  -9.6424  -9.6127  -9.6094  -9.6071
    -9.5947  -9.5481  -9.5430  -9.5090  -9.4961  -9.4944  -9.4782  -9.4698
    -9.4682  -9.4575  -9.4503  -9.4217  -9.4196  -9.3336  -9.3225  -9.3116
    -9.2980  -9.2913  -9.2900  -9.2857  -9.2847  -9.2807  -9.2648  -9.1859
    -9.1838  -9.1573  -9.1412  -9.1283  -9.1276  -9.1136  -9.1046  -9.0998
    -9.0976  -9.0910  -9.0893  -9.0864  -9.0830  -9.0755  -9.0711  -9.0459
    -9.0444  -9.0414  -9.0286  -9.0276  -9.0117  -9.0065  -8.9991  -8.9518
    -8.9498  -8.9341  -8.9298  -8.9188  -8.9171  -8.9062  -8.9058  -8.8169
    -8.7957  -8.6594  -8.6197  -8.6184  -8.6027  -8.5898  -8.5831  -8.5459
    -8.5341  -8.5073  -8.5018  -8.4590  -8.4557  -8.3871  -8.3669  -8.3543
    -8.3080  -8.3002  -8.2983  -8.2879  -8.2718  -8.2604  -8.2559  -8.2382
    -8.2302  -8.2238  -8.2226  -8.1789  -8.1737  -8.1626  -8.1489  -8.1290
    -8.1259  -8.1124  -8.0865  -8.0784  -8.0754  -8.0717  -8.0668  -8.0599
    -8.0554  -8.0486  -8.0411  -8.0388  -8.0309  -8.0284  -8.0259  -8.0174
    -8.0100  -7.9410  -7.9322  -7.8886  -7.8802  -7.8684  -7.8626  -7.8524
    -7.8518  -7.7640  -7.7601  -7.6912  -7.6859  -7.6496  -7.5963  -7.5858
    -7.5680  -7.5659  -7.5611  -7.5296  -7.5241  -7.4830  -7.4703  -7.4539
    -7.4474  -7.3968  -7.3874  -7.3869  -7.3652  -7.3614  -7.3551  -7.3212
    -7.3199  -7.3144  -7.2947  -7.2899  -7.2893  -7.2723  -7.2680  -7.2615
    -7.2577  -7.2566  -7.2445  -7.1834  -7.1747  -7.1215  -7.1090  -7.0478
    -7.0067  -6.9521  -6.9462  -6.9364  -6.9332  -6.9296  -6.9263  -6.9204
    -6.9077  -6.8742  -6.8205  -6.8034  -6.8032  -6.7632  -6.7515  -6.7475
    -6.7328  -6.7223  -6.6908  -6.6626  -6.6611  -6.6433  -6.6372  -6.6326
    -6.6312  -6.5823  -6.5757  -6.5198  -6.5099  -6.4762  -6.4759  -6.4411
    -6.4202  -6.4120  -6.4005  -6.3880  -6.3873  -6.3865  -6.3818  -6.3765
    -6.3718  -6.3670  -6.3613  -6.3369  -6.3343  -6.3087  -6.3026  -6.2147
    -6.1949  -6.1160  -6.0164  -6.0152  -5.9957  -5.9911  -5.9766  -5.8908
    -5.8773  -5.8496  -5.8477  -5.8077  -5.7463  -5.7132  -5.6807  -5.6500
    -5.5709  -5.5466  -5.5282  -5.5098  -5.4935  -5.4733  -5.4710  -5.4448
    -5.3982  -5.3862  -5.3237  -5.3033  -5.2929  -5.2832  -5.2816  -5.2789
    -5.2743  -5.2353  -5.2268  -5.2098  -5.1922  -5.1644  -5.1520  -5.1420
    -5.1007  -5.0709  -5.0658  -5.0083  -4.9494  -4.9333  -4.9304  -4.8666
    -4.8566  -4.8302  -4.7923  -4.7460  -4.7308  -4.6466  -4.5745  -4.5461
    -4.5310  -4.5121  -4.5043  -4.4636  -4.4547  -4.4416  -4.3766  -4.2143
    -4.0716  -4.0094  -3.9543  -3.9367  -3.8631  -3.8623  -3.7626  -3.6081
    -3.5762  -3.4492  -3.3809  -2.3995  -2.2881  -2.2231  -2.2005  -2.0867
    -1.9592  -1.9513  -1.7799  -1.7747  -1.7540  -1.6473  -1.5993  -1.5930
    -1.5723  -1.5689  -1.5644  -1.5638  -1.5439  -1.5375  -1.4870  -1.4827
    -1.4448  -1.4402  -1.4162  -1.4094  -1.3921  -1.3896  -1.3665  -1.3637
    -1.3584  -1.2963  -1.2897  -1.2880  -1.1584  -1.1385  -1.0830  -1.0740
    -1.0631  -1.0406  -1.0145  -1.0091  -1.0079  -1.0069  -1.0019  -0.9953
    -0.9935  -0.9913  -0.9742  -0.9737  -0.9711  -0.9336  -0.9231  -0.8855
    -0.8837  -0.8298  -0.8240  -0.6590  -0.6514  -0.6433  -0.6378  -0.4255
    -0.4203  -0.4001  -0.3365  -0.3217  -0.3189  -0.1517  -0.1340  -0.0845
    -0.0527  -0.0174   0.0280   0.0458   0.0509   0.0771   0.1769   0.1774
     0.1799   0.1994   0.2062   0.2472   0.2847   0.3284   0.3402   0.3466
     0.3551   0.3622   0.5013   0.5617   0.5959   0.6522   0.6781   0.6990
     0.6997   0.7075   0.7094   0.7453   0.7675   0.8161   0.8243   0.8352
     0.8379   0.8479   0.8506   0.8627   0.8634   0.8867   0.8868   0.8954
     0.9070   0.9493   0.9554   0.9713   0.9753   1.0229   1.0274   1.0664
     1.0678   1.0869   1.0897   1.1478   1.1617   1.1668   1.2338   1.2387
     1.2399   1.2589   1.2592   1.2671   1.3004   1.3322   1.3430   1.3454
     1.3834   1.3859   1.4160   1.4235   1.4246   1.4273   1.4414   1.4431
     1.5309   1.5349   1.5388   1.5792   1.5930   1.6840   1.6906   1.6982
     1.7031   1.7040   1.7101   1.7153   1.7159   1.7181   1.7192   1.7287
     1.7344   1.7379   1.7394   1.7542   1.7633   1.7665   1.7699   1.7832

     Writing all to output data dir ./CNT_PBE.save/

     init_run     :      6.61s CPU      9.28s WALL (       1 calls)
     electrons    :   2987.72s CPU   2550.30s WALL (       1 calls)

     Called by init_run:
     wfcinit      :      0.02s CPU      0.04s WALL (       1 calls)
     wfcinit:wfcr :     45.88s CPU     35.83s WALL (       1 calls)
     potinit      :      0.61s CPU      3.14s WALL (       1 calls)
     hinit0       :      1.11s CPU      1.15s WALL (       1 calls)

     Called by electrons:
     c_bands      :   2987.71s CPU   2550.25s WALL (       1 calls)
     v_of_rho     :      0.27s CPU      1.12s WALL (       1 calls)
     v_h          :      0.07s CPU      0.42s WALL (       1 calls)
     v_xc         :      0.19s CPU      0.70s WALL (       1 calls)

     Called by c_bands:
     init_us_2    :      0.13s CPU      0.14s WALL (       1 calls)
     init_us_2:cp :      0.13s CPU      0.14s WALL (       1 calls)
     cegterg      :   2935.19s CPU   2479.19s WALL (       6 calls)

     Called by sum_band:

     Called by *egterg:
     cdiaghg      :     75.62s CPU    145.71s WALL (     121 calls)
     cegterg:over :    223.02s CPU    243.17s WALL (     120 calls)
     cegterg:upda :    162.69s CPU    169.32s WALL (     120 calls)
     cegterg:last :    303.94s CPU    328.93s WALL (      53 calls)
     cdiaghg:chol :      1.58s CPU      7.50s WALL (     121 calls)
     cdiaghg:inve :      0.16s CPU      0.48s WALL (     121 calls)
     cdiaghg:para :     19.55s CPU     36.88s WALL (     242 calls)
     h_psi        :   2197.01s CPU   1609.57s WALL (     127 calls)
     g_psi        :      0.85s CPU      0.27s WALL (     120 calls)

     Called by h_psi:
     h_psi:calbec :    668.63s CPU    680.69s WALL (     127 calls)
     vloc_psi     :    870.01s CPU    271.25s WALL (     127 calls)
     vloc_psi:tg_ :      0.14s CPU      0.04s WALL (     127 calls)
     add_vuspsi   :    655.58s CPU    656.80s WALL (     127 calls)

     General routines
     calbec       :    668.63s CPU    680.69s WALL (     127 calls)
     fft          :      1.11s CPU      2.35s WALL (      10 calls)
     fftw         :    855.98s CPU    267.58s WALL (   94968 calls)
     davcio       :      0.00s CPU      0.11s WALL (       2 calls)

     Parallel routines
     fft_scatt_xy :     23.23s CPU      6.08s WALL (   94978 calls)
     fft_scatt_yz :    717.31s CPU    231.63s WALL (   94978 calls)
     fft_scatt_tg :      3.03s CPU      0.88s WALL (   94968 calls)

     PWSCF        :  50m10.89s CPU  43m39.60s WALL


   This run was terminated on:  18:23:51   1Jun2024            

=------------------------------------------------------------------------------=
   JOB DONE.
=------------------------------------------------------------------------------=
