Ge Se                                   
    1.000000000000000     
     4.5000000000000000    0.0000000000000000    0.0000000000000000
     0.0000000000000000    3.8500000000000010    0.0000000000000000
     0.0000000000000000    0.0000000000000000   11.1422209999999993
   Ge   Se
     4     4
Selective dynamics
Direct
  0.1099209582358753  0.2500000000000000  0.1242840517454553   T   T   T
  0.6099209582358753  0.7500000000000000  0.3757159482545447   T   T   T
  0.8900790417641247  0.7500000000000000  0.8757159482545447   T   T   T
  0.3900790417641247  0.2500000000000000  0.6242840517454553   T   T   T
  0.9920401447926395  0.2500000000000000  0.3523889307840307   T   T   T
  0.4920401447926395  0.7500000000000000  0.1476110692159693   T   T   T
  0.0079598552073605  0.7500000000000000  0.6476110692159693   T   T   T
  0.5079598552073605  0.2500000000000000  0.8523889307840307   T   T   T
 
  0.00000000E+00  0.00000000E+00  0.00000000E+00
  0.00000000E+00  0.00000000E+00  0.00000000E+00
  0.00000000E+00  0.00000000E+00  0.00000000E+00
  0.00000000E+00  0.00000000E+00  0.00000000E+00
  0.00000000E+00  0.00000000E+00  0.00000000E+00
  0.00000000E+00  0.00000000E+00  0.00000000E+00
  0.00000000E+00  0.00000000E+00  0.00000000E+00
  0.00000000E+00  0.00000000E+00  0.00000000E+00
