Ge Se                                   
    1.000000000000000     
    12.4641676441080502    0.0000029948796168    0.0000012505609356
     0.0000030035728793   12.5003470103525824    0.0000083595102242
     0.0000014286245562    0.0000095221557685   11.0613200234478750
   Ge   Se
    36    36
Direct
  0.0697210107930317  0.0524736105010319  0.1291170896463782
  0.2368893175164004  0.8703020678381890  0.3627562784484581
  0.5980790735522845  0.1948609637588490  0.3686084963424676
  0.5561265172679057  0.5592067150366589  0.3684773753200403
  0.6033728652882502  0.8685642215668921  0.3822024612611941
  0.9011867220922554  0.2055780745600160  0.3529371415066009
  0.9446930210401447  0.5065860547023036  0.3847612280027377
  0.9158667233473494  0.8820350270419581  0.3687021531566756
  0.0854375096122340  0.1697673435633291  0.6182879661566645
  0.0731539989977108  0.4971455810572110  0.6353668533242072
  0.0901759746864812  0.8200973211351794  0.6166965989318030
  0.4114458134509889  0.1753716691513958  0.6384573948177490
  0.4198383922091296  0.4967665079887027  0.6255291832781893
  0.4026153500749032  0.8193250515787582  0.6398345967929231
  0.7361432459051400  0.1459600623064006  0.6289165025500836
  0.7618270906075466  0.4740694777005814  0.5928557203610580
  0.2420737430803754  0.5337209699567609  0.3759906935846757
  0.2656776257305253  0.1850231535509508  0.3789010282311409
  0.7492201662333215  0.8235186088470527  0.6267609717272151
  0.9032605100974962  0.6470409435480846  0.8531595978273359
  0.9150514849329454  0.9751586811649631  0.8725506471306872
  0.0772014712503122  0.3621734418740985  0.1209148755008584
  0.0788721603947096  0.7057337262116476  0.1249895757190274
  0.4133821437208098  0.0213817940031333  0.1251553100717118
  0.4152561567462953  0.3689261379878843  0.1220542335287362
  0.7175445102627833  0.0317005359033402  0.0859791999604553
  0.7421196107125638  0.3900653371872025  0.1344619445173194
  0.3992984978770480  0.7077163676769729  0.1348777964858812
  0.2483342677355012  0.3205509544643590  0.8732222222651416
  0.2310942232525761  0.6398097002530321  0.8615593974867153
  0.2170354128351022  0.0021759146588707  0.8624841548149433
  0.5770517159898745  0.3113826914752948  0.8829018972489990
  0.5922400531182532  0.6573309124902877  0.8743804962399082
  0.5763822672937593  0.9710411020527587  0.8660074969855316
  0.8880349669332119  0.3188798458651192  0.8747926962031585
  0.7609944523618779  0.6860745929958370  0.1454007740196346
  0.8737015362958047  0.9882724121169559  0.6371113503547292
  0.2153858671087434  0.3274713242035361  0.6379326122813893
  0.2446285124620360  0.6755058354975816  0.6462197608545566
  0.5642425208018551  0.0190429907333822  0.6531445188076361
  0.5585367606117586  0.3405315035518370  0.6515525127135717
  0.5561037079645814  0.6724604314842111  0.6375409188844117
  0.9137231846118112  0.3548831191058923  0.6287834743074328
  0.7444551311940728  0.0064088462409231  0.3202896744658474
  0.0649105521362046  0.0184837753250520  0.3668459403782691
  0.0589016746440407  0.3434118427425048  0.3499916050152763
  0.0836550453083831  0.6678362341702311  0.3548159161345481
  0.3957827520763502  0.0193446819070502  0.3561318977985124
  0.4104528746829530  0.3334250492188531  0.3395649666083571
  0.3844824458098230  0.6784247063731357  0.3647600390451871
  0.2294659523028315  0.0209754260188646  0.6378738138705700
  0.9036371421686198  0.6893113216450857  0.6338932370866175
  0.9082022191505175  0.8358937039193179  0.1385835407248663
  0.2147461797892873  0.1967707518693231  0.1305228895514574
  0.8930664595431494  0.1859875963617696  0.1238972150726028
  0.7206939052589760  0.3575166611321308  0.3624375254262304
  0.0274953986513040  0.1595913794836719  0.8459922195815395
  0.0517385020489414  0.5121232250655865  0.8486217650151531
  0.0699310581455350  0.8438854762774284  0.8547909323951473
  0.4012343787833856  0.1764220572656470  0.8694736986647627
  0.3753084804326576  0.4888933905907820  0.8538855430067969
  0.3835831053948198  0.8655533451356234  0.8583047429797546
  0.7374565578223553  0.1709331934766780  0.8574904986033047
  0.7378837744674556  0.5145027227354291  0.8401926384544041
  0.7217136240473110  0.8320136787973240  0.8553383605981253
  0.2436199033429816  0.4938509876600463  0.1542177892520371
  0.2288384267753472  0.8451675424906497  0.1389239600956600
  0.5731718868737445  0.1741429408098867  0.1411194902752584
  0.5708070357724822  0.5184176501531255  0.1174571818012922
  0.5356363404348983  0.8558495244137276  0.1507139715368169
  0.8974752775253236  0.5298850771920627  0.1519122684796841
  0.7148136554889533  0.6862880936978684  0.3700402691318274
 
  0.00000000E+00  0.00000000E+00  0.00000000E+00
  0.00000000E+00  0.00000000E+00  0.00000000E+00
  0.00000000E+00  0.00000000E+00  0.00000000E+00
  0.00000000E+00  0.00000000E+00  0.00000000E+00
  0.00000000E+00  0.00000000E+00  0.00000000E+00
  0.00000000E+00  0.00000000E+00  0.00000000E+00
  0.00000000E+00  0.00000000E+00  0.00000000E+00
  0.00000000E+00  0.00000000E+00  0.00000000E+00
  0.00000000E+00  0.00000000E+00  0.00000000E+00
  0.00000000E+00  0.00000000E+00  0.00000000E+00
  0.00000000E+00  0.00000000E+00  0.00000000E+00
  0.00000000E+00  0.00000000E+00  0.00000000E+00
  0.00000000E+00  0.00000000E+00  0.00000000E+00
  0.00000000E+00  0.00000000E+00  0.00000000E+00
  0.00000000E+00  0.00000000E+00  0.00000000E+00
  0.00000000E+00  0.00000000E+00  0.00000000E+00
  0.00000000E+00  0.00000000E+00  0.00000000E+00
  0.00000000E+00  0.00000000E+00  0.00000000E+00
  0.00000000E+00  0.00000000E+00  0.00000000E+00
  0.00000000E+00  0.00000000E+00  0.00000000E+00
  0.00000000E+00  0.00000000E+00  0.00000000E+00
  0.00000000E+00  0.00000000E+00  0.00000000E+00
  0.00000000E+00  0.00000000E+00  0.00000000E+00
  0.00000000E+00  0.00000000E+00  0.00000000E+00
  0.00000000E+00  0.00000000E+00  0.00000000E+00
  0.00000000E+00  0.00000000E+00  0.00000000E+00
  0.00000000E+00  0.00000000E+00  0.00000000E+00
  0.00000000E+00  0.00000000E+00  0.00000000E+00
  0.00000000E+00  0.00000000E+00  0.00000000E+00
  0.00000000E+00  0.00000000E+00  0.00000000E+00
  0.00000000E+00  0.00000000E+00  0.00000000E+00
  0.00000000E+00  0.00000000E+00  0.00000000E+00
  0.00000000E+00  0.00000000E+00  0.00000000E+00
  0.00000000E+00  0.00000000E+00  0.00000000E+00
  0.00000000E+00  0.00000000E+00  0.00000000E+00
  0.00000000E+00  0.00000000E+00  0.00000000E+00
  0.00000000E+00  0.00000000E+00  0.00000000E+00
  0.00000000E+00  0.00000000E+00  0.00000000E+00
  0.00000000E+00  0.00000000E+00  0.00000000E+00
  0.00000000E+00  0.00000000E+00  0.00000000E+00
  0.00000000E+00  0.00000000E+00  0.00000000E+00
  0.00000000E+00  0.00000000E+00  0.00000000E+00
  0.00000000E+00  0.00000000E+00  0.00000000E+00
  0.00000000E+00  0.00000000E+00  0.00000000E+00
  0.00000000E+00  0.00000000E+00  0.00000000E+00
  0.00000000E+00  0.00000000E+00  0.00000000E+00
  0.00000000E+00  0.00000000E+00  0.00000000E+00
  0.00000000E+00  0.00000000E+00  0.00000000E+00
  0.00000000E+00  0.00000000E+00  0.00000000E+00
  0.00000000E+00  0.00000000E+00  0.00000000E+00
  0.00000000E+00  0.00000000E+00  0.00000000E+00
  0.00000000E+00  0.00000000E+00  0.00000000E+00
  0.00000000E+00  0.00000000E+00  0.00000000E+00
  0.00000000E+00  0.00000000E+00  0.00000000E+00
  0.00000000E+00  0.00000000E+00  0.00000000E+00
  0.00000000E+00  0.00000000E+00  0.00000000E+00
  0.00000000E+00  0.00000000E+00  0.00000000E+00
  0.00000000E+00  0.00000000E+00  0.00000000E+00
  0.00000000E+00  0.00000000E+00  0.00000000E+00
  0.00000000E+00  0.00000000E+00  0.00000000E+00
  0.00000000E+00  0.00000000E+00  0.00000000E+00
  0.00000000E+00  0.00000000E+00  0.00000000E+00
  0.00000000E+00  0.00000000E+00  0.00000000E+00
  0.00000000E+00  0.00000000E+00  0.00000000E+00
  0.00000000E+00  0.00000000E+00  0.00000000E+00
  0.00000000E+00  0.00000000E+00  0.00000000E+00
  0.00000000E+00  0.00000000E+00  0.00000000E+00
  0.00000000E+00  0.00000000E+00  0.00000000E+00
  0.00000000E+00  0.00000000E+00  0.00000000E+00
  0.00000000E+00  0.00000000E+00  0.00000000E+00
  0.00000000E+00  0.00000000E+00  0.00000000E+00
  0.00000000E+00  0.00000000E+00  0.00000000E+00
