Ge Se
 1.0000000000000000
     4.0999999999999996    0.0000000000000000    0.0000000000000000
     0.0000000000000000    4.3000000000000007    0.0000000000000000
     0.0000000000000000    0.0000000000000000   11.1422210000000010
 Ge  Se 
   4   4
Selective dynamics
Cartesian
  1.0249999999999999  0.4384887873031116  1.4450178549844468   T   T   T
  3.0749999999999997  2.5884887873031115  4.1260926450155555   T   T   T
  3.0749999999999997  3.8615112126968900  9.6972031450155498   T   T   T
  1.0249999999999999  1.7115112126968894  7.0161283549844455   T   T   T
  1.0249999999999999 -0.0262627825060595  3.9685806498757232   T   T   T
  3.0749999999999997  2.1237372174939408  1.6025298501242775   T   T   T
  3.0749999999999997  4.3262627825060624  7.1736403501242787   T   T   T
  1.0249999999999999  2.1762627825060590  9.5396911498757291   T   T   T
