Ge Se 
 1.0000000000000000
    12.4111299813885623    0.0000059522796823   -0.0000024883488055
     0.0000060025922986   12.5160282843420720   -0.0000025187238251
    -0.0000028579847130   -0.0000028686243246   11.0736325119986052
 Ge  Se 
  36  36
Cartesian
  0.9450951432147868  0.5962983225038103  1.5288280528032099
  3.1441371317437685 11.0288546755667216  4.1920812157981775
  7.0529736541375136  2.7632025767282191  4.0291977467451314
  7.0002966883008959  6.7353134358808671  3.9728152911378372
  7.1494010894481947 11.0543431157888961  4.0870671029560599
 11.2893955172184519  2.3995526022076588  3.8811619155456047
 11.0467083128113046  6.5941664445011074  4.1911612361108981
 11.3507290815138191 10.9280394182135154  3.9465406428735701
  1.0183142215991607  1.9908676514459716  6.9764012499007340
  0.7764773794810399  6.0264809633229168  7.1148493303144544
  1.0214356784874385 10.2093368849306678  7.1122388697516090
  5.0446663155545073  1.9473724144146143  6.9560371709439073
  5.4315642225422796  6.1462699011442536  7.0302307244629976
  4.9546480508435842 10.0695109954530047  6.9323872716491293
  9.1942800256794008  1.7089856463316491  6.8973808964477241
  9.2790017199272388  6.3455547639246266  7.1468657966355629
  2.9880024278038109  6.9362171762443863  4.1630256124230387
  2.9447429929759781  2.7515843551660364  3.9968963928548242
  9.3039800507891393 10.2880510595399404  6.9871233275589404
 11.2862396661029720  8.3192872310761761  9.6665471959408684
 11.6769305925166140 12.5460430542890080  9.6602481226800148
  0.9733706781901051  4.5319491408079848  1.2793402161559886
  0.8301704555703943  8.9691050805269477  1.4773897750165983
  5.1900132050151973  0.3793888220734174  1.3045678342422755
  4.8886138987525509  4.9918767285576040  1.4122210663386818
  8.9393399310464563  0.4117095063567644  1.3923596486775953
  9.0186750793885402  4.7544707156267618  1.3900742149102261
  5.0072884131002642  8.8919914342878936  1.3497844417936757
  3.0667895967936860  4.0571361443112108  9.4983650286492942
  2.8862724299791171  8.0779732367582717  9.5418077728734119
  3.1157141136762991 12.3801700798535155  9.6649664837170413
  7.0930964928019016  3.8766498904418816  9.7816535408000043
  7.3352214976938335  8.3142719419358073  9.5697783999303088
  6.9473708279161777 12.2529957878975608  9.6101342198147996
 10.9358667816758821  4.0080236814552066  9.5994753252510243
  9.3189227748816741  8.7357231988854327  1.5194173865604772
 11.0181689646649730 -0.1057141854450970  7.1738704260202724
  2.7957133081980645  4.2588372738127847  7.0433417768020803
  2.9592026268678864  8.2949282482260305  7.0360941959538348
  7.0224337086069335  0.1707954494852569  7.2199813050809150
  7.2498003867334049  4.4077318256166063  7.2883285127802608
  6.9609671759306613  8.3961573435493992  6.9816261062396157
 11.1515415930352653  4.3160536479882250  7.0216225291016254
  9.1397231529064040  0.0833956745520345  4.0605707185942519
  0.8989543510404568  0.1725416226854783  3.9946256384817165
  0.7386451616657500  4.0474865495207970  3.8296341426524729
  0.8567201673217987  8.5284140866619111  4.0232728183458901
  5.0445998667555605  0.1501612993270859  3.8668709041820892
  5.1060436840992605  4.5680911487987501  4.0077746626727633
  5.0108654326895579  8.5161481404433133  4.1124971943962345
  2.9287860567328594  0.4353446920806798  7.1587447700042208
 11.2797499476097265  8.5116199576205887  7.1005572553650342
 11.1116302963164113 10.6315874637681134  1.5032532542659540
  3.1746723309990266  2.3520109888829244  1.4992390269448659
 11.2492450237528061  2.0898499057293121  1.4342918749610380
  8.9795334962457432  4.3000500767983345  3.8384686317349259
  0.7637305369210509  2.2515499650050295  9.4031725644221407
  0.8560177179302563  6.3625291968699642  9.6056743372411830
  1.1124711084088243 10.6991032828307997  9.4944694093512076
  5.0969513127068824  2.2261750389010988  9.5146077345545716
  4.7590701216017104  6.1197194745586305  9.5026530308670427
  4.9753257109425046 10.5407521140379714  9.4596131484603703
  9.0766049836332421  2.1717096377169280  9.4404513288708287
  9.2691843958179803  6.5112238018935606  9.6964784669292889
  8.9760398266986350 10.2778620046646481  9.5109678827474831
  2.8518791134766048  6.3768623941298959  1.4909673759226596
  2.9248451819529695 10.5693390192937784  1.6334321812879693
  7.0731612293993660  2.1629049015468458  1.5405413534590631
  7.0866127889418387  6.6538399234811321  1.3385765620926553
  7.0987032103755272 10.6154795379787306  1.4675017526840877
 11.3417465512408580  6.3843348566089908  1.6076689242150373
  9.4787447812394170  8.4397295520123823  4.0863633265784625
