Ge Se
 1.0000000000000000
     3.8999999999999995    0.0000000000000000    0.0000000000000000
     0.0000000000000000    4.7000000000000002    0.0000000000000000
     0.0000000000000000    0.0000000000000000   11.1422210000000010
 Ge  Se 
   4   4
Selective dynamics
Cartesian
  0.9750000000000000  0.5180936899062349  1.3925299734057051   T   T   T
  2.9249999999999998  2.8680936899062357  4.1785805265942955   T   T   T
  2.9249999999999998  4.1819063100937655  9.7496910265942986   T   T   T
  0.9750000000000000  1.8319063100937651  6.9636404734057056   T   T   T
  0.9750000000000000 -0.1245814423038089  3.9034278415118440   T   T   T
  2.9249999999999998  2.2254185576961922  1.6676826584881563   T   T   T
  2.9249999999999998  4.8245814423038107  7.2387931584881580   T   T   T
  0.9750000000000000  2.4745814423038079  9.4745383415118436   T   T   T
