
     Program PWSCF v.7.2 starts on  1Nov2024 at 16:22:45 

     This program is part of the open-source Quantum ESPRESSO suite
     for quantum simulation of materials; please cite
         "P. Giannozzi et al., J. Phys.:Condens. Matter 21 395502 (2009);
         "P. Giannozzi et al., J. Phys.:Condens. Matter 29 465901 (2017);
         "P. Giannozzi et al., J. Chem. Phys. 152 154105 (2020);
          URL http://www.quantum-espresso.org", 
     in publications or presentations arising from this work. More details at
     http://www.quantum-espresso.org/quote

     Parallel version (MPI & OpenMP), running on    6144 processor cores
     Number of MPI processes:              1536
     Threads/MPI process:                     4

     MPI processes distributed on    24 nodes
     481545 MiB available memory on the printing compute node when the environment starts

     Reading input from espresso.pwi
Warning: card &IONS ignored
Warning: card / ignored
Warning: card &CELL ignored
Warning: card / ignored

     Current dimensions of program PWSCF are:
     Max number of different atomic species (ntypx) = 10
     Max number of k-points (npk) =  40000
     Max angular momentum in pseudopotentials (lmaxx) =  4

     Atomic positions and unit cell read from directory:
     ./CNT_PBE.save/
     Atomic positions from file used, from input discarded


     R & G space division:  proc/nbgrp/npool/nimage =    1536
     WARNING: too many processors for an effective parallelization!
     Subspace diagonalization in iterative solution of the eigenvalue problem:
     one sub-group per band group will be used
     custom distributed-memory algorithm (size of sub-group: 39* 39 procs)


     Parallelization info
     --------------------
     sticks:   dense  smooth     PW     G-vecs:    dense   smooth      PW
     Min          28      28      7                 7176     7176     885
     Max          29      29      8                 7217     7217     909
     Sum       43977   43977  11007             11053081 11053081 1381955

     Using Pencil Decomposition



     bravais-lattice index     =            0
     lattice parameter (alat)  =      61.1748  a.u.
     unit-cell volume          =  176044.1909 (a.u.)^3
     number of atoms/cell      =          365
     number of atomic types    =            2
     number of electrons       =      1462.00
     number of Kohn-Sham states=         5000
     kinetic-energy cutoff     =      60.0000  Ry
     charge density cutoff     =     240.0000  Ry
     Exchange-correlation= PBE
                           (   1   4   3   4   0   0   0)

     celldm(1)=  61.174780  celldm(2)=   0.000000  celldm(3)=   0.000000
     celldm(4)=   0.000000  celldm(5)=   0.000000  celldm(6)=   0.000000

     crystal axes: (cart. coord. in units of alat)
               a(1) = (   1.000000   0.000000   0.000000 )  
               a(2) = (   0.000000   0.615409   0.000000 )  
               a(3) = (   0.000000   0.000000   1.249513 )  

     reciprocal axes: (cart. coord. in units 2 pi/alat)
               b(1) = (  1.000000  0.000000  0.000000 )  
               b(2) = (  0.000000  1.624937  0.000000 )  
               b(3) = (  0.000000  0.000000  0.800312 )  


     PseudoPot. # 1 for C  read from file:
     ./C_ONCV_PBE-1.2.upf
     MD5 check sum: 1a5f83a7b1f58d24996abe00ed223ac6
     Pseudo is Norm-conserving, Zval =  4.0
     Generated using ONCVPSP code by D. R. Hamann
     Using radial grid of  602 points,  4 beta functions with: 
                l(1) =   0
                l(2) =   0
                l(3) =   1
                l(4) =   1

     PseudoPot. # 2 for Se read from file:
     ./Se_ONCV_PBE-1.2.upf
     MD5 check sum: e78e48a4f5d8ce1f8dc76ec1271f249c
     Pseudo is Norm-conserving, Zval =  6.0
     Generated using ONCVPSP code by D. R. Hamann
     Using radial grid of  602 points,  6 beta functions with: 
                l(1) =   0
                l(2) =   0
                l(3) =   1
                l(4) =   1
                l(5) =   2
                l(6) =   2

     atomic species   valence    mass     pseudopotential
        C              4.00    12.01100     C ( 1.00)
        Se             6.00    78.96000     Se( 1.00)

     No symmetry found


                                    s                        frac. trans.

      isym =  1     identity                                     

 cryst.   s( 1) = (     1          0          0      )
                  (     0          1          0      )
                  (     0          0          1      )

 cart.    s( 1) = (  1.0000000  0.0000000  0.0000000 )
                  (  0.0000000  1.0000000  0.0000000 )
                  (  0.0000000  0.0000000  1.0000000 )


   Cartesian axes

     site n.     atom                  positions (alat units)
         1           C   tau(   1) = (   0.3709649   0.3312756   0.0030847  )
         2           C   tau(   2) = (   0.3687886   0.3346704   0.0785943  )
         3           C   tau(   3) = (   0.3380600   0.3661665   0.0763375  )
         4           C   tau(   4) = (   0.3204964   0.3762649   0.0374102  )
         5           C   tau(   5) = (   0.2778193   0.3869584   0.0351410  )
         6           C   tau(   6) = (   0.3664688   0.3379916   0.1540928  )
         7           C   tau(   7) = (   0.3346861   0.3684166   0.1518421  )
         8           C   tau(   8) = (   0.3167937   0.3779038   0.1129157  )
         9           C   tau(   9) = (   0.2737690   0.3871160   0.1106423  )
        10           C   tau(  10) = (   0.2535560   0.3857890   0.0717233  )
        11           C   tau(  11) = (   0.2121012   0.3710454   0.0694638  )
        12           C   tau(  12) = (   0.1955926   0.3593031   0.0305382  )
        13           C   tau(  13) = (   0.1680345   0.3250008   0.0282795  )
        14           C   tau(  14) = (   0.3640065   0.3412351   0.2295858  )
        15           C   tau(  15) = (   0.3312186   0.3705826   0.2273467  )
        16           C   tau(  16) = (   0.3130234   0.3794345   0.1884219  )
        17           C   tau(  17) = (   0.2697107   0.3871643   0.1861506  )
        18           C   tau(  18) = (   0.2495609   0.3851183   0.1472239  )
        19           C   tau(  19) = (   0.2086489   0.3689473   0.1449717  )
        20           C   tau(  20) = (   0.1925505   0.3566441   0.1060477  )
        21           C   tau(  21) = (   0.1661941   0.3214094   0.1037848  )
        22           C   tau(  22) = (   0.1589423   0.3024890   0.0648678  )
        23           C   tau(  23) = (   0.1549889   0.2586644   0.0626042  )
        24           C   tau(  24) = (   0.1587453   0.2387469   0.0236811  )
        25           C   tau(  25) = (   0.1783760   0.1993668   0.0214272  )
        26           C   tau(  26) = (   0.3614371   0.3444016   0.3050804  )
        27           C   tau(  27) = (   0.3276868   0.3726295   0.3028690  )
        28           C   tau(  28) = (   0.3091910   0.3808546   0.2639297  )
        29           C   tau(  29) = (   0.2656522   0.3870857   0.2616659  )
        30           C   tau(  30) = (   0.2455861   0.3843490   0.2227347  )
        31           C   tau(  31) = (   0.2052578   0.3667505   0.2204849  )
        32           C   tau(  32) = (   0.1896013   0.3538869   0.1815657  )
        33           C   tau(  33) = (   0.1644810   0.3177602   0.1792966  )
        34           C   tau(  34) = (   0.1578915   0.2985950   0.1403733  )
        35           C   tau(  35) = (   0.1554506   0.2546643   0.1381135  )
        36           C   tau(  36) = (   0.1598890   0.2348870   0.0991896  )
        37           C   tau(  37) = (   0.1808602   0.1962011   0.0969316  )
        38           C   tau(  38) = (   0.1950179   0.1816955   0.0580118  )
        39           C   tau(  39) = (   0.2331659   0.1597708   0.0557393  )
        40           C   tau(  40) = (   0.2528332   0.1548474   0.0168191  )
        41           C   tau(  41) = (   0.2968132   0.1562093   0.0145633  )
        42           C   tau(  42) = (   0.3707550   0.3309338   0.4194296  )
        43           C   tau(  43) = (   0.3587737   0.3474162   0.3805436  )
        44           C   tau(  44) = (   0.3241009   0.3744057   0.3783907  )
        45           C   tau(  45) = (   0.3053437   0.3821229   0.3394669  )
        46           C   tau(  46) = (   0.2615925   0.3868531   0.3372075  )
        47           C   tau(  47) = (   0.2416408   0.3834358   0.2982800  )
        48           C   tau(  48) = (   0.2019449   0.3644380   0.2960149  )
        49           C   tau(  49) = (   0.1867615   0.3510245   0.2570824  )
        50           C   tau(  50) = (   0.1629242   0.3140498   0.2548053  )
        51           C   tau(  51) = (   0.1569822   0.2946723   0.2158831  )
        52           C   tau(  52) = (   0.1560556   0.2506778   0.2136269  )
        53           C   tau(  53) = (   0.1611672   0.2310679   0.1747042  )
        54           C   tau(  54) = (   0.1834541   0.1931271   0.1724391  )
        55           C   tau(  55) = (   0.1981025   0.1791163   0.1335133  )
        56           C   tau(  56) = (   0.2369801   0.1585154   0.1312461  )
        57           C   tau(  57) = (   0.2568083   0.1542785   0.0923242  )
        58           C   tau(  58) = (   0.3007161   0.1571584   0.0900684  )
        59           C   tau(  59) = (   0.3198171   0.1639567   0.0511476  )
        60           C   tau(  60) = (   0.3556797   0.1894472   0.0488712  )
        61           C   tau(  61) = (   0.3683813   0.2052489   0.0099499  )
        62           C   tau(  62) = (   0.3855513   0.2457602   0.0076920  )
        63           C   tau(  63) = (   0.3685623   0.3332953   0.4948979  )
        64           C   tau(  64) = (   0.3559057   0.3497062   0.4561388  )
        65           C   tau(  65) = (   0.3203548   0.3755662   0.4539651  )
        66           C   tau(  66) = (   0.3014490   0.3829636   0.4151023  )
        67           C   tau(  67) = (   0.2575525   0.3863115   0.4128030  )
        68           C   tau(  68) = (   0.2377349   0.3823035   0.3738302  )
        69           C   tau(  69) = (   0.1987238   0.3619798   0.3715394  )
        70           C   tau(  70) = (   0.1840007   0.3480827   0.3326005  )
        71           C   tau(  71) = (   0.1614608   0.3102855   0.3303184  )
        72           C   tau(  72) = (   0.1562158   0.2907166   0.2914010  )
        73           C   tau(  73) = (   0.1568029   0.2467157   0.2891440  )
        74           C   tau(  74) = (   0.1625902   0.2272955   0.2502153  )
        75           C   tau(  75) = (   0.1861583   0.1901443   0.2479421  )
        76           C   tau(  76) = (   0.2012654   0.1766378   0.2090244  )
        77           C   tau(  77) = (   0.2408294   0.1573637   0.2067701  )
        78           C   tau(  78) = (   0.2607915   0.1538278   0.1678344  )
        79           C   tau(  79) = (   0.3045667   0.1582160   0.1655732  )
        80           C   tau(  80) = (   0.3234345   0.1656742   0.1266534  )
        81           C   tau(  81) = (   0.3583996   0.1923857   0.1243777  )
        82           C   tau(  82) = (   0.3705530   0.2086251   0.0854598  )
        83           C   tau(  83) = (   0.3863175   0.2497038   0.0832051  )
        84           C   tau(  84) = (   0.3881502   0.2698964   0.0442817  )
        85           C   tau(  85) = (   0.3799997   0.3131326   0.0420076  )
        86           C   tau(  86) = (   0.3674523   0.3382404   0.5706301  )
        87           C   tau(  87) = (   0.3532560   0.3521135   0.5320906  )
        88           C   tau(  88) = (   0.3165410   0.3764334   0.5295983  )
        89           C   tau(  89) = (   0.2973730   0.3831006   0.4906587  )
        90           C   tau(  90) = (   0.2535402   0.3853693   0.4883297  )
        91           C   tau(  91) = (   0.2338222   0.3809629   0.4493544  )
        92           C   tau(  92) = (   0.1954531   0.3594170   0.4470548  )
        93           C   tau(  93) = (   0.1812863   0.3450143   0.4081280  )
        94           C   tau(  94) = (   0.1600863   0.3064470   0.4058436  )
        95           C   tau(  95) = (   0.1555663   0.2867166   0.3669060  )
        96           C   tau(  96) = (   0.1576662   0.2427762   0.3646448  )
        97           C   tau(  97) = (   0.1641046   0.2235636   0.3257238  )
        98           C   tau(  98) = (   0.1889344   0.1872236   0.3234478  )
        99           C   tau(  99) = (   0.2045256   0.1742668   0.2845391  )
       100           C   tau( 100) = (   0.2447183   0.1563464   0.2822975  )
       101           C   tau( 101) = (   0.2647814   0.1534750   0.2433501  )
       102           C   tau( 102) = (   0.3083902   0.1593541   0.2410889  )
       103           C   tau( 103) = (   0.3269753   0.1674895   0.2021678  )
       104           C   tau( 104) = (   0.3609867   0.1954104   0.1998895  )
       105           C   tau( 105) = (   0.3725808   0.2120702   0.1609671  )
       106           C   tau( 106) = (   0.3869013   0.2536696   0.1587062  )
       107           C   tau( 107) = (   0.3880665   0.2739171   0.1197888  )
       108           C   tau( 108) = (   0.3784364   0.3168518   0.1175143  )
       109           C   tau( 109) = (   0.3645212   0.3413294   0.6463916  )
       110           C   tau( 110) = (   0.3504626   0.3553848   0.6070502  )
       111           C   tau( 111) = (   0.3128293   0.3782488   0.6048630  )
       112           C   tau( 112) = (   0.2934310   0.3839791   0.5660643  )
       113           C   tau( 113) = (   0.2493267   0.3849046   0.5637888  )
       114           C   tau( 114) = (   0.2298761   0.3795261   0.5249253  )
       115           C   tau( 115) = (   0.1922385   0.3567443   0.5226040  )
       116           C   tau( 116) = (   0.1786262   0.3418254   0.4836411  )
       117           C   tau( 117) = (   0.1588363   0.3025678   0.4813609  )
       118           C   tau( 118) = (   0.1549851   0.2826986   0.4424231  )
       119           C   tau( 119) = (   0.1586031   0.2388334   0.4401586  )
       120           C   tau( 120) = (   0.1657246   0.2198719   0.4012442  )
       121           C   tau( 121) = (   0.1917490   0.1843795   0.3989640  )
       122           C   tau( 122) = (   0.2078134   0.1719812   0.3600419  )
       123           C   tau( 123) = (   0.2486038   0.1554831   0.3578055  )
       124           C   tau( 124) = (   0.2687669   0.1532667   0.3188982  )
       125           C   tau( 125) = (   0.3121886   0.1606339   0.3166513  )
       126           C   tau( 126) = (   0.3304597   0.1694081   0.2776858  )
       127           C   tau( 127) = (   0.3634460   0.1985080   0.2753931  )
       128           C   tau( 128) = (   0.3744585   0.2155681   0.2364706  )
       129           C   tau( 129) = (   0.3873174   0.2576524   0.2341886  )
       130           C   tau( 130) = (   0.3877902   0.2779301   0.1952864  )
       131           C   tau( 131) = (   0.3766916   0.3205093   0.1930214  )
       132           C   tau( 132) = (   0.3615246   0.3443322   0.7217988  )
       133           C   tau( 133) = (   0.3476054   0.3588705   0.6826684  )
       134           C   tau( 134) = (   0.3092093   0.3806542   0.6803952  )
       135           C   tau( 135) = (   0.2894983   0.3851092   0.6415051  )
       136           C   tau( 136) = (   0.2455266   0.3841021   0.6392752  )
       137           C   tau( 137) = (   0.2260929   0.3781214   0.6003680  )
       138           C   tau( 138) = (   0.1892983   0.3539753   0.5980940  )
       139           C   tau( 139) = (   0.1760717   0.3386508   0.5591892  )
       140           C   tau( 140) = (   0.1576549   0.2986247   0.5569102  )
       141           C   tau( 141) = (   0.1545716   0.2786406   0.5179878  )
       142           C   tau( 142) = (   0.1596962   0.2349302   0.5157075  )
       143           C   tau( 143) = (   0.1674462   0.2162184   0.4767568  )
       144           C   tau( 144) = (   0.1946095   0.1816222   0.4744676  )
       145           C   tau( 145) = (   0.2110688   0.1697480   0.4355597  )
       146           C   tau( 146) = (   0.2524705   0.1547325   0.4333199  )
       147           C   tau( 147) = (   0.2727503   0.1533280   0.3944493  )
       148           C   tau( 148) = (   0.3158674   0.1622403   0.3922255  )
       149           C   tau( 149) = (   0.3338818   0.1714512   0.3532134  )
       150           C   tau( 150) = (   0.3658960   0.2016672   0.3509095  )
       151           C   tau( 151) = (   0.3762221   0.2191229   0.3119794  )
       152           C   tau( 152) = (   0.3875645   0.2616353   0.3096454  )
       153           C   tau( 153) = (   0.3873335   0.2819280   0.2707454  )
       154           C   tau( 154) = (   0.3747965   0.3240958   0.2685032  )
       155           C   tau( 155) = (   0.3588392   0.3473784   0.7972417  )
       156           C   tau( 156) = (   0.3442726   0.3614725   0.7583150  )
       157           C   tau( 157) = (   0.3054003   0.3821209   0.7559938  )
       158           C   tau( 158) = (   0.2856024   0.3862091   0.7169703  )
       159           C   tau( 159) = (   0.2416696   0.3833209   0.7147623  )
       160           C   tau( 160) = (   0.2225108   0.3765584   0.6758886  )
       161           C   tau( 161) = (   0.1865837   0.3510854   0.6736276  )
       162           C   tau( 162) = (   0.1738771   0.3352522   0.6347251  )
       163           C   tau( 163) = (   0.1568637   0.2946940   0.6324559  )
       164           C   tau( 164) = (   0.1543455   0.2745895   0.5935058  )
       165           C   tau( 165) = (   0.1609927   0.2310853   0.5912209  )
       166           C   tau( 166) = (   0.1692596   0.2126324   0.5523030  )
       167           C   tau( 167) = (   0.1976213   0.1789107   0.5500169  )
       168           C   tau( 168) = (   0.2144417   0.1676554   0.5111017  )
       169           C   tau( 169) = (   0.2563269   0.1541466   0.5088443  )
       170           C   tau( 170) = (   0.2766569   0.1535694   0.4699386  )
       171           C   tau( 171) = (   0.3193072   0.1643125   0.4676930  )
       172           C   tau( 172) = (   0.3371325   0.1738615   0.4288095  )
       173           C   tau( 173) = (   0.3683848   0.2050418   0.4265654  )
       174           C   tau( 174) = (   0.3779829   0.2227497   0.3874355  )
       175           C   tau( 175) = (   0.3877226   0.2655755   0.3849909  )
       176           C   tau( 176) = (   0.3867688   0.2858947   0.3461544  )
       177           C   tau( 177) = (   0.3728444   0.3276472   0.3439658  )
       178           C   tau( 178) = (   0.3561932   0.3503666   0.8727408  )
       179           C   tau( 179) = (   0.3410544   0.3638822   0.8338225  )
       180           C   tau( 180) = (   0.3015367   0.3831968   0.8315258  )
       181           C   tau( 181) = (   0.2816016   0.3867928   0.7925507  )
       182           C   tau( 182) = (   0.2377860   0.3823386   0.7903126  )
       183           C   tau( 183) = (   0.2189529   0.3748316   0.7514025  )
       184           C   tau( 184) = (   0.1840051   0.3480977   0.7491479  )
       185           C   tau( 185) = (   0.1718268   0.3318638   0.7102251  )
       186           C   tau( 186) = (   0.1561535   0.2907424   0.7079715  )
       187           C   tau( 187) = (   0.1543327   0.2705566   0.6690599  )
       188           C   tau( 188) = (   0.1624776   0.2273054   0.6667839  )
       189           C   tau( 189) = (   0.1714482   0.2091534   0.6278525  )
       190           C   tau( 190) = (   0.2009293   0.1765363   0.6255798  )
       191           C   tau( 191) = (   0.2180027   0.1657471   0.5866069  )
       192           C   tau( 192) = (   0.2603371   0.1537631   0.5842949  )
       193           C   tau( 193) = (   0.2805220   0.1537665   0.5454296  )
       194           C   tau( 194) = (   0.3227878   0.1664016   0.5431422  )
       195           C   tau( 195) = (   0.3399685   0.1771088   0.5043452  )
       196           C   tau( 196) = (   0.3701984   0.2091296   0.5021922  )
       197           C   tau( 197) = (   0.3800533   0.2264149   0.4628541  )
       198           C   tau( 198) = (   0.3885372   0.2696743   0.4602790  )
       199           C   tau( 199) = (   0.3861870   0.2898228   0.4215027  )
       200           C   tau( 200) = (   0.3534591   0.3532752   0.9482388  )
       201           C   tau( 201) = (   0.3378597   0.3662448   0.9093179  )
       202           C   tau( 202) = (   0.2976596   0.3841450   0.9070505  )
       203           C   tau( 203) = (   0.2775841   0.3870379   0.8681220  )
       204           C   tau( 204) = (   0.2339806   0.3811077   0.8658588  )
       205           C   tau( 205) = (   0.2154103   0.3729912   0.8269127  )
       206           C   tau( 206) = (   0.1814204   0.3450372   0.8246622  )
       207           C   tau( 207) = (   0.1698404   0.3283982   0.7857469  )
       208           C   tau( 208) = (   0.1555459   0.2867731   0.7834955  )
       209           C   tau( 209) = (   0.1544506   0.2665294   0.7445776  )
       210           C   tau( 210) = (   0.1640954   0.2236113   0.7423012  )
       211           C   tau( 211) = (   0.1736877   0.2057696   0.7033705  )
       212           C   tau( 212) = (   0.2043492   0.1741953   0.7011069  )
       213           C   tau( 213) = (   0.2218231   0.1640498   0.6621736  )
       214           C   tau( 214) = (   0.2645265   0.1534315   0.6598720  )
       215           C   tau( 215) = (   0.2847047   0.1544110   0.6208949  )
       216           C   tau( 216) = (   0.3263533   0.1682586   0.6185630  )
       217           C   tau( 217) = (   0.3430554   0.1798002   0.5796189  )
       218           C   tau( 218) = (   0.3719934   0.2130003   0.5771577  )
       219           C   tau( 219) = (   0.3820275   0.2301457   0.5386258  )
       220           C   tau( 220) = (   0.3954587   0.2735384   0.5358113  )
       221           C   tau( 221) = (   0.3867406   0.2939108   0.4965031  )
       222           C   tau( 222) = (   0.3505949   0.3560813   1.0237443  )
       223           C   tau( 223) = (   0.3345598   0.3684976   0.9848253  )
       224           C   tau( 224) = (   0.2937555   0.3849656   0.9825717  )
       225           C   tau( 225) = (   0.2735873   0.3871367   0.9436468  )
       226           C   tau( 226) = (   0.2302189   0.3797210   0.9413783  )
       227           C   tau( 227) = (   0.2119250   0.3710024   0.9024433  )
       228           C   tau( 228) = (   0.1789056   0.3418993   0.9001916  )
       229           C   tau( 229) = (   0.1679286   0.3248623   0.8612678  )
       230           C   tau( 230) = (   0.1550609   0.2827883   0.8590105  )
       231           C   tau( 231) = (   0.1546442   0.2625231   0.8200843  )
       232           C   tau( 232) = (   0.1657707   0.2199481   0.8178122  )
       233           C   tau( 233) = (   0.1760278   0.2024665   0.7788981  )
       234           C   tau( 234) = (   0.2077788   0.1719924   0.7766441  )
       235           C   tau( 235) = (   0.2256534   0.1624676   0.7377043  )
       236           C   tau( 236) = (   0.2686514   0.1531946   0.7354024  )
       237           C   tau( 237) = (   0.2888226   0.1545756   0.6964301  )
       238           C   tau( 238) = (   0.3302467   0.1694754   0.6941360  )
       239           C   tau( 239) = (   0.3465037   0.1816316   0.6552633  )
       240           C   tau( 240) = (   0.3738910   0.2160193   0.6531062  )
       241           C   tau( 241) = (   0.3817464   0.2352029   0.6143560  )
       242           C   tau( 242) = (   0.3888418   0.2779957   0.6127443  )
       243           C   tau( 243) = (   0.3918830   0.2999487   0.5734374  )
       244           C   tau( 244) = (   0.3476196   0.3587802   1.0992603  )
       245           C   tau( 245) = (   0.3311698   0.3706328   1.0603337  )
       246           C   tau( 246) = (   0.2898219   0.3856713   1.0580832  )
       247           C   tau( 247) = (   0.2695939   0.3871370   1.0191609  )
       248           C   tau( 248) = (   0.2265036   0.3782228   1.0168911  )
       249           C   tau( 249) = (   0.2085136   0.3688685   0.9779700  )
       250           C   tau( 250) = (   0.1765097   0.3386687   0.9757187  )
       251           C   tau( 251) = (   0.1661199   0.3212723   0.9367831  )
       252           C   tau( 252) = (   0.1546955   0.2787773   0.9345231  )
       253           C   tau( 253) = (   0.1549686   0.2585146   0.8956046  )
       254           C   tau( 254) = (   0.1675430   0.2163433   0.8933397  )
       255           C   tau( 255) = (   0.1784217   0.1992373   0.8544162  )
       256           C   tau( 256) = (   0.2112140   0.1699068   0.8521654  )
       257           C   tau( 257) = (   0.2294103   0.1609872   0.8132369  )
       258           C   tau( 258) = (   0.2727190   0.1531846   0.8109559  )
       259           C   tau( 259) = (   0.2928613   0.1551595   0.7720288  )
       260           C   tau( 260) = (   0.3337784   0.1713506   0.7697849  )
       261           C   tau( 261) = (   0.3498047   0.1837645   0.7308504  )
       262           C   tau( 262) = (   0.3760423   0.2190079   0.7286949  )
       263           C   tau( 263) = (   0.3832108   0.2380725   0.6898144  )
       264           C   tau( 264) = (   0.3871795   0.2818029   0.6877395  )
       265           C   tau( 265) = (   0.3841299   0.3018504   0.6489603  )
       266           C   tau( 266) = (   0.3445315   0.3613558   1.1747747  )
       267           C   tau( 267) = (   0.3276912   0.3726430   1.1358477  )
       268           C   tau( 268) = (   0.2858482   0.3862478   1.1335922  )
       269           C   tau( 269) = (   0.2655863   0.3870109   1.0946723  )
       270           C   tau( 270) = (   0.2228360   0.3766092   1.0924013  )
       271           C   tau( 271) = (   0.2051834   0.3666321   1.0534806  )
       272           C   tau( 272) = (   0.1742296   0.3353602   1.0512319  )
       273           C   tau( 273) = (   0.1644249   0.3176190   1.0123046  )
       274           C   tau( 274) = (   0.1544689   0.2747541   1.0100403  )
       275           C   tau( 275) = (   0.1554408   0.2545117   0.9711196  )
       276           C   tau( 276) = (   0.1694562   0.2128049   0.9688627  )
       277           C   tau( 277) = (   0.1808976   0.1960804   0.9299340  )
       278           C   tau( 278) = (   0.2147008   0.1679087   0.9276831  )
       279           C   tau( 279) = (   0.2332089   0.1596515   0.8887692  )
       280           C   tau( 280) = (   0.2767624   0.1533894   0.8865022  )
       281           C   tau( 281) = (   0.2968360   0.1560574   0.8475721  )
       282           C   tau( 282) = (   0.3371524   0.1736406   0.8453278  )
       283           C   tau( 283) = (   0.3527944   0.1864601   0.8063801  )
       284           C   tau( 284) = (   0.3778194   0.2226486   0.8041516  )
       285           C   tau( 285) = (   0.3843510   0.2418195   0.7652676  )
       286           C   tau( 286) = (   0.3866903   0.2857696   0.7630822  )
       287           C   tau( 287) = (   0.3822339   0.3056061   0.7242423  )
       288           C   tau( 288) = (   0.3413440   0.3638141   0.0008251  )
       289           C   tau( 289) = (   0.3241350   0.3745214   1.2113636  )
       290           C   tau( 290) = (   0.2818483   0.3866788   1.2091007  )
       291           C   tau( 291) = (   0.2615765   0.3867477   1.1701807  )
       292           C   tau( 292) = (   0.2192103   0.3748797   1.1679102  )
       293           C   tau( 293) = (   0.2019166   0.3642998   1.1289890  )
       294           C   tau( 294) = (   0.1720622   0.3319752   1.1267403  )
       295           C   tau( 295) = (   0.1628798   0.3139054   1.0878207  )
       296           C   tau( 296) = (   0.1544051   0.2707305   1.0855520  )
       297           C   tau( 297) = (   0.1560616   0.2505305   1.0466296  )
       298           C   tau( 298) = (   0.1715070   0.2093317   1.0443791  )
       299           C   tau( 299) = (   0.1835113   0.1930097   1.0054561  )
       300           C   tau( 300) = (   0.2182806   0.1660406   1.0031996  )
       301           C   tau( 301) = (   0.2370597   0.1584483   0.9642804  )
       302           C   tau( 302) = (   0.2807995   0.1537329   0.9620176  )
       303           C   tau( 303) = (   0.3007627   0.1571022   0.9230862  )
       304           C   tau( 304) = (   0.3404596   0.1760718   0.9208314  )
       305           C   tau( 305) = (   0.3556511   0.1894210   0.8819043  )
       306           C   tau( 306) = (   0.3794641   0.2264252   0.8796394  )
       307           C   tau( 307) = (   0.3853086   0.2457940   0.8407201  )
       308           C   tau( 308) = (   0.3861941   0.2897768   0.8384878  )
       309           C   tau( 309) = (   0.3810300   0.3093871   0.7995845  )
       310           C   tau( 310) = (   0.2575684   0.3863381   1.2456856  )
       311           C   tau( 311) = (   0.2156330   0.3730194   1.2434191  )
       312           C   tau( 312) = (   0.1987219   0.3618540   1.2044974  )
       313           C   tau( 313) = (   0.1699993   0.3285206   1.2022447  )
       314           C   tau( 314) = (   0.1614524   0.3101433   1.1633266  )
       315           C   tau( 315) = (   0.1544736   0.2667012   1.1610572  )
       316           C   tau( 316) = (   0.1568322   0.2465747   1.1221380  )
       317           C   tau( 317) = (   0.1736929   0.2059336   1.1198905  )
       318           C   tau( 318) = (   0.1862565   0.1900403   1.0809684  )
       319           C   tau( 319) = (   0.2219342   0.1642959   1.0787030  )
       320           C   tau( 320) = (   0.2409656   0.1573637   1.0397817  )
       321           C   tau( 321) = (   0.2848457   0.1541710   1.0375202  )
       322           C   tau( 322) = (   0.3046758   0.1582539   0.9985936  )
       323           C   tau( 323) = (   0.3437026   0.1785697   0.9963318  )
       324           C   tau( 324) = (   0.3584190   0.1924607   0.9574043  )
       325           C   tau( 325) = (   0.3809756   0.2302357   0.9551272  )
       326           C   tau( 326) = (   0.3861907   0.2497894   0.9161968  )
       327           C   tau( 327) = (   0.3855879   0.2937903   0.9139475  )
       328           C   tau( 328) = (   0.3797474   0.3131945   0.8750394  )
       329           C   tau( 329) = (   0.1601384   0.3063368   1.2388283  )
       330           C   tau( 330) = (   0.1546662   0.2626753   1.2365608  )
       331           C   tau( 331) = (   0.1577283   0.2426407   1.1976418  )
       332           C   tau( 332) = (   0.1759845   0.2026073   1.1953928  )
       333           C   tau( 333) = (   0.1890932   0.1871563   1.1564724  )
       334           C   tau( 334) = (   0.2256410   0.1626554   1.1542013  )
       335           C   tau( 335) = (   0.2449049   0.1563910   1.1152816  )
       336           C   tau( 336) = (   0.2888723   0.1547173   1.1130237  )
       337           C   tau( 337) = (   0.3085524   0.1594978   1.0740965  )
       338           C   tau( 338) = (   0.3468558   0.1811453   1.0718285  )
       339           C   tau( 339) = (   0.3610944   0.1955455   1.0329023  )
       340           C   tau( 340) = (   0.3823444   0.2340738   1.0306254  )
       341           C   tau( 341) = (   0.3869028   0.2538047   0.9916988  )
       342           C   tau( 342) = (   0.3847943   0.2977582   0.9894418  )
       343           C   tau( 343) = (   0.3783040   0.3169600   0.9505217  )
       344           C   tau( 344) = (   0.1920183   0.1843774   1.2319758  )
       345           C   tau( 345) = (   0.2293897   0.1611477   1.2297019  )
       346           C   tau( 346) = (   0.2488630   0.1555481   1.1907823  )
       347           C   tau( 347) = (   0.2928635   0.1553937   1.1885274  )
       348           C   tau( 348) = (   0.3123715   0.1608576   1.1496016  )
       349           C   tau( 349) = (   0.3499039   0.1838201   1.1473284  )
       350           C   tau( 350) = (   0.3636444   0.1987054   1.1084049  )
       351           C   tau( 351) = (   0.3835523   0.2379429   1.1061351  )
       352           C   tau( 352) = (   0.3874358   0.2578283   1.0672049  )
       353           C   tau( 353) = (   0.3838100   0.3016775   1.0649451  )
       354           C   tau( 354) = (   0.3766858   0.3206490   1.0260196  )
       355           C   tau( 355) = (   0.3161361   0.1623347   1.2251088  )
       356           C   tau( 356) = (   0.3528568   0.1865813   1.2228316  )
       357           C   tau( 357) = (   0.3660745   0.2019405   1.1839091  )
       358           C   tau( 358) = (   0.3846254   0.2418360   1.1816453  )
       359           C   tau( 359) = (   0.3878256   0.2618496   1.1427166  )
       360           C   tau( 360) = (   0.3826906   0.3055497   1.1404514  )
       361           C   tau( 361) = (   0.3749177   0.3242713   1.1015303  )
       362           C   tau( 362) = (   0.3880683   0.2658723   1.2182321  )
       363           C   tau( 363) = (   0.3814198   0.3093681   1.2159621  )
       364           C   tau( 364) = (   0.3730093   0.3278125   1.1770402  )
       365           Se  tau( 365) = (   0.4534243   0.2947929   0.5546461  )

   Crystallographic axes

     site n.     atom                  positions (cryst. coord.)
         1           C   tau(   1) = (  0.3709649  0.5383020  0.0024687  )
         2           C   tau(   2) = (  0.3687886  0.5438183  0.0629000  )
         3           C   tau(   3) = (  0.3380600  0.5949973  0.0610938  )
         4           C   tau(   4) = (  0.3204964  0.6114068  0.0299398  )
         5           C   tau(   5) = (  0.2778193  0.6287830  0.0281237  )
         6           C   tau(   6) = (  0.3664688  0.5492150  0.1233222  )
         7           C   tau(   7) = (  0.3346861  0.5986537  0.1215210  )
         8           C   tau(   8) = (  0.3167937  0.6140698  0.0903677  )
         9           C   tau(   9) = (  0.2737690  0.6290390  0.0885483  )
        10           C   tau(  10) = (  0.2535560  0.6268828  0.0574010  )
        11           C   tau(  11) = (  0.2121012  0.6029254  0.0555927  )
        12           C   tau(  12) = (  0.1955926  0.5838448  0.0244400  )
        13           C   tau(  13) = (  0.1680345  0.5281058  0.0226324  )
        14           C   tau(  14) = (  0.3640065  0.5544854  0.1837401  )
        15           C   tau(  15) = (  0.3312186  0.6021733  0.1819482  )
        16           C   tau(  16) = (  0.3130234  0.6165571  0.1507962  )
        17           C   tau(  17) = (  0.2697107  0.6291176  0.1489785  )
        18           C   tau(  18) = (  0.2495609  0.6257929  0.1178250  )
        19           C   tau(  19) = (  0.2086489  0.5995161  0.1160225  )
        20           C   tau(  20) = (  0.1925505  0.5795241  0.0848712  )
        21           C   tau(  21) = (  0.1661941  0.5222700  0.0830601  )
        22           C   tau(  22) = (  0.1589423  0.4915256  0.0519144  )
        23           C   tau(  23) = (  0.1549889  0.4203133  0.0501029  )
        24           C   tau(  24) = (  0.1587453  0.3879487  0.0189523  )
        25           C   tau(  25) = (  0.1783760  0.3239585  0.0171484  )
        26           C   tau(  26) = (  0.3614371  0.5596308  0.2441594  )
        27           C   tau(  27) = (  0.3276868  0.6054995  0.2423896  )
        28           C   tau(  28) = (  0.3091910  0.6188646  0.2112260  )
        29           C   tau(  29) = (  0.2656522  0.6289899  0.2094142  )
        30           C   tau(  30) = (  0.2455861  0.6245428  0.1782572  )
        31           C   tau(  31) = (  0.2052578  0.5959463  0.1764566  )
        32           C   tau(  32) = (  0.1896013  0.5750439  0.1453092  )
        33           C   tau(  33) = (  0.1644810  0.5163403  0.1434931  )
        34           C   tau(  34) = (  0.1578915  0.4851980  0.1123423  )
        35           C   tau(  35) = (  0.1554506  0.4138133  0.1105338  )
        36           C   tau(  36) = (  0.1598890  0.3816766  0.0793826  )
        37           C   tau(  37) = (  0.1808602  0.3188144  0.0775755  )
        38           C   tau(  38) = (  0.1950179  0.2952437  0.0464275  )
        39           C   tau(  39) = (  0.2331659  0.2596174  0.0446088  )
        40           C   tau(  40) = (  0.2528332  0.2516172  0.0134605  )
        41           C   tau(  41) = (  0.2968132  0.2538302  0.0116552  )
        42           C   tau(  42) = (  0.3707550  0.5377465  0.3356744  )
        43           C   tau(  43) = (  0.3587737  0.5645293  0.3045534  )
        44           C   tau(  44) = (  0.3241009  0.6083856  0.3028304  )
        45           C   tau(  45) = (  0.3053437  0.6209256  0.2716792  )
        46           C   tau(  46) = (  0.2615925  0.6286118  0.2698710  )
        47           C   tau(  47) = (  0.2416408  0.6230590  0.2387169  )
        48           C   tau(  48) = (  0.2019449  0.5921887  0.2369041  )
        49           C   tau(  49) = (  0.1867615  0.5703926  0.2057460  )
        50           C   tau(  50) = (  0.1629242  0.5103111  0.2039236  )
        51           C   tau(  51) = (  0.1569822  0.4788239  0.1727737  )
        52           C   tau(  52) = (  0.1560556  0.4073356  0.1709681  )
        53           C   tau(  53) = (  0.1611672  0.3754707  0.1398178  )
        54           C   tau(  54) = (  0.1834541  0.3138193  0.1380050  )
        55           C   tau(  55) = (  0.1981025  0.2910527  0.1068523  )
        56           C   tau(  56) = (  0.2369801  0.2575775  0.1050378  )
        57           C   tau(  57) = (  0.2568083  0.2506929  0.0738881  )
        58           C   tau(  58) = (  0.3007161  0.2553724  0.0720828  )
        59           C   tau(  59) = (  0.3198171  0.2664193  0.0409340  )
        60           C   tau(  60) = (  0.3556797  0.3078397  0.0391122  )
        61           C   tau(  61) = (  0.3683813  0.3335165  0.0079630  )
        62           C   tau(  62) = (  0.3855513  0.3993447  0.0061560  )
        63           C   tau(  63) = (  0.3685623  0.5415838  0.3960725  )
        64           C   tau(  64) = (  0.3559057  0.5682505  0.3650532  )
        65           C   tau(  65) = (  0.3203548  0.6102714  0.3633135  )
        66           C   tau(  66) = (  0.3014490  0.6222916  0.3322112  )
        67           C   tau(  67) = (  0.2575525  0.6277318  0.3303710  )
        68           C   tau(  68) = (  0.2377349  0.6212190  0.2991806  )
        69           C   tau(  69) = (  0.1987238  0.5881943  0.2973472  )
        70           C   tau(  70) = (  0.1840007  0.5656125  0.2661840  )
        71           C   tau(  71) = (  0.1614608  0.5041944  0.2643576  )
        72           C   tau(  72) = (  0.1562158  0.4723961  0.2332115  )
        73           C   tau(  73) = (  0.1568029  0.4008975  0.2314053  )
        74           C   tau(  74) = (  0.1625902  0.3693408  0.2002502  )
        75           C   tau(  75) = (  0.1861583  0.3089724  0.1984309  )
        76           C   tau(  76) = (  0.2012654  0.2870253  0.1672847  )
        77           C   tau(  77) = (  0.2408294  0.2557061  0.1654805  )
        78           C   tau(  78) = (  0.2607915  0.2499604  0.1343198  )
        79           C   tau(  79) = (  0.3045667  0.2570910  0.1325101  )
        80           C   tau(  80) = (  0.3234345  0.2692101  0.1013622  )
        81           C   tau(  81) = (  0.3583996  0.3126146  0.0995409  )
        82           C   tau(  82) = (  0.3705530  0.3390027  0.0683944  )
        83           C   tau(  83) = (  0.3863175  0.4057528  0.0665900  )
        84           C   tau(  84) = (  0.3881502  0.4385645  0.0354391  )
        85           C   tau(  85) = (  0.3799997  0.5088207  0.0336191  )
        86           C   tau(  86) = (  0.3674523  0.5496192  0.4566818  )
        87           C   tau(  87) = (  0.3532560  0.5721622  0.4258382  )
        88           C   tau(  88) = (  0.3165410  0.6116805  0.4238437  )
        89           C   tau(  89) = (  0.2973730  0.6225142  0.3926798  )
        90           C   tau(  90) = (  0.2535402  0.6262007  0.3908159  )
        91           C   tau(  91) = (  0.2338222  0.6190407  0.3596235  )
        92           C   tau(  92) = (  0.1954531  0.5840300  0.3577831  )
        93           C   tau(  93) = (  0.1812863  0.5606264  0.3266296  )
        94           C   tau(  94) = (  0.1600863  0.4979569  0.3248013  )
        95           C   tau(  95) = (  0.1555663  0.4658963  0.2936391  )
        96           C   tau(  96) = (  0.1576662  0.3944960  0.2918295  )
        97           C   tau(  97) = (  0.1641046  0.3632768  0.2606805  )
        98           C   tau(  98) = (  0.1889344  0.3042265  0.2588590  )
        99           C   tau(  99) = (  0.2045256  0.2831725  0.2277199  )
       100           C   tau( 100) = (  0.2447183  0.2540531  0.2259260  )
       101           C   tau( 101) = (  0.2647814  0.2493872  0.1947559  )
       102           C   tau( 102) = (  0.3083902  0.2589403  0.1929462  )
       103           C   tau( 103) = (  0.3269753  0.2721599  0.1617972  )
       104           C   tau( 104) = (  0.3609867  0.3175296  0.1599739  )
       105           C   tau( 105) = (  0.3725808  0.3446006  0.1288238  )
       106           C   tau( 106) = (  0.3869013  0.4121971  0.1270144  )
       107           C   tau( 107) = (  0.3880665  0.4450980  0.0958684  )
       108           C   tau( 108) = (  0.3784364  0.5148642  0.0940481  )
       109           C   tau( 109) = (  0.3645212  0.5546388  0.5173147  )
       110           C   tau( 110) = (  0.3504626  0.5774778  0.4858293  )
       111           C   tau( 111) = (  0.3128293  0.6146304  0.4840788  )
       112           C   tau( 112) = (  0.2934310  0.6239418  0.4530277  )
       113           C   tau( 113) = (  0.2493267  0.6254456  0.4512066  )
       114           C   tau( 114) = (  0.2298761  0.6167059  0.4201037  )
       115           C   tau( 115) = (  0.1922385  0.5796869  0.4182460  )
       116           C   tau( 116) = (  0.1786262  0.5554447  0.3870635  )
       117           C   tau( 117) = (  0.1588363  0.4916536  0.3852386  )
       118           C   tau( 118) = (  0.1549851  0.4593674  0.3540763  )
       119           C   tau( 119) = (  0.1586031  0.3880892  0.3522640  )
       120           C   tau( 120) = (  0.1657246  0.3572780  0.3211204  )
       121           C   tau( 121) = (  0.1917490  0.2996051  0.3192955  )
       122           C   tau( 122) = (  0.2078134  0.2794587  0.2881456  )
       123           C   tau( 123) = (  0.2486038  0.2526502  0.2863559  )
       124           C   tau( 124) = (  0.2687669  0.2490486  0.2552179  )
       125           C   tau( 125) = (  0.3121886  0.2610199  0.2534197  )
       126           C   tau( 126) = (  0.3304597  0.2752775  0.2222351  )
       127           C   tau( 127) = (  0.3634460  0.3225630  0.2204003  )
       128           C   tau( 128) = (  0.3744585  0.3502845  0.1892501  )
       129           C   tau( 129) = (  0.3873174  0.4186689  0.1874239  )
       130           C   tau( 130) = (  0.3877902  0.4516188  0.1562900  )
       131           C   tau( 131) = (  0.3766916  0.5208073  0.1544772  )
       132           C   tau( 132) = (  0.3615246  0.5595181  0.5776639  )
       133           C   tau( 133) = (  0.3476054  0.5831419  0.5463474  )
       134           C   tau( 134) = (  0.3092093  0.6185391  0.5445281  )
       135           C   tau( 135) = (  0.2894983  0.6257781  0.5134039  )
       136           C   tau( 136) = (  0.2455266  0.6241417  0.5116193  )
       137           C   tau( 137) = (  0.2260929  0.6144234  0.4804814  )
       138           C   tau( 138) = (  0.1892983  0.5751876  0.4786615  )
       139           C   tau( 139) = (  0.1760717  0.5502861  0.4475256  )
       140           C   tau( 140) = (  0.1576549  0.4852462  0.4457016  )
       141           C   tau( 141) = (  0.1545716  0.4527734  0.4145516  )
       142           C   tau( 142) = (  0.1596962  0.3817468  0.4127267  )
       143           C   tau( 143) = (  0.1674462  0.3513412  0.3815539  )
       144           C   tau( 144) = (  0.1946095  0.2951246  0.3797219  )
       145           C   tau( 145) = (  0.2110688  0.2758297  0.3485834  )
       146           C   tau( 146) = (  0.2524705  0.2514306  0.3467909  )
       147           C   tau( 147) = (  0.2727503  0.2491483  0.3156823  )
       148           C   tau( 148) = (  0.3158674  0.2636303  0.3139026  )
       149           C   tau( 149) = (  0.3338818  0.2785974  0.2826807  )
       150           C   tau( 150) = (  0.3658960  0.3276965  0.2808369  )
       151           C   tau( 151) = (  0.3762221  0.3560608  0.2496807  )
       152           C   tau( 152) = (  0.3875645  0.4251408  0.2478128  )
       153           C   tau( 153) = (  0.3873335  0.4581152  0.2166806  )
       154           C   tau( 154) = (  0.3747965  0.5266353  0.2148862  )
       155           C   tau( 155) = (  0.3588392  0.5644680  0.6380417  )
       156           C   tau( 156) = (  0.3442726  0.5873700  0.6068882  )
       157           C   tau( 157) = (  0.3054003  0.6209223  0.6050305  )
       158           C   tau( 158) = (  0.2856024  0.6275654  0.5737996  )
       159           C   tau( 159) = (  0.2416696  0.6228723  0.5720325  )
       160           C   tau( 160) = (  0.2225108  0.6118836  0.5409214  )
       161           C   tau( 161) = (  0.1865837  0.5704916  0.5391120  )
       162           C   tau( 162) = (  0.1738771  0.5447636  0.5079778  )
       163           C   tau( 163) = (  0.1568637  0.4788591  0.5061617  )
       164           C   tau( 164) = (  0.1543455  0.4461905  0.4749895  )
       165           C   tau( 165) = (  0.1609927  0.3754991  0.4731609  )
       166           C   tau( 166) = (  0.1692596  0.3455142  0.4420144  )
       167           C   tau( 167) = (  0.1976213  0.2907185  0.4401849  )
       168           C   tau( 168) = (  0.2144417  0.2724294  0.4090406  )
       169           C   tau( 169) = (  0.2563269  0.2504784  0.4072340  )
       170           C   tau( 170) = (  0.2766569  0.2495406  0.3760973  )
       171           C   tau( 171) = (  0.3193072  0.2669974  0.3743001  )
       172           C   tau( 172) = (  0.3371325  0.2825139  0.3431812  )
       173           C   tau( 173) = (  0.3683848  0.3331800  0.3413852  )
       174           C   tau( 174) = (  0.3779829  0.3619543  0.3100691  )
       175           C   tau( 175) = (  0.3877226  0.4315433  0.3081126  )
       176           C   tau( 176) = (  0.3867688  0.4645608  0.2770314  )
       177           C   tau( 177) = (  0.3728444  0.5324060  0.2752798  )
       178           C   tau( 178) = (  0.3561932  0.5693236  0.6984645  )
       179           C   tau( 179) = (  0.3410544  0.5912856  0.6673177  )
       180           C   tau( 180) = (  0.3015367  0.6226706  0.6654797  )
       181           C   tau( 181) = (  0.2816016  0.6285139  0.6342874  )
       182           C   tau( 182) = (  0.2377860  0.6212761  0.6324963  )
       183           C   tau( 183) = (  0.2189529  0.6090777  0.6013561  )
       184           C   tau( 184) = (  0.1840051  0.5656368  0.5995517  )
       185           C   tau( 185) = (  0.1718268  0.5392577  0.5684013  )
       186           C   tau( 186) = (  0.1561535  0.4724380  0.5665977  )
       187           C   tau( 187) = (  0.1543327  0.4396373  0.5354564  )
       188           C   tau( 188) = (  0.1624776  0.3693570  0.5336348  )
       189           C   tau( 189) = (  0.1714482  0.3398610  0.5024776  )
       190           C   tau( 190) = (  0.2009293  0.2868603  0.5006587  )
       191           C   tau( 191) = (  0.2180027  0.2693286  0.4694682  )
       192           C   tau( 192) = (  0.2603371  0.2498554  0.4676180  )
       193           C   tau( 193) = (  0.2805220  0.2498608  0.4365136  )
       194           C   tau( 194) = (  0.3227878  0.2703920  0.4346829  )
       195           C   tau( 195) = (  0.3399685  0.2877906  0.4036332  )
       196           C   tau( 196) = (  0.3701984  0.3398224  0.4019102  )
       197           C   tau( 197) = (  0.3800533  0.3679100  0.3704275  )
       198           C   tau( 198) = (  0.3885372  0.4382036  0.3683666  )
       199           C   tau( 199) = (  0.3861870  0.4709437  0.3373335  )
       200           C   tau( 200) = (  0.3534591  0.5740499  0.7588865  )
       201           C   tau( 201) = (  0.3378597  0.5951247  0.7277376  )
       202           C   tau( 202) = (  0.2976596  0.6242114  0.7259230  )
       203           C   tau( 203) = (  0.2775841  0.6289121  0.6947680  )
       204           C   tau( 204) = (  0.2339806  0.6192759  0.6929568  )
       205           C   tau( 205) = (  0.2154103  0.6060871  0.6617878  )
       206           C   tau( 206) = (  0.1814204  0.5606637  0.6599867  )
       207           C   tau( 207) = (  0.1698404  0.5336263  0.6288423  )
       208           C   tau( 208) = (  0.1555459  0.4659882  0.6270405  )
       209           C   tau( 209) = (  0.1544506  0.4330935  0.5958940  )
       210           C   tau( 210) = (  0.1640954  0.3633542  0.5940722  )
       211           C   tau( 211) = (  0.1736877  0.3343626  0.5629155  )
       212           C   tau( 212) = (  0.2043492  0.2830563  0.5611039  )
       213           C   tau( 213) = (  0.2218231  0.2665706  0.5299452  )
       214           C   tau( 214) = (  0.2645265  0.2493165  0.5281032  )
       215           C   tau( 215) = (  0.2847047  0.2509082  0.4969093  )
       216           C   tau( 216) = (  0.3263533  0.2734096  0.4950431  )
       217           C   tau( 217) = (  0.3430554  0.2921640  0.4638757  )
       218           C   tau( 218) = (  0.3719934  0.3461121  0.4619060  )
       219           C   tau( 219) = (  0.3820275  0.3739722  0.4310685  )
       220           C   tau( 220) = (  0.3954587  0.4444826  0.4288159  )
       221           C   tau( 221) = (  0.3867406  0.4775865  0.3973571  )
       222           C   tau( 222) = (  0.3505949  0.5786096  0.8193143  )
       223           C   tau( 223) = (  0.3345598  0.5987854  0.7881671  )
       224           C   tau( 224) = (  0.2937555  0.6255449  0.7863634  )
       225           C   tau( 225) = (  0.2735873  0.6290727  0.7552114  )
       226           C   tau( 226) = (  0.2302189  0.6170226  0.7533959  )
       227           C   tau( 227) = (  0.2119250  0.6028555  0.7222358  )
       228           C   tau( 228) = (  0.1789056  0.5555647  0.7204337  )
       229           C   tau( 229) = (  0.1679286  0.5278807  0.6892826  )
       230           C   tau( 230) = (  0.1550609  0.4595131  0.6874760  )
       231           C   tau( 231) = (  0.1546442  0.4265834  0.6563229  )
       232           C   tau( 232) = (  0.1657707  0.3574018  0.6545045  )
       233           C   tau( 233) = (  0.1760278  0.3289953  0.6233611  )
       234           C   tau( 234) = (  0.2077788  0.2794768  0.6215572  )
       235           C   tau( 235) = (  0.2256534  0.2639995  0.5903933  )
       236           C   tau( 236) = (  0.2686514  0.2489315  0.5885510  )
       237           C   tau( 237) = (  0.2888226  0.2511756  0.5573610  )
       238           C   tau( 238) = (  0.3302467  0.2753868  0.5555251  )
       239           C   tau( 239) = (  0.3465037  0.2951399  0.5244147  )
       240           C   tau( 240) = (  0.3738910  0.3510178  0.5226884  )
       241           C   tau( 241) = (  0.3817464  0.3821899  0.4916762  )
       242           C   tau( 242) = (  0.3888418  0.4517255  0.4903863  )
       243           C   tau( 243) = (  0.3918830  0.4873976  0.4589286  )
       244           C   tau( 244) = (  0.3476196  0.5829952  0.8797507  )
       245           C   tau( 245) = (  0.3311698  0.6022548  0.8485972  )
       246           C   tau( 246) = (  0.2898219  0.6266914  0.8467962  )
       247           C   tau( 247) = (  0.2695939  0.6290731  0.8156462  )
       248           C   tau( 248) = (  0.2265036  0.6145882  0.8138297  )
       249           C   tau( 249) = (  0.2085136  0.5993880  0.7826807  )
       250           C   tau( 250) = (  0.1765097  0.5503152  0.7808789  )
       251           C   tau( 251) = (  0.1661199  0.5220471  0.7497183  )
       252           C   tau( 252) = (  0.1546955  0.4529956  0.7479096  )
       253           C   tau( 253) = (  0.1549686  0.4200698  0.7167627  )
       254           C   tau( 254) = (  0.1675430  0.3515442  0.7149500  )
       255           C   tau( 255) = (  0.1784217  0.3237480  0.6837992  )
       256           C   tau( 256) = (  0.2112140  0.2760878  0.6819978  )
       257           C   tau( 257) = (  0.2294103  0.2615941  0.6508428  )
       258           C   tau( 258) = (  0.2727190  0.2489153  0.6490173  )
       259           C   tau( 259) = (  0.2928613  0.2521244  0.6178635  )
       260           C   tau( 260) = (  0.3337784  0.2784339  0.6160677  )
       261           C   tau( 261) = (  0.3498047  0.2986058  0.5849080  )
       262           C   tau( 262) = (  0.3760423  0.3558740  0.5831829  )
       263           C   tau( 263) = (  0.3832108  0.3868527  0.5520664  )
       264           C   tau( 264) = (  0.3871795  0.4579120  0.5504058  )
       265           C   tau( 265) = (  0.3841299  0.4904877  0.5193704  )
       266           C   tau( 266) = (  0.3445315  0.5871803  0.9401857  )
       267           C   tau( 267) = (  0.3276912  0.6055214  0.9090320  )
       268           C   tau( 268) = (  0.2858482  0.6276283  0.9072269  )
       269           C   tau( 269) = (  0.2655863  0.6288682  0.8760789  )
       270           C   tau( 270) = (  0.2228360  0.6119661  0.8742614  )
       271           C   tau( 271) = (  0.2051834  0.5957540  0.8431126  )
       272           C   tau( 272) = (  0.1742296  0.5449391  0.8413130  )
       273           C   tau( 273) = (  0.1644249  0.5161108  0.8101590  )
       274           C   tau( 274) = (  0.1544689  0.4464580  0.8083468  )
       275           C   tau( 275) = (  0.1554408  0.4135654  0.7771982  )
       276           C   tau( 276) = (  0.1694562  0.3457945  0.7753920  )
       277           C   tau( 277) = (  0.1808976  0.3186183  0.7442369  )
       278           C   tau( 278) = (  0.2147008  0.2728411  0.7424354  )
       279           C   tau( 279) = (  0.2332089  0.2594236  0.7112922  )
       280           C   tau( 280) = (  0.2767624  0.2492481  0.7094779  )
       281           C   tau( 281) = (  0.2968360  0.2535834  0.6783217  )
       282           C   tau( 282) = (  0.3371524  0.2821550  0.6765256  )
       283           C   tau( 283) = (  0.3527944  0.3029859  0.6453553  )
       284           C   tau( 284) = (  0.3778194  0.3617899  0.6435718  )
       285           C   tau( 285) = (  0.3843510  0.3929415  0.6124525  )
       286           C   tau( 286) = (  0.3866903  0.4643575  0.6107035  )
       287           C   tau( 287) = (  0.3822339  0.4965907  0.5796195  )
       288           C   tau( 288) = (  0.3413440  0.5911749  0.0006603  )
       289           C   tau( 289) = (  0.3241350  0.6085736  0.9694683  )
       290           C   tau( 290) = (  0.2818483  0.6283286  0.9676572  )
       291           C   tau( 291) = (  0.2615765  0.6284406  0.9365091  )
       292           C   tau( 292) = (  0.2192103  0.6091558  0.9346920  )
       293           C   tau( 293) = (  0.2019166  0.5919641  0.9035429  )
       294           C   tau( 294) = (  0.1720622  0.5394387  0.9017432  )
       295           C   tau( 295) = (  0.1628798  0.5100765  0.8705955  )
       296           C   tau( 296) = (  0.1544051  0.4399199  0.8687797  )
       297           C   tau( 297) = (  0.1560616  0.4070963  0.8376297  )
       298           C   tau( 298) = (  0.1715070  0.3401507  0.8358286  )
       299           C   tau( 299) = (  0.1835113  0.3136286  0.8046781  )
       300           C   tau( 300) = (  0.2182806  0.2698055  0.8028722  )
       301           C   tau( 301) = (  0.2370597  0.2574685  0.7717247  )
       302           C   tau( 302) = (  0.2807995  0.2498062  0.7699138  )
       303           C   tau( 303) = (  0.3007627  0.2552812  0.7387565  )
       304           C   tau( 304) = (  0.3404596  0.2861055  0.7369520  )
       305           C   tau( 305) = (  0.3556511  0.3077971  0.7057982  )
       306           C   tau( 306) = (  0.3794641  0.3679267  0.7039856  )
       307           C   tau( 307) = (  0.3853086  0.3993997  0.6728380  )
       308           C   tau( 308) = (  0.3861941  0.4708690  0.6710515  )
       309           C   tau( 309) = (  0.3810300  0.5027346  0.6399166  )
       310           C   tau( 310) = (  0.2575684  0.6277751  0.9969365  )
       311           C   tau( 311) = (  0.2156330  0.6061330  0.9951226  )
       312           C   tau( 312) = (  0.1987219  0.5879900  0.9639732  )
       313           C   tau( 313) = (  0.1699993  0.5338252  0.9621703  )
       314           C   tau( 314) = (  0.1614524  0.5039632  0.9310237  )
       315           C   tau( 315) = (  0.1544736  0.4333727  0.9292074  )
       316           C   tau( 316) = (  0.1568322  0.4006683  0.8980600  )
       317           C   tau( 317) = (  0.1736929  0.3346291  0.8962613  )
       318           C   tau( 318) = (  0.1862565  0.3088034  0.8651114  )
       319           C   tau( 319) = (  0.2219342  0.2669705  0.8632984  )
       320           C   tau( 320) = (  0.2409656  0.2557061  0.8321493  )
       321           C   tau( 321) = (  0.2848457  0.2505181  0.8303393  )
       322           C   tau( 322) = (  0.3046758  0.2571526  0.7991860  )
       323           C   tau( 323) = (  0.3437026  0.2901645  0.7973758  )
       324           C   tau( 324) = (  0.3584190  0.3127365  0.7662217  )
       325           C   tau( 325) = (  0.3809756  0.3741184  0.7643993  )
       326           C   tau( 326) = (  0.3861907  0.4058921  0.7332429  )
       327           C   tau( 327) = (  0.3855879  0.4773907  0.7314427  )
       328           C   tau( 328) = (  0.3797474  0.5089213  0.7003041  )
       329           C   tau( 329) = (  0.1601384  0.4977779  0.9914485  )
       330           C   tau( 330) = (  0.1546662  0.4268307  0.9896339  )
       331           C   tau( 331) = (  0.1577283  0.3942758  0.9584865  )
       332           C   tau( 332) = (  0.1759845  0.3292240  0.9566866  )
       333           C   tau( 333) = (  0.1890932  0.3041172  0.9255382  )
       334           C   tau( 334) = (  0.2256410  0.2643047  0.9237206  )
       335           C   tau( 335) = (  0.2449049  0.2541255  0.8925727  )
       336           C   tau( 336) = (  0.2888723  0.2514059  0.8907657  )
       337           C   tau( 337) = (  0.3085524  0.2591738  0.8596118  )
       338           C   tau( 338) = (  0.3468558  0.2943496  0.8577967  )
       339           C   tau( 339) = (  0.3610944  0.3177492  0.8266436  )
       340           C   tau( 340) = (  0.3823444  0.3803552  0.8248213  )
       341           C   tau( 341) = (  0.3869028  0.4124165  0.7936680  )
       342           C   tau( 342) = (  0.3847943  0.4838382  0.7918617  )
       343           C   tau( 343) = (  0.3783040  0.5150399  0.7607134  )
       344           C   tau( 344) = (  0.1920183  0.2996016  0.9859645  )
       345           C   tau( 345) = (  0.2293897  0.2618548  0.9841446  )
       346           C   tau( 346) = (  0.2488630  0.2527558  0.9529968  )
       347           C   tau( 347) = (  0.2928635  0.2525050  0.9511922  )
       348           C   tau( 348) = (  0.3123715  0.2613835  0.9200394  )
       349           C   tau( 349) = (  0.3499039  0.2986961  0.9182202  )
       350           C   tau( 350) = (  0.3636444  0.3228837  0.8870692  )
       351           C   tau( 351) = (  0.3835523  0.3866422  0.8852527  )
       352           C   tau( 352) = (  0.3874358  0.4189547  0.8540964  )
       353           C   tau( 353) = (  0.3838100  0.4902068  0.8522878  )
       354           C   tau( 354) = (  0.3766858  0.5210343  0.8211353  )
       355           C   tau( 355) = (  0.3161361  0.2637837  0.9804686  )
       356           C   tau( 356) = (  0.3528568  0.3031828  0.9786462  )
       357           C   tau( 357) = (  0.3660745  0.3281405  0.9474961  )
       358           C   tau( 358) = (  0.3846254  0.3929682  0.9456843  )
       359           C   tau( 359) = (  0.3878256  0.4254890  0.9145293  )
       360           C   tau( 360) = (  0.3826906  0.4964990  0.9127164  )
       361           C   tau( 361) = (  0.3749177  0.5269204  0.8815673  )
       362           C   tau( 362) = (  0.3880683  0.4320258  0.9749652  )
       363           C   tau( 363) = (  0.3814198  0.5027037  0.9731485  )
       364           C   tau( 364) = (  0.3730093  0.5326746  0.9419989  )
       365           Se  tau( 365) = (  0.4534243  0.4790198  0.4438896  )

     number of k points=     1
                       cart. coord. in units 2pi/alat
        k(    1) = (   0.0000000   0.0000000   0.0000000), wk =   2.0000000

                       cryst. coord.
        k(    1) = (   0.0000000   0.0000000   0.0000000), wk =   2.0000000

     Dense  grid: 11053081 G-vectors     FFT dimensions: ( 320, 192, 384)

     Dynamical RAM for                 wfc:      68.59 MB

     Dynamical RAM for     wfc (w. buffer):      68.59 MB

     Dynamical RAM for           str. fact:       0.22 MB

     Dynamical RAM for           local pot:       0.00 MB

     Dynamical RAM for          nlocal pot:      40.19 MB

     Dynamical RAM for                qrad:       2.49 MB

     Dynamical RAM for          rho,v,vnew:       1.74 MB

     Dynamical RAM for           G-vectors:       0.47 MB

     Dynamical RAM for          h,s,v(r/c):      12.00 MB

     Dynamical RAM for          <psi|beta>:     223.54 MB

     Dynamical RAM for                 psi:     274.35 MB

     Dynamical RAM for                hpsi:     274.35 MB

     Dynamical RAM for      wfcinit/wfcrot:     709.42 MB

     Estimated static dynamical RAM per process >     116.36 MB

     Estimated max dynamical RAM per process >     900.61 MB

     Estimated total dynamical RAM >    1350.92 GB

     The potential is recalculated from file :
     ./CNT_PBE.save/charge-density

     Starting wfcs are random

     Band Structure Calculation
     Davidson diagonalization with overlap

     Computing kpt #:     1  of     1
     total cpu time spent up to now is    16602.3 secs

     ethr =  5.03E-12,  avg # of iterations = 81.0

     total cpu time spent up to now is    16602.3 secs

     End of band structure calculation

          k = 0.0000 0.0000 0.0000 (****** PWs)   bands (ev):

   -22.6858 -22.6227 -22.6143 -22.4811 -22.4678 -22.4277 -22.4168 -22.4114
   -22.4032 -22.4027 -22.4007 -22.2194 -22.2066 -22.2058 -22.2031 -22.0944
   -22.0880 -21.8981 -21.8789 -21.8777 -21.8754 -21.8509 -21.8384 -21.7912
   -21.7749 -21.7737 -21.7726 -21.6376 -21.6292 -21.5955 -21.5812 -21.5783
   -21.5770 -21.4339 -21.4213 -21.4207 -21.4181 -21.2718 -21.2575 -21.2540
   -21.2516 -21.0527 -21.0425 -20.8777 -20.8376 -20.8367 -20.8351 -20.8327
   -20.8233 -20.8114 -20.8047 -20.8018 -20.7985 -20.7743 -20.7598 -20.7594
   -20.7589 -20.5892 -20.5690 -20.5674 -20.5664 -20.3462 -20.3328 -20.2794
   -20.2511 -20.2485 -20.2478 -20.2351 -20.2264 -20.2251 -20.2202 -20.1428
   -20.1306 -20.1285 -20.1269 -19.8330 -19.8072 -19.8051 -19.8035 -19.5708
   -19.5287 -19.5273 -19.5227 -19.5121 -19.5061 -19.4880 -19.4646 -19.4288
   -19.4033 -19.4025 -19.4020 -19.3261 -19.3061 -19.3054 -19.3053 -19.2669
   -19.2422 -19.2405 -19.2381 -19.2286 -19.2180 -19.2163 -19.2155 -18.9416
   -18.9099 -18.9080 -18.9074 -18.7426 -18.7207 -18.7175 -18.7147 -18.6053
   -18.5726 -18.5694 -18.5645 -18.5623 -18.5590 -18.5067 -18.4825 -18.4801
   -18.4793 -18.3947 -18.3794 -18.3784 -18.3771 -18.0453 -17.9424 -17.9416
   -17.9392 -17.9119 -17.8739 -17.8572 -17.8350 -17.8343 -17.8241 -17.8238
   -17.8222 -17.8143 -17.8097 -17.8062 -17.8031 -17.8000 -17.7979 -17.6821
   -17.6532 -17.6371 -17.6299 -17.5579 -17.5496 -17.4361 -17.3939 -17.3898
   -17.3732 -17.3732 -17.3697 -17.3468 -17.3371 -17.3282 -17.3274 -17.3164
   -17.3104 -17.2506 -17.2265 -17.2176 -17.0505 -17.0473 -17.0148 -16.9789
   -16.9431 -16.9339 -16.8030 -16.7790 -16.5547 -16.4962 -16.4945 -16.4862
   -16.4652 -16.4618 -16.4320 -16.4313 -16.2766 -16.2213 -16.2210 -16.1108
   -16.0248 -15.9894 -15.9636 -15.7928 -15.7924 -15.7768 -15.6189 -15.6141
   -15.6049 -15.5912 -15.5776 -15.5595 -15.5278 -15.5221 -15.5217 -15.5046
   -15.4601 -15.4427 -15.4279 -15.4256 -15.4241 -15.4143 -15.4129 -15.3956
   -15.3826 -15.3740 -15.3707 -15.3679 -15.3662 -15.3312 -15.3304 -15.2227
   -15.1498 -15.1420 -15.1167 -15.1036 -15.0729 -15.0602 -15.0437 -14.9980
   -14.9956 -14.9578 -14.8817 -14.8785 -14.8513 -14.8272 -14.8071 -14.7661
   -14.6053 -14.5916 -14.5494 -14.5467 -14.5447 -14.5239 -14.4760 -14.4658
   -14.4218 -14.4019 -14.3448 -14.3285 -14.2864 -14.2742 -14.2722 -14.2561
   -14.0108 -13.9975 -13.8769 -13.8713 -13.5416 -13.5307 -13.5204 -13.5102
   -13.4775 -13.4715 -13.4472 -13.4360 -13.4209 -13.4141 -13.4137 -13.4128
   -13.4055 -13.4033 -13.3986 -13.3912 -13.3811 -13.3764 -13.3693 -13.3641
   -13.3543 -13.3475 -13.3427 -13.3372 -13.3345 -13.3269 -13.1428 -13.1415
   -13.0832 -13.0807 -13.0796 -13.0729 -13.0608 -13.0602 -13.0538 -13.0467
   -13.0256 -13.0249 -12.9981 -12.9950 -12.8761 -12.8738 -12.5772 -12.5768
   -12.3905 -12.3894 -12.3705 -12.3694 -12.2585 -12.2554 -12.2541 -12.2537
   -12.1966 -12.1919 -12.1535 -12.1535 -12.1440 -12.1361 -12.0705 -12.0690
   -12.0295 -12.0199 -12.0063 -12.0028 -11.9793 -11.9793 -11.9100 -11.9077
   -11.8886 -11.8851 -11.7025 -11.6986 -11.6558 -11.6543 -11.5890 -11.5886
   -11.5553 -11.5544 -11.5064 -11.4967 -11.4774 -11.4745 -11.3957 -11.3951
   -11.3748 -11.3642 -11.3531 -11.3520 -11.3253 -11.3189 -11.2915 -11.2846
   -11.2240 -11.2208 -11.1981 -11.1896 -11.1301 -11.1204 -11.1135 -11.1076
   -11.0594 -11.0567 -11.0352 -11.0342 -11.0246 -11.0216 -11.0202 -11.0148
   -10.9556 -10.9450 -10.9435 -10.9424 -10.8932 -10.8915 -10.8101 -10.8095
   -10.8084 -10.7377 -10.7356 -10.7347 -10.7272 -10.6461 -10.6423 -10.5717
   -10.5654 -10.5176 -10.5072 -10.5059 -10.5054 -10.4975 -10.4954 -10.4949
   -10.4894 -10.4693 -10.4678 -10.4374 -10.4287 -10.4177 -10.4156 -10.3124
   -10.3120 -10.2997 -10.2980 -10.2820 -10.2757 -10.2696 -10.2624 -10.2592
   -10.2565 -10.2072 -10.2037 -10.1383 -10.1280 -10.0906 -10.0866 -10.0712
   -10.0680 -10.0616 -10.0609 -10.0441 -10.0438 -10.0342 -10.0274 -10.0210
   -10.0176  -9.9967  -9.9849  -9.9829  -9.9791  -9.9778  -9.9749  -9.9719
    -9.9669  -9.9586  -9.9451  -9.9416  -9.9400  -9.9301  -9.9270  -9.9072
    -9.9041  -9.8853  -9.8820  -9.8803  -9.8761  -9.8699  -9.8695  -9.8616
    -9.8589  -9.8314  -9.8216  -9.8189  -9.8136  -9.7960  -9.7942  -9.7850
    -9.7844  -9.6961  -9.6845  -9.6778  -9.6743  -9.6501  -9.6393  -9.5797
    -9.5712  -9.5577  -9.5427  -9.5219  -9.5163  -9.5146  -9.5111  -9.4948
    -9.4121  -9.4010  -9.3919  -9.3878  -9.3752  -9.3593  -9.3562  -9.3536
    -9.3482  -9.3379  -9.3358  -9.3272  -9.2535  -9.2519  -9.2350  -9.2140
    -9.2108  -9.2032  -9.1934  -9.1909  -9.1733  -9.1620  -9.1477  -9.1374
    -9.1292  -9.1095  -9.0995  -9.0890  -9.0455  -9.0397  -9.0305  -9.0292
    -9.0184  -9.0162  -9.0071  -8.9998  -8.9947  -8.9944  -8.9881  -8.9808
    -8.9425  -8.9417  -8.9349  -8.9297  -8.8935  -8.8841  -8.7945  -8.7776
    -8.6779  -8.6682  -8.6062  -8.6007  -8.5924  -8.5898  -8.5809  -8.5627
    -8.5437  -8.5416  -8.5297  -8.5236  -8.5167  -8.5153  -8.4810  -8.4778
    -8.3666  -8.3648  -8.3360  -8.3241  -8.3065  -8.2999  -8.2472  -8.2368
    -8.2188  -8.2150  -8.2132  -8.2124  -8.1764  -8.1716  -8.1667  -8.1643
    -8.1421  -8.1386  -8.0991  -8.0929  -8.0450  -8.0438  -8.0227  -8.0185
    -8.0139  -8.0130  -8.0001  -7.9982  -7.9744  -7.9678  -7.9651  -7.9564
    -7.9355  -7.9338  -7.9221  -7.9135  -7.8469  -7.8425  -7.8325  -7.8287
    -7.7476  -7.7389  -7.7044  -7.7022  -7.6914  -7.6878  -7.6795  -7.6793
    -7.6771  -7.6722  -7.6637  -7.6588  -7.6267  -7.6265  -7.5919  -7.5888
    -7.5273  -7.5264  -7.4418  -7.4333  -7.3960  -7.3863  -7.3406  -7.3341
    -7.2656  -7.2518  -7.2392  -7.2362  -7.2275  -7.2197  -7.2072  -7.2059
    -7.1117  -7.0974  -7.0833  -7.0665  -7.0553  -7.0526  -7.0387  -7.0363
    -7.0163  -7.0137  -6.9900  -6.9773  -6.9424  -6.9389  -6.9327  -6.9245
    -6.9241  -6.9220  -6.8916  -6.8823  -6.8541  -6.8509  -6.8355  -6.8323
    -6.7820  -6.7756  -6.7596  -6.7588  -6.6779  -6.6713  -6.6617  -6.6606
    -6.6365  -6.6290  -6.5767  -6.5678  -6.5615  -6.5586  -6.5504  -6.5475
    -6.5465  -6.5392  -6.3569  -6.3538  -6.3380  -6.3105  -6.2971  -6.2925
    -6.2523  -6.2454  -6.2286  -6.2233  -6.2148  -6.2142  -6.2063  -6.2031
    -6.1755  -6.1226  -6.0844  -6.0528  -6.0356  -6.0041  -5.9902  -5.9527
    -5.9522  -5.9318  -5.9089  -5.8897  -5.8041  -5.7976  -5.7603  -5.7566
    -5.6265  -5.5841  -5.5362  -5.4902  -5.4767  -5.4751  -5.4481  -5.4069
    -5.3683  -5.3599  -5.3164  -5.3016  -5.2819  -5.2794  -5.2455  -5.2440
    -5.2214  -5.2156  -5.2137  -5.1807  -5.1766  -5.1228  -5.1141  -5.0934
    -5.0695  -5.0565  -5.0307  -5.0071  -4.9854  -4.9622  -4.9397  -4.9266
    -4.9140  -4.9093  -4.9085  -4.7935  -4.7638  -4.7235  -4.7146  -4.6440
    -4.6208  -4.5719  -4.5601  -4.4110  -4.3249  -4.3088  -4.1696  -4.1286
    -4.0871  -4.0664  -4.0320  -4.0096  -3.8942  -3.8262  -3.7600  -3.7231
    -3.5546  -3.3902  -3.3332  -2.4903  -2.3986  -2.3386  -2.0316  -2.0111
    -1.9516  -1.9174  -1.8407  -1.8392  -1.8001  -1.7094  -1.6886  -1.6823
    -1.6654  -1.6356  -1.5696  -1.5485  -1.5427  -1.5279  -1.4989  -1.4569
    -1.3944  -1.3643  -1.3573  -1.3378  -1.3303  -1.3083  -1.3019  -1.2868
    -1.2833  -1.2557  -1.2510  -1.2502  -1.2422  -1.1982  -1.1977  -1.1871
    -1.1396  -1.1107  -1.1014  -1.0900  -1.0619  -1.0434  -1.0353  -1.0243
    -1.0191  -1.0123  -1.0007  -0.9855  -0.9779  -0.9383  -0.9236  -0.9033
    -0.7474  -0.6760  -0.6676  -0.6656  -0.5918  -0.5812  -0.5500  -0.5010
    -0.4736  -0.4459  -0.4372  -0.4168  -0.3365  -0.2472  -0.2053  -0.1727
    -0.0715  -0.0657  -0.0487   0.0058   0.0608   0.1046   0.1469   0.1907
     0.2361   0.2475   0.2981   0.3548   0.3707   0.3765   0.4195   0.4475
     0.4885   0.5024   0.5035   0.5080   0.5100   0.5173   0.5284   0.5588
     0.6084   0.6242   0.6435   0.6853   0.7345   0.7556   0.7834   0.8019
     0.8155   0.8165   0.8332   0.8379   0.8581   0.8601   0.8684   0.8958
     0.9037   0.9144   0.9464   0.9486   0.9524   0.9559   1.1360   1.1418
     1.1744   1.1825   1.1829   1.2134   1.2177   1.2181   1.2248   1.2310
     1.2351   1.2517   1.2845   1.3010   1.3061   1.3091   1.3241   1.3278
     1.3377   1.3583   1.3689   1.4050   1.4085   1.4968   1.4976   1.5076
     1.5121   1.5192   1.5575   1.5615   1.5630   1.5719   1.5737   1.5950
     1.6000   1.6026   1.6061   1.6319   1.6379   1.6483   1.6622   1.6646
     1.6651   1.6705   1.6991   1.7502   1.7579   1.7690   1.7775   1.7878
     1.7933   1.8032   1.8787   1.8797   1.8841   1.8845   1.9064   1.9150
     1.9225   1.9303   1.9484   1.9518   1.9976   2.0045   2.0182   2.0195
     2.0272   2.0296   2.0316   2.0417   2.0462   2.0489   2.0532   2.0554
     2.0616   2.0627   2.0663   2.0993   2.1125   2.1375   2.1400   2.1448
     2.1453   2.1458   2.1478   2.1558   2.1593   2.1598   2.1663   2.1695
     2.2407   2.2456   2.2571   2.2603   2.2712   2.2747   2.2795   2.2834
     2.2861   2.2932   2.3023   2.3356   2.3357   2.3546   2.3588   2.3609
     2.3661   2.3691   2.3773   2.3833   2.3928   2.4137   2.4172   2.4184
     2.4226   2.4526   2.4530   2.4647   2.4740   2.4789   2.4824   2.4851
     2.4978   2.5089   2.5168   2.5183   2.5229   2.5292   2.5482   2.5577
     2.5610   2.5699   2.5754   2.5779   2.5806   2.5829   2.5863   2.5929
     2.6003   2.6153   2.6180   2.6248   2.6318   2.6365   2.6383   2.6471
     2.6499   2.6690   2.6749   2.6831   2.6864   2.6908   2.7274   2.7291
     2.7311   2.7327   2.7394   2.7658   2.7701   2.7741   2.7868   2.7896
     2.7938   2.8167   2.8200   2.8311   2.8437   2.8482   2.8529   2.8557
     2.8633   2.8672   2.8678   2.8696   2.8702   2.8730   2.8880   2.8907
     2.9039   2.9055   2.9080   2.9129   2.9268   2.9428   2.9562   2.9652
     2.9689   2.9730   2.9749   2.9750   2.9760   2.9862   2.9969   2.9982
     3.0062   3.0106   3.0114   3.0151   3.0164   3.0200   3.0296   3.0361
     3.0372   3.0391   3.0605   3.0619   3.0721   3.0743   3.0789   3.0814
     3.0831   3.0927   3.0965   3.0998   3.1084   3.1213   3.1265   3.1312
     3.1576   3.1608   3.1650   3.1777   3.1812   3.1861   3.1919   3.2052
     3.2238   3.2302   3.2407   3.2427   3.2495   3.2539   3.2575   3.2591
     3.2645   3.2669   3.2689   3.2743   3.2761   3.2880   3.2932   3.2979
     3.3012   3.3024   3.3049   3.3088   3.3099   3.3110   3.3248   3.3271
     3.3428   3.3434   3.3562   3.3628   3.3654   3.3787   3.3799   3.3805
     3.3917   3.3960   3.4084   3.4163   3.4354   3.4408   3.4434   3.4493
     3.4567   3.4593   3.4662   3.4758   3.4775   3.4820   3.4859   3.4915
     3.4969   3.4993   3.5019   3.5030   3.5074   3.5109   3.5227   3.5276
     3.5372   3.5419   3.5443   3.5518   3.5553   3.5642   3.5666   3.5724
     3.5758   3.5917   3.5933   3.6134   3.6160   3.6168   3.6183   3.6310
     3.6327   3.6427   3.6619   3.6656   3.6681   3.6741   3.6837   3.6865
     3.6901   3.6945   3.7000   3.7032   3.7044   3.7067   3.7102   3.7170
     3.7236   3.7259   3.7286   3.7297   3.7323   3.7396   3.7405   3.7454
     3.7494   3.7507   3.7586   3.7625   3.7637   3.7672   3.7684   3.7719
     3.7898   3.7915   3.7953   3.7961   3.8009   3.8066   3.8146   3.8158
     3.8201   3.8240   3.8261   3.8331   3.8348   3.8379   3.8410   3.8510
     3.8681   3.8721   3.8763   3.8900   3.9073   3.9173   3.9197   3.9259
     3.9292   3.9350   3.9368   3.9398   3.9524   3.9667   3.9738   3.9786
     3.9846   3.9982   4.0061   4.0078   4.0104   4.0228   4.0256   4.0322
     4.0476   4.0524   4.0549   4.0582   4.0669   4.0687   4.0697   4.0723
     4.0791   4.0812   4.0831   4.0834   4.0956   4.0994   4.1075   4.1082
     4.1178   4.1287   4.1361   4.1395   4.1469   4.1537   4.1575   4.1598
     4.1651   4.1826   4.1888   4.1926   4.1953   4.2202   4.2360   4.2565
     4.2615   4.2673   4.2697   4.2790   4.2812   4.2860   4.2894   4.2922
     4.2931   4.3020   4.3037   4.3212   4.3235   4.3256   4.3290   4.3330
     4.3340   4.3409   4.3490   4.3498   4.3516   4.3627   4.3700   4.3734
     4.3800   4.3804   4.3899   4.4042   4.4081   4.4095   4.4118   4.4167
     4.4241   4.4259   4.4326   4.4334   4.4435   4.4484   4.4540   4.4633
     4.4783   4.4867   4.4882   4.4916   4.4931   4.4944   4.4972   4.4988
     4.5009   4.5039   4.5116   4.5165   4.5257   4.5290   4.5390   4.5416
     4.5522   4.5557   4.5737   4.5800   4.5827   4.5856   4.5869   4.6048
     4.6147   4.6227   4.6382   4.6433   4.6464   4.6672   4.6732   4.6744
     4.6813   4.6830   4.6898   4.6949   4.6998   4.7051   4.7093   4.7227
     4.7293   4.7313   4.7323   4.7355   4.7392   4.7458   4.7460   4.7484
     4.7503   4.7517   4.7553   4.7646   4.7707   4.7738   4.7775   4.7811
     4.7861   4.7884   4.7924   4.7942   4.7986   4.8004   4.8060   4.8090
     4.8156   4.8226   4.8298   4.8393   4.8443   4.8544   4.8644   4.8681
     4.8737   4.8819   4.8867   4.8953   4.8989   4.9096   4.9109   4.9131
     4.9188   4.9197   4.9245   4.9264   4.9286   4.9307   4.9368   4.9440
     4.9465   4.9499   4.9505   4.9525   4.9593   4.9660   4.9671   4.9674
     4.9774   4.9928   4.9954   4.9994   5.0025   5.0073   5.0117   5.0126
     5.0171   5.0256   5.0345   5.0493   5.0522   5.0578   5.0604   5.0648
     5.0711   5.0746   5.0758   5.0766   5.0800   5.0834   5.0881   5.0890
     5.0899   5.0902   5.0945   5.0958   5.1006   5.1061   5.1123   5.1179
     5.1212   5.1279   5.1403   5.1540   5.1610   5.1687   5.1715   5.1795
     5.1802   5.1826   5.1839   5.1881   5.1892   5.1930   5.1953   5.1984
     5.2001   5.2022   5.2051   5.2069   5.2085   5.2110   5.2149   5.2157
     5.2179   5.2226   5.2263   5.2289   5.2359   5.2488   5.2505   5.2551
     5.2648   5.2726   5.2771   5.2789   5.2889   5.2906   5.2933   5.2953
     5.2989   5.3015   5.3059   5.3065   5.3117   5.3157   5.3174   5.3194
     5.3261   5.3279   5.3349   5.3361   5.3363   5.3394   5.3412   5.3449
     5.3483   5.3542   5.3555   5.3612   5.3627   5.3637   5.3678   5.3700
     5.3868   5.3896   5.3994   5.4045   5.4119   5.4187   5.4243   5.4278
     5.4296   5.4322   5.4368   5.4422   5.4459   5.4478   5.4490   5.4524
     5.4543   5.4562   5.4617   5.4640   5.4641   5.4663   5.4695   5.4710
     5.4727   5.4752   5.4831   5.4845   5.4883   5.4939   5.4962   5.4973
     5.5008   5.5031   5.5048   5.5065   5.5140   5.5175   5.5202   5.5244
     5.5316   5.5334   5.5424   5.5453   5.5537   5.5561   5.5571   5.5630
     5.5641   5.5690   5.5733   5.5782   5.5800   5.5843   5.5937   5.6003
     5.6015   5.6060   5.6124   5.6183   5.6241   5.6278   5.6328   5.6383
     5.6426   5.6446   5.6527   5.6571   5.6592   5.6650   5.6664   5.6689
     5.6768   5.6804   5.6830   5.6925   5.6938   5.7002   5.7040   5.7065
     5.7076   5.7131   5.7166   5.7201   5.7243   5.7290   5.7322   5.7331
     5.7383   5.7400   5.7422   5.7456   5.7470   5.7488   5.7550   5.7583
     5.7595   5.7622   5.7692   5.7720   5.7758   5.7787   5.7812   5.7829
     5.7895   5.7931   5.8027   5.8053   5.8186   5.8318   5.8363   5.8464
     5.8482   5.8504   5.8573   5.8585   5.8662   5.8804   5.8893   5.8925
     5.8935   5.9033   5.9075   5.9107   5.9147   5.9178   5.9215   5.9256
     5.9316   5.9343   5.9381   5.9413   5.9475   5.9496   5.9530   5.9555
     5.9578   5.9609   5.9663   5.9698   5.9748   5.9789   5.9838   5.9885
     5.9901   5.9923   5.9946   6.0013   6.0067   6.0071   6.0113   6.0127
     6.0165   6.0178   6.0241   6.0254   6.0351   6.0381   6.0417   6.0438
     6.0533   6.0682   6.0709   6.0822   6.0843   6.0936   6.1038   6.1070
     6.1132   6.1208   6.1288   6.1311   6.1314   6.1387   6.1425   6.1453
     6.1521   6.1553   6.1597   6.1672   6.1775   6.1800   6.1813   6.1838
     6.1851   6.1899   6.1926   6.1973   6.1997   6.2009   6.2038   6.2051
     6.2062   6.2092   6.2125   6.2210   6.2273   6.2320   6.2366   6.2393
     6.2437   6.2454   6.2499   6.2519   6.2568   6.2602   6.2615   6.2659
     6.2676   6.2699   6.2725   6.2764   6.2828   6.2834   6.2891   6.2922
     6.2952   6.2978   6.3032   6.3095   6.3118   6.3128   6.3140   6.3149
     6.3190   6.3230   6.3285   6.3316   6.3340   6.3354   6.3374   6.3415
     6.3475   6.3556   6.3588   6.3610   6.3620   6.3661   6.3701   6.3740
     6.3774   6.3806   6.3835   6.3858   6.3903   6.3937   6.3970   6.4026
     6.4046   6.4086   6.4109   6.4131   6.4142   6.4160   6.4178   6.4208
     6.4231   6.4293   6.4326   6.4447   6.4560   6.4629   6.4714   6.4723
     6.4749   6.4773   6.4839   6.4915   6.4930   6.4969   6.4996   6.5002
     6.5035   6.5044   6.5102   6.5141   6.5189   6.5224   6.5247   6.5267
     6.5328   6.5356   6.5367   6.5397   6.5484   6.5529   6.5549   6.5598
     6.5627   6.5647   6.5734   6.5753   6.5848   6.5902   6.5916   6.5969
     6.6021   6.6080   6.6085   6.6111   6.6155   6.6170   6.6228   6.6242
     6.6270   6.6312   6.6343   6.6360   6.6382   6.6393   6.6411   6.6467
     6.6482   6.6522   6.6566   6.6617   6.6627   6.6651   6.6687   6.6735
     6.6778   6.6822   6.6832   6.6857   6.6915   6.6944   6.6983   6.7011
     6.7031   6.7091   6.7129   6.7134   6.7156   6.7258   6.7272   6.7282
     6.7304   6.7328   6.7389   6.7418   6.7481   6.7508   6.7529   6.7581
     6.7601   6.7632   6.7683   6.7715   6.7795   6.7831   6.7902   6.7930
     6.7971   6.8008   6.8101   6.8141   6.8144   6.8247   6.8273   6.8311
     6.8337   6.8399   6.8450   6.8470   6.8499   6.8538   6.8590   6.8637
     6.8666   6.8746   6.8809   6.8855   6.8872   6.8891   6.8915   6.8949
     6.8959   6.8992   6.9020   6.9080   6.9111   6.9158   6.9183   6.9204
     6.9243   6.9442   6.9518   6.9532   6.9606   6.9643   6.9668   6.9688
     6.9716   6.9796   6.9806   6.9832   6.9874   6.9913   6.9941   6.9972
     7.0028   7.0067   7.0087   7.0139   7.0207   7.0243   7.0249   7.0260
     7.0269   7.0278   7.0371   7.0372   7.0407   7.0449   7.0491   7.0569
     7.0643   7.0731   7.0780   7.1049   7.1168   7.1210   7.1224   7.1249
     7.1270   7.1282   7.1332   7.1411   7.1459   7.1467   7.1518   7.1536
     7.1646   7.1655   7.1673   7.1694   7.1746   7.1769   7.1783   7.1786
     7.1838   7.1884   7.1908   7.1928   7.1981   7.2029   7.2065   7.2082
     7.2136   7.2167   7.2192   7.2222   7.2246   7.2289   7.2319   7.2338
     7.2368   7.2410   7.2441   7.2458   7.2476   7.2510   7.2532   7.2604
     7.2651   7.2661   7.2708   7.2794   7.2834   7.2850   7.2873   7.2892
     7.2917   7.2949   7.2988   7.3036   7.3063   7.3095   7.3164   7.3214
     7.3230   7.3253   7.3315   7.3363   7.3406   7.3429   7.3437   7.3466
     7.3486   7.3505   7.3601   7.3632   7.3685   7.3736   7.3760   7.3790
     7.3810   7.3832   7.3860   7.3921   7.3928   7.3954   7.3992   7.4003
     7.4069   7.4077   7.4133   7.4198   7.4220   7.4262   7.4273   7.4293
     7.4338   7.4352   7.4387   7.4438   7.4446   7.4467   7.4498   7.4539
     7.4564   7.4606   7.4637   7.4654   7.4696   7.4756   7.4770   7.4774
     7.4793   7.4821   7.4834   7.4880   7.4998   7.5052   7.5073   7.5177
     7.5189   7.5216   7.5261   7.5281   7.5318   7.5370   7.5407   7.5424
     7.5441   7.5474   7.5500   7.5541   7.5544   7.5573   7.5619   7.5745
     7.5806   7.5846   7.5921   7.5946   7.6019   7.6057   7.6095   7.6110
     7.6204   7.6235   7.6328   7.6407   7.6476   7.6510   7.6522   7.6562
     7.6566   7.6611   7.6632   7.6637   7.6718   7.6738   7.6756   7.6820
     7.6853   7.6929   7.6956   7.6971   7.6987   7.7020   7.7064   7.7074
     7.7131   7.7204   7.7245   7.7294   7.7324   7.7369   7.7397   7.7414
     7.7490   7.7522   7.7571   7.7608   7.7648   7.7663   7.7697   7.7723
     7.7749   7.7776   7.7779   7.7817   7.7871   7.7957   7.8033   7.8115
     7.8217   7.8298   7.8331   7.8360   7.8417   7.8443   7.8492   7.8531
     7.8611   7.8659   7.8666   7.8777   7.8791   7.8808   7.8922   7.8936
     7.8972   7.8993   7.9007   7.9051   7.9106   7.9156   7.9235   7.9261
     7.9282   7.9339   7.9365   7.9414   7.9431   7.9454   7.9471   7.9488
     7.9496   7.9531   7.9545   7.9591   7.9609   7.9622   7.9632   7.9670
     7.9713   7.9732   7.9751   7.9770   7.9799   7.9815   7.9837   7.9886
     7.9900   7.9941   7.9970   7.9993   8.0027   8.0075   8.0098   8.0155
     8.0179   8.0232   8.0301   8.0327   8.0378   8.0422   8.0474   8.0499
     8.0615   8.0640   8.0700   8.0720   8.0829   8.0923   8.0988   8.1028
     8.1076   8.1101   8.1126   8.1135   8.1176   8.1209   8.1236   8.1250
     8.1275   8.1300   8.1317   8.1367   8.1381   8.1430   8.1455   8.1552
     8.1626   8.1645   8.1671   8.1687   8.1696   8.1708   8.1743   8.1793
     8.1809   8.1839   8.1868   8.1890   8.1900   8.1962   8.2006   8.2027
     8.2060   8.2092   8.2114   8.2126   8.2137   8.2180   8.2211   8.2297
     8.2335   8.2373   8.2437   8.2456   8.2469   8.2505   8.2516   8.2540
     8.2559   8.2600   8.2632   8.2654   8.2678   8.2694   8.2752   8.2795
     8.2844   8.2862   8.2893   8.2900   8.2945   8.2996   8.3082   8.3175
     8.3215   8.3264   8.3270   8.3296   8.3356   8.3412   8.3443   8.3480
     8.3533   8.3572   8.3582   8.3609   8.3637   8.3659   8.3697   8.3716
     8.3740   8.3772   8.3800   8.3833   8.3854   8.3876   8.3899   8.3922
     8.3949   8.3990   8.4031   8.4046   8.4085   8.4115   8.4121   8.4134
     8.4167   8.4173   8.4221   8.4264   8.4281   8.4331   8.4344   8.4442
     8.4450   8.4483   8.4514   8.4604   8.4608   8.4670   8.4695   8.4762
     8.4785   8.4821   8.4840   8.4860   8.4874   8.4899   8.4913   8.4928
     8.4957   8.4980   8.5002   8.5008   8.5024   8.5080   8.5111   8.5132
     8.5188   8.5225   8.5241   8.5242   8.5295   8.5347   8.5399   8.5444
     8.5459   8.5475   8.5498   8.5508   8.5555   8.5605   8.5658   8.5691
     8.5730   8.5741   8.5795   8.5803   8.5865   8.5884   8.5902   8.5919
     8.5962   8.5997   8.6060   8.6073   8.6085   8.6123   8.6178   8.6222
     8.6251   8.6270   8.6322   8.6350   8.6422   8.6440   8.6477   8.6523
     8.6602   8.6608   8.6644   8.6674   8.6707   8.6742   8.6784   8.6807
     8.6849   8.6895   8.6965   8.6998   8.7005   8.7036   8.7061   8.7096
     8.7124   8.7160   8.7225   8.7293   8.7352   8.7370   8.7440   8.7498
     8.7557   8.7571   8.7604   8.7627   8.7678   8.7694   8.7736   8.7776
     8.7795   8.7840   8.7947   8.7979   8.7983   8.8053   8.8071   8.8094
     8.8099   8.8112   8.8123   8.8143   8.8155   8.8172   8.8229   8.8238
     8.8255   8.8273   8.8291   8.8317   8.8338   8.8361   8.8385   8.8403
     8.8482   8.8505   8.8544   8.8608   8.8659   8.8703   8.8741   8.8819
     8.8880   8.8892   8.8965   8.9074   8.9091   8.9127   8.9173   8.9199
     8.9218   8.9272   8.9291   8.9332   8.9340   8.9380   8.9404   8.9419
     8.9462   8.9484   8.9513   8.9545   8.9670   8.9716   8.9776   8.9826
     8.9852   8.9897   8.9915   8.9978   8.9985   9.0067   9.0136   9.0146
     9.0196   9.0247   9.0279   9.0337   9.0383   9.0417   9.0424   9.0451
     9.0512   9.0568   9.0597   9.0642   9.0683   9.0735   9.0748   9.0771
     9.0810   9.0850   9.0867   9.0899   9.0919   9.0980   9.0994   9.1032
     9.1060   9.1099   9.1117   9.1160   9.1202   9.1254   9.1273   9.1320
     9.1364   9.1378   9.1383   9.1442   9.1448   9.1454   9.1476   9.1559
     9.1560   9.1641   9.1664   9.1707   9.1729   9.1800   9.1820   9.1857
     9.1880   9.1901   9.1963   9.1977   9.2007   9.2015   9.2043   9.2094
     9.2121   9.2148   9.2183   9.2194   9.2235   9.2273   9.2288   9.2300
     9.2303   9.2327   9.2394   9.2423   9.2483   9.2525   9.2556   9.2592
     9.2608   9.2660   9.2717   9.2728   9.2798   9.2875   9.2938   9.2978
     9.3026   9.3051   9.3100   9.3120   9.3159   9.3183   9.3227   9.3258
     9.3385   9.3414   9.3457   9.3487   9.3518   9.3572   9.3621   9.3683
     9.3690   9.3708   9.3725   9.3789   9.3838   9.3856   9.3869   9.3934
     9.3981   9.4013   9.4024   9.4044   9.4047   9.4099   9.4120   9.4133
     9.4159   9.4206   9.4229   9.4257   9.4275   9.4287   9.4312   9.4338
     9.4362   9.4428   9.4478   9.4527   9.4579   9.4607   9.4694   9.4736
     9.4742   9.4767   9.4810   9.4812   9.4893   9.4900   9.4948   9.5004
     9.5039   9.5069   9.5083   9.5124   9.5191   9.5193   9.5240   9.5249
     9.5269   9.5318   9.5342   9.5368   9.5374   9.5393   9.5421   9.5439
     9.5477   9.5502   9.5525   9.5541   9.5564   9.5584   9.5613   9.5650
     9.5674   9.5703   9.5757   9.5817   9.5869   9.5883   9.5914   9.5925
     9.5950   9.6000   9.6032   9.6055   9.6087   9.6130   9.6192   9.6209
     9.6230   9.6248   9.6306   9.6319   9.6377   9.6399   9.6410   9.6420
     9.6445   9.6458   9.6518   9.6524   9.6560   9.6564   9.6585   9.6598
     9.6712   9.6762   9.6786   9.6813   9.6863   9.6869   9.6924   9.6996
     9.7019   9.7028   9.7083   9.7141   9.7169   9.7184   9.7232   9.7335
     9.7361   9.7394   9.7461   9.7472   9.7495   9.7552   9.7580   9.7615
     9.7748   9.7794   9.7866   9.7870   9.7898   9.7916   9.7970   9.7984
     9.8043   9.8093   9.8111   9.8122   9.8145   9.8173   9.8200   9.8202
     9.8236   9.8250   9.8260   9.8313   9.8333   9.8429   9.8436   9.8468
     9.8490   9.8520   9.8534   9.8542   9.8580   9.8608   9.8643   9.8657
     9.8675   9.8706   9.8715   9.8757   9.8770   9.8797   9.8820   9.8871
     9.8934   9.8965   9.9040   9.9074   9.9133   9.9181   9.9206   9.9220
     9.9259   9.9285   9.9302   9.9327   9.9348   9.9376   9.9393   9.9439
     9.9442   9.9456   9.9464   9.9494   9.9508   9.9560   9.9565   9.9611
     9.9629   9.9690   9.9693   9.9723   9.9734   9.9768   9.9784   9.9798
     9.9849   9.9880   9.9899   9.9940   9.9990  10.0026  10.0170  10.0211
    10.0224  10.0276  10.0305  10.0361  10.0394  10.0422  10.0453  10.0469
    10.0495  10.0590  10.0630  10.0643  10.0651  10.0757  10.0826  10.0859
    10.0902  10.0906  10.0946  10.0988  10.1008  10.1042  10.1066  10.1079
    10.1181  10.1217  10.1275  10.1336  10.1358  10.1411  10.1443  10.1504
    10.1578  10.1607  10.1681  10.1702  10.1793  10.1808  10.1834  10.1920
    10.1961  10.2018  10.2027  10.2073  10.2108  10.2119  10.2150  10.2159
    10.2186  10.2244  10.2252  10.2285  10.2295  10.2326  10.2378  10.2425
    10.2446  10.2501  10.2545  10.2562  10.2584  10.2618  10.2645  10.2660
    10.2707  10.2749  10.2813  10.2854  10.2897  10.2933  10.2964  10.2979
    10.3004  10.3052  10.3106  10.3121  10.3215  10.3239  10.3286  10.3309
    10.3350  10.3367  10.3390  10.3433  10.3452  10.3477  10.3481  10.3531
    10.3545  10.3600  10.3619  10.3661  10.3702  10.3728  10.3818  10.3829
    10.3856  10.3903  10.3925  10.3974  10.3990  10.4008  10.4062  10.4082
    10.4124  10.4139  10.4209  10.4254  10.4286  10.4343  10.4352  10.4371
    10.4440  10.4457  10.4507  10.4547  10.4572  10.4615  10.4647  10.4687
    10.4723  10.4745  10.4817  10.4831  10.4921  10.4942  10.5024  10.5076
    10.5124  10.5151  10.5191  10.5228  10.5289  10.5296  10.5334  10.5379
    10.5409  10.5417  10.5462  10.5492  10.5515  10.5544  10.5566  10.5596
    10.5625  10.5653  10.5664  10.5714  10.5719  10.5772  10.5825  10.5834
    10.5883  10.5891  10.5923  10.5970  10.5985  10.6031  10.6047  10.6074
    10.6094  10.6143  10.6152  10.6165  10.6191  10.6224  10.6257  10.6279
    10.6341  10.6347  10.6394  10.6401  10.6437  10.6466  10.6489  10.6501
    10.6545  10.6558  10.6571  10.6625  10.6667  10.6688  10.6744  10.6768
    10.6787  10.6796  10.6869  10.6887  10.6904  10.6938  10.6967  10.6994
    10.7011  10.7018  10.7062  10.7074  10.7116  10.7165  10.7188  10.7225
    10.7228  10.7239  10.7296  10.7335  10.7371  10.7390  10.7407  10.7407
    10.7409  10.7446  10.7452  10.7496  10.7515  10.7561  10.7591  10.7619
    10.7675  10.7699  10.7708  10.7753  10.7763  10.7777  10.7805  10.7828
    10.7849  10.7864  10.7878  10.7911  10.7944  10.7948  10.7952  10.8029
    10.8039  10.8065  10.8096  10.8103  10.8137  10.8170  10.8205  10.8231
    10.8252  10.8312  10.8350  10.8395  10.8428  10.8434  10.8492  10.8512
    10.8549  10.8603  10.8609  10.8630  10.8657  10.8684  10.8713  10.8736
    10.8752  10.8795  10.8815  10.8866  10.8909  10.8945  10.8971  10.9016
    10.9040  10.9082  10.9096  10.9107  10.9124  10.9157  10.9180  10.9266
    10.9312  10.9326  10.9351  10.9386  10.9414  10.9443  10.9466  10.9475
    10.9497  10.9553  10.9567  10.9614  10.9643  10.9659  10.9689  10.9706
    10.9779  10.9805  10.9807  10.9834  10.9856  10.9871  10.9936  10.9956
    10.9972  11.0006  11.0033  11.0048  11.0112  11.0158  11.0169  11.0205
    11.0229  11.0260  11.0261  11.0292  11.0315  11.0346  11.0354  11.0367
    11.0429  11.0448  11.0488  11.0500  11.0555  11.0562  11.0585  11.0628
    11.0655  11.0686  11.0703  11.0730  11.0800  11.0814  11.0833  11.0857
    11.0874  11.0905  11.0942  11.0947  11.0972  11.0995  11.1006  11.1033
    11.1072  11.1105  11.1120  11.1132  11.1150  11.1186  11.1191  11.1211
    11.1226  11.1281  11.1298  11.1352  11.1380  11.1433  11.1465  11.1474
    11.1491  11.1544  11.1575  11.1599  11.1682  11.1685  11.1739  11.1754
    11.1782  11.1798  11.1874  11.1889  11.1930  11.1972  11.2015  11.2079
    11.2096  11.2143  11.2196  11.2224  11.2257  11.2302  11.2320  11.2350
    11.2354  11.2433  11.2466  11.2480  11.2497  11.2517  11.2534  11.2592
    11.2631  11.2666  11.2696  11.2715  11.2724  11.2738  11.2750  11.2785
    11.2827  11.2836  11.2860  11.2890  11.2927  11.2939  11.2953  11.2977
    11.2987  11.3030  11.3059  11.3081  11.3160  11.3208  11.3221  11.3281
    11.3330  11.3401  11.3417  11.3430  11.3499  11.3516  11.3538  11.3579
    11.3601  11.3613  11.3627  11.3654  11.3687  11.3691  11.3773  11.3788
    11.3805  11.3838  11.3846  11.3865  11.3924  11.3940  11.3962  11.3984
    11.4024  11.4047  11.4103  11.4145  11.4167  11.4199  11.4248  11.4289
    11.4325  11.4350  11.4364  11.4398  11.4414  11.4452  11.4512  11.4538
    11.4569  11.4579  11.4594  11.4627  11.4631  11.4678  11.4714  11.4767
    11.4790  11.4862  11.4872  11.4902  11.4928  11.4967  11.5010  11.5061
    11.5142  11.5193  11.5232  11.5245  11.5280  11.5314  11.5334  11.5354
    11.5401  11.5459  11.5468  11.5485  11.5548  11.5570  11.5622  11.5639
    11.5655  11.5697  11.5722  11.5784  11.5797  11.5815  11.5836  11.5844
    11.5872  11.5910  11.5915  11.5927  11.5956  11.5982  11.5990  11.6026
    11.6042  11.6094  11.6135  11.6171  11.6215  11.6233  11.6251  11.6271
    11.6290  11.6300  11.6312  11.6361  11.6410  11.6418  11.6470  11.6500
    11.6537  11.6559  11.6584  11.6627  11.6632  11.6674  11.6714  11.6728
    11.6778  11.6828  11.6878  11.6895  11.6919  11.6925  11.6998  11.7006
    11.7011  11.7067  11.7079  11.7099  11.7119  11.7128  11.7212  11.7220
    11.7237  11.7248  11.7263  11.7282  11.7309  11.7336  11.7367  11.7379
    11.7409  11.7427  11.7447  11.7463  11.7503  11.7507  11.7525  11.7552
    11.7561  11.7583  11.7617  11.7631  11.7668  11.7690  11.7730  11.7754
    11.7826  11.7858  11.7880  11.7909  11.7934  11.7937  11.7999  11.8020
    11.8042  11.8067  11.8105  11.8164  11.8187  11.8194  11.8204  11.8247
    11.8252  11.8299  11.8329  11.8372  11.8417  11.8435  11.8458  11.8522
    11.8538  11.8565  11.8623  11.8652  11.8663  11.8683  11.8736  11.8781
    11.8791  11.8845  11.8894  11.8901  11.8964  11.9008  11.9033  11.9068
    11.9097  11.9131  11.9161  11.9187  11.9218  11.9250  11.9292  11.9319
    11.9366  11.9401  11.9425  11.9456  11.9515  11.9554  11.9563  11.9576
    11.9585  11.9625  11.9666  11.9733  11.9786  11.9816  11.9825  11.9854
    11.9889  11.9915  11.9928  11.9937  11.9945  11.9951  11.9958  11.9996
    12.0005  12.0048  12.0063  12.0068  12.0096  12.0121  12.0130  12.0161
    12.0187  12.0194  12.0232  12.0286  12.0314  12.0319  12.0347  12.0406
    12.0445  12.0461  12.0492  12.0523  12.0537  12.0568  12.0581  12.0606
    12.0621  12.0653  12.0682  12.0705  12.0726  12.0763  12.0788  12.0832
    12.0859  12.0884  12.0926  12.0943  12.0962  12.0995  12.1012  12.1023
    12.1081  12.1092  12.1121  12.1125  12.1147  12.1185  12.1196  12.1215
    12.1259  12.1321  12.1354  12.1385  12.1431  12.1443  12.1484  12.1519
    12.1541  12.1602  12.1627  12.1650  12.1679  12.1729  12.1756  12.1785
    12.1805  12.1834  12.1881  12.1888  12.1910  12.1959  12.2011  12.2032
    12.2086  12.2128  12.2140  12.2221  12.2247  12.2249  12.2271  12.2342
    12.2364  12.2386  12.2426  12.2435  12.2472  12.2473  12.2491  12.2519
    12.2566  12.2578  12.2604  12.2629  12.2654  12.2662  12.2717  12.2744
    12.2755  12.2761  12.2775  12.2826  12.2846  12.2855  12.2872  12.2903
    12.2937  12.2961  12.2979  12.2995  12.3030  12.3038  12.3087  12.3127
    12.3162  12.3203  12.3223  12.3269  12.3294  12.3312  12.3321  12.3332
    12.3340  12.3377  12.3389  12.3414  12.3423  12.3443  12.3467  12.3504
    12.3529  12.3547  12.3568  12.3604  12.3623  12.3632  12.3675  12.3701
    12.3728  12.3740  12.3769  12.3796  12.3832  12.3863  12.3871  12.3918
    12.3920  12.3932  12.3956  12.3988  12.4009  12.4042  12.4053  12.4077
    12.4089  12.4125  12.4143  12.4150  12.4175  12.4228  12.4259  12.4280
    12.4288  12.4322  12.4370  12.4396  12.4411  12.4466  12.4483  12.4509
    12.4541  12.4560  12.4609  12.4632  12.4696  12.4729  12.4729  12.4765
    12.4791  12.4818  12.4873  12.4878  12.4893  12.4913  12.4955  12.4971
    12.4987  12.5014  12.5051  12.5063  12.5064  12.5123  12.5153  12.5190
    12.5223  12.5230  12.5286  12.5307  12.5368  12.5404  12.5445  12.5526
    12.5541  12.5550  12.5606  12.5615  12.5643  12.5667  12.5707  12.5720
    12.5742  12.5769  12.5785  12.5805  12.5843  12.5875  12.5882  12.5929
    12.5938  12.5976  12.6017  12.6041  12.6054  12.6068  12.6139  12.6160
    12.6181  12.6192  12.6278  12.6299  12.6335  12.6349  12.6379  12.6396
    12.6433  12.6452  12.6486  12.6516  12.6565  12.6608  12.6657  12.6689
    12.6705  12.6733  12.6765  12.6823  12.6843  12.6877  12.6921  12.6936
    12.6975  12.7017  12.7052  12.7090  12.7122  12.7138  12.7189  12.7204
    12.7225  12.7274  12.7317  12.7326  12.7388  12.7397  12.7420  12.7447
    12.7489  12.7493  12.7522  12.7561  12.7586  12.7594  12.7607  12.7616
    12.7672  12.7702  12.7724  12.7769  12.7794  12.7819  12.7840  12.7868
    12.7899  12.7927  12.7965  12.8002  12.8011  12.8033  12.8042  12.8086
    12.8106  12.8173  12.8199  12.8259  12.8307  12.8323  12.8332  12.8346
    12.8422  12.8439  12.8445  12.8463  12.8513  12.8559  12.8568  12.8592
    12.8633  12.8658  12.8680  12.8726  12.8785  12.8826  12.8883  12.8932
    12.8998  12.9009  12.9039  12.9064  12.9088  12.9122  12.9152  12.9171
    12.9213  12.9231  12.9251  12.9284  12.9300  12.9334  12.9349  12.9371
    12.9398  12.9423  12.9427  12.9501  12.9517  12.9538  12.9545  12.9558
    12.9590  12.9606  12.9645  12.9674  12.9695  12.9708  12.9725  12.9761
    12.9769  12.9800  12.9825  12.9852  12.9872  12.9915  12.9936  12.9988
    13.0006  13.0023  13.0052  13.0106  13.0159  13.0195  13.0219  13.0245
    13.0292  13.0325  13.0348  13.0392  13.0408  13.0445  13.0460  13.0483
    13.0494  13.0509  13.0551  13.0580  13.0617  13.0650  13.0667  13.0695
    13.0707  13.0728  13.0739  13.0781  13.0815  13.0868  13.0934  13.0956
    13.0967  13.0985  13.1030  13.1062  13.1081  13.1089  13.1134  13.1152
    13.1160  13.1190  13.1206  13.1231  13.1308  13.1323  13.1343  13.1389
    13.1426  13.1437  13.1480  13.1493  13.1532  13.1549  13.1597  13.1618
    13.1644  13.1684  13.1695  13.1786  13.1821  13.1846  13.1863  13.1883
    13.1907  13.1947  13.1994  13.1998  13.2045  13.2098  13.2102  13.2134
    13.2167  13.2173  13.2210  13.2228  13.2263  13.2279  13.2291  13.2305
    13.2336  13.2356  13.2393  13.2457  13.2471  13.2509  13.2588  13.2603
    13.2638  13.2687  13.2720  13.2735  13.2807  13.2809  13.2841  13.2879
    13.2897  13.2922  13.2934  13.2941  13.2967  13.3019  13.3030  13.3072
    13.3116  13.3141  13.3185  13.3205  13.3260  13.3267  13.3359  13.3367
    13.3386  13.3440  13.3483  13.3502  13.3511  13.3555  13.3567  13.3584
    13.3624  13.3650  13.3664  13.3689  13.3727  13.3737  13.3765  13.3774
    13.3805  13.3820  13.3874  13.3916  13.3946  13.3967  13.3988  13.4000
    13.4020  13.4069  13.4076  13.4091  13.4122  13.4189  13.4211  13.4226
    13.4259  13.4325  13.4372  13.4396  13.4422  13.4434  13.4475  13.4496
    13.4521  13.4553  13.4617  13.4633  13.4678  13.4739  13.4780  13.4817
    13.4871  13.4905  13.4925  13.4961  13.4980  13.5020  13.5049  13.5086
    13.5110  13.5182  13.5211  13.5269  13.5294  13.5303  13.5313  13.5404
    13.5433  13.5460  13.5483  13.5530  13.5547  13.5582  13.5604  13.5646
    13.5684  13.5705  13.5726  13.5757  13.5804  13.5820  13.5861  13.5874
    13.5902  13.5954  13.5973  13.6009  13.6030  13.6046  13.6080  13.6114
    13.6140  13.6206  13.6235  13.6266  13.6313  13.6326  13.6336  13.6376
    13.6405  13.6454  13.6521  13.6548  13.6576  13.6606  13.6652  13.6678
    13.6688  13.6711  13.6768  13.6805  13.6874  13.6890  13.6909  13.6974
    13.7009  13.7029  13.7077  13.7087  13.7106  13.7152  13.7164  13.7186
    13.7214  13.7243  13.7301  13.7348  13.7378  13.7407  13.7436  13.7464
    13.7492  13.7498  13.7519  13.7553  13.7562  13.7631  13.7656  13.7691
    13.7730  13.7759  13.7769  13.7785  13.7813  13.7863  13.7904  13.7921
    13.7958  13.7997  13.8028  13.8037  13.8055  13.8092  13.8102  13.8157
    13.8188  13.8219  13.8270  13.8293  13.8317  13.8348  13.8367  13.8394
    13.8403  13.8412  13.8448  13.8461  13.8472  13.8493  13.8512  13.8528
    13.8550  13.8568  13.8606  13.8633  13.8653  13.8704  13.8738  13.8746
    13.8789  13.8797  13.8799  13.8857  13.8869  13.8892  13.8930  13.8944
    13.8980  13.9044  13.9057  13.9107  13.9122  13.9139  13.9151  13.9201
    13.9208  13.9227  13.9231  13.9260  13.9301  13.9312  13.9344  13.9350
    13.9382  13.9399  13.9417  13.9434  13.9455  13.9486  13.9528  13.9549
    13.9570  13.9591  13.9652  13.9678  13.9698  13.9718  13.9744  13.9746
    13.9774  13.9798  13.9821  13.9861  13.9869  13.9918  13.9929  13.9972
    14.0009  14.0029  14.0055  14.0079  14.0123  14.0172  14.0188  14.0201
    14.0232  14.0261  14.0270  14.0293  14.0328  14.0348  14.0373  14.0402
    14.0430  14.0458  14.0477  14.0498  14.0515  14.0555  14.0571  14.0587
    14.0619  14.0640  14.0655  14.0677  14.0710  14.0741  14.0766  14.0786
    14.0797  14.0805  14.0843  14.0877  14.0894  14.0904  14.0942  14.0962
    14.0989  14.1015  14.1060  14.1071  14.1087  14.1102  14.1145  14.1168
    14.1192  14.1209  14.1252  14.1261  14.1291  14.1316  14.1326  14.1347
    14.1370  14.1385  14.1416  14.1442  14.1448  14.1485  14.1500  14.1533
    14.1568  14.1577  14.1587  14.1595  14.1621  14.1647  14.1670  14.1685
    14.1714  14.1733  14.1780  14.1812  14.1871  14.1901  14.1931  14.1962
    14.2008  14.2032  14.2072  14.2084  14.2115  14.2148  14.2171  14.2195
    14.2208  14.2262  14.2298  14.2317  14.2347  14.2389  14.2399  14.2405
    14.2416  14.2478  14.2500  14.2530  14.2547  14.2558  14.2583  14.2621
    14.2638  14.2663  14.2684  14.2693  14.2709  14.2752  14.2805  14.2847
    14.2863  14.2896  14.2923  14.2942  14.3006  14.3016  14.3047  14.3073
    14.3081  14.3102  14.3125  14.3142  14.3195  14.3229  14.3251  14.3304
    14.3337  14.3355  14.3398  14.3427  14.3435  14.3484  14.3502  14.3531
    14.3576  14.3588  14.3604  14.3621  14.3646  14.3712  14.3720  14.3762
    14.3801  14.3838  14.3849  14.3895  14.3901  14.3919  14.3942  14.3957
    14.3973  14.4006  14.4024  14.4043  14.4084  14.4123  14.4126  14.4169
    14.4205  14.4239  14.4251  14.4266  14.4289  14.4304  14.4332  14.4389
    14.4397  14.4446  14.4473  14.4513  14.4552  14.4601  14.4642  14.4692
    14.4732  14.4775  14.4798  14.4833  14.4874  14.4912  14.4955  14.4967
    14.4986  14.5041  14.5055  14.5066  14.5116  14.5156  14.5175  14.5184
    14.5252  14.5261  14.5310  14.5322  14.5335  14.5369  14.5418  14.5422
    14.5459  14.5463  14.5508  14.5523  14.5556  14.5584  14.5600  14.5649
    14.5677  14.5697  14.5729  14.5748  14.5818  14.5828  14.5858  14.5910
    14.5946  14.6001  14.6052  14.6080  14.6118  14.6177  14.6196  14.6204
    14.6233  14.6272  14.6348  14.6396  14.6410  14.6432  14.6458  14.6483
    14.6557  14.6567  14.6604  14.6616  14.6660  14.6698  14.6739  14.6744
    14.6767  14.6788  14.6831  14.6845  14.6854  14.6877  14.6930  14.6945
    14.6991  14.6999  14.7008  14.7059  14.7077  14.7133  14.7151  14.7195
    14.7218  14.7272  14.7297  14.7329  14.7378  14.7408  14.7460  14.7475
    14.7522  14.7544  14.7554  14.7568  14.7581  14.7664  14.7675  14.7710
    14.7751  14.7776  14.7801  14.7871  14.7908  14.7923  14.7965  14.8005
    14.8035  14.8086  14.8113  14.8123  14.8156  14.8205  14.8266  14.8293
    14.8332  14.8352  14.8399  14.8436  14.8455  14.8476  14.8515  14.8549
    14.8562  14.8577  14.8589  14.8622  14.8655  14.8679  14.8735  14.8751
    14.8762  14.8809  14.8833  14.8872  14.8887  14.8917  14.8922  14.8951
    14.8984  14.8991  14.9007  14.9097  14.9134  14.9173  14.9205  14.9208
    14.9288  14.9310  14.9348  14.9356  14.9372  14.9398  14.9413  14.9473
    14.9491  14.9497  14.9533  14.9571  14.9583  14.9630  14.9635  14.9664
    14.9706  14.9728  14.9743  14.9775  14.9784  14.9805  14.9856  14.9896
    14.9904  14.9927  14.9945  14.9949  14.9982  15.0009  15.0035  15.0080
    15.0089  15.0101  15.0146  15.0200  15.0211  15.0237  15.0274  15.0286
    15.0311  15.0350  15.0386  15.0426  15.0490  15.0495  15.0513  15.0540
    15.0544  15.0565  15.0586  15.0600  15.0614  15.0623  15.0670  15.0679
    15.0707  15.0724  15.0739  15.0755  15.0791  15.0827  15.0835  15.0855
    15.0892  15.0925  15.0928  15.0978  15.1007  15.1052  15.1061  15.1081
    15.1124  15.1160  15.1186  15.1215  15.1233  15.1279  15.1324  15.1359
    15.1365  15.1412  15.1431  15.1472  15.1502  15.1534  15.1549  15.1571
    15.1603  15.1637  15.1655  15.1699  15.1732  15.1769  15.1773  15.1804
    15.1842  15.1861  15.1876  15.1942  15.1965  15.1970  15.2037  15.2060
    15.2079  15.2100  15.2144  15.2158  15.2168  15.2198  15.2228  15.2242
    15.2287  15.2319  15.2322  15.2365  15.2381  15.2403  15.2443  15.2490
    15.2510  15.2540  15.2563  15.2631  15.2645  15.2686  15.2706  15.2724
    15.2735  15.2773  15.2804  15.2852  15.2886  15.2909  15.2935  15.2955
    15.2986  15.3027  15.3058  15.3083  15.3093  15.3107  15.3125  15.3145
    15.3157  15.3198  15.3229  15.3234  15.3275  15.3327  15.3360  15.3372
    15.3399  15.3424  15.3445  15.3480  15.3491  15.3509  15.3534  15.3570
    15.3591  15.3615  15.3660  15.3694  15.3704  15.3724  15.3770  15.3809
    15.3836  15.3865  15.3889  15.3907  15.3943  15.3970  15.3995  15.4016
    15.4072  15.4087  15.4099  15.4126  15.4174  15.4178  15.4204  15.4233
    15.4261  15.4281  15.4305  15.4350  15.4373  15.4405  15.4440  15.4458
    15.4480  15.4513  15.4548  15.4567  15.4576  15.4599  15.4654  15.4659
    15.4687  15.4729  15.4740  15.4788  15.4804  15.4841  15.4863  15.4877
    15.4924  15.4950  15.4968  15.4982  15.4988  15.5017  15.5048  15.5076
    15.5103  15.5116  15.5140  15.5166  15.5191  15.5262  15.5304  15.5332
    15.5337  15.5354  15.5373  15.5410  15.5430  15.5470  15.5506  15.5514
    15.5528  15.5577  15.5590  15.5605  15.5627  15.5648  15.5675  15.5714
    15.5727  15.5744  15.5756  15.5781  15.5808  15.5859  15.5865  15.5908
    15.5938  15.6005  15.6043  15.6053  15.6094  15.6120  15.6135  15.6189
    15.6211  15.6252  15.6264  15.6287  15.6351  15.6364  15.6392  15.6426
    15.6443  15.6449  15.6497  15.6538  15.6551  15.6557  15.6591  15.6615
    15.6656  15.6672  15.6688  15.6730  15.6756  15.6772  15.6836  15.6871
    15.6890  15.6931  15.6940  15.6974  15.6985  15.7002  15.7045  15.7075
    15.7079  15.7135  15.7154  15.7182  15.7225  15.7260  15.7276  15.7306
    15.7339  15.7372  15.7413  15.7453  15.7468  15.7504  15.7543  15.7569
    15.7588  15.7614  15.7648  15.7679  15.7704  15.7733  15.7761  15.7790
    15.7802  15.7813  15.7854  15.7864  15.7876  15.7903  15.7950  15.7974
    15.7984  15.8011  15.8037  15.8064  15.8067  15.8097  15.8115  15.8133
    15.8169  15.8193  15.8216  15.8246  15.8270  15.8285  15.8323  15.8330
    15.8348  15.8397  15.8435  15.8461  15.8479  15.8517  15.8532  15.8548
    15.8587  15.8607  15.8619  15.8650  15.8664  15.8689  15.8693  15.8722
    15.8752  15.8757  15.8783  15.8797  15.8824  15.8842  15.8865  15.8871
    15.8891  15.8910  15.8964  15.8975  15.9009  15.9018  15.9035  15.9043
    15.9069  15.9085  15.9117  15.9151  15.9166  15.9196  15.9225  15.9232
    15.9261  15.9282  15.9314  15.9336  15.9350  15.9374  15.9393  15.9422
    15.9448  15.9458  15.9476  15.9511  15.9524  15.9560  15.9583  15.9611
    15.9636  15.9644  15.9686  15.9722  15.9738  15.9764  15.9770  15.9815
    15.9823  15.9837  15.9862  15.9881  15.9892  15.9908  15.9925  15.9946
    16.0001  16.0008  16.0038  16.0069  16.0096  16.0142  16.0156  16.0191
    16.0220  16.0250  16.0266  16.0312  16.0331  16.0356  16.0370  16.0413
    16.0470  16.0481  16.0497  16.0531  16.0548  16.0590  16.0616  16.0639
    16.0642  16.0669  16.0683  16.0716  16.0732  16.0771  16.0791  16.0824
    16.0839  16.0871  16.0906  16.0906  16.0928  16.0940  16.0965  16.1005
    16.1016  16.1043  16.1062  16.1103  16.1131  16.1141  16.1177  16.1182
    16.1234  16.1240  16.1267  16.1301  16.1338  16.1351  16.1388  16.1422
    16.1422  16.1449  16.1475  16.1492  16.1504  16.1522  16.1557  16.1600
    16.1611  16.1631  16.1654  16.1673  16.1701  16.1717  16.1745  16.1759
    16.1805  16.1817  16.1853  16.1881  16.1908  16.1916  16.1966  16.1974
    16.1978  16.2022  16.2032  16.2056  16.2085  16.2135  16.2162  16.2165
    16.2222  16.2232  16.2252  16.2263  16.2299  16.2339  16.2370  16.2400
    16.2433  16.2463  16.2475  16.2511  16.2525  16.2555  16.2593  16.2603
    16.2633  16.2641  16.2681  16.2686  16.2698  16.2749  16.2761  16.2786
    16.2821  16.2844  16.2868  16.2886  16.2923  16.2925  16.2960  16.2995
    16.3024  16.3037  16.3077  16.3106  16.3120  16.3166  16.3200  16.3219
    16.3223  16.3262  16.3297  16.3345  16.3375  16.3409  16.3424  16.3433
    16.3467  16.3489  16.3510  16.3517  16.3567  16.3586  16.3631  16.3655
    16.3671  16.3694  16.3720  16.3773  16.3789  16.3818  16.3854  16.3891
    16.3919  16.3940  16.3966  16.3975  16.4010  16.4019  16.4051  16.4116
    16.4132  16.4153  16.4155  16.4200  16.4252  16.4268  16.4312  16.4326
    16.4337  16.4388  16.4436  16.4465  16.4489  16.4500  16.4533  16.4569
    16.4581  16.4628  16.4633  16.4664  16.4673  16.4701  16.4725  16.4777
    16.4794  16.4839  16.4853  16.4872  16.4886  16.4943  16.4980  16.4999
    16.5005  16.5016  16.5041  16.5120  16.5185  16.5201  16.5225  16.5235
    16.5286  16.5310  16.5338  16.5356  16.5378  16.5405  16.5433  16.5445
    16.5467  16.5477  16.5504  16.5513  16.5559  16.5563  16.5622  16.5652
    16.5663  16.5722  16.5739  16.5757  16.5789  16.5804  16.5817  16.5849
    16.5875  16.5898  16.5945  16.5998  16.6025  16.6065  16.6095  16.6111

     Writing all to output data dir ./CNT_PBE.save/

     init_run     :      7.16s CPU     11.21s WALL (       1 calls)
     electrons    :  15028.90s CPU  16590.48s WALL (       1 calls)

     Called by init_run:
     wfcinit      :      0.01s CPU      0.01s WALL (       1 calls)
     wfcinit:wfcr :    234.58s CPU    180.13s WALL (       1 calls)
     potinit      :      1.17s CPU      5.01s WALL (       1 calls)
     hinit0       :      1.06s CPU      1.19s WALL (       1 calls)

     Called by electrons:
     c_bands      :  15028.90s CPU  16590.36s WALL (       1 calls)
     v_of_rho     :      0.38s CPU      1.17s WALL (       1 calls)
     v_h          :      0.08s CPU      0.38s WALL (       1 calls)
     v_xc         :      0.30s CPU      0.79s WALL (       1 calls)

     Called by c_bands:
     init_us_2    :      0.02s CPU      0.04s WALL (       1 calls)
     init_us_2:cp :      0.02s CPU      0.04s WALL (       1 calls)
     cegterg      :  14793.97s CPU  16409.43s WALL (       5 calls)

     Called by sum_band:

     Called by *egterg:
     cdiaghg      :   2998.21s CPU   6268.41s WALL (      82 calls)
     cegterg:over :   2765.50s CPU   2988.23s WALL (      81 calls)
     cegterg:upda :   2121.78s CPU   2354.73s WALL (      81 calls)
     cegterg:last :   1488.87s CPU   1646.63s WALL (      12 calls)
     cdiaghg:chol :     44.48s CPU    231.79s WALL (      82 calls)
     cdiaghg:inve :      0.75s CPU      2.73s WALL (      82 calls)
     cdiaghg:para :    665.50s CPU   2170.10s WALL (     164 calls)
     h_psi        :   5470.71s CPU   3127.21s WALL (      87 calls)
     g_psi        :      2.46s CPU      0.65s WALL (      81 calls)

     Called by h_psi:
     h_psi:calbec :    981.43s CPU   1017.47s WALL (      87 calls)
     vloc_psi     :   3526.38s CPU   1146.06s WALL (      87 calls)
     add_vuspsi   :    958.03s CPU    962.11s WALL (      87 calls)

     General routines
     calbec       :    981.43s CPU   1017.46s WALL (      87 calls)
     fft          :      1.21s CPU      2.49s WALL (      10 calls)
     fftw         :   3488.27s CPU   1135.74s WALL (  308934 calls)
     davcio       :      0.00s CPU      0.25s WALL (       2 calls)

     Parallel routines
     fft_scatt_xy :     69.64s CPU     18.44s WALL (  308944 calls)
     fft_scatt_yz :   3055.95s CPU   1018.59s WALL (  308944 calls)

     PWSCF        :      4h13m CPU      4h45m WALL


   This run was terminated on:  21: 7:52   1Nov2024            

=------------------------------------------------------------------------------=
   JOB DONE.
=------------------------------------------------------------------------------=
