
     Program PWSCF v.7.2 starts on  6Nov2024 at  6:22:47 

     This program is part of the open-source Quantum ESPRESSO suite
     for quantum simulation of materials; please cite
         "P. Giannozzi et al., J. Phys.:Condens. Matter 21 395502 (2009);
         "P. Giannozzi et al., J. Phys.:Condens. Matter 29 465901 (2017);
         "P. Giannozzi et al., J. Chem. Phys. 152 154105 (2020);
          URL http://www.quantum-espresso.org", 
     in publications or presentations arising from this work. More details at
     http://www.quantum-espresso.org/quote

     Parallel version (MPI & OpenMP), running on    6144 processor cores
     Number of MPI processes:              1536
     Threads/MPI process:                     4

     MPI processes distributed on    24 nodes
     485111 MiB available memory on the printing compute node when the environment starts

     Reading input from espresso.pwi
Warning: card &IONS ignored
Warning: card / ignored
Warning: card &CELL ignored
Warning: card / ignored

     Current dimensions of program PWSCF are:
     Max number of different atomic species (ntypx) = 10
     Max number of k-points (npk) =  40000
     Max angular momentum in pseudopotentials (lmaxx) =  4

     Atomic positions and unit cell read from directory:
     ./CNT_PBE.save/
     Atomic positions from file used, from input discarded


     R & G space division:  proc/nbgrp/npool/nimage =    1536
     WARNING: too many processors for an effective parallelization!
     Subspace diagonalization in iterative solution of the eigenvalue problem:
     one sub-group per band group will be used
     custom distributed-memory algorithm (size of sub-group: 39* 39 procs)


     Parallelization info
     --------------------
     sticks:   dense  smooth     PW     G-vecs:    dense   smooth      PW
     Min          28      28      7                 7176     7176     901
     Max          29      29      8                 7217     7217     924
     Sum       43977   43977  11115             11053081 11053081 1403663

     Using Pencil Decomposition



     bravais-lattice index     =            0
     lattice parameter (alat)  =      61.1748  a.u.
     unit-cell volume          =  176044.1909 (a.u.)^3
     number of atoms/cell      =          365
     number of atomic types    =            2
     number of electrons       =      1462.00
     number of Kohn-Sham states=         5000
     kinetic-energy cutoff     =      60.0000  Ry
     charge density cutoff     =     240.0000  Ry
     Exchange-correlation= PBE
                           (   1   4   3   4   0   0   0)

     celldm(1)=  61.174780  celldm(2)=   0.000000  celldm(3)=   0.000000
     celldm(4)=   0.000000  celldm(5)=   0.000000  celldm(6)=   0.000000

     crystal axes: (cart. coord. in units of alat)
               a(1) = (   1.000000   0.000000   0.000000 )  
               a(2) = (   0.000000   0.615409   0.000000 )  
               a(3) = (   0.000000   0.000000   1.249513 )  

     reciprocal axes: (cart. coord. in units 2 pi/alat)
               b(1) = (  1.000000  0.000000  0.000000 )  
               b(2) = (  0.000000  1.624937  0.000000 )  
               b(3) = (  0.000000  0.000000  0.800312 )  


     PseudoPot. # 1 for C  read from file:
     ./C_ONCV_PBE-1.2.upf
     MD5 check sum: 1a5f83a7b1f58d24996abe00ed223ac6
     Pseudo is Norm-conserving, Zval =  4.0
     Generated using ONCVPSP code by D. R. Hamann
     Using radial grid of  602 points,  4 beta functions with: 
                l(1) =   0
                l(2) =   0
                l(3) =   1
                l(4) =   1

     PseudoPot. # 2 for Se read from file:
     ./Se_ONCV_PBE-1.2.upf
     MD5 check sum: e78e48a4f5d8ce1f8dc76ec1271f249c
     Pseudo is Norm-conserving, Zval =  6.0
     Generated using ONCVPSP code by D. R. Hamann
     Using radial grid of  602 points,  6 beta functions with: 
                l(1) =   0
                l(2) =   0
                l(3) =   1
                l(4) =   1
                l(5) =   2
                l(6) =   2

     atomic species   valence    mass     pseudopotential
        C              4.00    12.01100     C ( 1.00)
        Se             6.00    78.96000     Se( 1.00)

     No symmetry found


                                    s                        frac. trans.

      isym =  1     identity                                     

 cryst.   s( 1) = (     1          0          0      )
                  (     0          1          0      )
                  (     0          0          1      )

 cart.    s( 1) = (  1.0000000  0.0000000  0.0000000 )
                  (  0.0000000  1.0000000  0.0000000 )
                  (  0.0000000  0.0000000  1.0000000 )


   Cartesian axes

     site n.     atom                  positions (alat units)
         1           C   tau(   1) = (   0.3709649   0.3312756   0.0030847  )
         2           C   tau(   2) = (   0.3687886   0.3346704   0.0785943  )
         3           C   tau(   3) = (   0.3380600   0.3661665   0.0763375  )
         4           C   tau(   4) = (   0.3204964   0.3762649   0.0374102  )
         5           C   tau(   5) = (   0.2778193   0.3869584   0.0351410  )
         6           C   tau(   6) = (   0.3664688   0.3379916   0.1540928  )
         7           C   tau(   7) = (   0.3346861   0.3684166   0.1518421  )
         8           C   tau(   8) = (   0.3167937   0.3779038   0.1129157  )
         9           C   tau(   9) = (   0.2737690   0.3871160   0.1106423  )
        10           C   tau(  10) = (   0.2535560   0.3857890   0.0717233  )
        11           C   tau(  11) = (   0.2121012   0.3710454   0.0694638  )
        12           C   tau(  12) = (   0.1955926   0.3593031   0.0305382  )
        13           C   tau(  13) = (   0.1680345   0.3250008   0.0282795  )
        14           C   tau(  14) = (   0.3640065   0.3412351   0.2295858  )
        15           C   tau(  15) = (   0.3312186   0.3705826   0.2273467  )
        16           C   tau(  16) = (   0.3130234   0.3794345   0.1884219  )
        17           C   tau(  17) = (   0.2697107   0.3871643   0.1861506  )
        18           C   tau(  18) = (   0.2495609   0.3851183   0.1472239  )
        19           C   tau(  19) = (   0.2086489   0.3689473   0.1449717  )
        20           C   tau(  20) = (   0.1925505   0.3566441   0.1060477  )
        21           C   tau(  21) = (   0.1661941   0.3214094   0.1037848  )
        22           C   tau(  22) = (   0.1589423   0.3024890   0.0648678  )
        23           C   tau(  23) = (   0.1549889   0.2586644   0.0626042  )
        24           C   tau(  24) = (   0.1587453   0.2387469   0.0236811  )
        25           C   tau(  25) = (   0.1783760   0.1993668   0.0214272  )
        26           C   tau(  26) = (   0.3614371   0.3444016   0.3050804  )
        27           C   tau(  27) = (   0.3276868   0.3726295   0.3028690  )
        28           C   tau(  28) = (   0.3091910   0.3808546   0.2639297  )
        29           C   tau(  29) = (   0.2656522   0.3870857   0.2616659  )
        30           C   tau(  30) = (   0.2455861   0.3843490   0.2227347  )
        31           C   tau(  31) = (   0.2052578   0.3667505   0.2204849  )
        32           C   tau(  32) = (   0.1896013   0.3538869   0.1815657  )
        33           C   tau(  33) = (   0.1644810   0.3177602   0.1792966  )
        34           C   tau(  34) = (   0.1578915   0.2985950   0.1403733  )
        35           C   tau(  35) = (   0.1554506   0.2546643   0.1381135  )
        36           C   tau(  36) = (   0.1598890   0.2348870   0.0991896  )
        37           C   tau(  37) = (   0.1808602   0.1962011   0.0969316  )
        38           C   tau(  38) = (   0.1950179   0.1816955   0.0580118  )
        39           C   tau(  39) = (   0.2331659   0.1597708   0.0557393  )
        40           C   tau(  40) = (   0.2528332   0.1548474   0.0168191  )
        41           C   tau(  41) = (   0.2968132   0.1562093   0.0145633  )
        42           C   tau(  42) = (   0.3707550   0.3309338   0.4194296  )
        43           C   tau(  43) = (   0.3587737   0.3474162   0.3805436  )
        44           C   tau(  44) = (   0.3241009   0.3744057   0.3783907  )
        45           C   tau(  45) = (   0.3053437   0.3821229   0.3394669  )
        46           C   tau(  46) = (   0.2615925   0.3868531   0.3372075  )
        47           C   tau(  47) = (   0.2416408   0.3834358   0.2982800  )
        48           C   tau(  48) = (   0.2019449   0.3644380   0.2960149  )
        49           C   tau(  49) = (   0.1867615   0.3510245   0.2570824  )
        50           C   tau(  50) = (   0.1629242   0.3140498   0.2548053  )
        51           C   tau(  51) = (   0.1569822   0.2946723   0.2158831  )
        52           C   tau(  52) = (   0.1560556   0.2506778   0.2136269  )
        53           C   tau(  53) = (   0.1611672   0.2310679   0.1747042  )
        54           C   tau(  54) = (   0.1834541   0.1931271   0.1724391  )
        55           C   tau(  55) = (   0.1981025   0.1791163   0.1335133  )
        56           C   tau(  56) = (   0.2369801   0.1585154   0.1312461  )
        57           C   tau(  57) = (   0.2568083   0.1542785   0.0923242  )
        58           C   tau(  58) = (   0.3007161   0.1571584   0.0900684  )
        59           C   tau(  59) = (   0.3198171   0.1639567   0.0511476  )
        60           C   tau(  60) = (   0.3556797   0.1894472   0.0488712  )
        61           C   tau(  61) = (   0.3683813   0.2052489   0.0099499  )
        62           C   tau(  62) = (   0.3855513   0.2457602   0.0076920  )
        63           C   tau(  63) = (   0.3685623   0.3332953   0.4948979  )
        64           C   tau(  64) = (   0.3559057   0.3497062   0.4561388  )
        65           C   tau(  65) = (   0.3203548   0.3755662   0.4539651  )
        66           C   tau(  66) = (   0.3014490   0.3829636   0.4151023  )
        67           C   tau(  67) = (   0.2575525   0.3863115   0.4128030  )
        68           C   tau(  68) = (   0.2377349   0.3823035   0.3738302  )
        69           C   tau(  69) = (   0.1987238   0.3619798   0.3715394  )
        70           C   tau(  70) = (   0.1840007   0.3480827   0.3326005  )
        71           C   tau(  71) = (   0.1614608   0.3102855   0.3303184  )
        72           C   tau(  72) = (   0.1562158   0.2907166   0.2914010  )
        73           C   tau(  73) = (   0.1568029   0.2467157   0.2891440  )
        74           C   tau(  74) = (   0.1625902   0.2272955   0.2502153  )
        75           C   tau(  75) = (   0.1861583   0.1901443   0.2479421  )
        76           C   tau(  76) = (   0.2012654   0.1766378   0.2090244  )
        77           C   tau(  77) = (   0.2408294   0.1573637   0.2067701  )
        78           C   tau(  78) = (   0.2607915   0.1538278   0.1678344  )
        79           C   tau(  79) = (   0.3045667   0.1582160   0.1655732  )
        80           C   tau(  80) = (   0.3234345   0.1656742   0.1266534  )
        81           C   tau(  81) = (   0.3583996   0.1923857   0.1243777  )
        82           C   tau(  82) = (   0.3705530   0.2086251   0.0854598  )
        83           C   tau(  83) = (   0.3863175   0.2497038   0.0832051  )
        84           C   tau(  84) = (   0.3881502   0.2698964   0.0442817  )
        85           C   tau(  85) = (   0.3799997   0.3131326   0.0420076  )
        86           C   tau(  86) = (   0.3674523   0.3382404   0.5706301  )
        87           C   tau(  87) = (   0.3532560   0.3521135   0.5320906  )
        88           C   tau(  88) = (   0.3165410   0.3764334   0.5295983  )
        89           C   tau(  89) = (   0.2973730   0.3831006   0.4906587  )
        90           C   tau(  90) = (   0.2535402   0.3853693   0.4883297  )
        91           C   tau(  91) = (   0.2338222   0.3809629   0.4493544  )
        92           C   tau(  92) = (   0.1954531   0.3594170   0.4470548  )
        93           C   tau(  93) = (   0.1812863   0.3450143   0.4081280  )
        94           C   tau(  94) = (   0.1600863   0.3064470   0.4058436  )
        95           C   tau(  95) = (   0.1555663   0.2867166   0.3669060  )
        96           C   tau(  96) = (   0.1576662   0.2427762   0.3646448  )
        97           C   tau(  97) = (   0.1641046   0.2235636   0.3257238  )
        98           C   tau(  98) = (   0.1889344   0.1872236   0.3234478  )
        99           C   tau(  99) = (   0.2045256   0.1742668   0.2845391  )
       100           C   tau( 100) = (   0.2447183   0.1563464   0.2822975  )
       101           C   tau( 101) = (   0.2647814   0.1534750   0.2433501  )
       102           C   tau( 102) = (   0.3083902   0.1593541   0.2410889  )
       103           C   tau( 103) = (   0.3269753   0.1674895   0.2021678  )
       104           C   tau( 104) = (   0.3609867   0.1954104   0.1998895  )
       105           C   tau( 105) = (   0.3725808   0.2120702   0.1609671  )
       106           C   tau( 106) = (   0.3869013   0.2536696   0.1587062  )
       107           C   tau( 107) = (   0.3880665   0.2739171   0.1197888  )
       108           C   tau( 108) = (   0.3784364   0.3168518   0.1175143  )
       109           C   tau( 109) = (   0.3645212   0.3413294   0.6463916  )
       110           C   tau( 110) = (   0.3504626   0.3553848   0.6070502  )
       111           C   tau( 111) = (   0.3128293   0.3782488   0.6048630  )
       112           C   tau( 112) = (   0.2934310   0.3839791   0.5660643  )
       113           C   tau( 113) = (   0.2493267   0.3849046   0.5637888  )
       114           C   tau( 114) = (   0.2298761   0.3795261   0.5249253  )
       115           C   tau( 115) = (   0.1922385   0.3567443   0.5226040  )
       116           C   tau( 116) = (   0.1786262   0.3418254   0.4836411  )
       117           C   tau( 117) = (   0.1588363   0.3025678   0.4813609  )
       118           C   tau( 118) = (   0.1549851   0.2826986   0.4424231  )
       119           C   tau( 119) = (   0.1586031   0.2388334   0.4401586  )
       120           C   tau( 120) = (   0.1657246   0.2198719   0.4012442  )
       121           C   tau( 121) = (   0.1917490   0.1843795   0.3989640  )
       122           C   tau( 122) = (   0.2078134   0.1719812   0.3600419  )
       123           C   tau( 123) = (   0.2486038   0.1554831   0.3578055  )
       124           C   tau( 124) = (   0.2687669   0.1532667   0.3188982  )
       125           C   tau( 125) = (   0.3121886   0.1606339   0.3166513  )
       126           C   tau( 126) = (   0.3304597   0.1694081   0.2776858  )
       127           C   tau( 127) = (   0.3634460   0.1985080   0.2753931  )
       128           C   tau( 128) = (   0.3744585   0.2155681   0.2364706  )
       129           C   tau( 129) = (   0.3873174   0.2576524   0.2341886  )
       130           C   tau( 130) = (   0.3877902   0.2779301   0.1952864  )
       131           C   tau( 131) = (   0.3766916   0.3205093   0.1930214  )
       132           C   tau( 132) = (   0.3615246   0.3443322   0.7217988  )
       133           C   tau( 133) = (   0.3476054   0.3588705   0.6826684  )
       134           C   tau( 134) = (   0.3092093   0.3806542   0.6803952  )
       135           C   tau( 135) = (   0.2894983   0.3851092   0.6415051  )
       136           C   tau( 136) = (   0.2455266   0.3841021   0.6392752  )
       137           C   tau( 137) = (   0.2260929   0.3781214   0.6003680  )
       138           C   tau( 138) = (   0.1892983   0.3539753   0.5980940  )
       139           C   tau( 139) = (   0.1760717   0.3386508   0.5591892  )
       140           C   tau( 140) = (   0.1576549   0.2986247   0.5569102  )
       141           C   tau( 141) = (   0.1545716   0.2786406   0.5179878  )
       142           C   tau( 142) = (   0.1596962   0.2349302   0.5157075  )
       143           C   tau( 143) = (   0.1674462   0.2162184   0.4767568  )
       144           C   tau( 144) = (   0.1946095   0.1816222   0.4744676  )
       145           C   tau( 145) = (   0.2110688   0.1697480   0.4355597  )
       146           C   tau( 146) = (   0.2524705   0.1547325   0.4333199  )
       147           C   tau( 147) = (   0.2727503   0.1533280   0.3944493  )
       148           C   tau( 148) = (   0.3158674   0.1622403   0.3922255  )
       149           C   tau( 149) = (   0.3338818   0.1714512   0.3532134  )
       150           C   tau( 150) = (   0.3658960   0.2016672   0.3509095  )
       151           C   tau( 151) = (   0.3762221   0.2191229   0.3119794  )
       152           C   tau( 152) = (   0.3875645   0.2616353   0.3096454  )
       153           C   tau( 153) = (   0.3873335   0.2819280   0.2707454  )
       154           C   tau( 154) = (   0.3747965   0.3240958   0.2685032  )
       155           C   tau( 155) = (   0.3588392   0.3473784   0.7972417  )
       156           C   tau( 156) = (   0.3442726   0.3614725   0.7583150  )
       157           C   tau( 157) = (   0.3054003   0.3821209   0.7559938  )
       158           C   tau( 158) = (   0.2856024   0.3862091   0.7169703  )
       159           C   tau( 159) = (   0.2416696   0.3833209   0.7147623  )
       160           C   tau( 160) = (   0.2225108   0.3765584   0.6758886  )
       161           C   tau( 161) = (   0.1865837   0.3510854   0.6736276  )
       162           C   tau( 162) = (   0.1738771   0.3352522   0.6347251  )
       163           C   tau( 163) = (   0.1568637   0.2946940   0.6324559  )
       164           C   tau( 164) = (   0.1543455   0.2745895   0.5935058  )
       165           C   tau( 165) = (   0.1609927   0.2310853   0.5912209  )
       166           C   tau( 166) = (   0.1692596   0.2126324   0.5523030  )
       167           C   tau( 167) = (   0.1976213   0.1789107   0.5500169  )
       168           C   tau( 168) = (   0.2144417   0.1676554   0.5111017  )
       169           C   tau( 169) = (   0.2563269   0.1541466   0.5088443  )
       170           C   tau( 170) = (   0.2766569   0.1535694   0.4699386  )
       171           C   tau( 171) = (   0.3193072   0.1643125   0.4676930  )
       172           C   tau( 172) = (   0.3371325   0.1738615   0.4288095  )
       173           C   tau( 173) = (   0.3683848   0.2050418   0.4265654  )
       174           C   tau( 174) = (   0.3779829   0.2227497   0.3874355  )
       175           C   tau( 175) = (   0.3877226   0.2655755   0.3849909  )
       176           C   tau( 176) = (   0.3867688   0.2858947   0.3461544  )
       177           C   tau( 177) = (   0.3728444   0.3276472   0.3439658  )
       178           C   tau( 178) = (   0.3561932   0.3503666   0.8727408  )
       179           C   tau( 179) = (   0.3410544   0.3638822   0.8338225  )
       180           C   tau( 180) = (   0.3015367   0.3831968   0.8315258  )
       181           C   tau( 181) = (   0.2816016   0.3867928   0.7925507  )
       182           C   tau( 182) = (   0.2377860   0.3823386   0.7903126  )
       183           C   tau( 183) = (   0.2189529   0.3748316   0.7514025  )
       184           C   tau( 184) = (   0.1840051   0.3480977   0.7491479  )
       185           C   tau( 185) = (   0.1718268   0.3318638   0.7102251  )
       186           C   tau( 186) = (   0.1561535   0.2907424   0.7079715  )
       187           C   tau( 187) = (   0.1543327   0.2705566   0.6690599  )
       188           C   tau( 188) = (   0.1624776   0.2273054   0.6667839  )
       189           C   tau( 189) = (   0.1714482   0.2091534   0.6278525  )
       190           C   tau( 190) = (   0.2009293   0.1765363   0.6255798  )
       191           C   tau( 191) = (   0.2180027   0.1657471   0.5866069  )
       192           C   tau( 192) = (   0.2603371   0.1537631   0.5842949  )
       193           C   tau( 193) = (   0.2805220   0.1537665   0.5454296  )
       194           C   tau( 194) = (   0.3227878   0.1664016   0.5431422  )
       195           C   tau( 195) = (   0.3399685   0.1771088   0.5043452  )
       196           C   tau( 196) = (   0.3701984   0.2091296   0.5021922  )
       197           C   tau( 197) = (   0.3800533   0.2264149   0.4628541  )
       198           C   tau( 198) = (   0.3885372   0.2696743   0.4602790  )
       199           C   tau( 199) = (   0.3861870   0.2898228   0.4215027  )
       200           C   tau( 200) = (   0.3534591   0.3532752   0.9482388  )
       201           C   tau( 201) = (   0.3378597   0.3662448   0.9093179  )
       202           C   tau( 202) = (   0.2976596   0.3841450   0.9070505  )
       203           C   tau( 203) = (   0.2775841   0.3870379   0.8681220  )
       204           C   tau( 204) = (   0.2339806   0.3811077   0.8658588  )
       205           C   tau( 205) = (   0.2154103   0.3729912   0.8269127  )
       206           C   tau( 206) = (   0.1814204   0.3450372   0.8246622  )
       207           C   tau( 207) = (   0.1698404   0.3283982   0.7857469  )
       208           C   tau( 208) = (   0.1555459   0.2867731   0.7834955  )
       209           C   tau( 209) = (   0.1544506   0.2665294   0.7445776  )
       210           C   tau( 210) = (   0.1640954   0.2236113   0.7423012  )
       211           C   tau( 211) = (   0.1736877   0.2057696   0.7033705  )
       212           C   tau( 212) = (   0.2043492   0.1741953   0.7011069  )
       213           C   tau( 213) = (   0.2218231   0.1640498   0.6621736  )
       214           C   tau( 214) = (   0.2645265   0.1534315   0.6598720  )
       215           C   tau( 215) = (   0.2847047   0.1544110   0.6208949  )
       216           C   tau( 216) = (   0.3263533   0.1682586   0.6185630  )
       217           C   tau( 217) = (   0.3430554   0.1798002   0.5796189  )
       218           C   tau( 218) = (   0.3719934   0.2130003   0.5771577  )
       219           C   tau( 219) = (   0.3820275   0.2301457   0.5386258  )
       220           C   tau( 220) = (   0.3954587   0.2735384   0.5358113  )
       221           C   tau( 221) = (   0.3867406   0.2939108   0.4965031  )
       222           C   tau( 222) = (   0.3505949   0.3560813   1.0237443  )
       223           C   tau( 223) = (   0.3345598   0.3684976   0.9848253  )
       224           C   tau( 224) = (   0.2937555   0.3849656   0.9825717  )
       225           C   tau( 225) = (   0.2735873   0.3871367   0.9436468  )
       226           C   tau( 226) = (   0.2302189   0.3797210   0.9413783  )
       227           C   tau( 227) = (   0.2119250   0.3710024   0.9024433  )
       228           C   tau( 228) = (   0.1789056   0.3418993   0.9001916  )
       229           C   tau( 229) = (   0.1679286   0.3248623   0.8612678  )
       230           C   tau( 230) = (   0.1550609   0.2827883   0.8590105  )
       231           C   tau( 231) = (   0.1546442   0.2625231   0.8200843  )
       232           C   tau( 232) = (   0.1657707   0.2199481   0.8178122  )
       233           C   tau( 233) = (   0.1760278   0.2024665   0.7788981  )
       234           C   tau( 234) = (   0.2077788   0.1719924   0.7766441  )
       235           C   tau( 235) = (   0.2256534   0.1624676   0.7377043  )
       236           C   tau( 236) = (   0.2686514   0.1531946   0.7354024  )
       237           C   tau( 237) = (   0.2888226   0.1545756   0.6964301  )
       238           C   tau( 238) = (   0.3302467   0.1694754   0.6941360  )
       239           C   tau( 239) = (   0.3465037   0.1816316   0.6552633  )
       240           C   tau( 240) = (   0.3738910   0.2160193   0.6531062  )
       241           C   tau( 241) = (   0.3817464   0.2352029   0.6143560  )
       242           C   tau( 242) = (   0.3888418   0.2779957   0.6127443  )
       243           C   tau( 243) = (   0.3918830   0.2999487   0.5734374  )
       244           C   tau( 244) = (   0.3476196   0.3587802   1.0992603  )
       245           C   tau( 245) = (   0.3311698   0.3706328   1.0603337  )
       246           C   tau( 246) = (   0.2898219   0.3856713   1.0580832  )
       247           C   tau( 247) = (   0.2695939   0.3871370   1.0191609  )
       248           C   tau( 248) = (   0.2265036   0.3782228   1.0168911  )
       249           C   tau( 249) = (   0.2085136   0.3688685   0.9779700  )
       250           C   tau( 250) = (   0.1765097   0.3386687   0.9757187  )
       251           C   tau( 251) = (   0.1661199   0.3212723   0.9367831  )
       252           C   tau( 252) = (   0.1546955   0.2787773   0.9345231  )
       253           C   tau( 253) = (   0.1549686   0.2585146   0.8956046  )
       254           C   tau( 254) = (   0.1675430   0.2163433   0.8933397  )
       255           C   tau( 255) = (   0.1784217   0.1992373   0.8544162  )
       256           C   tau( 256) = (   0.2112140   0.1699068   0.8521654  )
       257           C   tau( 257) = (   0.2294103   0.1609872   0.8132369  )
       258           C   tau( 258) = (   0.2727190   0.1531846   0.8109559  )
       259           C   tau( 259) = (   0.2928613   0.1551595   0.7720288  )
       260           C   tau( 260) = (   0.3337784   0.1713506   0.7697849  )
       261           C   tau( 261) = (   0.3498047   0.1837645   0.7308504  )
       262           C   tau( 262) = (   0.3760423   0.2190079   0.7286949  )
       263           C   tau( 263) = (   0.3832108   0.2380725   0.6898144  )
       264           C   tau( 264) = (   0.3871795   0.2818029   0.6877395  )
       265           C   tau( 265) = (   0.3841299   0.3018504   0.6489603  )
       266           C   tau( 266) = (   0.3445315   0.3613558   1.1747747  )
       267           C   tau( 267) = (   0.3276912   0.3726430   1.1358477  )
       268           C   tau( 268) = (   0.2858482   0.3862478   1.1335922  )
       269           C   tau( 269) = (   0.2655863   0.3870109   1.0946723  )
       270           C   tau( 270) = (   0.2228360   0.3766092   1.0924013  )
       271           C   tau( 271) = (   0.2051834   0.3666321   1.0534806  )
       272           C   tau( 272) = (   0.1742296   0.3353602   1.0512319  )
       273           C   tau( 273) = (   0.1644249   0.3176190   1.0123046  )
       274           C   tau( 274) = (   0.1544689   0.2747541   1.0100403  )
       275           C   tau( 275) = (   0.1554408   0.2545117   0.9711196  )
       276           C   tau( 276) = (   0.1694562   0.2128049   0.9688627  )
       277           C   tau( 277) = (   0.1808976   0.1960804   0.9299340  )
       278           C   tau( 278) = (   0.2147008   0.1679087   0.9276831  )
       279           C   tau( 279) = (   0.2332089   0.1596515   0.8887692  )
       280           C   tau( 280) = (   0.2767624   0.1533894   0.8865022  )
       281           C   tau( 281) = (   0.2968360   0.1560574   0.8475721  )
       282           C   tau( 282) = (   0.3371524   0.1736406   0.8453278  )
       283           C   tau( 283) = (   0.3527944   0.1864601   0.8063801  )
       284           C   tau( 284) = (   0.3778194   0.2226486   0.8041516  )
       285           C   tau( 285) = (   0.3843510   0.2418195   0.7652676  )
       286           C   tau( 286) = (   0.3866903   0.2857696   0.7630822  )
       287           C   tau( 287) = (   0.3822339   0.3056061   0.7242423  )
       288           C   tau( 288) = (   0.3413440   0.3638141   0.0008251  )
       289           C   tau( 289) = (   0.3241350   0.3745214   1.2113636  )
       290           C   tau( 290) = (   0.2818483   0.3866788   1.2091007  )
       291           C   tau( 291) = (   0.2615765   0.3867477   1.1701807  )
       292           C   tau( 292) = (   0.2192103   0.3748797   1.1679102  )
       293           C   tau( 293) = (   0.2019166   0.3642998   1.1289890  )
       294           C   tau( 294) = (   0.1720622   0.3319752   1.1267403  )
       295           C   tau( 295) = (   0.1628798   0.3139054   1.0878207  )
       296           C   tau( 296) = (   0.1544051   0.2707305   1.0855520  )
       297           C   tau( 297) = (   0.1560616   0.2505305   1.0466296  )
       298           C   tau( 298) = (   0.1715070   0.2093317   1.0443791  )
       299           C   tau( 299) = (   0.1835113   0.1930097   1.0054561  )
       300           C   tau( 300) = (   0.2182806   0.1660406   1.0031996  )
       301           C   tau( 301) = (   0.2370597   0.1584483   0.9642804  )
       302           C   tau( 302) = (   0.2807995   0.1537329   0.9620176  )
       303           C   tau( 303) = (   0.3007627   0.1571022   0.9230862  )
       304           C   tau( 304) = (   0.3404596   0.1760718   0.9208314  )
       305           C   tau( 305) = (   0.3556511   0.1894210   0.8819043  )
       306           C   tau( 306) = (   0.3794641   0.2264252   0.8796394  )
       307           C   tau( 307) = (   0.3853086   0.2457940   0.8407201  )
       308           C   tau( 308) = (   0.3861941   0.2897768   0.8384878  )
       309           C   tau( 309) = (   0.3810300   0.3093871   0.7995845  )
       310           C   tau( 310) = (   0.2575684   0.3863381   1.2456856  )
       311           C   tau( 311) = (   0.2156330   0.3730194   1.2434191  )
       312           C   tau( 312) = (   0.1987219   0.3618540   1.2044974  )
       313           C   tau( 313) = (   0.1699993   0.3285206   1.2022447  )
       314           C   tau( 314) = (   0.1614524   0.3101433   1.1633266  )
       315           C   tau( 315) = (   0.1544736   0.2667012   1.1610572  )
       316           C   tau( 316) = (   0.1568322   0.2465747   1.1221380  )
       317           C   tau( 317) = (   0.1736929   0.2059336   1.1198905  )
       318           C   tau( 318) = (   0.1862565   0.1900403   1.0809684  )
       319           C   tau( 319) = (   0.2219342   0.1642959   1.0787030  )
       320           C   tau( 320) = (   0.2409656   0.1573637   1.0397817  )
       321           C   tau( 321) = (   0.2848457   0.1541710   1.0375202  )
       322           C   tau( 322) = (   0.3046758   0.1582539   0.9985936  )
       323           C   tau( 323) = (   0.3437026   0.1785697   0.9963318  )
       324           C   tau( 324) = (   0.3584190   0.1924607   0.9574043  )
       325           C   tau( 325) = (   0.3809756   0.2302357   0.9551272  )
       326           C   tau( 326) = (   0.3861907   0.2497894   0.9161968  )
       327           C   tau( 327) = (   0.3855879   0.2937903   0.9139475  )
       328           C   tau( 328) = (   0.3797474   0.3131945   0.8750394  )
       329           C   tau( 329) = (   0.1601384   0.3063368   1.2388283  )
       330           C   tau( 330) = (   0.1546662   0.2626753   1.2365608  )
       331           C   tau( 331) = (   0.1577283   0.2426407   1.1976418  )
       332           C   tau( 332) = (   0.1759845   0.2026073   1.1953928  )
       333           C   tau( 333) = (   0.1890932   0.1871563   1.1564724  )
       334           C   tau( 334) = (   0.2256410   0.1626554   1.1542013  )
       335           C   tau( 335) = (   0.2449049   0.1563910   1.1152816  )
       336           C   tau( 336) = (   0.2888723   0.1547173   1.1130237  )
       337           C   tau( 337) = (   0.3085524   0.1594978   1.0740965  )
       338           C   tau( 338) = (   0.3468558   0.1811453   1.0718285  )
       339           C   tau( 339) = (   0.3610944   0.1955455   1.0329023  )
       340           C   tau( 340) = (   0.3823444   0.2340738   1.0306254  )
       341           C   tau( 341) = (   0.3869028   0.2538047   0.9916988  )
       342           C   tau( 342) = (   0.3847943   0.2977582   0.9894418  )
       343           C   tau( 343) = (   0.3783040   0.3169600   0.9505217  )
       344           C   tau( 344) = (   0.1920183   0.1843774   1.2319758  )
       345           C   tau( 345) = (   0.2293897   0.1611477   1.2297019  )
       346           C   tau( 346) = (   0.2488630   0.1555481   1.1907823  )
       347           C   tau( 347) = (   0.2928635   0.1553937   1.1885274  )
       348           C   tau( 348) = (   0.3123715   0.1608576   1.1496016  )
       349           C   tau( 349) = (   0.3499039   0.1838201   1.1473284  )
       350           C   tau( 350) = (   0.3636444   0.1987054   1.1084049  )
       351           C   tau( 351) = (   0.3835523   0.2379429   1.1061351  )
       352           C   tau( 352) = (   0.3874358   0.2578283   1.0672049  )
       353           C   tau( 353) = (   0.3838100   0.3016775   1.0649451  )
       354           C   tau( 354) = (   0.3766858   0.3206490   1.0260196  )
       355           C   tau( 355) = (   0.3161361   0.1623347   1.2251088  )
       356           C   tau( 356) = (   0.3528568   0.1865813   1.2228316  )
       357           C   tau( 357) = (   0.3660745   0.2019405   1.1839091  )
       358           C   tau( 358) = (   0.3846254   0.2418360   1.1816453  )
       359           C   tau( 359) = (   0.3878256   0.2618496   1.1427166  )
       360           C   tau( 360) = (   0.3826906   0.3055497   1.1404514  )
       361           C   tau( 361) = (   0.3749177   0.3242713   1.1015303  )
       362           C   tau( 362) = (   0.3880683   0.2658723   1.2182321  )
       363           C   tau( 363) = (   0.3814198   0.3093681   1.2159621  )
       364           C   tau( 364) = (   0.3730093   0.3278125   1.1770402  )
       365           Se  tau( 365) = (   0.4534243   0.2947929   0.5546461  )

   Crystallographic axes

     site n.     atom                  positions (cryst. coord.)
         1           C   tau(   1) = (  0.3709649  0.5383020  0.0024687  )
         2           C   tau(   2) = (  0.3687886  0.5438183  0.0629000  )
         3           C   tau(   3) = (  0.3380600  0.5949973  0.0610938  )
         4           C   tau(   4) = (  0.3204964  0.6114068  0.0299398  )
         5           C   tau(   5) = (  0.2778193  0.6287830  0.0281237  )
         6           C   tau(   6) = (  0.3664688  0.5492150  0.1233222  )
         7           C   tau(   7) = (  0.3346861  0.5986537  0.1215210  )
         8           C   tau(   8) = (  0.3167937  0.6140698  0.0903677  )
         9           C   tau(   9) = (  0.2737690  0.6290390  0.0885483  )
        10           C   tau(  10) = (  0.2535560  0.6268828  0.0574010  )
        11           C   tau(  11) = (  0.2121012  0.6029254  0.0555927  )
        12           C   tau(  12) = (  0.1955926  0.5838448  0.0244400  )
        13           C   tau(  13) = (  0.1680345  0.5281058  0.0226324  )
        14           C   tau(  14) = (  0.3640065  0.5544854  0.1837401  )
        15           C   tau(  15) = (  0.3312186  0.6021733  0.1819482  )
        16           C   tau(  16) = (  0.3130234  0.6165571  0.1507962  )
        17           C   tau(  17) = (  0.2697107  0.6291176  0.1489785  )
        18           C   tau(  18) = (  0.2495609  0.6257929  0.1178250  )
        19           C   tau(  19) = (  0.2086489  0.5995161  0.1160225  )
        20           C   tau(  20) = (  0.1925505  0.5795241  0.0848712  )
        21           C   tau(  21) = (  0.1661941  0.5222700  0.0830601  )
        22           C   tau(  22) = (  0.1589423  0.4915256  0.0519144  )
        23           C   tau(  23) = (  0.1549889  0.4203133  0.0501029  )
        24           C   tau(  24) = (  0.1587453  0.3879487  0.0189523  )
        25           C   tau(  25) = (  0.1783760  0.3239585  0.0171484  )
        26           C   tau(  26) = (  0.3614371  0.5596308  0.2441594  )
        27           C   tau(  27) = (  0.3276868  0.6054995  0.2423896  )
        28           C   tau(  28) = (  0.3091910  0.6188646  0.2112260  )
        29           C   tau(  29) = (  0.2656522  0.6289899  0.2094142  )
        30           C   tau(  30) = (  0.2455861  0.6245428  0.1782572  )
        31           C   tau(  31) = (  0.2052578  0.5959463  0.1764566  )
        32           C   tau(  32) = (  0.1896013  0.5750439  0.1453092  )
        33           C   tau(  33) = (  0.1644810  0.5163403  0.1434931  )
        34           C   tau(  34) = (  0.1578915  0.4851980  0.1123423  )
        35           C   tau(  35) = (  0.1554506  0.4138133  0.1105338  )
        36           C   tau(  36) = (  0.1598890  0.3816766  0.0793826  )
        37           C   tau(  37) = (  0.1808602  0.3188144  0.0775755  )
        38           C   tau(  38) = (  0.1950179  0.2952437  0.0464275  )
        39           C   tau(  39) = (  0.2331659  0.2596174  0.0446088  )
        40           C   tau(  40) = (  0.2528332  0.2516172  0.0134605  )
        41           C   tau(  41) = (  0.2968132  0.2538302  0.0116552  )
        42           C   tau(  42) = (  0.3707550  0.5377465  0.3356744  )
        43           C   tau(  43) = (  0.3587737  0.5645293  0.3045534  )
        44           C   tau(  44) = (  0.3241009  0.6083856  0.3028304  )
        45           C   tau(  45) = (  0.3053437  0.6209256  0.2716792  )
        46           C   tau(  46) = (  0.2615925  0.6286118  0.2698710  )
        47           C   tau(  47) = (  0.2416408  0.6230590  0.2387169  )
        48           C   tau(  48) = (  0.2019449  0.5921887  0.2369041  )
        49           C   tau(  49) = (  0.1867615  0.5703926  0.2057460  )
        50           C   tau(  50) = (  0.1629242  0.5103111  0.2039236  )
        51           C   tau(  51) = (  0.1569822  0.4788239  0.1727737  )
        52           C   tau(  52) = (  0.1560556  0.4073356  0.1709681  )
        53           C   tau(  53) = (  0.1611672  0.3754707  0.1398178  )
        54           C   tau(  54) = (  0.1834541  0.3138193  0.1380050  )
        55           C   tau(  55) = (  0.1981025  0.2910527  0.1068523  )
        56           C   tau(  56) = (  0.2369801  0.2575775  0.1050378  )
        57           C   tau(  57) = (  0.2568083  0.2506929  0.0738881  )
        58           C   tau(  58) = (  0.3007161  0.2553724  0.0720828  )
        59           C   tau(  59) = (  0.3198171  0.2664193  0.0409340  )
        60           C   tau(  60) = (  0.3556797  0.3078397  0.0391122  )
        61           C   tau(  61) = (  0.3683813  0.3335165  0.0079630  )
        62           C   tau(  62) = (  0.3855513  0.3993447  0.0061560  )
        63           C   tau(  63) = (  0.3685623  0.5415838  0.3960725  )
        64           C   tau(  64) = (  0.3559057  0.5682505  0.3650532  )
        65           C   tau(  65) = (  0.3203548  0.6102714  0.3633135  )
        66           C   tau(  66) = (  0.3014490  0.6222916  0.3322112  )
        67           C   tau(  67) = (  0.2575525  0.6277318  0.3303710  )
        68           C   tau(  68) = (  0.2377349  0.6212190  0.2991806  )
        69           C   tau(  69) = (  0.1987238  0.5881943  0.2973472  )
        70           C   tau(  70) = (  0.1840007  0.5656125  0.2661840  )
        71           C   tau(  71) = (  0.1614608  0.5041944  0.2643576  )
        72           C   tau(  72) = (  0.1562158  0.4723961  0.2332115  )
        73           C   tau(  73) = (  0.1568029  0.4008975  0.2314053  )
        74           C   tau(  74) = (  0.1625902  0.3693408  0.2002502  )
        75           C   tau(  75) = (  0.1861583  0.3089724  0.1984309  )
        76           C   tau(  76) = (  0.2012654  0.2870253  0.1672847  )
        77           C   tau(  77) = (  0.2408294  0.2557061  0.1654805  )
        78           C   tau(  78) = (  0.2607915  0.2499604  0.1343198  )
        79           C   tau(  79) = (  0.3045667  0.2570910  0.1325101  )
        80           C   tau(  80) = (  0.3234345  0.2692101  0.1013622  )
        81           C   tau(  81) = (  0.3583996  0.3126146  0.0995409  )
        82           C   tau(  82) = (  0.3705530  0.3390027  0.0683944  )
        83           C   tau(  83) = (  0.3863175  0.4057528  0.0665900  )
        84           C   tau(  84) = (  0.3881502  0.4385645  0.0354391  )
        85           C   tau(  85) = (  0.3799997  0.5088207  0.0336191  )
        86           C   tau(  86) = (  0.3674523  0.5496192  0.4566818  )
        87           C   tau(  87) = (  0.3532560  0.5721622  0.4258382  )
        88           C   tau(  88) = (  0.3165410  0.6116805  0.4238437  )
        89           C   tau(  89) = (  0.2973730  0.6225142  0.3926798  )
        90           C   tau(  90) = (  0.2535402  0.6262007  0.3908159  )
        91           C   tau(  91) = (  0.2338222  0.6190407  0.3596235  )
        92           C   tau(  92) = (  0.1954531  0.5840300  0.3577831  )
        93           C   tau(  93) = (  0.1812863  0.5606264  0.3266296  )
        94           C   tau(  94) = (  0.1600863  0.4979569  0.3248013  )
        95           C   tau(  95) = (  0.1555663  0.4658963  0.2936391  )
        96           C   tau(  96) = (  0.1576662  0.3944960  0.2918295  )
        97           C   tau(  97) = (  0.1641046  0.3632768  0.2606805  )
        98           C   tau(  98) = (  0.1889344  0.3042265  0.2588590  )
        99           C   tau(  99) = (  0.2045256  0.2831725  0.2277199  )
       100           C   tau( 100) = (  0.2447183  0.2540531  0.2259260  )
       101           C   tau( 101) = (  0.2647814  0.2493872  0.1947559  )
       102           C   tau( 102) = (  0.3083902  0.2589403  0.1929462  )
       103           C   tau( 103) = (  0.3269753  0.2721599  0.1617972  )
       104           C   tau( 104) = (  0.3609867  0.3175296  0.1599739  )
       105           C   tau( 105) = (  0.3725808  0.3446006  0.1288238  )
       106           C   tau( 106) = (  0.3869013  0.4121971  0.1270144  )
       107           C   tau( 107) = (  0.3880665  0.4450980  0.0958684  )
       108           C   tau( 108) = (  0.3784364  0.5148642  0.0940481  )
       109           C   tau( 109) = (  0.3645212  0.5546388  0.5173147  )
       110           C   tau( 110) = (  0.3504626  0.5774778  0.4858293  )
       111           C   tau( 111) = (  0.3128293  0.6146304  0.4840788  )
       112           C   tau( 112) = (  0.2934310  0.6239418  0.4530277  )
       113           C   tau( 113) = (  0.2493267  0.6254456  0.4512066  )
       114           C   tau( 114) = (  0.2298761  0.6167059  0.4201037  )
       115           C   tau( 115) = (  0.1922385  0.5796869  0.4182460  )
       116           C   tau( 116) = (  0.1786262  0.5554447  0.3870635  )
       117           C   tau( 117) = (  0.1588363  0.4916536  0.3852386  )
       118           C   tau( 118) = (  0.1549851  0.4593674  0.3540763  )
       119           C   tau( 119) = (  0.1586031  0.3880892  0.3522640  )
       120           C   tau( 120) = (  0.1657246  0.3572780  0.3211204  )
       121           C   tau( 121) = (  0.1917490  0.2996051  0.3192955  )
       122           C   tau( 122) = (  0.2078134  0.2794587  0.2881456  )
       123           C   tau( 123) = (  0.2486038  0.2526502  0.2863559  )
       124           C   tau( 124) = (  0.2687669  0.2490486  0.2552179  )
       125           C   tau( 125) = (  0.3121886  0.2610199  0.2534197  )
       126           C   tau( 126) = (  0.3304597  0.2752775  0.2222351  )
       127           C   tau( 127) = (  0.3634460  0.3225630  0.2204003  )
       128           C   tau( 128) = (  0.3744585  0.3502845  0.1892501  )
       129           C   tau( 129) = (  0.3873174  0.4186689  0.1874239  )
       130           C   tau( 130) = (  0.3877902  0.4516188  0.1562900  )
       131           C   tau( 131) = (  0.3766916  0.5208073  0.1544772  )
       132           C   tau( 132) = (  0.3615246  0.5595181  0.5776639  )
       133           C   tau( 133) = (  0.3476054  0.5831419  0.5463474  )
       134           C   tau( 134) = (  0.3092093  0.6185391  0.5445281  )
       135           C   tau( 135) = (  0.2894983  0.6257781  0.5134039  )
       136           C   tau( 136) = (  0.2455266  0.6241417  0.5116193  )
       137           C   tau( 137) = (  0.2260929  0.6144234  0.4804814  )
       138           C   tau( 138) = (  0.1892983  0.5751876  0.4786615  )
       139           C   tau( 139) = (  0.1760717  0.5502861  0.4475256  )
       140           C   tau( 140) = (  0.1576549  0.4852462  0.4457016  )
       141           C   tau( 141) = (  0.1545716  0.4527734  0.4145516  )
       142           C   tau( 142) = (  0.1596962  0.3817468  0.4127267  )
       143           C   tau( 143) = (  0.1674462  0.3513412  0.3815539  )
       144           C   tau( 144) = (  0.1946095  0.2951246  0.3797219  )
       145           C   tau( 145) = (  0.2110688  0.2758297  0.3485834  )
       146           C   tau( 146) = (  0.2524705  0.2514306  0.3467909  )
       147           C   tau( 147) = (  0.2727503  0.2491483  0.3156823  )
       148           C   tau( 148) = (  0.3158674  0.2636303  0.3139026  )
       149           C   tau( 149) = (  0.3338818  0.2785974  0.2826807  )
       150           C   tau( 150) = (  0.3658960  0.3276965  0.2808369  )
       151           C   tau( 151) = (  0.3762221  0.3560608  0.2496807  )
       152           C   tau( 152) = (  0.3875645  0.4251408  0.2478128  )
       153           C   tau( 153) = (  0.3873335  0.4581152  0.2166806  )
       154           C   tau( 154) = (  0.3747965  0.5266353  0.2148862  )
       155           C   tau( 155) = (  0.3588392  0.5644680  0.6380417  )
       156           C   tau( 156) = (  0.3442726  0.5873700  0.6068882  )
       157           C   tau( 157) = (  0.3054003  0.6209223  0.6050305  )
       158           C   tau( 158) = (  0.2856024  0.6275654  0.5737996  )
       159           C   tau( 159) = (  0.2416696  0.6228723  0.5720325  )
       160           C   tau( 160) = (  0.2225108  0.6118836  0.5409214  )
       161           C   tau( 161) = (  0.1865837  0.5704916  0.5391120  )
       162           C   tau( 162) = (  0.1738771  0.5447636  0.5079778  )
       163           C   tau( 163) = (  0.1568637  0.4788591  0.5061617  )
       164           C   tau( 164) = (  0.1543455  0.4461905  0.4749895  )
       165           C   tau( 165) = (  0.1609927  0.3754991  0.4731609  )
       166           C   tau( 166) = (  0.1692596  0.3455142  0.4420144  )
       167           C   tau( 167) = (  0.1976213  0.2907185  0.4401849  )
       168           C   tau( 168) = (  0.2144417  0.2724294  0.4090406  )
       169           C   tau( 169) = (  0.2563269  0.2504784  0.4072340  )
       170           C   tau( 170) = (  0.2766569  0.2495406  0.3760973  )
       171           C   tau( 171) = (  0.3193072  0.2669974  0.3743001  )
       172           C   tau( 172) = (  0.3371325  0.2825139  0.3431812  )
       173           C   tau( 173) = (  0.3683848  0.3331800  0.3413852  )
       174           C   tau( 174) = (  0.3779829  0.3619543  0.3100691  )
       175           C   tau( 175) = (  0.3877226  0.4315433  0.3081126  )
       176           C   tau( 176) = (  0.3867688  0.4645608  0.2770314  )
       177           C   tau( 177) = (  0.3728444  0.5324060  0.2752798  )
       178           C   tau( 178) = (  0.3561932  0.5693236  0.6984645  )
       179           C   tau( 179) = (  0.3410544  0.5912856  0.6673177  )
       180           C   tau( 180) = (  0.3015367  0.6226706  0.6654797  )
       181           C   tau( 181) = (  0.2816016  0.6285139  0.6342874  )
       182           C   tau( 182) = (  0.2377860  0.6212761  0.6324963  )
       183           C   tau( 183) = (  0.2189529  0.6090777  0.6013561  )
       184           C   tau( 184) = (  0.1840051  0.5656368  0.5995517  )
       185           C   tau( 185) = (  0.1718268  0.5392577  0.5684013  )
       186           C   tau( 186) = (  0.1561535  0.4724380  0.5665977  )
       187           C   tau( 187) = (  0.1543327  0.4396373  0.5354564  )
       188           C   tau( 188) = (  0.1624776  0.3693570  0.5336348  )
       189           C   tau( 189) = (  0.1714482  0.3398610  0.5024776  )
       190           C   tau( 190) = (  0.2009293  0.2868603  0.5006587  )
       191           C   tau( 191) = (  0.2180027  0.2693286  0.4694682  )
       192           C   tau( 192) = (  0.2603371  0.2498554  0.4676180  )
       193           C   tau( 193) = (  0.2805220  0.2498608  0.4365136  )
       194           C   tau( 194) = (  0.3227878  0.2703920  0.4346829  )
       195           C   tau( 195) = (  0.3399685  0.2877906  0.4036332  )
       196           C   tau( 196) = (  0.3701984  0.3398224  0.4019102  )
       197           C   tau( 197) = (  0.3800533  0.3679100  0.3704275  )
       198           C   tau( 198) = (  0.3885372  0.4382036  0.3683666  )
       199           C   tau( 199) = (  0.3861870  0.4709437  0.3373335  )
       200           C   tau( 200) = (  0.3534591  0.5740499  0.7588865  )
       201           C   tau( 201) = (  0.3378597  0.5951247  0.7277376  )
       202           C   tau( 202) = (  0.2976596  0.6242114  0.7259230  )
       203           C   tau( 203) = (  0.2775841  0.6289121  0.6947680  )
       204           C   tau( 204) = (  0.2339806  0.6192759  0.6929568  )
       205           C   tau( 205) = (  0.2154103  0.6060871  0.6617878  )
       206           C   tau( 206) = (  0.1814204  0.5606637  0.6599867  )
       207           C   tau( 207) = (  0.1698404  0.5336263  0.6288423  )
       208           C   tau( 208) = (  0.1555459  0.4659882  0.6270405  )
       209           C   tau( 209) = (  0.1544506  0.4330935  0.5958940  )
       210           C   tau( 210) = (  0.1640954  0.3633542  0.5940722  )
       211           C   tau( 211) = (  0.1736877  0.3343626  0.5629155  )
       212           C   tau( 212) = (  0.2043492  0.2830563  0.5611039  )
       213           C   tau( 213) = (  0.2218231  0.2665706  0.5299452  )
       214           C   tau( 214) = (  0.2645265  0.2493165  0.5281032  )
       215           C   tau( 215) = (  0.2847047  0.2509082  0.4969093  )
       216           C   tau( 216) = (  0.3263533  0.2734096  0.4950431  )
       217           C   tau( 217) = (  0.3430554  0.2921640  0.4638757  )
       218           C   tau( 218) = (  0.3719934  0.3461121  0.4619060  )
       219           C   tau( 219) = (  0.3820275  0.3739722  0.4310685  )
       220           C   tau( 220) = (  0.3954587  0.4444826  0.4288159  )
       221           C   tau( 221) = (  0.3867406  0.4775865  0.3973571  )
       222           C   tau( 222) = (  0.3505949  0.5786096  0.8193143  )
       223           C   tau( 223) = (  0.3345598  0.5987854  0.7881671  )
       224           C   tau( 224) = (  0.2937555  0.6255449  0.7863634  )
       225           C   tau( 225) = (  0.2735873  0.6290727  0.7552114  )
       226           C   tau( 226) = (  0.2302189  0.6170226  0.7533959  )
       227           C   tau( 227) = (  0.2119250  0.6028555  0.7222358  )
       228           C   tau( 228) = (  0.1789056  0.5555647  0.7204337  )
       229           C   tau( 229) = (  0.1679286  0.5278807  0.6892826  )
       230           C   tau( 230) = (  0.1550609  0.4595131  0.6874760  )
       231           C   tau( 231) = (  0.1546442  0.4265834  0.6563229  )
       232           C   tau( 232) = (  0.1657707  0.3574018  0.6545045  )
       233           C   tau( 233) = (  0.1760278  0.3289953  0.6233611  )
       234           C   tau( 234) = (  0.2077788  0.2794768  0.6215572  )
       235           C   tau( 235) = (  0.2256534  0.2639995  0.5903933  )
       236           C   tau( 236) = (  0.2686514  0.2489315  0.5885510  )
       237           C   tau( 237) = (  0.2888226  0.2511756  0.5573610  )
       238           C   tau( 238) = (  0.3302467  0.2753868  0.5555251  )
       239           C   tau( 239) = (  0.3465037  0.2951399  0.5244147  )
       240           C   tau( 240) = (  0.3738910  0.3510178  0.5226884  )
       241           C   tau( 241) = (  0.3817464  0.3821899  0.4916762  )
       242           C   tau( 242) = (  0.3888418  0.4517255  0.4903863  )
       243           C   tau( 243) = (  0.3918830  0.4873976  0.4589286  )
       244           C   tau( 244) = (  0.3476196  0.5829952  0.8797507  )
       245           C   tau( 245) = (  0.3311698  0.6022548  0.8485972  )
       246           C   tau( 246) = (  0.2898219  0.6266914  0.8467962  )
       247           C   tau( 247) = (  0.2695939  0.6290731  0.8156462  )
       248           C   tau( 248) = (  0.2265036  0.6145882  0.8138297  )
       249           C   tau( 249) = (  0.2085136  0.5993880  0.7826807  )
       250           C   tau( 250) = (  0.1765097  0.5503152  0.7808789  )
       251           C   tau( 251) = (  0.1661199  0.5220471  0.7497183  )
       252           C   tau( 252) = (  0.1546955  0.4529956  0.7479096  )
       253           C   tau( 253) = (  0.1549686  0.4200698  0.7167627  )
       254           C   tau( 254) = (  0.1675430  0.3515442  0.7149500  )
       255           C   tau( 255) = (  0.1784217  0.3237480  0.6837992  )
       256           C   tau( 256) = (  0.2112140  0.2760878  0.6819978  )
       257           C   tau( 257) = (  0.2294103  0.2615941  0.6508428  )
       258           C   tau( 258) = (  0.2727190  0.2489153  0.6490173  )
       259           C   tau( 259) = (  0.2928613  0.2521244  0.6178635  )
       260           C   tau( 260) = (  0.3337784  0.2784339  0.6160677  )
       261           C   tau( 261) = (  0.3498047  0.2986058  0.5849080  )
       262           C   tau( 262) = (  0.3760423  0.3558740  0.5831829  )
       263           C   tau( 263) = (  0.3832108  0.3868527  0.5520664  )
       264           C   tau( 264) = (  0.3871795  0.4579120  0.5504058  )
       265           C   tau( 265) = (  0.3841299  0.4904877  0.5193704  )
       266           C   tau( 266) = (  0.3445315  0.5871803  0.9401857  )
       267           C   tau( 267) = (  0.3276912  0.6055214  0.9090320  )
       268           C   tau( 268) = (  0.2858482  0.6276283  0.9072269  )
       269           C   tau( 269) = (  0.2655863  0.6288682  0.8760789  )
       270           C   tau( 270) = (  0.2228360  0.6119661  0.8742614  )
       271           C   tau( 271) = (  0.2051834  0.5957540  0.8431126  )
       272           C   tau( 272) = (  0.1742296  0.5449391  0.8413130  )
       273           C   tau( 273) = (  0.1644249  0.5161108  0.8101590  )
       274           C   tau( 274) = (  0.1544689  0.4464580  0.8083468  )
       275           C   tau( 275) = (  0.1554408  0.4135654  0.7771982  )
       276           C   tau( 276) = (  0.1694562  0.3457945  0.7753920  )
       277           C   tau( 277) = (  0.1808976  0.3186183  0.7442369  )
       278           C   tau( 278) = (  0.2147008  0.2728411  0.7424354  )
       279           C   tau( 279) = (  0.2332089  0.2594236  0.7112922  )
       280           C   tau( 280) = (  0.2767624  0.2492481  0.7094779  )
       281           C   tau( 281) = (  0.2968360  0.2535834  0.6783217  )
       282           C   tau( 282) = (  0.3371524  0.2821550  0.6765256  )
       283           C   tau( 283) = (  0.3527944  0.3029859  0.6453553  )
       284           C   tau( 284) = (  0.3778194  0.3617899  0.6435718  )
       285           C   tau( 285) = (  0.3843510  0.3929415  0.6124525  )
       286           C   tau( 286) = (  0.3866903  0.4643575  0.6107035  )
       287           C   tau( 287) = (  0.3822339  0.4965907  0.5796195  )
       288           C   tau( 288) = (  0.3413440  0.5911749  0.0006603  )
       289           C   tau( 289) = (  0.3241350  0.6085736  0.9694683  )
       290           C   tau( 290) = (  0.2818483  0.6283286  0.9676572  )
       291           C   tau( 291) = (  0.2615765  0.6284406  0.9365091  )
       292           C   tau( 292) = (  0.2192103  0.6091558  0.9346920  )
       293           C   tau( 293) = (  0.2019166  0.5919641  0.9035429  )
       294           C   tau( 294) = (  0.1720622  0.5394387  0.9017432  )
       295           C   tau( 295) = (  0.1628798  0.5100765  0.8705955  )
       296           C   tau( 296) = (  0.1544051  0.4399199  0.8687797  )
       297           C   tau( 297) = (  0.1560616  0.4070963  0.8376297  )
       298           C   tau( 298) = (  0.1715070  0.3401507  0.8358286  )
       299           C   tau( 299) = (  0.1835113  0.3136286  0.8046781  )
       300           C   tau( 300) = (  0.2182806  0.2698055  0.8028722  )
       301           C   tau( 301) = (  0.2370597  0.2574685  0.7717247  )
       302           C   tau( 302) = (  0.2807995  0.2498062  0.7699138  )
       303           C   tau( 303) = (  0.3007627  0.2552812  0.7387565  )
       304           C   tau( 304) = (  0.3404596  0.2861055  0.7369520  )
       305           C   tau( 305) = (  0.3556511  0.3077971  0.7057982  )
       306           C   tau( 306) = (  0.3794641  0.3679267  0.7039856  )
       307           C   tau( 307) = (  0.3853086  0.3993997  0.6728380  )
       308           C   tau( 308) = (  0.3861941  0.4708690  0.6710515  )
       309           C   tau( 309) = (  0.3810300  0.5027346  0.6399166  )
       310           C   tau( 310) = (  0.2575684  0.6277751  0.9969365  )
       311           C   tau( 311) = (  0.2156330  0.6061330  0.9951226  )
       312           C   tau( 312) = (  0.1987219  0.5879900  0.9639732  )
       313           C   tau( 313) = (  0.1699993  0.5338252  0.9621703  )
       314           C   tau( 314) = (  0.1614524  0.5039632  0.9310237  )
       315           C   tau( 315) = (  0.1544736  0.4333727  0.9292074  )
       316           C   tau( 316) = (  0.1568322  0.4006683  0.8980600  )
       317           C   tau( 317) = (  0.1736929  0.3346291  0.8962613  )
       318           C   tau( 318) = (  0.1862565  0.3088034  0.8651114  )
       319           C   tau( 319) = (  0.2219342  0.2669705  0.8632984  )
       320           C   tau( 320) = (  0.2409656  0.2557061  0.8321493  )
       321           C   tau( 321) = (  0.2848457  0.2505181  0.8303393  )
       322           C   tau( 322) = (  0.3046758  0.2571526  0.7991860  )
       323           C   tau( 323) = (  0.3437026  0.2901645  0.7973758  )
       324           C   tau( 324) = (  0.3584190  0.3127365  0.7662217  )
       325           C   tau( 325) = (  0.3809756  0.3741184  0.7643993  )
       326           C   tau( 326) = (  0.3861907  0.4058921  0.7332429  )
       327           C   tau( 327) = (  0.3855879  0.4773907  0.7314427  )
       328           C   tau( 328) = (  0.3797474  0.5089213  0.7003041  )
       329           C   tau( 329) = (  0.1601384  0.4977779  0.9914485  )
       330           C   tau( 330) = (  0.1546662  0.4268307  0.9896339  )
       331           C   tau( 331) = (  0.1577283  0.3942758  0.9584865  )
       332           C   tau( 332) = (  0.1759845  0.3292240  0.9566866  )
       333           C   tau( 333) = (  0.1890932  0.3041172  0.9255382  )
       334           C   tau( 334) = (  0.2256410  0.2643047  0.9237206  )
       335           C   tau( 335) = (  0.2449049  0.2541255  0.8925727  )
       336           C   tau( 336) = (  0.2888723  0.2514059  0.8907657  )
       337           C   tau( 337) = (  0.3085524  0.2591738  0.8596118  )
       338           C   tau( 338) = (  0.3468558  0.2943496  0.8577967  )
       339           C   tau( 339) = (  0.3610944  0.3177492  0.8266436  )
       340           C   tau( 340) = (  0.3823444  0.3803552  0.8248213  )
       341           C   tau( 341) = (  0.3869028  0.4124165  0.7936680  )
       342           C   tau( 342) = (  0.3847943  0.4838382  0.7918617  )
       343           C   tau( 343) = (  0.3783040  0.5150399  0.7607134  )
       344           C   tau( 344) = (  0.1920183  0.2996016  0.9859645  )
       345           C   tau( 345) = (  0.2293897  0.2618548  0.9841446  )
       346           C   tau( 346) = (  0.2488630  0.2527558  0.9529968  )
       347           C   tau( 347) = (  0.2928635  0.2525050  0.9511922  )
       348           C   tau( 348) = (  0.3123715  0.2613835  0.9200394  )
       349           C   tau( 349) = (  0.3499039  0.2986961  0.9182202  )
       350           C   tau( 350) = (  0.3636444  0.3228837  0.8870692  )
       351           C   tau( 351) = (  0.3835523  0.3866422  0.8852527  )
       352           C   tau( 352) = (  0.3874358  0.4189547  0.8540964  )
       353           C   tau( 353) = (  0.3838100  0.4902068  0.8522878  )
       354           C   tau( 354) = (  0.3766858  0.5210343  0.8211353  )
       355           C   tau( 355) = (  0.3161361  0.2637837  0.9804686  )
       356           C   tau( 356) = (  0.3528568  0.3031828  0.9786462  )
       357           C   tau( 357) = (  0.3660745  0.3281405  0.9474961  )
       358           C   tau( 358) = (  0.3846254  0.3929682  0.9456843  )
       359           C   tau( 359) = (  0.3878256  0.4254890  0.9145293  )
       360           C   tau( 360) = (  0.3826906  0.4964990  0.9127164  )
       361           C   tau( 361) = (  0.3749177  0.5269204  0.8815673  )
       362           C   tau( 362) = (  0.3880683  0.4320258  0.9749652  )
       363           C   tau( 363) = (  0.3814198  0.5027037  0.9731485  )
       364           C   tau( 364) = (  0.3730093  0.5326746  0.9419989  )
       365           Se  tau( 365) = (  0.4534243  0.4790198  0.4438896  )

     number of k points=     1
                       cart. coord. in units 2pi/alat
        k(    1) = (   0.0000000   0.0000000   0.4001558), wk =   2.0000000

                       cryst. coord.
        k(    1) = (   0.0000000   0.0000000   0.5000000), wk =   2.0000000

     Dense  grid: 11053081 G-vectors     FFT dimensions: ( 320, 192, 384)

     Dynamical RAM for                 wfc:      68.59 MB

     Dynamical RAM for     wfc (w. buffer):      68.59 MB

     Dynamical RAM for           str. fact:       0.22 MB

     Dynamical RAM for           local pot:       0.00 MB

     Dynamical RAM for          nlocal pot:      40.19 MB

     Dynamical RAM for                qrad:       2.49 MB

     Dynamical RAM for          rho,v,vnew:       1.74 MB

     Dynamical RAM for           G-vectors:       0.47 MB

     Dynamical RAM for          h,s,v(r/c):      12.00 MB

     Dynamical RAM for          <psi|beta>:     223.54 MB

     Dynamical RAM for                 psi:     274.35 MB

     Dynamical RAM for                hpsi:     274.35 MB

     Dynamical RAM for      wfcinit/wfcrot:     709.42 MB

     Estimated static dynamical RAM per process >     116.36 MB

     Estimated max dynamical RAM per process >     900.61 MB

     Estimated total dynamical RAM >    1350.92 GB

     The potential is recalculated from file :
     ./CNT_PBE.save/charge-density

     Starting wfcs are random

     Band Structure Calculation
     Davidson diagonalization with overlap

     Computing kpt #:     1  of     1
     total cpu time spent up to now is    13579.3 secs

     ethr =  5.03E-12,  avg # of iterations = 42.0

     total cpu time spent up to now is    13579.3 secs

     End of band structure calculation

          k = 0.0000 0.0000 0.4002 (****** PWs)   bands (ev):

   -22.6745 -22.6627 -22.5414 -22.5314 -22.4712 -22.4528 -22.4504 -22.4498
   -22.3353 -22.3217 -22.3206 -22.3176 -22.2742 -22.2689 -22.0723 -22.0592
   -22.0578 -22.0557 -21.8837 -21.8753 -21.8477 -21.8224 -21.8223 -21.8219
   -21.7153 -21.6939 -21.6923 -21.6911 -21.6726 -21.6666 -21.6645 -21.6633
   -21.4508 -21.4358 -21.4322 -21.4305 -21.3582 -21.3524 -21.1602 -21.1455
   -21.1438 -21.1424 -21.0609 -21.0477 -21.0433 -21.0415 -20.8413 -20.8080
   -20.8067 -20.8066 -20.7183 -20.7031 -20.6971 -20.6803 -20.6791 -20.6784
   -20.5512 -20.5323 -20.5283 -20.5261 -20.5080 -20.4990 -20.4976 -20.4950
   -20.4416 -20.4259 -20.4237 -20.4224 -20.0698 -20.0451 -20.0420 -20.0414
   -19.9463 -19.9338 -19.9068 -19.8923 -19.8906 -19.8862 -19.7499 -19.7322
   -19.7311 -19.7302 -19.5753 -19.5401 -19.5371 -19.5364 -19.4836 -19.4499
   -19.4484 -19.4482 -19.3542 -19.3263 -19.3245 -19.3239 -19.1645 -19.1376
   -19.1351 -19.1317 -19.1031 -19.0792 -19.0776 -19.0766 -19.0577 -19.0513
   -18.9384 -18.9167 -18.9149 -18.9114 -18.8680 -18.8543 -18.8534 -18.8530
   -18.7370 -18.7112 -18.7089 -18.7080 -18.3343 -18.2824 -18.2778 -18.2770
   -18.2560 -18.2264 -18.2232 -18.2230 -18.2007 -18.1896 -18.1883 -18.1847
   -18.0791 -18.0693 -17.9629 -17.8884 -17.8883 -17.8816 -17.8808 -17.8629
   -17.8577 -17.8559 -17.7852 -17.7525 -17.7398 -17.7342 -17.6598 -17.6390
   -17.6348 -17.6340 -17.5571 -17.5260 -17.5054 -17.4973 -17.4514 -17.4419
   -17.4342 -17.4296 -17.4231 -17.4192 -17.3825 -17.3809 -17.2238 -17.1884
   -17.1575 -17.1477 -17.0668 -17.0658 -17.0369 -17.0190 -17.0059 -16.9912
   -16.9605 -16.9503 -16.8715 -16.8675 -16.7782 -16.7444 -16.7086 -16.6998
   -16.3186 -16.2896 -16.2691 -16.2121 -16.1157 -16.0500 -16.0495 -16.0419
   -16.0407 -16.0400 -15.9402 -15.9275 -15.9140 -15.8713 -15.8193 -15.7836
   -15.7615 -15.7605 -15.6601 -15.5687 -15.5612 -15.5610 -15.5262 -15.4636
   -15.4564 -15.4559 -15.4406 -15.4029 -15.4021 -15.3995 -15.3788 -15.3715
   -15.3139 -15.2653 -15.2597 -15.2522 -15.2365 -15.2074 -15.1519 -15.1034
   -15.0977 -15.0940 -15.0851 -15.0842 -15.0584 -15.0442 -15.0327 -14.9689
   -14.9648 -14.9622 -14.9455 -14.9210 -14.9057 -14.8955 -14.8658 -14.8634
   -14.8244 -14.7230 -14.7116 -14.6966 -14.6779 -14.6676 -14.6108 -14.4478
   -14.4214 -14.3495 -14.3450 -13.9784 -13.9707 -13.9702 -13.9636 -13.9545
   -13.9478 -13.8943 -13.8826 -13.8472 -13.8374 -13.8111 -13.8009 -13.6756
   -13.6684 -13.5588 -13.5459 -13.5439 -13.5398 -13.5352 -13.5279 -13.5147
   -13.5087 -13.4854 -13.4750 -13.4160 -13.4121 -13.4071 -13.4005 -13.3705
   -13.3660 -13.2715 -13.2712 -13.2431 -13.2400 -13.0975 -13.0962 -13.0706
   -13.0667 -13.0493 -13.0475 -12.8971 -12.8940 -12.8602 -12.8601 -12.8402
   -12.8381 -12.8172 -12.8136 -12.7762 -12.7700 -12.7590 -12.7521 -12.7181
   -12.7177 -12.6175 -12.6152 -12.5402 -12.5349 -12.5161 -12.5085 -12.4412
   -12.4388 -12.2482 -12.2462 -12.1172 -12.1171 -12.0112 -12.0100 -11.9911
   -11.9910 -11.8660 -11.8648 -11.7859 -11.7855 -11.7526 -11.7486 -11.6903
   -11.6756 -11.6583 -11.6573 -11.6406 -11.6372 -11.6121 -11.6087 -11.5731
   -11.5694 -11.5375 -11.5270 -11.5082 -11.5032 -11.5002 -11.5000 -11.4563
   -11.4530 -11.4266 -11.4228 -11.3756 -11.3718 -11.3530 -11.3515 -11.3284
   -11.3222 -11.2986 -11.2945 -11.2650 -11.2627 -11.2470 -11.2395 -11.1808
   -11.1704 -11.1702 -11.1681 -11.1658 -11.1647 -11.1486 -11.1431 -10.7924
   -10.7871 -10.7772 -10.7743 -10.7668 -10.7630 -10.7527 -10.7524 -10.7268
   -10.7210 -10.7082 -10.7036 -10.6394 -10.6350 -10.5547 -10.5518 -10.5513
   -10.5417 -10.5083 -10.4932 -10.4859 -10.4852 -10.4750 -10.4640 -10.4455
   -10.4319 -10.4290 -10.4255 -10.4090 -10.4068 -10.4027 -10.4021 -10.3950
   -10.3873 -10.3391 -10.3308 -10.3276 -10.3272 -10.3100 -10.3098 -10.3002
   -10.2945 -10.2514 -10.2408 -10.2341 -10.2222 -10.1961 -10.1905 -10.1393
   -10.1384 -10.1226 -10.1168 -10.1065 -10.1040 -10.1024 -10.0920 -10.0779
   -10.0727 -10.0502 -10.0428 -10.0285 -10.0194  -9.9906  -9.9832  -9.9697
    -9.9687  -9.9505  -9.9466  -9.9403  -9.9316  -9.9051  -9.9048  -9.8986
    -9.8979  -9.8912  -9.8903  -9.8201  -9.8113  -9.8002  -9.7962  -9.7958
    -9.7830  -9.7810  -9.7757  -9.7428  -9.7389  -9.7191  -9.7164  -9.7070
    -9.6985  -9.6898  -9.6895  -9.6585  -9.6530  -9.6217  -9.6188  -9.6139
    -9.6035  -9.5580  -9.5534  -9.5162  -9.5035  -9.4970  -9.4817  -9.4785
    -9.4745  -9.4640  -9.4586  -9.4322  -9.4287  -9.3472  -9.3374  -9.3179
    -9.3088  -9.3001  -9.2981  -9.2954  -9.2929  -9.2845  -9.2726  -9.2001
    -9.1865  -9.1721  -9.1548  -9.1420  -9.1330  -9.1217  -9.1199  -9.1087
    -9.1071  -9.1029  -9.1018  -9.0915  -9.0899  -9.0858  -9.0747  -9.0583
    -9.0524  -9.0477  -9.0393  -9.0318  -9.0240  -9.0095  -9.0081  -8.9626
    -8.9557  -8.9434  -8.9395  -8.9266  -8.9265  -8.9135  -8.9116  -8.8175
    -8.8081  -8.6369  -8.6292  -8.6263  -8.5992  -8.5963  -8.5948  -8.5480
    -8.5359  -8.5136  -8.5077  -8.4745  -8.4647  -8.3769  -8.3722  -8.3235
    -8.3209  -8.3124  -8.3072  -8.2851  -8.2828  -8.2697  -8.2596  -8.2493
    -8.2455  -8.2295  -8.2273  -8.1875  -8.1830  -8.1612  -8.1483  -8.1374
    -8.1314  -8.1071  -8.0962  -8.0896  -8.0847  -8.0796  -8.0773  -8.0653
    -8.0634  -8.0600  -8.0526  -8.0449  -8.0437  -8.0358  -8.0355  -8.0234
    -8.0212  -7.9427  -7.9400  -7.9018  -7.8873  -7.8759  -7.8689  -7.8635
    -7.8588  -7.7720  -7.7715  -7.7055  -7.6956  -7.6125  -7.6033  -7.5876
    -7.5787  -7.5725  -7.5706  -7.5591  -7.5474  -7.4871  -7.4811  -7.4607
    -7.4544  -7.4181  -7.4048  -7.3828  -7.3780  -7.3659  -7.3612  -7.3333
    -7.3302  -7.3182  -7.3081  -7.2985  -7.2956  -7.2833  -7.2730  -7.2684
    -7.2664  -7.2633  -7.2594  -7.1920  -7.1808  -7.1250  -7.1179  -7.0075
    -6.9953  -6.9623  -6.9566  -6.9446  -6.9444  -6.9332  -6.9309  -6.9251
    -6.9177  -6.8462  -6.8385  -6.8122  -6.8117  -6.7779  -6.7593  -6.7539
    -6.7429  -6.7297  -6.7115  -6.6775  -6.6701  -6.6597  -6.6485  -6.6396
    -6.6375  -6.5967  -6.5914  -6.5323  -6.5202  -6.4706  -6.4684  -6.4540
    -6.4501  -6.4072  -6.4052  -6.4038  -6.3949  -6.3933  -6.3904  -6.3864
    -6.3849  -6.3794  -6.3693  -6.3497  -6.3403  -6.3131  -6.3112  -6.2137
    -6.2040  -6.0699  -6.0564  -6.0114  -6.0065  -5.9985  -5.9948  -5.9278
    -5.8940  -5.8721  -5.8524  -5.7863  -5.7431  -5.7042  -5.6790  -5.6303
    -5.5963  -5.5411  -5.5402  -5.5132  -5.4967  -5.4845  -5.4808  -5.4350
    -5.4070  -5.3699  -5.3476  -5.3184  -5.3025  -5.2906  -5.2874  -5.2855
    -5.2854  -5.2403  -5.2226  -5.2166  -5.2073  -5.2054  -5.1605  -5.1270
    -5.1185  -5.0905  -5.0697  -4.9876  -4.9535  -4.9428  -4.9427  -4.9267
    -4.8550  -4.8206  -4.8116  -4.7535  -4.7417  -4.6183  -4.6038  -4.5655
    -4.5500  -4.5447  -4.5116  -4.4910  -4.4620  -4.4062  -4.3971  -4.2264
    -4.0724  -4.0560  -3.9554  -3.9456  -3.8890  -3.8522  -3.6501  -3.6248
    -3.5215  -3.4881  -3.4203  -2.4478  -2.3046  -2.2823  -2.1990  -2.1775
    -1.9728  -1.9010  -1.7862  -1.7666  -1.7472  -1.7229  -1.6130  -1.6022
    -1.5834  -1.5803  -1.5752  -1.5736  -1.5640  -1.5203  -1.4839  -1.4836
    -1.4474  -1.4445  -1.4256  -1.4091  -1.3840  -1.3800  -1.3771  -1.3681
    -1.3529  -1.3301  -1.3016  -1.1708  -1.1593  -1.1479  -1.0872  -1.0765
    -1.0667  -1.0601  -1.0213  -1.0125  -1.0117  -1.0097  -1.0089  -1.0062
    -0.9986  -0.9902  -0.9832  -0.9828  -0.9475  -0.9358  -0.9125  -0.8917
    -0.8808  -0.8777  -0.8371  -0.7456  -0.6610  -0.6538  -0.6450  -0.4807
    -0.4149  -0.3621  -0.3487  -0.3407  -0.3188  -0.1850  -0.1342  -0.1116
    -0.0507  -0.0183   0.0204   0.0377   0.0418   0.0887   0.1689   0.1701
     0.1735   0.1858   0.1965   0.2407   0.2848   0.3115   0.3308   0.3463
     0.3482   0.4197   0.4910   0.5234   0.6039   0.6596   0.6793   0.6872
     0.6936   0.6990   0.7026   0.7244   0.7608   0.8025   0.8125   0.8255
     0.8318   0.8481   0.8496   0.8528   0.8538   0.8772   0.8797   0.8876
     0.9024   0.9046   0.9438   0.9562   0.9722   0.9905   1.0213   1.0265
     1.0611   1.0637   1.0836   1.1061   1.1552   1.1635   1.2285   1.2337
     1.2339   1.2429   1.2532   1.2690   1.3068   1.3325   1.3385   1.3406
     1.3834   1.3846   1.4167   1.4184   1.4190   1.4207   1.4389   1.4457
     1.5290   1.5425   1.5722   1.5774   1.5933   1.6712   1.6861   1.6894
     1.6991   1.6995   1.7039   1.7100   1.7138   1.7186   1.7193   1.7233
     1.7236   1.7285   1.7296   1.7411   1.7615   1.7648   1.7746   1.7815
     1.7933   1.7971   1.7999   1.8040   1.8104   1.8227   1.8715   1.8769
     1.9003   1.9023   1.9129   1.9174   1.9195   1.9244   1.9257   1.9394
     1.9451   1.9488   1.9557   1.9570   1.9986   1.9995   2.0646   2.0719
     2.0725   2.0782   2.0849   2.0866   2.1124   2.1147   2.1194   2.1290
     2.1468   2.1732   2.1791   2.2009   2.2201   2.2289   2.2329   2.2365
     2.2376   2.2524   2.2570   2.2581   2.2601   2.2668   2.2719   2.2850
     2.2990   2.3025   2.3077   2.3113   2.3238   2.3273   2.3448   2.3519
     2.3610   2.3637   2.3654   2.3660   2.3824   2.3881   2.3984   2.4012
     2.4618   2.4777   2.4799   2.4808   2.4842   2.4921   2.4980   2.5098
     2.5103   2.5116   2.5363   2.5441   2.5527   2.5596   2.5756   2.5946
     2.5982   2.6019   2.6136   2.6154   2.6199   2.6213   2.6247   2.6277
     2.6331   2.6412   2.6631   2.6654   2.6701   2.6708   2.6724   2.6742
     2.6785   2.6835   2.6871   2.6892   2.6929   2.6950   2.7058   2.7096
     2.7153   2.7218   2.7287   2.7337   2.7384   2.7517   2.7685   2.7809
     2.7863   2.7886   2.8039   2.8055   2.8069   2.8129   2.8178   2.8245
     2.8310   2.8330   2.8385   2.8515   2.8575   2.8605   2.8790   2.8858
     2.8866   2.8950   2.9062   2.9130   2.9151   2.9204   2.9240   2.9257
     2.9321   2.9359   2.9449   2.9532   2.9559   2.9564   2.9628   2.9707
     2.9738   2.9797   3.0038   3.0118   3.0141   3.0200   3.0231   3.0261
     3.0296   3.0338   3.0433   3.0442   3.0492   3.0546   3.0616   3.0748
     3.0818   3.0892   3.1116   3.1120   3.1197   3.1255   3.1420   3.1509
     3.1527   3.1636   3.1662   3.1673   3.1698   3.1754   3.1948   3.2123
     3.2224   3.2241   3.2303   3.2323   3.2345   3.2400   3.2584   3.2686
     3.2705   3.2768   3.2803   3.2835   3.2855   3.2889   3.3116   3.3159
     3.3187   3.3218   3.3490   3.3490   3.3518   3.3559   3.3614   3.3643
     3.3666   3.3700   3.3772   3.3795   3.3804   3.3836   3.3947   3.4008
     3.4060   3.4170   3.4309   3.4341   3.4463   3.4534   3.4569   3.4742
     3.4750   3.4764   3.4807   3.4834   3.4847   3.4935   3.4942   3.4984
     3.5006   3.5048   3.5080   3.5116   3.5138   3.5164   3.5250   3.5330
     3.5354   3.5379   3.5436   3.5490   3.5516   3.5550   3.5604   3.5609
     3.5808   3.5918   3.5944   3.5996   3.6012   3.6046   3.6145   3.6177
     3.6219   3.6340   3.6386   3.6425   3.6437   3.6470   3.6488   3.6555
     3.6785   3.6795   3.6984   3.7096   3.7143   3.7184   3.7206   3.7243
     3.7264   3.7302   3.7384   3.7416   3.7431   3.7455   3.7504   3.7526
     3.7565   3.7613   3.7633   3.7678   3.7711   3.7738   3.7777   3.7832
     3.7868   3.7898   3.8012   3.8148   3.8184   3.8193   3.8394   3.8404
     3.8411   3.8488   3.8558   3.8615   3.8646   3.8671   3.8715   3.8746
     3.8850   3.8885   3.8913   3.8932   3.8964   3.8979   3.9002   3.9008
     3.9167   3.9223   3.9255   3.9294   3.9345   3.9374   3.9393   3.9455
     3.9491   3.9509   3.9560   3.9664   3.9740   3.9768   3.9843   3.9875
     4.0026   4.0064   4.0095   4.0106   4.0167   4.0210   4.0250   4.0340
     4.0422   4.0427   4.0577   4.0655   4.0742   4.0826   4.0844   4.0988
     4.1212   4.1253   4.1287   4.1366   4.1589   4.1680   4.1724   4.1832
     4.1858   4.1959   4.2010   4.2386   4.2424   4.2492   4.2506   4.2530
     4.2582   4.2616   4.2730   4.2735   4.2751   4.2801   4.2869   4.2881
     4.2952   4.2987   4.3012   4.3048   4.3153   4.3219   4.3351   4.3356
     4.3403   4.3426   4.3480   4.3519   4.3648   4.3652   4.3684   4.3701
     4.3812   4.4067   4.4103   4.4111   4.4186   4.4204   4.4213   4.4271
     4.4310   4.4361   4.4406   4.4485   4.4520   4.4559   4.4730   4.4764
     4.4813   4.4907   4.4938   4.4964   4.5223   4.5403   4.5470   4.5536
     4.5556   4.5587   4.5630   4.5642   4.5712   4.5752   4.5764   4.5792
     4.5823   4.5937   4.6015   4.6087   4.6097   4.6130   4.6170   4.6186
     4.6210   4.6231   4.6269   4.6287   4.6369   4.6390   4.6432   4.6444
     4.6500   4.6590   4.6610   4.6620   4.6714   4.6759   4.6789   4.6876
     4.6995   4.7029   4.7056   4.7105   4.7137   4.7183   4.7460   4.7495
     4.7543   4.7593   4.7611   4.7686   4.7687   4.7760   4.7838   4.7906
     4.7919   4.7934   4.7970   4.7989   4.8007   4.8050   4.8105   4.8154
     4.8198   4.8216   4.8330   4.8358   4.8484   4.8501   4.8647   4.8674
     4.8832   4.8907   4.8959   4.9028   4.9097   4.9106   4.9134   4.9150
     4.9179   4.9393   4.9419   4.9473   4.9528   4.9582   4.9609   4.9640
     4.9694   4.9718   4.9726   4.9753   4.9847   4.9906   4.9914   4.9964
     5.0001   5.0055   5.0079   5.0140   5.0168   5.0183   5.0192   5.0208
     5.0264   5.0304   5.0335   5.0374   5.0386   5.0406   5.0426   5.0513
     5.0567   5.0590   5.0639   5.0678   5.0700   5.0726   5.0790   5.0804
     5.0869   5.0928   5.0955   5.0973   5.0986   5.0999   5.1013   5.1057
     5.1093   5.1110   5.1144   5.1206   5.1213   5.1266   5.1314   5.1335
     5.1374   5.1395   5.1402   5.1427   5.1486   5.1512   5.1579   5.1592
     5.1666   5.1700   5.1717   5.1766   5.1818   5.1864   5.1910   5.1950
     5.2001   5.2046   5.2091   5.2107   5.2127   5.2168   5.2185   5.2267
     5.2342   5.2350   5.2363   5.2427   5.2445   5.2568   5.2716   5.2779
     5.2790   5.2838   5.2862   5.2875   5.2920   5.2966   5.3002   5.3013
     5.3114   5.3163   5.3201   5.3288   5.3292   5.3424   5.3569   5.3598
     5.3629   5.3653   5.3677   5.3703   5.3772   5.3778   5.3835   5.3880
     5.3928   5.3953   5.3974   5.4104   5.4161   5.4177   5.4200   5.4254
     5.4274   5.4292   5.4300   5.4306   5.4392   5.4416   5.4456   5.4514
     5.4549   5.4570   5.4611   5.4703   5.4788   5.4802   5.4843   5.4875
     5.4893   5.4915   5.4930   5.4945   5.4954   5.4975   5.4989   5.5032
     5.5113   5.5136   5.5196   5.5258   5.5313   5.5364   5.5405   5.5410
     5.5435   5.5445   5.5479   5.5504   5.5621   5.5664   5.5736   5.5759
     5.5795   5.5880   5.5896   5.5963   5.5982   5.6082   5.6120   5.6178
     5.6293   5.6341   5.6375   5.6415   5.6462   5.6492   5.6537   5.6622
     5.6652   5.6676   5.6686   5.6705   5.6773   5.6806   5.6860   5.6888
     5.6955   5.6961   5.6979   5.6991   5.7024   5.7044   5.7049   5.7061
     5.7117   5.7134   5.7142   5.7222   5.7253   5.7297   5.7325   5.7343
     5.7394   5.7467   5.7621   5.7676   5.7823   5.7860   5.7880   5.7991
     5.8031   5.8050   5.8070   5.8105   5.8113   5.8124   5.8151   5.8202
     5.8248   5.8290   5.8318   5.8351   5.8416   5.8497   5.8521   5.8542
     5.8555   5.8616   5.8652   5.8695   5.8713   5.8729   5.8822   5.8864
     5.8915   5.9000   5.9016   5.9094   5.9215   5.9242   5.9269   5.9351
     5.9361   5.9412   5.9467   5.9521   5.9619   5.9649   5.9674   5.9716
     5.9752   5.9774   5.9797   5.9865   5.9890   5.9931   6.0020   6.0039
     6.0089   6.0112   6.0157   6.0188   6.0230   6.0282   6.0306   6.0321
     6.0356   6.0376   6.0396   6.0396   6.0412   6.0426   6.0470   6.0549
     6.0563   6.0583   6.0595   6.0622   6.0629   6.0651   6.0707   6.0752
     6.0785   6.0815   6.0841   6.0892   6.0974   6.0984   6.1068   6.1093
     6.1151   6.1190   6.1252   6.1318   6.1365   6.1405   6.1428   6.1536
     6.1557   6.1586   6.1595   6.1669   6.1709   6.1784   6.1807   6.1845
     6.1866   6.1884   6.1918   6.1948   6.1975   6.2002   6.2070   6.2152
     6.2157   6.2232   6.2256   6.2292   6.2339   6.2347   6.2398   6.2414
     6.2465   6.2472   6.2530   6.2565   6.2575   6.2595   6.2671   6.2688
     6.2696   6.2734   6.2737   6.2799   6.2914   6.2943   6.2968   6.2981
     6.2995   6.3057   6.3079   6.3095   6.3112   6.3148   6.3234   6.3266
     6.3370   6.3409   6.3428   6.3459   6.3531   6.3579   6.3676   6.3730
     6.3819   6.3868   6.3891   6.3929   6.3966   6.4014   6.4051   6.4058
     6.4086   6.4095   6.4145   6.4155   6.4195   6.4227   6.4242   6.4272
     6.4341   6.4366   6.4393   6.4462   6.4515   6.4523   6.4529   6.4546
     6.4622   6.4635   6.4661   6.4695   6.4784   6.4823   6.4908   6.4957
     6.4971   6.5006   6.5022   6.5040   6.5083   6.5114   6.5152   6.5197
     6.5223   6.5249   6.5379   6.5408   6.5456   6.5488   6.5518   6.5527
     6.5616   6.5643   6.5675   6.5739   6.5782   6.5816   6.5922   6.6006
     6.6025   6.6072   6.6172   6.6195   6.6267   6.6319   6.6356   6.6371
     6.6406   6.6451   6.6468   6.6503   6.6514   6.6628   6.6673   6.6763
     6.6779   6.6824   6.6864   6.6922   6.6933   6.6971   6.7003   6.7053
     6.7070   6.7123   6.7156   6.7234   6.7259   6.7313   6.7367   6.7385
     6.7438   6.7457   6.7476   6.7506   6.7536   6.7548   6.7557   6.7571
     6.7641   6.7659   6.7676   6.7697   6.7722   6.7769   6.7792   6.7833
     6.7933   6.7961   6.8028   6.8044   6.8070   6.8116   6.8140   6.8205
     6.8240   6.8257   6.8321   6.8377   6.8395   6.8407   6.8411   6.8466
     6.8488   6.8516   6.8537   6.8569   6.8581   6.8619   6.8626   6.8649
     6.8658   6.8677   6.8732   6.8753   6.8797   6.8818   6.8903   6.8958
     6.9000   6.9076   6.9080   6.9113   6.9165   6.9194   6.9201   6.9214
     6.9245   6.9279   6.9327   6.9350   6.9378   6.9388   6.9408   6.9427
     6.9448   6.9525   6.9553   6.9573   6.9589   6.9618   6.9632   6.9642
     6.9710   6.9771   6.9834   6.9864   6.9938   7.0046   7.0238   7.0299
     7.0363   7.0415   7.0436   7.0491   7.0534   7.0584   7.0611   7.0644
     7.0664   7.0705   7.0728   7.0739   7.0779   7.0818   7.0878   7.0910
     7.0944   7.0968   7.1011   7.1062   7.1090   7.1184   7.1189   7.1219
     7.1271   7.1338   7.1371   7.1432   7.1440   7.1486   7.1537   7.1551
     7.1574   7.1596   7.1646   7.1665   7.1692   7.1794   7.1842   7.1886
     7.1926   7.1949   7.1967   7.1985   7.2010   7.2037   7.2046   7.2066
     7.2124   7.2179   7.2210   7.2229   7.2254   7.2259   7.2284   7.2292
     7.2321   7.2349   7.2369   7.2388   7.2395   7.2470   7.2555   7.2613
     7.2752   7.2868   7.2934   7.3000   7.3044   7.3133   7.3156   7.3179
     7.3210   7.3259   7.3296   7.3324   7.3337   7.3344   7.3391   7.3428
     7.3461   7.3514   7.3560   7.3573   7.3625   7.3661   7.3740   7.3757
     7.3820   7.3845   7.3884   7.3911   7.3917   7.4015   7.4077   7.4093
     7.4125   7.4148   7.4284   7.4327   7.4385   7.4474   7.4482   7.4532
     7.4588   7.4630   7.4707   7.4741   7.4781   7.4791   7.4840   7.4876
     7.4907   7.4935   7.5004   7.5089   7.5123   7.5181   7.5239   7.5311
     7.5343   7.5373   7.5453   7.5540   7.5582   7.5598   7.5657   7.5686
     7.5706   7.5760   7.5766   7.5820   7.5836   7.5849   7.5855   7.5901
     7.5907   7.5913   7.5938   7.5991   7.6022   7.6043   7.6052   7.6060
     7.6091   7.6101   7.6125   7.6193   7.6227   7.6292   7.6315   7.6363
     7.6406   7.6422   7.6462   7.6486   7.6551   7.6563   7.6607   7.6643
     7.6664   7.6688   7.6738   7.6798   7.6819   7.6831   7.6851   7.6886
     7.6921   7.6944   7.6959   7.6965   7.7036   7.7072   7.7123   7.7154
     7.7176   7.7259   7.7312   7.7375   7.7411   7.7448   7.7492   7.7628
     7.7645   7.7702   7.7729   7.7745   7.7765   7.7781   7.7788   7.7823
     7.7843   7.7870   7.7918   7.7937   7.7963   7.8017   7.8061   7.8077
     7.8121   7.8172   7.8193   7.8224   7.8295   7.8308   7.8331   7.8343
     7.8375   7.8407   7.8468   7.8520   7.8562   7.8576   7.8589   7.8625
     7.8655   7.8697   7.8731   7.8763   7.8818   7.8853   7.8887   7.8916
     7.8950   7.8989   7.9120   7.9160   7.9215   7.9278   7.9372   7.9430
     7.9476   7.9502   7.9552   7.9603   7.9635   7.9643   7.9690   7.9720
     7.9780   7.9804   7.9832   7.9848   7.9872   7.9884   7.9904   7.9984
     8.0041   8.0078   8.0088   8.0106   8.0118   8.0222   8.0241   8.0275
     8.0284   8.0315   8.0326   8.0380   8.0390   8.0407   8.0414   8.0431
     8.0460   8.0495   8.0508   8.0527   8.0557   8.0622   8.0648   8.0712
     8.0787   8.0885   8.0946   8.0998   8.1016   8.1040   8.1088   8.1101
     8.1120   8.1176   8.1199   8.1253   8.1266   8.1300   8.1310   8.1345
     8.1358   8.1395   8.1415   8.1452   8.1470   8.1488   8.1558   8.1589
     8.1644   8.1657   8.1690   8.1694   8.1731   8.1776   8.1794   8.1819
     8.1850   8.1909   8.1995   8.2017   8.2080   8.2130   8.2161   8.2186
     8.2199   8.2235   8.2260   8.2280   8.2306   8.2357   8.2373   8.2397
     8.2457   8.2503   8.2551   8.2584   8.2616   8.2653   8.2725   8.2739
     8.2799   8.2801   8.2837   8.2852   8.2882   8.2904   8.2915   8.2950
     8.2981   8.3027   8.3040   8.3071   8.3105   8.3158   8.3182   8.3218
     8.3260   8.3296   8.3342   8.3384   8.3414   8.3459   8.3475   8.3519
     8.3578   8.3621   8.3661   8.3679   8.3726   8.3770   8.3796   8.3805
     8.3836   8.3840   8.3861   8.3904   8.3944   8.3964   8.3993   8.4030
     8.4080   8.4083   8.4141   8.4185   8.4222   8.4233   8.4261   8.4301
     8.4359   8.4418   8.4503   8.4517   8.4569   8.4613   8.4654   8.4713
     8.4746   8.4774   8.4799   8.4856   8.4881   8.4917   8.4965   8.5012
     8.5031   8.5038   8.5072   8.5095   8.5123   8.5155   8.5183   8.5204
     8.5233   8.5270   8.5297   8.5340   8.5391   8.5431   8.5518   8.5558
     8.5569   8.5607   8.5621   8.5676   8.5726   8.5756   8.5827   8.5878
     8.5918   8.5935   8.5995   8.6039   8.6099   8.6110   8.6118   8.6154
     8.6195   8.6249   8.6283   8.6357   8.6403   8.6425   8.6462   8.6512
     8.6532   8.6574   8.6608   8.6615   8.6639   8.6689   8.6703   8.6712
     8.6740   8.6757   8.6779   8.6842   8.6855   8.6865   8.6878   8.6928
     8.6929   8.6996   8.7033   8.7048   8.7063   8.7101   8.7109   8.7140
     8.7163   8.7208   8.7243   8.7267   8.7294   8.7302   8.7347   8.7389
     8.7401   8.7445   8.7477   8.7489   8.7540   8.7561   8.7626   8.7642
     8.7666   8.7714   8.7726   8.7761   8.7797   8.7883   8.7936   8.7963
     8.7985   8.8031   8.8109   8.8125   8.8160   8.8211   8.8218   8.8316
     8.8401   8.8433   8.8601   8.8604   8.8644   8.8694   8.8748   8.8784
     8.8821   8.8876   8.8924   8.8956   8.8972   8.9021   8.9060   8.9085
     8.9103   8.9153   8.9249   8.9309   8.9335   8.9412   8.9463   8.9490
     8.9513   8.9544   8.9586   8.9620   8.9669   8.9693   8.9718   8.9755
     8.9772   8.9782   8.9849   8.9871   8.9894   8.9935   8.9939   8.9951
     8.9989   8.9999   9.0007   9.0043   9.0093   9.0126   9.0143   9.0163
     9.0170   9.0196   9.0206   9.0218   9.0247   9.0280   9.0304   9.0337
     9.0368   9.0407   9.0423   9.0450   9.0508   9.0542   9.0557   9.0579
     9.0668   9.0693   9.0695   9.0736   9.0791   9.0800   9.0850   9.0883
     9.0891   9.0909   9.0931   9.0953   9.0955   9.0986   9.1003   9.1031
     9.1048   9.1097   9.1158   9.1240   9.1346   9.1423   9.1440   9.1451
     9.1466   9.1500   9.1525   9.1531   9.1558   9.1581   9.1605   9.1665
     9.1729   9.1834   9.1861   9.1877   9.1913   9.1942   9.1973   9.2029
     9.2052   9.2104   9.2116   9.2164   9.2207   9.2218   9.2222   9.2264
     9.2280   9.2314   9.2349   9.2375   9.2392   9.2403   9.2433   9.2468
     9.2496   9.2600   9.2641   9.2704   9.2727   9.2772   9.2815   9.2857
     9.2935   9.2957   9.3015   9.3045   9.3080   9.3149   9.3160   9.3236
     9.3278   9.3365   9.3368   9.3440   9.3483   9.3513   9.3524   9.3556
     9.3567   9.3609   9.3660   9.3664   9.3712   9.3723   9.3759   9.3770
     9.3864   9.3902   9.3944   9.3955   9.3966   9.4016   9.4041   9.4054
     9.4092   9.4115   9.4159   9.4160   9.4168   9.4190   9.4223   9.4265
     9.4312   9.4343   9.4377   9.4423   9.4441   9.4469   9.4495   9.4552
     9.4586   9.4650   9.4684   9.4742   9.4768   9.4783   9.4806   9.4817
     9.4850   9.4878   9.4894   9.4966   9.4993   9.5067   9.5102   9.5129
     9.5156   9.5190   9.5265   9.5282   9.5297   9.5325   9.5340   9.5377
     9.5408   9.5420   9.5467   9.5484   9.5539   9.5564   9.5610   9.5629
     9.5662   9.5683   9.5744   9.5776   9.5815   9.5858   9.5900   9.5947
     9.5961   9.6045   9.6074   9.6127   9.6139   9.6180   9.6234   9.6287
     9.6332   9.6399   9.6425   9.6513   9.6537   9.6633   9.6687   9.6742
     9.6765   9.6790   9.6794   9.6857   9.6879   9.6920   9.6971   9.6985
     9.7010   9.7037   9.7077   9.7091   9.7101   9.7114   9.7139   9.7235
     9.7243   9.7284   9.7289   9.7316   9.7416   9.7437   9.7462   9.7472
     9.7492   9.7521   9.7540   9.7548   9.7572   9.7592   9.7605   9.7625
     9.7661   9.7697   9.7707   9.7710   9.7807   9.7851   9.7907   9.7942
     9.7964   9.7996   9.8046   9.8068   9.8151   9.8197   9.8211   9.8253
     9.8291   9.8350   9.8385   9.8442   9.8510   9.8519   9.8546   9.8608
     9.8632   9.8654   9.8700   9.8702   9.8754   9.8790   9.8811   9.8812
     9.8839   9.8880   9.8918   9.8955   9.8968   9.9026   9.9047   9.9091
     9.9115   9.9143   9.9184   9.9206   9.9269   9.9307   9.9405   9.9414
     9.9454   9.9540   9.9550   9.9579   9.9615   9.9644   9.9667   9.9736
     9.9803   9.9824   9.9853   9.9872   9.9927   9.9971   9.9985   9.9990
    10.0011  10.0043  10.0051  10.0095  10.0146  10.0174  10.0201  10.0234
    10.0240  10.0268  10.0281  10.0310  10.0330  10.0354  10.0379  10.0400
    10.0494  10.0564  10.0591  10.0613  10.0657  10.0677  10.0725  10.0759
    10.0802  10.0851  10.0862  10.0867  10.0950  10.0968  10.1019  10.1056
    10.1098  10.1108  10.1182  10.1209  10.1238  10.1269  10.1350  10.1371
    10.1396  10.1411  10.1439  10.1466  10.1477  10.1495  10.1522  10.1571
    10.1591  10.1646  10.1682  10.1771  10.1787  10.1830  10.1866  10.1876
    10.1946  10.1969  10.2016  10.2045  10.2061  10.2098  10.2136  10.2166
    10.2195  10.2233  10.2250  10.2282  10.2334  10.2352  10.2400  10.2409
    10.2480  10.2493  10.2527  10.2546  10.2558  10.2582  10.2592  10.2609
    10.2658  10.2664  10.2689  10.2706  10.2738  10.2773  10.2780  10.2813
    10.2837  10.2857  10.2882  10.2909  10.2958  10.2985  10.3016  10.3048
    10.3077  10.3126  10.3160  10.3167  10.3216  10.3242  10.3274  10.3301
    10.3368  10.3420  10.3439  10.3455  10.3501  10.3566  10.3595  10.3626
    10.3648  10.3703  10.3759  10.3785  10.3820  10.3885  10.3911  10.3924
    10.3938  10.3980  10.4000  10.4082  10.4137  10.4158  10.4163  10.4183
    10.4244  10.4270  10.4305  10.4324  10.4340  10.4395  10.4431  10.4455
    10.4465  10.4479  10.4500  10.4530  10.4539  10.4554  10.4611  10.4656
    10.4686  10.4699  10.4745  10.4779  10.4791  10.4815  10.4837  10.4847
    10.4868  10.4883  10.4924  10.4940  10.4956  10.5028  10.5072  10.5127
    10.5141  10.5188  10.5243  10.5303  10.5332  10.5364  10.5388  10.5398
    10.5429  10.5451  10.5497  10.5531  10.5562  10.5567  10.5610  10.5619
    10.5631  10.5681  10.5706  10.5720  10.5764  10.5778  10.5792  10.5821
    10.5843  10.5906  10.5929  10.5959  10.5975  10.5998  10.6017  10.6052
    10.6066  10.6089  10.6109  10.6126  10.6188  10.6212  10.6272  10.6294
    10.6319  10.6349  10.6449  10.6518  10.6568  10.6630  10.6695  10.6710
    10.6750  10.6807  10.6814  10.6869  10.6909  10.6930  10.6941  10.6976
    10.7006  10.7020  10.7036  10.7138  10.7166  10.7179  10.7222  10.7271
    10.7311  10.7339  10.7383  10.7391  10.7424  10.7448  10.7475  10.7497
    10.7523  10.7594  10.7611  10.7649  10.7655  10.7698  10.7750  10.7769
    10.7806  10.7852  10.7884  10.7904  10.7915  10.7940  10.8002  10.8014
    10.8033  10.8064  10.8101  10.8112  10.8151  10.8168  10.8180  10.8205
    10.8226  10.8253  10.8293  10.8384  10.8395  10.8448  10.8474  10.8511
    10.8532  10.8559  10.8595  10.8635  10.8657  10.8687  10.8728  10.8778
    10.8858  10.8873  10.8886  10.8923  10.8987  10.9044  10.9087  10.9112
    10.9133  10.9183  10.9244  10.9263  10.9296  10.9324  10.9330  10.9354
    10.9396  10.9408  10.9464  10.9506  10.9530  10.9533  10.9564  10.9603
    10.9611  10.9654  10.9668  10.9703  10.9730  10.9774  10.9795  10.9836
    10.9883  10.9911  10.9931  10.9957  11.0006  11.0035  11.0053  11.0102
    11.0108  11.0144  11.0157  11.0208  11.0223  11.0265  11.0301  11.0311
    11.0324  11.0362  11.0403  11.0444  11.0446  11.0479  11.0513  11.0554
    11.0567  11.0584  11.0611  11.0649  11.0695  11.0727  11.0736  11.0776
    11.0779  11.0839  11.0877  11.0896  11.0946  11.0984  11.0988  11.0998
    11.1043  11.1067  11.1104  11.1117  11.1135  11.1171  11.1243  11.1285
    11.1297  11.1312  11.1375  11.1387  11.1405  11.1462  11.1492  11.1543
    11.1560  11.1588  11.1601  11.1606  11.1663  11.1680  11.1713  11.1721
    11.1758  11.1774  11.1792  11.1845  11.1913  11.1949  11.1962  11.1970
    11.2002  11.2059  11.2061  11.2111  11.2162  11.2175  11.2265  11.2301
    11.2345  11.2447  11.2477  11.2550  11.2577  11.2597  11.2628  11.2674
    11.2704  11.2720  11.2755  11.2803  11.2829  11.2861  11.2872  11.2893
    11.2909  11.2917  11.2969  11.2985  11.3009  11.3014  11.3033  11.3078
    11.3094  11.3133  11.3153  11.3195  11.3216  11.3246  11.3280  11.3307
    11.3333  11.3337  11.3378  11.3422  11.3428  11.3478  11.3531  11.3556
    11.3592  11.3618  11.3666  11.3691  11.3710  11.3769  11.3779  11.3795
    11.3827  11.3880  11.3907  11.3929  11.3971  11.4009  11.4057  11.4070
    11.4095  11.4161  11.4169  11.4184  11.4220  11.4231  11.4298  11.4316
    11.4335  11.4338  11.4373  11.4405  11.4425  11.4477  11.4509  11.4527
    11.4584  11.4608  11.4670  11.4679  11.4730  11.4749  11.4778  11.4833
    11.4872  11.4878  11.4910  11.4940  11.4956  11.5015  11.5028  11.5040
    11.5067  11.5096  11.5132  11.5167  11.5175  11.5177  11.5226  11.5271
    11.5313  11.5353  11.5381  11.5410  11.5416  11.5420  11.5466  11.5511
    11.5515  11.5576  11.5591  11.5613  11.5615  11.5722  11.5740  11.5792
    11.5818  11.5848  11.5865  11.5913  11.5964  11.5974  11.6007  11.6039
    11.6059  11.6089  11.6114  11.6129  11.6151  11.6204  11.6215  11.6237
    11.6287  11.6292  11.6321  11.6349  11.6360  11.6380  11.6385  11.6440
    11.6447  11.6486  11.6525  11.6555  11.6579  11.6597  11.6630  11.6646
    11.6663  11.6695  11.6712  11.6726  11.6760  11.6806  11.6836  11.6869
    11.6891  11.6935  11.6950  11.6967  11.6982  11.7023  11.7034  11.7075
    11.7077  11.7088  11.7118  11.7166  11.7181  11.7195  11.7234  11.7262
    11.7277  11.7296  11.7361  11.7380  11.7407  11.7430  11.7451  11.7465
    11.7480  11.7508  11.7536  11.7544  11.7563  11.7602  11.7612  11.7630
    11.7655  11.7681  11.7695  11.7717  11.7727  11.7748  11.7776  11.7789
    11.7812  11.7821  11.7835  11.7847  11.7861  11.7899  11.7909  11.7959
    11.7992  11.8018  11.8031  11.8059  11.8078  11.8105  11.8132  11.8176
    11.8188  11.8228  11.8262  11.8270  11.8287  11.8337  11.8351  11.8415
    11.8430  11.8452  11.8469  11.8516  11.8551  11.8583  11.8621  11.8653
    11.8671  11.8704  11.8720  11.8764  11.8795  11.8818  11.8831  11.8849
    11.8887  11.8909  11.8926  11.8930  11.8988  11.8992  11.9010  11.9049
    11.9056  11.9082  11.9130  11.9190  11.9198  11.9215  11.9311  11.9360
    11.9426  11.9444  11.9458  11.9506  11.9524  11.9542  11.9556  11.9560
    11.9587  11.9620  11.9658  11.9680  11.9712  11.9734  11.9755  11.9796
    11.9819  11.9854  11.9872  11.9894  11.9912  11.9917  11.9954  11.9962
    11.9985  12.0008  12.0032  12.0040  12.0063  12.0113  12.0133  12.0151
    12.0199  12.0221  12.0244  12.0247  12.0263  12.0286  12.0315  12.0335
    12.0371  12.0414  12.0460  12.0496  12.0502  12.0512  12.0544  12.0570
    12.0580  12.0600  12.0603  12.0648  12.0672  12.0682  12.0694  12.0738
    12.0763  12.0777  12.0816  12.0831  12.0858  12.0885  12.0888  12.0927
    12.0946  12.0957  12.0980  12.1023  12.1045  12.1058  12.1088  12.1104
    12.1140  12.1156  12.1174  12.1190  12.1207  12.1245  12.1278  12.1315
    12.1324  12.1356  12.1381  12.1410  12.1463  12.1481  12.1487  12.1529
    12.1559  12.1582  12.1594  12.1635  12.1678  12.1707  12.1727  12.1736
    12.1760  12.1790  12.1849  12.1881  12.1903  12.1973  12.1993  12.2035
    12.2053  12.2093  12.2110  12.2136  12.2183  12.2215  12.2254  12.2289
    12.2312  12.2333  12.2345  12.2401  12.2414  12.2430  12.2460  12.2475
    12.2503  12.2521  12.2576  12.2591  12.2622  12.2648  12.2662  12.2690
    12.2706  12.2724  12.2736  12.2773  12.2795  12.2842  12.2862  12.2890
    12.2928  12.2940  12.3001  12.3050  12.3081  12.3096  12.3133  12.3181
    12.3208  12.3246  12.3282  12.3326  12.3359  12.3396  12.3435  12.3460
    12.3516  12.3549  12.3579  12.3600  12.3630  12.3664  12.3687  12.3718
    12.3753  12.3773  12.3824  12.3899  12.3912  12.3946  12.3980  12.4052
    12.4119  12.4157  12.4209  12.4241  12.4284  12.4341  12.4357  12.4378
    12.4390  12.4435  12.4442  12.4454  12.4502  12.4529  12.4564  12.4603
    12.4631  12.4637  12.4715  12.4727  12.4740  12.4793  12.4833  12.4863
    12.4880  12.4946  12.4963  12.4997  12.5010  12.5041  12.5068  12.5088
    12.5148  12.5181  12.5191  12.5233  12.5251  12.5260  12.5292  12.5353
    12.5392  12.5417  12.5440  12.5473  12.5535  12.5595  12.5630  12.5635
    12.5671  12.5698  12.5751  12.5785  12.5807  12.5818  12.5845  12.5864
    12.5922  12.5950  12.5993  12.6052  12.6062  12.6096  12.6104  12.6136
    12.6159  12.6208  12.6259  12.6267  12.6342  12.6349  12.6384  12.6420
    12.6442  12.6477  12.6498  12.6517  12.6582  12.6612  12.6653  12.6674
    12.6697  12.6722  12.6748  12.6797  12.6800  12.6819  12.6846  12.6900
    12.6934  12.6962  12.6986  12.7016  12.7028  12.7038  12.7053  12.7073
    12.7101  12.7124  12.7186  12.7243  12.7272  12.7288  12.7371  12.7381
    12.7399  12.7438  12.7445  12.7498  12.7508  12.7532  12.7548  12.7560
    12.7592  12.7625  12.7653  12.7678  12.7729  12.7759  12.7783  12.7844
    12.7882  12.7911  12.7939  12.7963  12.7973  12.8017  12.8034  12.8078
    12.8085  12.8144  12.8151  12.8181  12.8204  12.8274  12.8288  12.8338
    12.8371  12.8391  12.8416  12.8435  12.8480  12.8506  12.8567  12.8581
    12.8633  12.8640  12.8655  12.8674  12.8729  12.8751  12.8817  12.8877
    12.8900  12.8936  12.8965  12.9015  12.9050  12.9082  12.9102  12.9129
    12.9166  12.9188  12.9198  12.9226  12.9281  12.9294  12.9355  12.9364
    12.9373  12.9414  12.9460  12.9482  12.9519  12.9534  12.9591  12.9601
    12.9634  12.9664  12.9736  12.9753  12.9758  12.9784  12.9810  12.9866
    12.9892  12.9900  12.9936  12.9976  13.0008  13.0027  13.0075  13.0122
    13.0146  13.0152  13.0171  13.0234  13.0248  13.0280  13.0308  13.0359
    13.0374  13.0406  13.0434  13.0461  13.0486  13.0504  13.0544  13.0568
    13.0604  13.0637  13.0665  13.0672  13.0697  13.0749  13.0799  13.0821
    13.0855  13.0865  13.0905  13.0918  13.0942  13.0985  13.0992  13.1023
    13.1059  13.1076  13.1121  13.1151  13.1165  13.1193  13.1226  13.1243
    13.1278  13.1304  13.1327  13.1366  13.1372  13.1394  13.1428  13.1433
    13.1460  13.1475  13.1491  13.1528  13.1547  13.1571  13.1587  13.1615
    13.1636  13.1669  13.1677  13.1693  13.1722  13.1745  13.1770  13.1800
    13.1839  13.1864  13.1878  13.1892  13.1930  13.1972  13.2040  13.2048
    13.2071  13.2111  13.2160  13.2193  13.2208  13.2230  13.2259  13.2276
    13.2311  13.2338  13.2359  13.2365  13.2374  13.2391  13.2434  13.2450
    13.2468  13.2477  13.2510  13.2556  13.2587  13.2614  13.2643  13.2669
    13.2711  13.2754  13.2775  13.2823  13.2858  13.2873  13.2897  13.2911
    13.2959  13.2995  13.3008  13.3012  13.3083  13.3110  13.3152  13.3184
    13.3235  13.3250  13.3272  13.3330  13.3356  13.3384  13.3393  13.3413
    13.3476  13.3500  13.3516  13.3542  13.3555  13.3588  13.3613  13.3623
    13.3663  13.3702  13.3724  13.3747  13.3782  13.3806  13.3845  13.3877
    13.3885  13.3897  13.3938  13.3954  13.3978  13.3985  13.4016  13.4035
    13.4067  13.4094  13.4117  13.4135  13.4186  13.4226  13.4250  13.4267
    13.4310  13.4345  13.4373  13.4436  13.4444  13.4482  13.4497  13.4542
    13.4558  13.4560  13.4579  13.4609  13.4639  13.4665  13.4698  13.4706
    13.4755  13.4771  13.4842  13.4845  13.4904  13.4913  13.4944  13.4979
    13.5021  13.5039  13.5081  13.5102  13.5139  13.5149  13.5187  13.5200
    13.5248  13.5285  13.5304  13.5354  13.5365  13.5380  13.5427  13.5442
    13.5450  13.5493  13.5544  13.5592  13.5624  13.5665  13.5677  13.5714
    13.5729  13.5773  13.5789  13.5807  13.5814  13.5844  13.5866  13.5884
    13.5905  13.5920  13.5946  13.5973  13.5998  13.6029  13.6047  13.6062
    13.6087  13.6115  13.6139  13.6157  13.6224  13.6250  13.6257  13.6286
    13.6327  13.6352  13.6375  13.6411  13.6422  13.6434  13.6460  13.6471
    13.6519  13.6550  13.6579  13.6642  13.6677  13.6693  13.6713  13.6782
    13.6829  13.6832  13.6871  13.6912  13.6941  13.6955  13.6965  13.7013
    13.7051  13.7057  13.7120  13.7128  13.7173  13.7184  13.7186  13.7213
    13.7237  13.7258  13.7291  13.7311  13.7361  13.7400  13.7456  13.7458
    13.7503  13.7573  13.7614  13.7640  13.7679  13.7708  13.7723  13.7757
    13.7795  13.7812  13.7841  13.7881  13.7916  13.7950  13.7963  13.7978
    13.8039  13.8059  13.8079  13.8093  13.8122  13.8149  13.8160  13.8178
    13.8222  13.8235  13.8258  13.8306  13.8349  13.8363  13.8412  13.8446
    13.8475  13.8505  13.8533  13.8564  13.8584  13.8649  13.8673  13.8719
    13.8755  13.8772  13.8806  13.8845  13.8903  13.8943  13.8952  13.8980
    13.9017  13.9033  13.9076  13.9099  13.9115  13.9154  13.9183  13.9229
    13.9259  13.9276  13.9293  13.9312  13.9361  13.9386  13.9397  13.9420
    13.9447  13.9472  13.9494  13.9523  13.9568  13.9590  13.9610  13.9632
    13.9642  13.9650  13.9660  13.9699  13.9720  13.9746  13.9750  13.9784
    13.9803  13.9838  13.9866  13.9902  13.9932  13.9958  13.9978  14.0020
    14.0031  14.0084  14.0101  14.0168  14.0182  14.0234  14.0242  14.0284
    14.0333  14.0364  14.0416  14.0437  14.0475  14.0531  14.0551  14.0585
    14.0607  14.0619  14.0674  14.0677  14.0729  14.0771  14.0787  14.0809
    14.0838  14.0873  14.0911  14.0921  14.0951  14.0966  14.1005  14.1014
    14.1049  14.1079  14.1106  14.1131  14.1139  14.1170  14.1193  14.1198
    14.1223  14.1236  14.1320  14.1330  14.1350  14.1408  14.1435  14.1466
    14.1470  14.1487  14.1532  14.1574  14.1582  14.1596  14.1651  14.1672
    14.1684  14.1730  14.1735  14.1779  14.1831  14.1848  14.1852  14.1883
    14.1884  14.1918  14.1957  14.1972  14.2034  14.2063  14.2101  14.2114
    14.2134  14.2180  14.2195  14.2238  14.2243  14.2258  14.2311  14.2333
    14.2348  14.2373  14.2394  14.2429  14.2439  14.2455  14.2476  14.2538
    14.2553  14.2575  14.2602  14.2611  14.2631  14.2660  14.2683  14.2729
    14.2770  14.2789  14.2808  14.2820  14.2858  14.2903  14.2941  14.2950
    14.2973  14.3015  14.3055  14.3088  14.3091  14.3109  14.3162  14.3174
    14.3199  14.3224  14.3242  14.3255  14.3302  14.3322  14.3360  14.3384
    14.3393  14.3417  14.3454  14.3489  14.3509  14.3566  14.3595  14.3634
    14.3669  14.3688  14.3709  14.3726  14.3769  14.3800  14.3810  14.3833
    14.3888  14.3916  14.3947  14.3965  14.4010  14.4033  14.4041  14.4078
    14.4084  14.4147  14.4167  14.4183  14.4213  14.4247  14.4253  14.4311
    14.4325  14.4366  14.4398  14.4425  14.4442  14.4475  14.4528  14.4565
    14.4570  14.4587  14.4624  14.4677  14.4698  14.4725  14.4747  14.4786
    14.4806  14.4835  14.4926  14.4960  14.4974  14.5054  14.5073  14.5101
    14.5117  14.5173  14.5216  14.5259  14.5335  14.5366  14.5383  14.5460
    14.5494  14.5520  14.5549  14.5559  14.5622  14.5625  14.5658  14.5670
    14.5691  14.5733  14.5753  14.5803  14.5836  14.5845  14.5852  14.5900
    14.5922  14.5927  14.5940  14.5997  14.6006  14.6052  14.6070  14.6098
    14.6114  14.6154  14.6178  14.6189  14.6223  14.6302  14.6325  14.6340
    14.6413  14.6461  14.6484  14.6498  14.6507  14.6565  14.6596  14.6632
    14.6661  14.6698  14.6727  14.6748  14.6768  14.6791  14.6828  14.6843
    14.6874  14.6913  14.6965  14.6981  14.7003  14.7047  14.7080  14.7116
    14.7136  14.7190  14.7235  14.7252  14.7275  14.7305  14.7328  14.7358
    14.7387  14.7424  14.7430  14.7477  14.7502  14.7540  14.7563  14.7574
    14.7590  14.7653  14.7679  14.7700  14.7726  14.7762  14.7770  14.7784
    14.7813  14.7859  14.7912  14.7931  14.7936  14.7980  14.8013  14.8054
    14.8070  14.8087  14.8126  14.8155  14.8182  14.8227  14.8270  14.8314
    14.8338  14.8349  14.8371  14.8390  14.8434  14.8447  14.8517  14.8553
    14.8569  14.8606  14.8615  14.8654  14.8666  14.8734  14.8769  14.8803
    14.8840  14.8897  14.8914  14.8940  14.8964  14.8986  14.9024  14.9063
    14.9083  14.9116  14.9150  14.9169  14.9191  14.9209  14.9240  14.9243
    14.9298  14.9328  14.9339  14.9384  14.9392  14.9448  14.9457  14.9484
    14.9521  14.9531  14.9553  14.9582  14.9591  14.9668  14.9673  14.9709
    14.9732  14.9767  14.9790  14.9851  14.9867  14.9894  14.9904  14.9948
    14.9960  14.9979  14.9984  15.0037  15.0047  15.0095  15.0136  15.0168
    15.0205  15.0218  15.0250  15.0283  15.0291  15.0320  15.0362  15.0381
    15.0418  15.0434  15.0461  15.0479  15.0507  15.0546  15.0556  15.0574
    15.0594  15.0629  15.0651  15.0669  15.0697  15.0708  15.0715  15.0738
    15.0782  15.0788  15.0822  15.0828  15.0856  15.0877  15.0902  15.0933
    15.0942  15.0960  15.0968  15.0980  15.1006  15.1027  15.1071  15.1082
    15.1101  15.1131  15.1170  15.1185  15.1218  15.1235  15.1249  15.1261
    15.1269  15.1320  15.1353  15.1356  15.1375  15.1410  15.1440  15.1469
    15.1493  15.1515  15.1531  15.1565  15.1578  15.1610  15.1707  15.1722
    15.1745  15.1764  15.1819  15.1840  15.1855  15.1917  15.1945  15.1962
    15.2007  15.2026  15.2040  15.2082  15.2104  15.2120  15.2144  15.2162
    15.2184  15.2214  15.2234  15.2261  15.2279  15.2303  15.2344  15.2371
    15.2408  15.2450  15.2507  15.2528  15.2538  15.2565  15.2625  15.2662
    15.2668  15.2696  15.2702  15.2735  15.2833  15.2860  15.2875  15.2920
    15.2955  15.2975  15.3014  15.3023  15.3037  15.3070  15.3088  15.3137
    15.3148  15.3155  15.3190  15.3211  15.3260  15.3288  15.3300  15.3335
    15.3363  15.3373  15.3389  15.3412  15.3420  15.3471  15.3478  15.3495
    15.3534  15.3549  15.3564  15.3594  15.3603  15.3648  15.3683  15.3707
    15.3717  15.3754  15.3774  15.3812  15.3879  15.3899  15.3908  15.3935
    15.3940  15.3972  15.3989  15.4015  15.4023  15.4083  15.4110  15.4157
    15.4190  15.4241  15.4256  15.4273  15.4310  15.4342  15.4391  15.4397
    15.4437  15.4463  15.4482  15.4521  15.4544  15.4557  15.4618  15.4622
    15.4668  15.4699  15.4713  15.4750  15.4775  15.4794  15.4800  15.4862
    15.4877  15.4908  15.4925  15.4955  15.4994  15.5032  15.5041  15.5059
    15.5091  15.5110  15.5191  15.5199  15.5217  15.5254  15.5317  15.5336
    15.5362  15.5395  15.5455  15.5459  15.5498  15.5512  15.5561  15.5568
    15.5581  15.5600  15.5638  15.5674  15.5714  15.5732  15.5785  15.5800
    15.5830  15.5855  15.5886  15.5895  15.5936  15.5943  15.5968  15.6004
    15.6057  15.6066  15.6110  15.6117  15.6145  15.6161  15.6174  15.6208
    15.6227  15.6278  15.6317  15.6338  15.6395  15.6407  15.6436  15.6443
    15.6469  15.6518  15.6534  15.6545  15.6579  15.6591  15.6601  15.6609
    15.6635  15.6649  15.6659  15.6669  15.6688  15.6716  15.6758  15.6774
    15.6798  15.6805  15.6828  15.6847  15.6878  15.6902  15.6943  15.6961
    15.6977  15.6993  15.7017  15.7040  15.7061  15.7123  15.7135  15.7159
    15.7196  15.7205  15.7220  15.7258  15.7274  15.7289  15.7328  15.7335
    15.7377  15.7384  15.7404  15.7414  15.7440  15.7477  15.7487  15.7491
    15.7534  15.7564  15.7597  15.7620  15.7635  15.7653  15.7678  15.7691
    15.7719  15.7737  15.7750  15.7792  15.7852  15.7863  15.7873  15.7924
    15.7962  15.7989  15.8002  15.8037  15.8053  15.8073  15.8107  15.8143
    15.8159  15.8181  15.8200  15.8250  15.8273  15.8289  15.8311  15.8329
    15.8369  15.8411  15.8416  15.8441  15.8479  15.8499  15.8518  15.8524
    15.8592  15.8603  15.8636  15.8684  15.8701  15.8729  15.8775  15.8783
    15.8808  15.8831  15.8875  15.8888  15.8903  15.8936  15.8944  15.8954
    15.8977  15.9006  15.9019  15.9054  15.9079  15.9089  15.9108  15.9139
    15.9155  15.9181  15.9207  15.9248  15.9290  15.9305  15.9332  15.9352
    15.9380  15.9416  15.9440  15.9472  15.9493  15.9529  15.9570  15.9575
    15.9595  15.9616  15.9648  15.9702  15.9718  15.9759  15.9764  15.9796
    15.9814  15.9832  15.9874  15.9880  15.9927  15.9941  15.9972  15.9985
    16.0015  16.0054  16.0070  16.0105  16.0131  16.0145  16.0180  16.0198
    16.0222  16.0243  16.0264  16.0283  16.0308  16.0317  16.0346  16.0372
    16.0383  16.0410  16.0423  16.0442  16.0480  16.0548  16.0567  16.0580
    16.0608  16.0644  16.0656  16.0667  16.0706  16.0745  16.0787  16.0823
    16.0854  16.0879  16.0888  16.0903  16.0937  16.0957  16.0976  16.0998
    16.1007  16.1027  16.1031  16.1054  16.1120  16.1131  16.1153  16.1175
    16.1241  16.1252  16.1272  16.1285  16.1308  16.1359  16.1382  16.1393
    16.1419  16.1467  16.1476  16.1481  16.1511  16.1524  16.1546  16.1567
    16.1588  16.1631  16.1655  16.1686  16.1720  16.1735  16.1755  16.1762
    16.1809  16.1845  16.1859  16.1868  16.1886  16.1946  16.1958  16.1981
    16.1989  16.2028  16.2053  16.2091  16.2123  16.2139  16.2148  16.2162
    16.2200  16.2222  16.2273  16.2283  16.2313  16.2353  16.2359  16.2372
    16.2396  16.2439  16.2457  16.2471  16.2523  16.2535  16.2564  16.2586
    16.2610  16.2658  16.2681  16.2716  16.2749  16.2785  16.2816  16.2835
    16.2867  16.2885  16.2901  16.2933  16.2944  16.2982  16.3018  16.3054
    16.3071  16.3123  16.3149  16.3178  16.3203  16.3211  16.3224  16.3245
    16.3266  16.3303  16.3354  16.3375  16.3396  16.3402  16.3450  16.3476
    16.3522  16.3598  16.3635  16.3670  16.3693  16.3709  16.3757  16.3770
    16.3793  16.3818  16.3864  16.3888  16.3894  16.3934  16.3971  16.3998
    16.4020  16.4059  16.4070  16.4120  16.4141  16.4158  16.4167  16.4224
    16.4255  16.4283  16.4292  16.4336  16.4354  16.4364  16.4404  16.4436
    16.4468  16.4483  16.4551  16.4561  16.4594  16.4623  16.4647  16.4671
    16.4686  16.4699  16.4719  16.4760  16.4811  16.4857  16.4879  16.4914
    16.4953  16.4989  16.5002  16.5042  16.5050  16.5090  16.5133  16.5176
    16.5196  16.5224  16.5255  16.5296  16.5340  16.5360  16.5367  16.5395
    16.5430  16.5437  16.5462  16.5474  16.5517  16.5548  16.5556  16.5578
    16.5587  16.5632  16.5706  16.5722  16.5755  16.5787  16.5804  16.5829
    16.5856  16.5874  16.5883  16.5951  16.5981  16.6028  16.6052  16.6089
    16.6157  16.6177  16.6201  16.6233  16.6259  16.6277  16.6287  16.6318

     Writing all to output data dir ./CNT_PBE.save/

     init_run     :      7.17s CPU     11.26s WALL (       1 calls)
     electrons    :  12854.99s CPU  13567.34s WALL (       1 calls)

     Called by init_run:
     wfcinit      :      0.02s CPU      0.01s WALL (       1 calls)
     wfcinit:wfcr :    236.23s CPU    179.50s WALL (       1 calls)
     potinit      :      1.19s CPU      5.00s WALL (       1 calls)
     hinit0       :      1.07s CPU      1.27s WALL (       1 calls)

     Called by electrons:
     c_bands      :  12854.99s CPU  13567.22s WALL (       1 calls)
     v_of_rho     :      0.36s CPU      1.17s WALL (       1 calls)
     v_h          :      0.08s CPU      0.37s WALL (       1 calls)
     v_xc         :      0.28s CPU      0.79s WALL (       1 calls)

     Called by c_bands:
     init_us_2    :      0.04s CPU      0.06s WALL (       1 calls)
     init_us_2:cp :      0.04s CPU      0.06s WALL (       1 calls)
     cegterg      :  12618.37s CPU  13386.90s WALL (       3 calls)

     Called by sum_band:

     Called by *egterg:
     cdiaghg      :   2028.14s CPU   4307.74s WALL (      43 calls)
     cegterg:over :   2573.34s CPU   2730.86s WALL (      42 calls)
     cegterg:upda :   2017.18s CPU   2176.25s WALL (      42 calls)
     cegterg:last :   1406.97s CPU   1514.17s WALL (      10 calls)
     cdiaghg:chol :     30.03s CPU    160.16s WALL (      43 calls)
     cdiaghg:inve :      0.48s CPU      1.76s WALL (      43 calls)
     cdiaghg:para :    493.43s CPU   1646.94s WALL (      86 calls)
     h_psi        :   4696.90s CPU   2694.36s WALL (      46 calls)
     g_psi        :      2.10s CPU      0.57s WALL (      42 calls)

     Called by h_psi:
     h_psi:calbec :    845.89s CPU    863.48s WALL (      46 calls)
     vloc_psi     :   3013.38s CPU    993.13s WALL (      46 calls)
     add_vuspsi   :    833.36s CPU    836.41s WALL (      46 calls)

     General routines
     calbec       :    845.89s CPU    863.48s WALL (      46 calls)
     fft          :      1.23s CPU      2.53s WALL (      10 calls)
     fftw         :   2979.77s CPU    984.28s WALL (  262496 calls)
     davcio       :      0.00s CPU      0.30s WALL (       2 calls)

     Parallel routines
     fft_scatt_xy :     61.91s CPU     16.26s WALL (  262506 calls)
     fft_scatt_yz :   2606.47s CPU    884.63s WALL (  262506 calls)

     PWSCF        :      3h36m CPU      3h55m WALL


   This run was terminated on:  10:17:53   6Nov2024            

=------------------------------------------------------------------------------=
   JOB DONE.
=------------------------------------------------------------------------------=
Note: The following floating-point exceptions are signalling: IEEE_DENORMAL
Note: The following floating-point exceptions are signalling: IEEE_UNDERFLOW_FLAG IEEE_DENORMAL
Note: The following floating-point exceptions are signalling: IEEE_DENORMAL
Note: The following floating-point exceptions are signalling: IEEE_DENORMAL
Note: The following floating-point exceptions are signalling: IEEE_DENORMAL
Note: The following floating-point exceptions are signalling: IEEE_DENORMAL
Note: The following floating-point exceptions are signalling: IEEE_DENORMAL
Note: The following floating-point exceptions are signalling: IEEE_DENORMAL
Note: The following floating-point exceptions are signalling: IEEE_DENORMAL
Note: The following floating-point exceptions are signalling: IEEE_DENORMAL
Note: The following floating-point exceptions are signalling: IEEE_DENORMAL
Note: The following floating-point exceptions are signalling: IEEE_DENORMAL
Note: The following floating-point exceptions are signalling: IEEE_DENORMAL
Note: The following floating-point exceptions are signalling: IEEE_DENORMAL
Note: The following floating-point exceptions are signalling: IEEE_DENORMAL
Note: The following floating-point exceptions are signalling: IEEE_DENORMAL
Note: The following floating-point exceptions are signalling: IEEE_DENORMAL
Note: The following floating-point exceptions are signalling: IEEE_DENORMAL
Note: The following floating-point exceptions are signalling: IEEE_DENORMAL
Note: The following floating-point exceptions are signalling: IEEE_DENORMAL
Note: The following floating-point exceptions are signalling: IEEE_DENORMAL
Note: The following floating-point exceptions are signalling: IEEE_DENORMAL
Note: The following floating-point exceptions are signalling: IEEE_DENORMAL
Note: The following floating-point exceptions are signalling: IEEE_DENORMAL
Note: The following floating-point exceptions are signalling: IEEE_DENORMAL
Note: The following floating-point exceptions are signalling: IEEE_DENORMAL
Note: The following floating-point exceptions are signalling: IEEE_DENORMAL
Note: The following floating-point exceptions are signalling: IEEE_DENORMAL
Note: The following floating-point exceptions are signalling: IEEE_DENORMAL
Note: The following floating-point exceptions are signalling: IEEE_DENORMAL
Note: The following floating-point exceptions are signalling: IEEE_DENORMAL
Note: The following floating-point exceptions are signalling: IEEE_DENORMAL
Note: The following floating-point exceptions are signalling: IEEE_DENORMAL
Note: The following floating-point exceptions are signalling: IEEE_DENORMAL
Note: The following floating-point exceptions are signalling: IEEE_DENORMAL
Note: The following floating-point exceptions are signalling: IEEE_DENORMAL
Note: The following floating-point exceptions are signalling: IEEE_DENORMAL
Note: The following floating-point exceptions are signalling: IEEE_DENORMAL
Note: The following floating-point exceptions are signalling: IEEE_DENORMAL
Note: The following floating-point exceptions are signalling: IEEE_DENORMAL
Note: The following floating-point exceptions are signalling: IEEE_DENORMAL
Note: The following floating-point exceptions are signalling: IEEE_DENORMAL
Note: The following floating-point exceptions are signalling: IEEE_DENORMAL
Note: The following floating-point exceptions are signalling: IEEE_DENORMAL
Note: The following floating-point exceptions are signalling: IEEE_DENORMAL
Note: The following floating-point exceptions are signalling: IEEE_DENORMAL
Note: The following floating-point exceptions are signalling: IEEE_DENORMAL
Note: The following floating-point exceptions are signalling: IEEE_DENORMAL
Note: The following floating-point exceptions are signalling: IEEE_DENORMAL
Note: The following floating-point exceptions are signalling: IEEE_DENORMAL
Note: The following floating-point exceptions are signalling: IEEE_DENORMAL
Note: The following floating-point exceptions are signalling: IEEE_DENORMAL
Note: The following floating-point exceptions are signalling: IEEE_DENORMAL
Note: The following floating-point exceptions are signalling: IEEE_DENORMAL
Note: The following floating-point exceptions are signalling: IEEE_DENORMAL
Note: The following floating-point exceptions are signalling: IEEE_DENORMAL
Note: The following floating-point exceptions are signalling: IEEE_DENORMAL
Note: The following floating-point exceptions are signalling: IEEE_DENORMAL
Note: The following floating-point exceptions are signalling: IEEE_DENORMAL
Note: The following floating-point exceptions are signalling: IEEE_DENORMAL
Note: The following floating-point exceptions are signalling: IEEE_DENORMAL
Note: The following floating-point exceptions are signalling: IEEE_DENORMAL
Note: The following floating-point exceptions are signalling: IEEE_DENORMAL
Note: The following floating-point exceptions are signalling: IEEE_DENORMAL
Note: The following floating-point exceptions are signalling: IEEE_DENORMAL
Note: The following floating-point exceptions are signalling: IEEE_DENORMAL
Note: The following floating-point exceptions are signalling: IEEE_DENORMAL
Note: The following floating-point exceptions are signalling: IEEE_DENORMAL
Note: The following floating-point exceptions are signalling: IEEE_DENORMAL
Note: The following floating-point exceptions are signalling: IEEE_DENORMAL
Note: The following floating-point exceptions are signalling: IEEE_DENORMAL
Note: The following floating-point exceptions are signalling: IEEE_DENORMAL
Note: The following floating-point exceptions are signalling: IEEE_DENORMAL
Note: The following floating-point exceptions are signalling: IEEE_DENORMAL
Note: The following floating-point exceptions are signalling: IEEE_DENORMAL
Note: The following floating-point exceptions are signalling: IEEE_DENORMAL
Note: The following floating-point exceptions are signalling: IEEE_DENORMAL
Note: The following floating-point exceptions are signalling: IEEE_DENORMAL
Note: The following floating-point exceptions are signalling: IEEE_DENORMAL
Note: The following floating-point exceptions are signalling: IEEE_DENORMAL
Note: The following floating-point exceptions are signalling: IEEE_DENORMAL
Note: The following floating-point exceptions are signalling: IEEE_DENORMAL
Note: The following floating-point exceptions are signalling: IEEE_DENORMAL
Note: The following floating-point exceptions are signalling: IEEE_DENORMAL
Note: The following floating-point exceptions are signalling: IEEE_DENORMAL
Note: The following floating-point exceptions are signalling: IEEE_DENORMAL
Note: The following floating-point exceptions are signalling: IEEE_DENORMAL
Note: The following floating-point exceptions are signalling: IEEE_DENORMAL
Note: The following floating-point exceptions are signalling: IEEE_DENORMAL
Note: The following floating-point exceptions are signalling: IEEE_DENORMAL
Note: The following floating-point exceptions are signalling: IEEE_DENORMAL
Note: The following floating-point exceptions are signalling: IEEE_DENORMAL
Note: The following floating-point exceptions are signalling: IEEE_DENORMAL
Note: The following floating-point exceptions are signalling: IEEE_DENORMAL
Note: The following floating-point exceptions are signalling: IEEE_DENORMAL
Note: The following floating-point exceptions are signalling: IEEE_DENORMAL
Note: The following floating-point exceptions are signalling: IEEE_DENORMAL
Note: The following floating-point exceptions are signalling: IEEE_DENORMAL
Note: The following floating-point exceptions are signalling: IEEE_DENORMAL
Note: The following floating-point exceptions are signalling: IEEE_DENORMAL
Note: The following floating-point exceptions are signalling: IEEE_DENORMAL
Note: The following floating-point exceptions are signalling: IEEE_DENORMAL
Note: The following floating-point exceptions are signalling: IEEE_DENORMAL
Note: The following floating-point exceptions are signalling: IEEE_DENORMAL
Note: The following floating-point exceptions are signalling: IEEE_DENORMAL
Note: The following floating-point exceptions are signalling: IEEE_DENORMAL
Note: The following floating-point exceptions are signalling: IEEE_DENORMAL
Note: The following floating-point exceptions are signalling: IEEE_DENORMAL
Note: The following floating-point exceptions are signalling: IEEE_DENORMAL
Note: The following floating-point exceptions are signalling: IEEE_DENORMAL
Note: The following floating-point exceptions are signalling: IEEE_DENORMAL
Note: The following floating-point exceptions are signalling: IEEE_DENORMAL
Note: The following floating-point exceptions are signalling: IEEE_DENORMAL
Note: The following floating-point exceptions are signalling: IEEE_DENORMAL
Note: The following floating-point exceptions are signalling: IEEE_DENORMAL
Note: The following floating-point exceptions are signalling: IEEE_DENORMAL
Note: The following floating-point exceptions are signalling: IEEE_DENORMAL
Note: The following floating-point exceptions are signalling: IEEE_DENORMAL
Note: The following floating-point exceptions are signalling: IEEE_DENORMAL
Note: The following floating-point exceptions are signalling: IEEE_DENORMAL
Note: The following floating-point exceptions are signalling: IEEE_DENORMAL
Note: The following floating-point exceptions are signalling: IEEE_DENORMAL
Note: The following floating-point exceptions are signalling: IEEE_DENORMAL
Note: The following floating-point exceptions are signalling: IEEE_DENORMAL
Note: The following floating-point exceptions are signalling: IEEE_DENORMAL
Note: The following floating-point exceptions are signalling: IEEE_DENORMAL
Note: The following floating-point exceptions are signalling: IEEE_DENORMAL
Note: The following floating-point exceptions are signalling: IEEE_DENORMAL
Note: The following floating-point exceptions are signalling: IEEE_DENORMAL
Note: The following floating-point exceptions are signalling: IEEE_DENORMAL
Note: The following floating-point exceptions are signalling: IEEE_DENORMAL
Note: The following floating-point exceptions are signalling: IEEE_DENORMAL
Note: The following floating-point exceptions are signalling: IEEE_DENORMAL
Note: The following floating-point exceptions are signalling: IEEE_DENORMAL
Note: The following floating-point exceptions are signalling: IEEE_DENORMAL
Note: The following floating-point exceptions are signalling: IEEE_DENORMAL
Note: The following floating-point exceptions are signalling: IEEE_DENORMAL
Note: The following floating-point exceptions are signalling: IEEE_DENORMAL
Note: The following floating-point exceptions are signalling: IEEE_DENORMAL
Note: The following floating-point exceptions are signalling: IEEE_DENORMAL
Note: The following floating-point exceptions are signalling: IEEE_DENORMAL
Note: The following floating-point exceptions are signalling: IEEE_DENORMAL
Note: The following floating-point exceptions are signalling: IEEE_DENORMAL
Note: The following floating-point exceptions are signalling: IEEE_DENORMAL
Note: The following floating-point exceptions are signalling: IEEE_DENORMAL
Note: The following floating-point exceptions are signalling: IEEE_DENORMAL
Note: The following floating-point exceptions are signalling: IEEE_DENORMAL
Note: The following floating-point exceptions are signalling: IEEE_DENORMAL
Note: The following floating-point exceptions are signalling: IEEE_DENORMAL
Note: The following floating-point exceptions are signalling: IEEE_DENORMAL
Note: The following floating-point exceptions are signalling: IEEE_DENORMAL
Note: The following floating-point exceptions are signalling: IEEE_DENORMAL
Note: The following floating-point exceptions are signalling: IEEE_DENORMAL
Note: The following floating-point exceptions are signalling: IEEE_DENORMAL
Note: The following floating-point exceptions are signalling: IEEE_DENORMAL
Note: The following floating-point exceptions are signalling: IEEE_DENORMAL
Note: The following floating-point exceptions are signalling: IEEE_DENORMAL
Note: The following floating-point exceptions are signalling: IEEE_DENORMAL
Note: The following floating-point exceptions are signalling: IEEE_DENORMAL
Note: The following floating-point exceptions are signalling: IEEE_DENORMAL
Note: The following floating-point exceptions are signalling: IEEE_DENORMAL
Note: The following floating-point exceptions are signalling: IEEE_DENORMAL
Note: The following floating-point exceptions are signalling: IEEE_DENORMAL
Note: The following floating-point exceptions are signalling: IEEE_DENORMAL
Note: The following floating-point exceptions are signalling: IEEE_DENORMAL
Note: The following floating-point exceptions are signalling: IEEE_DENORMAL
Note: The following floating-point exceptions are signalling: IEEE_DENORMAL
Note: The following floating-point exceptions are signalling: IEEE_DENORMAL
Note: The following floating-point exceptions are signalling: IEEE_DENORMAL
Note: The following floating-point exceptions are signalling: IEEE_DENORMAL
Note: The following floating-point exceptions are signalling: IEEE_DENORMAL
Note: The following floating-point exceptions are signalling: IEEE_DENORMAL
Note: The following floating-point exceptions are signalling: IEEE_DENORMAL
Note: The following floating-point exceptions are signalling: IEEE_DENORMAL
Note: The following floating-point exceptions are signalling: IEEE_DENORMAL
Note: The following floating-point exceptions are signalling: IEEE_DENORMAL
Note: The following floating-point exceptions are signalling: IEEE_DENORMAL
Note: The following floating-point exceptions are signalling: IEEE_DENORMAL
Note: The following floating-point exceptions are signalling: IEEE_DENORMAL
Note: The following floating-point exceptions are signalling: IEEE_DENORMAL
Note: The following floating-point exceptions are signalling: IEEE_DENORMAL
Note: The following floating-point exceptions are signalling: IEEE_DENORMAL
Note: The following floating-point exceptions are signalling: IEEE_DENORMAL
Note: The following floating-point exceptions are signalling: IEEE_DENORMAL
Note: The following floating-point exceptions are signalling: IEEE_DENORMAL
Note: The following floating-point exceptions are signalling: IEEE_DENORMAL
Note: The following floating-point exceptions are signalling: IEEE_DENORMAL
Note: The following floating-point exceptions are signalling: IEEE_DENORMAL
Note: The following floating-point exceptions are signalling: IEEE_DENORMAL
Note: The following floating-point exceptions are signalling: IEEE_DENORMAL
Note: The following floating-point exceptions are signalling: IEEE_DENORMAL
Note: The following floating-point exceptions are signalling: IEEE_DENORMAL
Note: The following floating-point exceptions are signalling: IEEE_DENORMAL
Note: The following floating-point exceptions are signalling: IEEE_DENORMAL
Note: The following floating-point exceptions are signalling: IEEE_DENORMAL
Note: The following floating-point exceptions are signalling: IEEE_DENORMAL
Note: The following floating-point exceptions are signalling: IEEE_DENORMAL
Note: The following floating-point exceptions are signalling: IEEE_DENORMAL
Note: The following floating-point exceptions are signalling: IEEE_DENORMAL
Note: The following floating-point exceptions are signalling: IEEE_DENORMAL
Note: The following floating-point exceptions are signalling: IEEE_DENORMAL
Note: The following floating-point exceptions are signalling: IEEE_DENORMAL
Note: The following floating-point exceptions are signalling: IEEE_DENORMAL
Note: The following floating-point exceptions are signalling: IEEE_DENORMAL
Note: The following floating-point exceptions are signalling: IEEE_DENORMAL
Note: The following floating-point exceptions are signalling: IEEE_DENORMAL
Note: The following floating-point exceptions are signalling: IEEE_DENORMAL
Note: The following floating-point exceptions are signalling: IEEE_DENORMAL
Note: The following floating-point exceptions are signalling: IEEE_DENORMAL
Note: The following floating-point exceptions are signalling: IEEE_DENORMAL
Note: The following floating-point exceptions are signalling: IEEE_DENORMAL
Note: The following floating-point exceptions are signalling: IEEE_DENORMAL
Note: The following floating-point exceptions are signalling: IEEE_DENORMAL
Note: The following floating-point exceptions are signalling: IEEE_DENORMAL
Note: The following floating-point exceptions are signalling: IEEE_DENORMAL
Note: The following floating-point exceptions are signalling: IEEE_DENORMAL
Note: The following floating-point exceptions are signalling: IEEE_DENORMAL
Note: The following floating-point exceptions are signalling: IEEE_DENORMAL
Note: The following floating-point exceptions are signalling: IEEE_DENORMAL
Note: The following floating-point exceptions are signalling: IEEE_DENORMAL
Note: The following floating-point exceptions are signalling: IEEE_DENORMAL
Note: The following floating-point exceptions are signalling: IEEE_DENORMAL
Note: The following floating-point exceptions are signalling: IEEE_DENORMAL
Note: The following floating-point exceptions are signalling: IEEE_DENORMAL
Note: The following floating-point exceptions are signalling: IEEE_DENORMAL
Note: The following floating-point exceptions are signalling: IEEE_DENORMAL
Note: The following floating-point exceptions are signalling: IEEE_DENORMAL
Note: The following floating-point exceptions are signalling: IEEE_DENORMAL
Note: The following floating-point exceptions are signalling: IEEE_DENORMAL
Note: The following floating-point exceptions are signalling: IEEE_DENORMAL
Note: The following floating-point exceptions are signalling: IEEE_DENORMAL
Note: The following floating-point exceptions are signalling: IEEE_DENORMAL
Note: The following floating-point exceptions are signalling: IEEE_DENORMAL
Note: The following floating-point exceptions are signalling: IEEE_DENORMAL
Note: The following floating-point exceptions are signalling: IEEE_DENORMAL
Note: The following floating-point exceptions are signalling: IEEE_DENORMAL
Note: The following floating-point exceptions are signalling: IEEE_DENORMAL
Note: The following floating-point exceptions are signalling: IEEE_DENORMAL
Note: The following floating-point exceptions are signalling: IEEE_DENORMAL
Note: The following floating-point exceptions are signalling: IEEE_DENORMAL
Note: The following floating-point exceptions are signalling: IEEE_DENORMAL
Note: The following floating-point exceptions are signalling: IEEE_DENORMAL
Note: The following floating-point exceptions are signalling: IEEE_DENORMAL
Note: The following floating-point exceptions are signalling: IEEE_DENORMAL
Note: The following floating-point exceptions are signalling: IEEE_DENORMAL
Note: The following floating-point exceptions are signalling: IEEE_DENORMAL
Note: The following floating-point exceptions are signalling: IEEE_DENORMAL
Note: The following floating-point exceptions are signalling: IEEE_DENORMAL
Note: The following floating-point exceptions are signalling: IEEE_DENORMAL
Note: The following floating-point exceptions are signalling: IEEE_DENORMAL
Note: The following floating-point exceptions are signalling: IEEE_DENORMAL
Note: The following floating-point exceptions are signalling: IEEE_DENORMAL
Note: The following floating-point exceptions are signalling: IEEE_DENORMAL
Note: The following floating-point exceptions are signalling: IEEE_DENORMAL
Note: The following floating-point exceptions are signalling: IEEE_DENORMAL
Note: The following floating-point exceptions are signalling: IEEE_DENORMAL
Note: The following floating-point exceptions are signalling: IEEE_DENORMAL
Note: The following floating-point exceptions are signalling: IEEE_DENORMAL
Note: The following floating-point exceptions are signalling: IEEE_DENORMAL
Note: The following floating-point exceptions are signalling: IEEE_DENORMAL
Note: The following floating-point exceptions are signalling: IEEE_DENORMAL
Note: The following floating-point exceptions are signalling: IEEE_DENORMAL
Note: The following floating-point exceptions are signalling: IEEE_DENORMAL
Note: The following floating-point exceptions are signalling: IEEE_DENORMAL
Note: The following floating-point exceptions are signalling: IEEE_DENORMAL
Note: The following floating-point exceptions are signalling: IEEE_DENORMAL
Note: The following floating-point exceptions are signalling: IEEE_DENORMAL
Note: The following floating-point exceptions are signalling: IEEE_DENORMAL
Note: The following floating-point exceptions are signalling: IEEE_DENORMAL
Note: The following floating-point exceptions are signalling: IEEE_DENORMAL
Note: The following floating-point exceptions are signalling: IEEE_DENORMAL
Note: The following floating-point exceptions are signalling: IEEE_DENORMAL
Note: The following floating-point exceptions are signalling: IEEE_DENORMAL
Note: The following floating-point exceptions are signalling: IEEE_DENORMAL
Note: The following floating-point exceptions are signalling: IEEE_DENORMAL
Note: The following floating-point exceptions are signalling: IEEE_DENORMAL
Note: The following floating-point exceptions are signalling: IEEE_DENORMAL
Note: The following floating-point exceptions are signalling: IEEE_DENORMAL
Note: The following floating-point exceptions are signalling: IEEE_DENORMAL
Note: The following floating-point exceptions are signalling: IEEE_DENORMAL
Note: The following floating-point exceptions are signalling: IEEE_DENORMAL
Note: The following floating-point exceptions are signalling: IEEE_DENORMAL
Note: The following floating-point exceptions are signalling: IEEE_DENORMAL
Note: The following floating-point exceptions are signalling: IEEE_DENORMAL
Note: The following floating-point exceptions are signalling: IEEE_DENORMAL
Note: The following floating-point exceptions are signalling: IEEE_DENORMAL
Note: The following floating-point exceptions are signalling: IEEE_DENORMAL
Note: The following floating-point exceptions are signalling: IEEE_DENORMAL
Note: The following floating-point exceptions are signalling: IEEE_DENORMAL
Note: The following floating-point exceptions are signalling: IEEE_DENORMAL
Note: The following floating-point exceptions are signalling: IEEE_DENORMAL
Note: The following floating-point exceptions are signalling: IEEE_DENORMAL
Note: The following floating-point exceptions are signalling: IEEE_DENORMAL
Note: The following floating-point exceptions are signalling: IEEE_DENORMAL
Note: The following floating-point exceptions are signalling: IEEE_DENORMAL
Note: The following floating-point exceptions are signalling: IEEE_DENORMAL
Note: The following floating-point exceptions are signalling: IEEE_DENORMAL
Note: The following floating-point exceptions are signalling: IEEE_DENORMAL
Note: The following floating-point exceptions are signalling: IEEE_DENORMAL
Note: The following floating-point exceptions are signalling: IEEE_DENORMAL
Note: The following floating-point exceptions are signalling: IEEE_DENORMAL
Note: The following floating-point exceptions are signalling: IEEE_DENORMAL
Note: The following floating-point exceptions are signalling: IEEE_DENORMAL
Note: The following floating-point exceptions are signalling: IEEE_DENORMAL
Note: The following floating-point exceptions are signalling: IEEE_DENORMAL
Note: The following floating-point exceptions are signalling: IEEE_DENORMAL
Note: The following floating-point exceptions are signalling: IEEE_DENORMAL
Note: The following floating-point exceptions are signalling: IEEE_DENORMAL
Note: The following floating-point exceptions are signalling: IEEE_DENORMAL
Note: The following floating-point exceptions are signalling: IEEE_DENORMAL
Note: The following floating-point exceptions are signalling: IEEE_DENORMAL
Note: The following floating-point exceptions are signalling: IEEE_DENORMAL
Note: The following floating-point exceptions are signalling: IEEE_DENORMAL
Note: The following floating-point exceptions are signalling: IEEE_DENORMAL
Note: The following floating-point exceptions are signalling: IEEE_DENORMAL
Note: The following floating-point exceptions are signalling: IEEE_DENORMAL
Note: The following floating-point exceptions are signalling: IEEE_DENORMAL
Note: The following floating-point exceptions are signalling: IEEE_DENORMAL
Note: The following floating-point exceptions are signalling: IEEE_DENORMAL
Note: The following floating-point exceptions are signalling: IEEE_DENORMAL
Note: The following floating-point exceptions are signalling: IEEE_DENORMAL
Note: The following floating-point exceptions are signalling: IEEE_DENORMAL
Note: The following floating-point exceptions are signalling: IEEE_DENORMAL
Note: The following floating-point exceptions are signalling: IEEE_DENORMAL
Note: The following floating-point exceptions are signalling: IEEE_DENORMAL
Note: The following floating-point exceptions are signalling: IEEE_DENORMAL
Note: The following floating-point exceptions are signalling: IEEE_DENORMAL
Note: The following floating-point exceptions are signalling: IEEE_DENORMAL
Note: The following floating-point exceptions are signalling: IEEE_DENORMAL
Note: The following floating-point exceptions are signalling: IEEE_DENORMAL
Note: The following floating-point exceptions are signalling: IEEE_DENORMAL
Note: The following floating-point exceptions are signalling: IEEE_DENORMAL
Note: The following floating-point exceptions are signalling: IEEE_DENORMAL
Note: The following floating-point exceptions are signalling: IEEE_DENORMAL
Note: The following floating-point exceptions are signalling: IEEE_DENORMAL
Note: The following floating-point exceptions are signalling: IEEE_DENORMAL
Note: The following floating-point exceptions are signalling: IEEE_DENORMAL
Note: The following floating-point exceptions are signalling: IEEE_DENORMAL
Note: The following floating-point exceptions are signalling: IEEE_DENORMAL
Note: The following floating-point exceptions are signalling: IEEE_DENORMAL
Note: The following floating-point exceptions are signalling: IEEE_DENORMAL
Note: The following floating-point exceptions are signalling: IEEE_DENORMAL
Note: The following floating-point exceptions are signalling: IEEE_DENORMAL
Note: The following floating-point exceptions are signalling: IEEE_DENORMAL
Note: The following floating-point exceptions are signalling: IEEE_DENORMAL
Note: The following floating-point exceptions are signalling: IEEE_DENORMAL
Note: The following floating-point exceptions are signalling: IEEE_DENORMAL
Note: The following floating-point exceptions are signalling: IEEE_DENORMAL
Note: The following floating-point exceptions are signalling: IEEE_DENORMAL
Note: The following floating-point exceptions are signalling: IEEE_DENORMAL
Note: The following floating-point exceptions are signalling: IEEE_DENORMAL
Note: The following floating-point exceptions are signalling: IEEE_DENORMAL
Note: The following floating-point exceptions are signalling: IEEE_DENORMAL
Note: The following floating-point exceptions are signalling: IEEE_DENORMAL
Note: The following floating-point exceptions are signalling: IEEE_INVALID_FLAG IEEE_DENORMAL
Note: The following floating-point exceptions are signalling: IEEE_DENORMAL
Note: The following floating-point exceptions are signalling: IEEE_DENORMAL
Note: The following floating-point exceptions are signalling: IEEE_DENORMAL
Note: The following floating-point exceptions are signalling: IEEE_DENORMAL
Note: The following floating-point exceptions are signalling: IEEE_DENORMAL
Note: The following floating-point exceptions are signalling: IEEE_DENORMAL
Note: The following floating-point exceptions are signalling: IEEE_DENORMAL
Note: The following floating-point exceptions are signalling: IEEE_DENORMAL
Note: The following floating-point exceptions are signalling: IEEE_DENORMAL
Note: The following floating-point exceptions are signalling: IEEE_DENORMAL
Note: The following floating-point exceptions are signalling: IEEE_DENORMAL
Note: The following floating-point exceptions are signalling: IEEE_DENORMAL
Note: The following floating-point exceptions are signalling: IEEE_INVALID_FLAG IEEE_DENORMAL
Note: The following floating-point exceptions are signalling: IEEE_DENORMAL
Note: The following floating-point exceptions are signalling: IEEE_DENORMAL
Note: The following floating-point exceptions are signalling: IEEE_DENORMAL
Note: The following floating-point exceptions are signalling: IEEE_DENORMAL
Note: The following floating-point exceptions are signalling: IEEE_DENORMAL
Note: The following floating-point exceptions are signalling: IEEE_DENORMAL
Note: The following floating-point exceptions are signalling: IEEE_DENORMAL
Note: The following floating-point exceptions are signalling: IEEE_DENORMAL
Note: The following floating-point exceptions are signalling: IEEE_DENORMAL
Note: The following floating-point exceptions are signalling: IEEE_DENORMAL
Note: The following floating-point exceptions are signalling: IEEE_DENORMAL
Note: The following floating-point exceptions are signalling: IEEE_DENORMAL
Note: The following floating-point exceptions are signalling: IEEE_DENORMAL
Note: The following floating-point exceptions are signalling: IEEE_DENORMAL
Note: The following floating-point exceptions are signalling: IEEE_DENORMAL
Note: The following floating-point exceptions are signalling: IEEE_DENORMAL
Note: The following floating-point exceptions are signalling: IEEE_DENORMAL
Note: The following floating-point exceptions are signalling: IEEE_DENORMAL
Note: The following floating-point exceptions are signalling: IEEE_DENORMAL
Note: The following floating-point exceptions are signalling: IEEE_DENORMAL
Note: The following floating-point exceptions are signalling: IEEE_DENORMAL
Note: The following floating-point exceptions are signalling: IEEE_DENORMAL
Note: The following floating-point exceptions are signalling: IEEE_DENORMAL
Note: The following floating-point exceptions are signalling: IEEE_DENORMAL
Note: The following floating-point exceptions are signalling: IEEE_DENORMAL
Note: The following floating-point exceptions are signalling: IEEE_DENORMAL
Note: The following floating-point exceptions are signalling: IEEE_DENORMAL
Note: The following floating-point exceptions are signalling: IEEE_DENORMAL
Note: The following floating-point exceptions are signalling: IEEE_DENORMAL
Note: The following floating-point exceptions are signalling: IEEE_DENORMAL
Note: The following floating-point exceptions are signalling: IEEE_DENORMAL
Note: The following floating-point exceptions are signalling: IEEE_DENORMAL
Note: The following floating-point exceptions are signalling: IEEE_DENORMAL
Note: The following floating-point exceptions are signalling: IEEE_DENORMAL
Note: The following floating-point exceptions are signalling: IEEE_DENORMAL
Note: The following floating-point exceptions are signalling: IEEE_DENORMAL
Note: The following floating-point exceptions are signalling: IEEE_DENORMAL
Note: The following floating-point exceptions are signalling: IEEE_DENORMAL
Note: The following floating-point exceptions are signalling: IEEE_DENORMAL
Note: The following floating-point exceptions are signalling: IEEE_DENORMAL
Note: The following floating-point exceptions are signalling: IEEE_DENORMAL
Note: The following floating-point exceptions are signalling: IEEE_DENORMAL
Note: The following floating-point exceptions are signalling: IEEE_DENORMAL
Note: The following floating-point exceptions are signalling: IEEE_DENORMAL
Note: The following floating-point exceptions are signalling: IEEE_DENORMAL
Note: The following floating-point exceptions are signalling: IEEE_DENORMAL
Note: The following floating-point exceptions are signalling: IEEE_DENORMAL
Note: The following floating-point exceptions are signalling: IEEE_DENORMAL
Note: The following floating-point exceptions are signalling: IEEE_DENORMAL
Note: The following floating-point exceptions are signalling: IEEE_DENORMAL
Note: The following floating-point exceptions are signalling: IEEE_DENORMAL
Note: The following floating-point exceptions are signalling: IEEE_DENORMAL
Note: The following floating-point exceptions are signalling: IEEE_DENORMAL
Note: The following floating-point exceptions are signalling: IEEE_DENORMAL
Note: The following floating-point exceptions are signalling: IEEE_DENORMAL
Note: The following floating-point exceptions are signalling: IEEE_DENORMAL
Note: The following floating-point exceptions are signalling: IEEE_DENORMAL
Note: The following floating-point exceptions are signalling: IEEE_DENORMAL
Note: The following floating-point exceptions are signalling: IEEE_DENORMAL
Note: The following floating-point exceptions are signalling: IEEE_DENORMAL
Note: The following floating-point exceptions are signalling: IEEE_DENORMAL
Note: The following floating-point exceptions are signalling: IEEE_DENORMAL
Note: The following floating-point exceptions are signalling: IEEE_DENORMAL
Note: The following floating-point exceptions are signalling: IEEE_DENORMAL
Note: The following floating-point exceptions are signalling: IEEE_DENORMAL
Note: The following floating-point exceptions are signalling: IEEE_DENORMAL
Note: The following floating-point exceptions are signalling: IEEE_DENORMAL
Note: The following floating-point exceptions are signalling: IEEE_DENORMAL
Note: The following floating-point exceptions are signalling: IEEE_DENORMAL
Note: The following floating-point exceptions are signalling: IEEE_DENORMAL
Note: The following floating-point exceptions are signalling: IEEE_DENORMAL
Note: The following floating-point exceptions are signalling: IEEE_DENORMAL
Note: The following floating-point exceptions are signalling: IEEE_DENORMAL
Note: The following floating-point exceptions are signalling: IEEE_DENORMAL
Note: The following floating-point exceptions are signalling: IEEE_DENORMAL
Note: The following floating-point exceptions are signalling: IEEE_DENORMAL
Note: The following floating-point exceptions are signalling: IEEE_DENORMAL
Note: The following floating-point exceptions are signalling: IEEE_DENORMAL
Note: The following floating-point exceptions are signalling: IEEE_DENORMAL
Note: The following floating-point exceptions are signalling: IEEE_DENORMAL
Note: The following floating-point exceptions are signalling: IEEE_DENORMAL
Note: The following floating-point exceptions are signalling: IEEE_DENORMAL
Note: The following floating-point exceptions are signalling: IEEE_DENORMAL
Note: The following floating-point exceptions are signalling: IEEE_DENORMAL
Note: The following floating-point exceptions are signalling: IEEE_DENORMAL
Note: The following floating-point exceptions are signalling: IEEE_DENORMAL
Note: The following floating-point exceptions are signalling: IEEE_DENORMAL
Note: The following floating-point exceptions are signalling: IEEE_DENORMAL
Note: The following floating-point exceptions are signalling: IEEE_DENORMAL
Note: The following floating-point exceptions are signalling: IEEE_DENORMAL
Note: The following floating-point exceptions are signalling: IEEE_DENORMAL
Note: The following floating-point exceptions are signalling: IEEE_DENORMAL
Note: The following floating-point exceptions are signalling: IEEE_DENORMAL
Note: The following floating-point exceptions are signalling: IEEE_DENORMAL
Note: The following floating-point exceptions are signalling: IEEE_DENORMAL
Note: The following floating-point exceptions are signalling: IEEE_DENORMAL
Note: The following floating-point exceptions are signalling: IEEE_DENORMAL
Note: The following floating-point exceptions are signalling: IEEE_DENORMAL
Note: The following floating-point exceptions are signalling: IEEE_DENORMAL
Note: The following floating-point exceptions are signalling: IEEE_DENORMAL
Note: The following floating-point exceptions are signalling: IEEE_DENORMAL
Note: The following floating-point exceptions are signalling: IEEE_DENORMAL
Note: The following floating-point exceptions are signalling: IEEE_DENORMAL
Note: The following floating-point exceptions are signalling: IEEE_DENORMAL
Note: The following floating-point exceptions are signalling: IEEE_DENORMAL
Note: The following floating-point exceptions are signalling: IEEE_DENORMAL
Note: The following floating-point exceptions are signalling: IEEE_DENORMAL
Note: The following floating-point exceptions are signalling: IEEE_DENORMAL
Note: The following floating-point exceptions are signalling: IEEE_DENORMAL
Note: The following floating-point exceptions are signalling: IEEE_DENORMAL
Note: The following floating-point exceptions are signalling: IEEE_DENORMAL
Note: The following floating-point exceptions are signalling: IEEE_DENORMAL
Note: The following floating-point exceptions are signalling: IEEE_DENORMAL
Note: The following floating-point exceptions are signalling: IEEE_DENORMAL
Note: The following floating-point exceptions are signalling: IEEE_DENORMAL
Note: The following floating-point exceptions are signalling: IEEE_DENORMAL
Note: The following floating-point exceptions are signalling: IEEE_DENORMAL
Note: The following floating-point exceptions are signalling: IEEE_DENORMAL
Note: The following floating-point exceptions are signalling: IEEE_DENORMAL
Note: The following floating-point exceptions are signalling: IEEE_DENORMAL
Note: The following floating-point exceptions are signalling: IEEE_DENORMAL
Note: The following floating-point exceptions are signalling: IEEE_DENORMAL
Note: The following floating-point exceptions are signalling: IEEE_DENORMAL
Note: The following floating-point exceptions are signalling: IEEE_DENORMAL
Note: The following floating-point exceptions are signalling: IEEE_DENORMAL
Note: The following floating-point exceptions are signalling: IEEE_DENORMAL
Note: The following floating-point exceptions are signalling: IEEE_DENORMAL
Note: The following floating-point exceptions are signalling: IEEE_DENORMAL
Note: The following floating-point exceptions are signalling: IEEE_DENORMAL
Note: The following floating-point exceptions are signalling: IEEE_DENORMAL
Note: The following floating-point exceptions are signalling: IEEE_DENORMAL
Note: The following floating-point exceptions are signalling: IEEE_DENORMAL
Note: The following floating-point exceptions are signalling: IEEE_DENORMAL
Note: The following floating-point exceptions are signalling: IEEE_DENORMAL
Note: The following floating-point exceptions are signalling: IEEE_DENORMAL
Note: The following floating-point exceptions are signalling: IEEE_DENORMAL
Note: The following floating-point exceptions are signalling: IEEE_DENORMAL
Note: The following floating-point exceptions are signalling: IEEE_DENORMAL
Note: The following floating-point exceptions are signalling: IEEE_DENORMAL
Note: The following floating-point exceptions are signalling: IEEE_DENORMAL
Note: The following floating-point exceptions are signalling: IEEE_DENORMAL
Note: The following floating-point exceptions are signalling: IEEE_DENORMAL
Note: The following floating-point exceptions are signalling: IEEE_DENORMAL
Note: The following floating-point exceptions are signalling: IEEE_DENORMAL
Note: The following floating-point exceptions are signalling: IEEE_DENORMAL
Note: The following floating-point exceptions are signalling: IEEE_DENORMAL
Note: The following floating-point exceptions are signalling: IEEE_DENORMAL
Note: The following floating-point exceptions are signalling: IEEE_DENORMAL
Note: The following floating-point exceptions are signalling: IEEE_DENORMAL
Note: The following floating-point exceptions are signalling: IEEE_DENORMAL
Note: The following floating-point exceptions are signalling: IEEE_DENORMAL
Note: The following floating-point exceptions are signalling: IEEE_DENORMAL
Note: The following floating-point exceptions are signalling: IEEE_DENORMAL
Note: The following floating-point exceptions are signalling: IEEE_DENORMAL
Note: The following floating-point exceptions are signalling: IEEE_DENORMAL
Note: The following floating-point exceptions are signalling: IEEE_DENORMAL
Note: The following floating-point exceptions are signalling: IEEE_DENORMAL
Note: The following floating-point exceptions are signalling: IEEE_DENORMAL
Note: The following floating-point exceptions are signalling: IEEE_DENORMAL
Note: The following floating-point exceptions are signalling: IEEE_DENORMAL
Note: The following floating-point exceptions are signalling: IEEE_DENORMAL
Note: The following floating-point exceptions are signalling: IEEE_DENORMAL
Note: The following floating-point exceptions are signalling: IEEE_DENORMAL
Note: The following floating-point exceptions are signalling: IEEE_DENORMAL
Note: The following floating-point exceptions are signalling: IEEE_DENORMAL
Note: The following floating-point exceptions are signalling: IEEE_DENORMAL
Note: The following floating-point exceptions are signalling: IEEE_DENORMAL
Note: The following floating-point exceptions are signalling: IEEE_DENORMAL
Note: The following floating-point exceptions are signalling: IEEE_DENORMAL
Note: The following floating-point exceptions are signalling: IEEE_DENORMAL
Note: The following floating-point exceptions are signalling: IEEE_DENORMAL
Note: The following floating-point exceptions are signalling: IEEE_DENORMAL
Note: The following floating-point exceptions are signalling: IEEE_DENORMAL
Note: The following floating-point exceptions are signalling: IEEE_DENORMAL
Note: The following floating-point exceptions are signalling: IEEE_DENORMAL
Note: The following floating-point exceptions are signalling: IEEE_DENORMAL
Note: The following floating-point exceptions are signalling: IEEE_DENORMAL
Note: The following floating-point exceptions are signalling: IEEE_DENORMAL
Note: The following floating-point exceptions are signalling: IEEE_DENORMAL
Note: The following floating-point exceptions are signalling: IEEE_DENORMAL
Note: The following floating-point exceptions are signalling: IEEE_DENORMAL
Note: The following floating-point exceptions are signalling: IEEE_DENORMAL
Note: The following floating-point exceptions are signalling: IEEE_DENORMAL
Note: The following floating-point exceptions are signalling: IEEE_DENORMAL
Note: The following floating-point exceptions are signalling: IEEE_DENORMAL
Note: The following floating-point exceptions are signalling: IEEE_DENORMAL
Note: The following floating-point exceptions are signalling: IEEE_DENORMAL
Note: The following floating-point exceptions are signalling: IEEE_DENORMAL
Note: The following floating-point exceptions are signalling: IEEE_DENORMAL
Note: The following floating-point exceptions are signalling: IEEE_DENORMAL
Note: The following floating-point exceptions are signalling: IEEE_DENORMAL
Note: The following floating-point exceptions are signalling: IEEE_DENORMAL
Note: The following floating-point exceptions are signalling: IEEE_DENORMAL
Note: The following floating-point exceptions are signalling: IEEE_DENORMAL
Note: The following floating-point exceptions are signalling: IEEE_DENORMAL
Note: The following floating-point exceptions are signalling: IEEE_DENORMAL
Note: The following floating-point exceptions are signalling: IEEE_DENORMAL
Note: The following floating-point exceptions are signalling: IEEE_DENORMAL
Note: The following floating-point exceptions are signalling: IEEE_DENORMAL
Note: The following floating-point exceptions are signalling: IEEE_DENORMAL
Note: The following floating-point exceptions are signalling: IEEE_DENORMAL
Note: The following floating-point exceptions are signalling: IEEE_DENORMAL
Note: The following floating-point exceptions are signalling: IEEE_DENORMAL
Note: The following floating-point exceptions are signalling: IEEE_DENORMAL
Note: The following floating-point exceptions are signalling: IEEE_DENORMAL
Note: The following floating-point exceptions are signalling: IEEE_DENORMAL
Note: The following floating-point exceptions are signalling: IEEE_DENORMAL
Note: The following floating-point exceptions are signalling: IEEE_DENORMAL
Note: The following floating-point exceptions are signalling: IEEE_DENORMAL
Note: The following floating-point exceptions are signalling: IEEE_DENORMAL
Note: The following floating-point exceptions are signalling: IEEE_DENORMAL
Note: The following floating-point exceptions are signalling: IEEE_DENORMAL
Note: The following floating-point exceptions are signalling: IEEE_DENORMAL
Note: The following floating-point exceptions are signalling: IEEE_DENORMAL
Note: The following floating-point exceptions are signalling: IEEE_DENORMAL
Note: The following floating-point exceptions are signalling: IEEE_DENORMAL
Note: The following floating-point exceptions are signalling: IEEE_DENORMAL
Note: The following floating-point exceptions are signalling: IEEE_DENORMAL
Note: The following floating-point exceptions are signalling: IEEE_DENORMAL
Note: The following floating-point exceptions are signalling: IEEE_DENORMAL
Note: The following floating-point exceptions are signalling: IEEE_DENORMAL
Note: The following floating-point exceptions are signalling: IEEE_DENORMAL
Note: The following floating-point exceptions are signalling: IEEE_DENORMAL
Note: The following floating-point exceptions are signalling: IEEE_DENORMAL
Note: The following floating-point exceptions are signalling: IEEE_DENORMAL
Note: The following floating-point exceptions are signalling: IEEE_DENORMAL
Note: The following floating-point exceptions are signalling: IEEE_DENORMAL
Note: The following floating-point exceptions are signalling: IEEE_DENORMAL
Note: The following floating-point exceptions are signalling: IEEE_DENORMAL
Note: The following floating-point exceptions are signalling: IEEE_DENORMAL
Note: The following floating-point exceptions are signalling: IEEE_DENORMAL
Note: The following floating-point exceptions are signalling: IEEE_DENORMAL
Note: The following floating-point exceptions are signalling: IEEE_DENORMAL
Note: The following floating-point exceptions are signalling: IEEE_DENORMAL
Note: The following floating-point exceptions are signalling: IEEE_DENORMAL
Note: The following floating-point exceptions are signalling: IEEE_DENORMAL
Note: The following floating-point exceptions are signalling: IEEE_DENORMAL
Note: The following floating-point exceptions are signalling: IEEE_DENORMAL
Note: The following floating-point exceptions are signalling: IEEE_DENORMAL
Note: The following floating-point exceptions are signalling: IEEE_DENORMAL
Note: The following floating-point exceptions are signalling: IEEE_DENORMAL
Note: The following floating-point exceptions are signalling: IEEE_DENORMAL
Note: The following floating-point exceptions are signalling: IEEE_DENORMAL
Note: The following floating-point exceptions are signalling: IEEE_DENORMAL
Note: The following floating-point exceptions are signalling: IEEE_DENORMAL
Note: The following floating-point exceptions are signalling: IEEE_DENORMAL
Note: The following floating-point exceptions are signalling: IEEE_DENORMAL
Note: The following floating-point exceptions are signalling: IEEE_DENORMAL
Note: The following floating-point exceptions are signalling: IEEE_DENORMAL
Note: The following floating-point exceptions are signalling: IEEE_DENORMAL
Note: The following floating-point exceptions are signalling: IEEE_DENORMAL
Note: The following floating-point exceptions are signalling: IEEE_DENORMAL
Note: The following floating-point exceptions are signalling: IEEE_DENORMAL
Note: The following floating-point exceptions are signalling: IEEE_DENORMAL
Note: The following floating-point exceptions are signalling: IEEE_DENORMAL
Note: The following floating-point exceptions are signalling: IEEE_DENORMAL
Note: The following floating-point exceptions are signalling: IEEE_DENORMAL
Note: The following floating-point exceptions are signalling: IEEE_DENORMAL
Note: The following floating-point exceptions are signalling: IEEE_DENORMAL
Note: The following floating-point exceptions are signalling: IEEE_DENORMAL
Note: The following floating-point exceptions are signalling: IEEE_DENORMAL
Note: The following floating-point exceptions are signalling: IEEE_DENORMAL
Note: The following floating-point exceptions are signalling: IEEE_DENORMAL
Note: The following floating-point exceptions are signalling: IEEE_DENORMAL
Note: The following floating-point exceptions are signalling: IEEE_DENORMAL
Note: The following floating-point exceptions are signalling: IEEE_DENORMAL
Note: The following floating-point exceptions are signalling: IEEE_DENORMAL
Note: The following floating-point exceptions are signalling: IEEE_DENORMAL
Note: The following floating-point exceptions are signalling: IEEE_DENORMAL
Note: The following floating-point exceptions are signalling: IEEE_DENORMAL
Note: The following floating-point exceptions are signalling: IEEE_DENORMAL
Note: The following floating-point exceptions are signalling: IEEE_DENORMAL
Note: The following floating-point exceptions are signalling: IEEE_DENORMAL
Note: The following floating-point exceptions are signalling: IEEE_DENORMAL
Note: The following floating-point exceptions are signalling: IEEE_DENORMAL
Note: The following floating-point exceptions are signalling: IEEE_DENORMAL
Note: The following floating-point exceptions are signalling: IEEE_DENORMAL
Note: The following floating-point exceptions are signalling: IEEE_DENORMAL
Note: The following floating-point exceptions are signalling: IEEE_DENORMAL
Note: The following floating-point exceptions are signalling: IEEE_DENORMAL
Note: The following floating-point exceptions are signalling: IEEE_DENORMAL
Note: The following floating-point exceptions are signalling: IEEE_DENORMAL
Note: The following floating-point exceptions are signalling: IEEE_DENORMAL
Note: The following floating-point exceptions are signalling: IEEE_DENORMAL
Note: The following floating-point exceptions are signalling: IEEE_DENORMAL
Note: The following floating-point exceptions are signalling: IEEE_DENORMAL
Note: The following floating-point exceptions are signalling: IEEE_DENORMAL
Note: The following floating-point exceptions are signalling: IEEE_DENORMAL
Note: The following floating-point exceptions are signalling: IEEE_DENORMAL
Note: The following floating-point exceptions are signalling: IEEE_DENORMAL
Note: The following floating-point exceptions are signalling: IEEE_DENORMAL
Note: The following floating-point exceptions are signalling: IEEE_DENORMAL
Note: The following floating-point exceptions are signalling: IEEE_DENORMAL
Note: The following floating-point exceptions are signalling: IEEE_DENORMAL
Note: The following floating-point exceptions are signalling: IEEE_DENORMAL
Note: The following floating-point exceptions are signalling: IEEE_DENORMAL
Note: The following floating-point exceptions are signalling: IEEE_DENORMAL
Note: The following floating-point exceptions are signalling: IEEE_DENORMAL
Note: The following floating-point exceptions are signalling: IEEE_DENORMAL
Note: The following floating-point exceptions are signalling: IEEE_DENORMAL
Note: The following floating-point exceptions are signalling: IEEE_DENORMAL
Note: The following floating-point exceptions are signalling: IEEE_DENORMAL
Note: The following floating-point exceptions are signalling: IEEE_DENORMAL
Note: The following floating-point exceptions are signalling: IEEE_DENORMAL
Note: The following floating-point exceptions are signalling: IEEE_DENORMAL
Note: The following floating-point exceptions are signalling: IEEE_DENORMAL
Note: The following floating-point exceptions are signalling: IEEE_DENORMAL
Note: The following floating-point exceptions are signalling: IEEE_DENORMAL
Note: The following floating-point exceptions are signalling: IEEE_DENORMAL
Note: The following floating-point exceptions are signalling: IEEE_DENORMAL
Note: The following floating-point exceptions are signalling: IEEE_DENORMAL
Note: The following floating-point exceptions are signalling: IEEE_DENORMAL
Note: The following floating-point exceptions are signalling: IEEE_DENORMAL
Note: The following floating-point exceptions are signalling: IEEE_DENORMAL
Note: The following floating-point exceptions are signalling: IEEE_DENORMAL
Note: The following floating-point exceptions are signalling: IEEE_DENORMAL
Note: The following floating-point exceptions are signalling: IEEE_DENORMAL
Note: The following floating-point exceptions are signalling: IEEE_DENORMAL
Note: The following floating-point exceptions are signalling: IEEE_DENORMAL
Note: The following floating-point exceptions are signalling: IEEE_DENORMAL
Note: The following floating-point exceptions are signalling: IEEE_DENORMAL
Note: The following floating-point exceptions are signalling: IEEE_DENORMAL
Note: The following floating-point exceptions are signalling: IEEE_DENORMAL
Note: The following floating-point exceptions are signalling: IEEE_DENORMAL
Note: The following floating-point exceptions are signalling: IEEE_DENORMAL
Note: The following floating-point exceptions are signalling: IEEE_DENORMAL
Note: The following floating-point exceptions are signalling: IEEE_DENORMAL
Note: The following floating-point exceptions are signalling: IEEE_DENORMAL
Note: The following floating-point exceptions are signalling: IEEE_DENORMAL
Note: The following floating-point exceptions are signalling: IEEE_DENORMAL
Note: The following floating-point exceptions are signalling: IEEE_DENORMAL
Note: The following floating-point exceptions are signalling: IEEE_DENORMAL
Note: The following floating-point exceptions are signalling: IEEE_DENORMAL
Note: The following floating-point exceptions are signalling: IEEE_DENORMAL
