Ge Se
 1.0000000000000000
     4.5499999999999998    0.0000000000000000    0.0000000000000000
     0.0000000000000000    4.4500000000000011    0.0000000000000000
     0.0000000000000000    0.0000000000000000   11.1422209999999993
 Ge  Se 
   4   4
Selective dynamics
Cartesian
  0.4769751094214581  1.1125000000000003  1.4915331620372456   T   T   T
  2.7519751094214575  3.3375000000000008  4.0795773379627613   T   T   T
  4.0730248905785418  3.3375000000000008  9.6506878379627619   T   T   T
  1.7980248905785423  1.1125000000000003  7.0626436620372468   T   T   T
 -0.1957599884849131  1.1125000000000003  3.9369323524513042   T   T   T
  2.0792400115150871  3.3375000000000008  1.6341781475487021   T   T   T
  4.7457599884849113  3.3375000000000008  7.2052886475487004   T   T   T
  2.4707599884849127  1.1125000000000003  9.5080428524513092   T   T   T
