 running  256 mpi-ranks, with    1 threads/rank, on    7 nodes
 distrk:  each k-point on  128 cores,    2 groups
 distr:  one band on    4 cores,   32 groups
 vasp.6.4.1 05Apr23 (build May 18 2023 13:19:41) complex                         
 POSCAR found type information on POSCAR C Se
 POSCAR found :  2 types and     365 ions
 Reading from existing POTCAR
 scaLAPACK will be used
 Reading from existing POTCAR
 -----------------------------------------------------------------------------
|                                                                             |
|               ----> ADVICE to this user running VASP <----                  |
|                                                                             |
|     You have a (more or less) 'large supercell' and for larger cells it     |
|     might be more efficient to use real-space projection operators.         |
|     Therefore, try LREAL= Auto in the INCAR file.                           |
|     Mind: If you want to do very accurate calculations, keep the            |
|     reciprocal projection scheme (i.e. LREAL=.FALSE.).                      |
|                                                                             |
 -----------------------------------------------------------------------------

 LDA part: xc-table for Pade appr. of Perdew
 POSCAR, INCAR and KPOINTS ok, starting setup
 FFT: planning ... GRIDC
 FFT: planning ... GRID_SOFT
 FFT: planning ... GRID
 WAVECAR not read
 WARNING: chargedensity file is incomplete
 WARNING: random wavefunctions but no delay for mixing, default for NELMDL
 entering main loop
       N       E                     dE             d eps       ncg     rms          rms(c)
DAV:   1     0.131164812934E+05    0.13116E+05   -0.45141E+05  4544   0.932E+02
DAV:   2     0.766783627000E+02   -0.13040E+05   -0.12257E+05  5312   0.239E+02
DAV:   3    -0.335209849522E+04   -0.34288E+04   -0.33852E+04  4544   0.130E+02
DAV:   4    -0.353488358165E+04   -0.18279E+03   -0.17982E+03  4416   0.388E+01
DAV:   5    -0.353991023060E+04   -0.50266E+01   -0.49616E+01  4832   0.566E+00    0.749E+01
DAV:   6    -0.341590766795E+04    0.12400E+03   -0.11836E+02  4256   0.982E+00    0.551E+01
DAV:   7    -0.331015165565E+04    0.10576E+03   -0.34541E+02  4288   0.243E+01    0.169E+01
DAV:   8    -0.330744028589E+04    0.27114E+01   -0.89921E+01  3968   0.227E+01    0.957E+00
DAV:   9    -0.330511879659E+04    0.23215E+01   -0.39226E+01  4224   0.129E+01    0.699E+00
DAV:  10    -0.330502480865E+04    0.93988E-01   -0.15105E+01  4096   0.437E+00    0.373E+00
DAV:  11    -0.330482423555E+04    0.20057E+00   -0.25537E+00  4128   0.223E+00    0.222E+00
DAV:  12    -0.330478157995E+04    0.42656E-01   -0.11760E+00  4160   0.117E+00    0.703E-01
DAV:  13    -0.330477989193E+04    0.16880E-02   -0.12556E-01  4160   0.531E-01    0.391E-01
DAV:  14    -0.330478110682E+04   -0.12149E-02   -0.57957E-02  4096   0.279E-01    0.198E-01
DAV:  15    -0.330478125112E+04   -0.14429E-03   -0.18033E-02  4032   0.159E-01    0.124E-01
DAV:  16    -0.330478172224E+04   -0.47112E-03   -0.20762E-03  4384   0.908E-02    0.616E-02
DAV:  17    -0.330478163079E+04    0.91447E-04   -0.20360E-03  4160   0.862E-02    0.323E-02
DAV:  18    -0.330478166886E+04   -0.38074E-04   -0.66365E-04  4160   0.362E-02    0.212E-02
DAV:  19    -0.330478165827E+04    0.10590E-04   -0.27756E-04  4032   0.202E-02    0.896E-03
DAV:  20    -0.330478165932E+04   -0.10446E-05   -0.28912E-05  4320   0.660E-03    0.522E-03
DAV:  21    -0.330478165785E+04    0.14660E-05   -0.89635E-06  4544   0.932E-03    0.188E-03
DAV:  22    -0.330478165901E+04   -0.11543E-05   -0.11590E-05  3968   0.374E-03    0.269E-03
DAV:  23    -0.330478165896E+04    0.47032E-07   -0.53617E-07  2496   0.136E-03
   1 F= -.33188254E+04 E0= -.33188254E+04  d E =-.331883E+04
 BRION: g(F)=  0.236E+02 g(S)=  0.000E+00
 bond charge predicted
       N       E                     dE             d eps       ncg     rms          rms(c)
DAV:   1    -0.329039650326E+04    0.14385E+02   -0.15827E+03  3840   0.415E+01    0.112E+01
DAV:   2    -0.329980852160E+04   -0.94120E+01   -0.11241E+02  4000   0.102E+01    0.810E+00
DAV:   3    -0.329800209196E+04    0.18064E+01   -0.12356E+01  4224   0.571E+00    0.638E+00
DAV:   4    -0.329753100301E+04    0.47109E+00   -0.46587E+00  4384   0.243E+00    0.386E+00
DAV:   5    -0.329753375136E+04   -0.27483E-02   -0.14852E+00  4256   0.157E+00    0.206E+00
DAV:   6    -0.329750003604E+04    0.33715E-01   -0.35791E-01  4224   0.782E-01    0.940E-01
DAV:   7    -0.329749626940E+04    0.37666E-02   -0.12054E-01  4384   0.537E-01    0.407E-01
DAV:   8    -0.329750005684E+04   -0.37874E-02   -0.52325E-02  4000   0.248E-01    0.196E-01
DAV:   9    -0.329750052116E+04   -0.46432E-03   -0.33916E-03  4224   0.706E-02    0.118E-01
DAV:  10    -0.329750055823E+04   -0.37068E-04   -0.96144E-04  4160   0.373E-02    0.553E-02
DAV:  11    -0.329750053397E+04    0.24259E-04   -0.40641E-04  4256   0.237E-02    0.224E-02
DAV:  12    -0.329750053548E+04   -0.15125E-05   -0.94710E-05  4224   0.112E-02    0.119E-02
DAV:  13    -0.329750053511E+04    0.37253E-06   -0.16615E-05  4224   0.545E-03    0.672E-03
DAV:  14    -0.329750053461E+04    0.50606E-06   -0.47290E-06  4128   0.304E-03
   2 F= -.33115512E+04 E0= -.33115512E+04  d E =0.727422E+01
 BRION: g(F)=  0.725E+02 g(S)=  0.000E+00 retain N=  1 mean eig= 0.27
 eig:   0.271
 bond charge predicted
       N       E                     dE             d eps       ncg     rms          rms(c)
DAV:   1    -0.330172314606E+04   -0.42226E+01   -0.93973E+02  3776   0.350E+01    0.651E+00
DAV:   2    -0.330432535949E+04   -0.26022E+01   -0.34985E+01  4320   0.614E+00    0.658E+00
DAV:   3    -0.330405139947E+04    0.27396E+00   -0.11200E+00  4256   0.114E+00    0.569E+00
DAV:   4    -0.330332478732E+04    0.72661E+00   -0.13483E+00  4192   0.139E+00    0.266E+00
DAV:   5    -0.330325046047E+04    0.74327E-01   -0.68865E-01  3936   0.905E-01    0.103E+00
DAV:   6    -0.330323916277E+04    0.11298E-01   -0.14969E-01  4064   0.435E-01    0.557E-01
DAV:   7    -0.330324003306E+04   -0.87029E-03   -0.24843E-02  3968   0.184E-01    0.209E-01
DAV:   8    -0.330323959112E+04    0.44194E-03   -0.41645E-03  4224   0.729E-02    0.124E-01
DAV:   9    -0.330323941103E+04    0.18009E-03   -0.13215E-03  4160   0.445E-02    0.432E-02
DAV:  10    -0.330323941334E+04   -0.23089E-05   -0.31008E-04  4224   0.212E-02    0.265E-02
DAV:  11    -0.330323940597E+04    0.73647E-05   -0.84331E-05  4192   0.101E-02    0.138E-02
DAV:  12    -0.330323940288E+04    0.30919E-05   -0.14724E-05  4160   0.492E-03    0.811E-03
DAV:  13    -0.330323940260E+04    0.28673E-06   -0.90510E-06  4160   0.322E-03
   3 F= -.33173021E+04 E0= -.33173021E+04  d E =-.575089E+01
 BRION: g(F)=  0.459E+02 g(S)=  0.000E+00 retain N=  2 mean eig= 2.01
 eig:   0.166  3.851
 bond charge predicted
       N       E                     dE             d eps       ncg     rms          rms(c)
DAV:   1    -0.330783307290E+04   -0.45937E+01   -0.35016E+02  3776   0.216E+01    0.381E+00
DAV:   2    -0.330862415475E+04   -0.79108E+00   -0.10859E+01  4192   0.347E+00    0.391E+00
DAV:   3    -0.330855344901E+04    0.70706E-01   -0.37017E-01  4352   0.626E-01    0.352E+00
DAV:   4    -0.330824428226E+04    0.30917E+00   -0.63713E-01  4256   0.949E-01    0.146E+00
DAV:   5    -0.330822299100E+04    0.21291E-01   -0.25156E-01  4000   0.546E-01    0.653E-01
DAV:   6    -0.330821552752E+04    0.74635E-02   -0.64611E-02  4128   0.298E-01    0.369E-01
DAV:   7    -0.330821589404E+04   -0.36652E-03   -0.12154E-02  3968   0.129E-01    0.144E-01
DAV:   8    -0.330821562469E+04    0.26935E-03   -0.20335E-03  4256   0.514E-02    0.876E-02
DAV:   9    -0.330821556851E+04    0.56179E-04   -0.59415E-04  4128   0.281E-02    0.318E-02
DAV:  10    -0.330821556556E+04    0.29491E-05   -0.14825E-04  4224   0.148E-02    0.173E-02
DAV:  11    -0.330821556394E+04    0.16164E-05   -0.40957E-05  4128   0.747E-03    0.946E-03
DAV:  12    -0.330821556212E+04    0.18295E-05   -0.93375E-06  4000   0.352E-03    0.429E-03
DAV:  13    -0.330821556202E+04    0.98487E-07   -0.26926E-06  3680   0.183E-03
   4 F= -.33222867E+04 E0= -.33222867E+04  d E =-.498460E+01
 BRION: g(F)=  0.759E+01 g(S)=  0.000E+00 retain N=  2 mean eig= 1.32
 eig:   0.155  2.488
 bond charge predicted
       N       E                     dE             d eps       ncg     rms          rms(c)
DAV:   1    -0.330704933639E+04    0.11662E+01   -0.52066E+02  3712   0.253E+01    0.478E+00
DAV:   2    -0.330803768822E+04   -0.98835E+00   -0.14821E+01  4256   0.430E+00    0.443E+00
DAV:   3    -0.330778292986E+04    0.25476E+00   -0.81966E-01  4416   0.104E+00    0.310E+00
DAV:   4    -0.330764063249E+04    0.14230E+00   -0.52377E-01  4192   0.829E-01    0.138E+00
DAV:   5    -0.330763068475E+04    0.99477E-02   -0.14400E-01  4000   0.428E-01    0.390E-01
DAV:   6    -0.330763153576E+04   -0.85101E-03   -0.22621E-02  4320   0.154E-01    0.200E-01
DAV:   7    -0.330763114056E+04    0.39520E-03   -0.38007E-03  4192   0.683E-02    0.109E-01
DAV:   8    -0.330763120454E+04   -0.63982E-04   -0.63644E-04  4160   0.304E-02    0.551E-02
DAV:   9    -0.330763119105E+04    0.13492E-04   -0.23376E-04  4160   0.190E-02    0.194E-02
DAV:  10    -0.330763119006E+04    0.98627E-06   -0.66356E-05  4224   0.892E-03    0.950E-03
DAV:  11    -0.330763118914E+04    0.92224E-06   -0.88609E-06  4160   0.350E-03
   5 F= -.33217044E+04 E0= -.33217044E+04  d E =0.582331E+00
 BRION: g(F)=  0.254E+02 g(S)=  0.000E+00 retain N=  3 mean eig= 1.35
 eig:   3.701  0.071  0.271
 bond charge predicted
       N       E                     dE             d eps       ncg     rms          rms(c)
DAV:   1    -0.330912258112E+04   -0.14914E+01   -0.30710E+02  3776   0.201E+01    0.344E+00
DAV:   2    -0.330976904915E+04   -0.64647E+00   -0.88498E+00  4192   0.308E+00    0.346E+00
DAV:   3    -0.330968899215E+04    0.80057E-01   -0.27641E-01  4512   0.546E-01    0.298E+00
DAV:   4    -0.330947770105E+04    0.21129E+00   -0.32281E-01  4096   0.684E-01    0.135E+00
DAV:   5    -0.330945539393E+04    0.22307E-01   -0.17414E-01  4064   0.451E-01    0.400E-01
DAV:   6    -0.330945586249E+04   -0.46856E-03   -0.29914E-02  4000   0.183E-01    0.217E-01
DAV:   7    -0.330945610546E+04   -0.24297E-03   -0.28485E-03  4256   0.651E-02    0.982E-02
DAV:   8    -0.330945596756E+04    0.13789E-03   -0.11487E-03  4096   0.386E-02    0.390E-02
DAV:   9    -0.330945598576E+04   -0.18199E-04   -0.18108E-04  4288   0.159E-02    0.221E-02
DAV:  10    -0.330945597738E+04    0.83834E-05   -0.59729E-05  4128   0.900E-03    0.123E-02
DAV:  11    -0.330945597627E+04    0.11139E-05   -0.16017E-05  4000   0.467E-03    0.563E-03
DAV:  12    -0.330945597600E+04    0.26391E-06   -0.43396E-06  4064   0.247E-03
   6 F= -.33235310E+04 E0= -.33235310E+04  d E =-.182665E+01
 BRION: g(F)=  0.471E+01 g(S)=  0.000E+00 retain N=  1 mean eig= 0.23
 eig:   0.225
 bond charge predicted
       N       E                     dE             d eps       ncg     rms          rms(c)
DAV:   1    -0.330927678415E+04    0.17919E+00   -0.12282E+02  3648   0.130E+01    0.209E+00
DAV:   2    -0.330950131990E+04   -0.22454E+00   -0.31369E+00  4224   0.194E+00    0.213E+00
DAV:   3    -0.330948166971E+04    0.19650E-01   -0.11306E-01  4832   0.346E-01    0.192E+00
DAV:   4    -0.330939625232E+04    0.85417E-01   -0.16064E-01  4320   0.531E-01    0.838E-01
DAV:   5    -0.330939038124E+04    0.58711E-02   -0.72270E-02  4000   0.303E-01    0.303E-01
DAV:   6    -0.330939065263E+04   -0.27138E-03   -0.92454E-03  4320   0.107E-01    0.145E-01
DAV:   7    -0.330939066465E+04   -0.12025E-04   -0.12797E-03  4256   0.397E-02    0.803E-02
DAV:   8    -0.330939062600E+04    0.38655E-04   -0.30559E-04  4096   0.217E-02    0.362E-02
DAV:   9    -0.330939062004E+04    0.59599E-05   -0.10488E-04  4064   0.128E-02    0.156E-02
DAV:  10    -0.330939062009E+04   -0.56345E-07   -0.36542E-05  4352   0.734E-03    0.744E-03
DAV:  11    -0.330939062006E+04    0.32713E-07   -0.73223E-06  4032   0.320E-03
   7 F= -.33234671E+04 E0= -.33234671E+04  d E =0.639318E-01
 BRION: g(F)=  0.639E+01 g(S)=  0.000E+00 retain N=  2 mean eig= 0.20
 eig:   0.196  0.196
 bond charge predicted
       N       E                     dE             d eps       ncg     rms          rms(c)
DAV:   1    -0.331009799758E+04   -0.70738E+00   -0.57879E+01  3712   0.898E+00    0.151E+00
DAV:   2    -0.331019067221E+04   -0.92675E-01   -0.14403E+00  4224   0.132E+00    0.150E+00
DAV:   3    -0.331017247998E+04    0.18192E-01   -0.56369E-02  4704   0.250E-01    0.126E+00
DAV:   4    -0.331013767212E+04    0.34808E-01   -0.54960E-02  4128   0.291E-01    0.602E-01
DAV:   5    -0.331013337168E+04    0.43004E-02   -0.29169E-02  4000   0.194E-01    0.159E-01
DAV:   6    -0.331013373892E+04   -0.36724E-03   -0.39358E-03  4256   0.650E-02    0.641E-02
DAV:   7    -0.331013375310E+04   -0.14183E-04   -0.28550E-04  4448   0.192E-02    0.381E-02
DAV:   8    -0.331013372204E+04    0.31058E-04   -0.14035E-04  3968   0.142E-02    0.154E-02
DAV:   9    -0.331013372364E+04   -0.15928E-05   -0.30180E-05  4352   0.598E-03    0.865E-03
DAV:  10    -0.331013372263E+04    0.10005E-05   -0.55604E-06  4064   0.279E-03    0.478E-03
DAV:  11    -0.331013372237E+04    0.26869E-06   -0.12794E-06  2272   0.145E-03
   8 F= -.33242116E+04 E0= -.33242116E+04  d E =-.744456E+00
 BRION: g(F)=  0.684E+00 g(S)=  0.000E+00 retain N=  2 mean eig= 2.88
 eig:   0.223  5.540
 bond charge predicted
       N       E                     dE             d eps       ncg     rms          rms(c)
DAV:   1    -0.330987554696E+04    0.25818E+00   -0.54457E+01  3648   0.869E+00    0.141E+00
DAV:   2    -0.330995843250E+04   -0.82886E-01   -0.12547E+00  4224   0.127E+00    0.142E+00
DAV:   3    -0.330994473151E+04    0.13701E-01   -0.52157E-02  4832   0.243E-01    0.121E+00
DAV:   4    -0.330991414946E+04    0.30582E-01   -0.72565E-02  4160   0.345E-01    0.504E-01
DAV:   5    -0.330991294460E+04    0.12049E-02   -0.25206E-02  4032   0.181E-01    0.182E-01
DAV:   6    -0.330991323915E+04   -0.29456E-03   -0.33771E-03  4128   0.673E-02    0.797E-02
DAV:   7    -0.330991315486E+04    0.84288E-04   -0.73740E-04  4096   0.307E-02    0.438E-02
DAV:   8    -0.330991314760E+04    0.72694E-05   -0.15121E-04  4128   0.138E-02    0.233E-02
DAV:   9    -0.330991314387E+04    0.37265E-05   -0.33261E-05  4288   0.733E-03    0.129E-02
DAV:  10    -0.330991314138E+04    0.24862E-05   -0.18946E-05  4224   0.544E-03    0.579E-03
DAV:  11    -0.330991314117E+04    0.21025E-06   -0.51403E-06  3808   0.255E-03
   9 F= -.33239904E+04 E0= -.33239904E+04  d E =0.221132E+00
 BRION: g(F)=  0.296E+01 g(S)=  0.000E+00 retain N=  3 mean eig= 2.01
 eig:   5.628  0.202  0.202
 bond charge predicted
       N       E                     dE             d eps       ncg     rms          rms(c)
DAV:   1    -0.331022245476E+04   -0.30931E+00   -0.27080E+01  3648   0.620E+00    0.101E+00
DAV:   2    -0.331026995414E+04   -0.47499E-01   -0.69817E-01  4192   0.922E-01    0.103E+00
DAV:   3    -0.331026514457E+04    0.48096E-02   -0.25916E-02  4832   0.164E-01    0.923E-01
DAV:   4    -0.331024594927E+04    0.19195E-01   -0.34031E-02  4192   0.235E-01    0.436E-01
DAV:   5    -0.331024413967E+04    0.18096E-02   -0.15531E-02  4064   0.141E-01    0.160E-01
DAV:   6    -0.331024420838E+04   -0.68713E-04   -0.22134E-03  4192   0.518E-02    0.646E-02
DAV:   7    -0.331024421969E+04   -0.11309E-04   -0.25824E-04  4096   0.174E-02    0.362E-02
DAV:   8    -0.331024420077E+04    0.18917E-04   -0.90654E-05  4000   0.109E-02    0.157E-02
DAV:   9    -0.331024420227E+04   -0.14952E-05   -0.21102E-05  4384   0.530E-03    0.719E-03
DAV:  10    -0.331024420218E+04    0.89523E-07   -0.55875E-06  4128   0.292E-03
  10 F= -.33243224E+04 E0= -.33243224E+04  d E =-.332012E+00
 BRION: g(F)=  0.188E+00 g(S)=  0.000E+00 retain N=  1 mean eig= 0.23
 eig:   0.230
 bond charge predicted
       N       E                     dE             d eps       ncg     rms          rms(c)
DAV:   1    -0.331016810625E+04    0.76096E-01   -0.13659E+01  3648   0.440E+00    0.714E-01
DAV:   2    -0.331019105320E+04   -0.22947E-01   -0.33437E-01  4224   0.637E-01    0.729E-01
DAV:   3    -0.331018882942E+04    0.22238E-02   -0.12671E-02  5056   0.116E-01    0.663E-01
DAV:   4    -0.331017804940E+04    0.10780E-01   -0.22488E-02  4352   0.202E-01    0.255E-01
DAV:   5    -0.331017775892E+04    0.29048E-03   -0.77307E-03  4032   0.106E-01    0.107E-01
DAV:   6    -0.331017783486E+04   -0.75936E-04   -0.13108E-03  3936   0.395E-02    0.516E-02
DAV:   7    -0.331017783703E+04   -0.21714E-05   -0.18543E-04  4384   0.157E-02    0.298E-02
DAV:   8    -0.331017783000E+04    0.70308E-05   -0.38977E-05  4192   0.867E-03    0.147E-02
DAV:   9    -0.331017782768E+04    0.23174E-05   -0.25265E-05  4096   0.598E-03    0.585E-03
DAV:  10    -0.331017782775E+04   -0.69966E-07   -0.48311E-06  4000   0.298E-03
  11 F= -.33242564E+04 E0= -.33242564E+04  d E =0.660008E-01
 BRION: g(F)=  0.916E+00 g(S)=  0.000E+00 retain N=  2 mean eig= 0.15
 eig:   0.175  0.122
 bond charge predicted
       N       E                     dE             d eps       ncg     rms          rms(c)
DAV:   1    -0.331027409903E+04   -0.96271E-01   -0.69696E+00  3648   0.315E+00    0.528E-01
DAV:   2    -0.331028605555E+04   -0.11957E-01   -0.17779E-01  4224   0.462E-01    0.537E-01
DAV:   3    -0.331028477551E+04    0.12800E-02   -0.64513E-03  4960   0.821E-02    0.487E-01
DAV:   4    -0.331027850072E+04    0.62748E-02   -0.11512E-02  4256   0.136E-01    0.186E-01
DAV:   5    -0.331027827806E+04    0.22265E-03   -0.36688E-03  4096   0.650E-02    0.734E-02
DAV:   6    -0.331027829085E+04   -0.12784E-04   -0.43384E-04  4256   0.238E-02    0.311E-02
DAV:   7    -0.331027829198E+04   -0.11290E-05   -0.56354E-05  4064   0.869E-03    0.193E-02
DAV:   8    -0.331027828624E+04    0.57421E-05   -0.25873E-05  4256   0.600E-03    0.757E-03
DAV:   9    -0.331027828622E+04    0.15018E-07   -0.54454E-06  3968   0.276E-03
  12 F= -.33243570E+04 E0= -.33243570E+04  d E =-.100601E+00
 BRION: g(F)=  0.447E-01 g(S)=  0.000E+00 retain N=  1 mean eig= 0.22
 eig:   0.215
 bond charge predicted
       N       E                     dE             d eps       ncg     rms          rms(c)
DAV:   1    -0.331026483873E+04    0.13448E-01   -0.39476E+00  3648   0.237E+00    0.358E-01
DAV:   2    -0.331027103159E+04   -0.61929E-02   -0.88702E-02  4224   0.330E-01    0.370E-01
DAV:   3    -0.331027060586E+04    0.42573E-03   -0.34653E-03  5024   0.597E-02    0.342E-01
DAV:   4    -0.331026828268E+04    0.23232E-02   -0.51041E-03  4480   0.991E-02    0.161E-01
DAV:   5    -0.331026814080E+04    0.14187E-03   -0.24530E-03  4064   0.614E-02    0.666E-02
DAV:   6    -0.331026816684E+04   -0.26040E-04   -0.48104E-04  4000   0.246E-02    0.320E-02
DAV:   7    -0.331026816415E+04    0.26907E-05   -0.73528E-05  4256   0.971E-03    0.182E-02
DAV:   8    -0.331026816201E+04    0.21392E-05   -0.13806E-05  4224   0.535E-03    0.977E-03
DAV:   9    -0.331026816138E+04    0.63190E-06   -0.97746E-06  4064   0.356E-03
  13 F= -.33243470E+04 E0= -.33243470E+04  d E =0.100759E-01
 BRION: g(F)=  0.223E+00 g(S)=  0.000E+00 retain N=  2 mean eig= 0.23
 eig:   0.227  0.227
 bond charge predicted
       N       E                     dE             d eps       ncg     rms          rms(c)
DAV:   1    -0.331029156793E+04   -0.23406E-01   -0.17494E+00  3648   0.158E+00    0.259E-01
DAV:   2    -0.331029452887E+04   -0.29609E-02   -0.44698E-02  4256   0.233E-01    0.265E-01
DAV:   3    -0.331029423224E+04    0.29663E-03   -0.16708E-03  5120   0.413E-02    0.240E-01
DAV:   4    -0.331029290985E+04    0.13224E-02   -0.20120E-03  4320   0.570E-02    0.117E-01
DAV:   5    -0.331029274956E+04    0.16029E-03   -0.11117E-03  4000   0.377E-02    0.397E-02
DAV:   6    -0.331029276000E+04   -0.10446E-04   -0.16623E-04  4256   0.140E-02    0.180E-02
DAV:   7    -0.331029276141E+04   -0.14055E-05   -0.17020E-05  4224   0.481E-03    0.103E-02
DAV:   8    -0.331029275982E+04    0.15843E-05   -0.84650E-06  3904   0.347E-03    0.394E-03
DAV:   9    -0.331029275997E+04   -0.14820E-06   -0.13669E-06  2528   0.143E-03
  14 F= -.33243716E+04 E0= -.33243716E+04  d E =-.246777E-01
 BRION: g(F)=  0.208E-01 g(S)=  0.000E+00 retain N=  1 mean eig= 0.21
 eig:   0.212
 bond charge predicted
       N       E                     dE             d eps       ncg     rms          rms(c)
DAV:   1    -0.331029236755E+04    0.39227E-03   -0.16037E+00  3648   0.150E+00    0.221E-01
DAV:   2    -0.331029484518E+04   -0.24776E-02   -0.34357E-02  4160   0.202E-01    0.227E-01
DAV:   3    -0.331029465260E+04    0.19259E-03   -0.13023E-03  4960   0.372E-02    0.207E-01
DAV:   4    -0.331029385830E+04    0.79430E-03   -0.20876E-03  4416   0.669E-02    0.872E-02
DAV:   5    -0.331029386134E+04   -0.30422E-05   -0.94779E-04  3968   0.403E-02    0.373E-02
DAV:   6    -0.331029387122E+04   -0.98736E-05   -0.17672E-04  3968   0.145E-02    0.189E-02
DAV:   7    -0.331029386967E+04    0.15433E-05   -0.30186E-05  4288   0.644E-03    0.101E-02
DAV:   8    -0.331029387029E+04   -0.62038E-06   -0.65320E-06  4128   0.354E-03
  15 F= -.33243729E+04 E0= -.33243729E+04  d E =-.128223E-02
 BRION: g(F)=  0.671E-01 g(S)=  0.000E+00 retain N=  2 mean eig= 0.15
 eig:   0.153  0.153
 bond charge predicted
       N       E                     dE             d eps       ncg     rms          rms(c)
DAV:   1    -0.331030146565E+04   -0.75960E-02   -0.57043E-01  3648   0.908E-01    0.144E-01
DAV:   2    -0.331030244655E+04   -0.98089E-03   -0.14311E-02  4256   0.132E-01    0.149E-01
DAV:   3    -0.331030238739E+04    0.59154E-04   -0.53904E-04  5152   0.232E-02    0.139E-01
DAV:   4    -0.331030196793E+04    0.41946E-03   -0.62119E-04  4480   0.328E-02    0.723E-02
DAV:   5    -0.331030190537E+04    0.62560E-04   -0.42852E-04  3872   0.238E-02    0.259E-02
DAV:   6    -0.331030190817E+04   -0.27991E-05   -0.70074E-05  4256   0.935E-03    0.131E-02
DAV:   7    -0.331030190896E+04   -0.79360E-06   -0.81550E-06  4000   0.312E-03
  16 F= -.33243809E+04 E0= -.33243809E+04  d E =-.800545E-02
 BRION: g(F)=  0.110E-01 g(S)=  0.000E+00 retain N=  1 mean eig= 0.21
 eig:   0.212
 bond charge predicted
       N       E                     dE             d eps       ncg     rms          rms(c)
DAV:   1    -0.331030410101E+04   -0.21928E-02   -0.85743E-01  3648   0.108E+00    0.159E-01
DAV:   2    -0.331030531431E+04   -0.12133E-02   -0.16878E-02  4224   0.139E-01    0.160E-01
DAV:   3    -0.331030517327E+04    0.14105E-03   -0.55934E-04  4800   0.254E-02    0.142E-01
DAV:   4    -0.331030484952E+04    0.32375E-03   -0.93832E-04  4320   0.408E-02    0.529E-02
DAV:   5    -0.331030486554E+04   -0.16019E-04   -0.32961E-04  3936   0.223E-02    0.209E-02
DAV:   6    -0.331030487094E+04   -0.53995E-05   -0.52930E-05  4000   0.825E-03    0.104E-02
DAV:   7    -0.331030487015E+04    0.78476E-06   -0.98961E-06  4192   0.360E-03
  17 F= -.33243839E+04 E0= -.33243839E+04  d E =-.299083E-02
 BRION: g(F)=  0.275E-01 g(S)=  0.000E+00 retain N=  2 mean eig= 0.15
 eig:   0.147  0.147
 bond charge predicted
       N       E                     dE             d eps       ncg     rms          rms(c)
DAV:   1    -0.331030826783E+04   -0.33969E-02   -0.23563E-01  3648   0.586E-01    0.895E-02
DAV:   2    -0.331030866874E+04   -0.40091E-03   -0.57363E-03  4224   0.835E-02    0.929E-02
DAV:   3    -0.331030864803E+04    0.20712E-04   -0.21448E-04  5120   0.146E-02    0.871E-02
DAV:   4    -0.331030849790E+04    0.15013E-03   -0.20066E-04  4384   0.199E-02    0.491E-02
DAV:   5    -0.331030846895E+04    0.28953E-04   -0.21427E-04  3808   0.172E-02    0.176E-02
DAV:   6    -0.331030847039E+04   -0.14383E-05   -0.36928E-05  4096   0.680E-03    0.103E-02
DAV:   7    -0.331030847074E+04   -0.35192E-06   -0.48565E-06  3968   0.240E-03
  18 F= -.33243875E+04 E0= -.33243875E+04  d E =-.361049E-02
 BRION: g(F)=  0.683E-02 g(S)=  0.000E+00 retain N=  2 mean eig= 3.68
 eig:   0.222  7.147
 bond charge predicted
       N       E                     dE             d eps       ncg     rms          rms(c)
DAV:   1    -0.331031086802E+04   -0.23976E-02   -0.20998E-01  3680   0.525E-01    0.773E-02
DAV:   2    -0.331031113643E+04   -0.26842E-03   -0.37590E-03  4224   0.642E-02    0.761E-02
DAV:   3    -0.331031109302E+04    0.43411E-04   -0.13064E-04  4576   0.131E-02    0.638E-02
DAV:   4    -0.331031104433E+04    0.48692E-04   -0.22472E-04  4192   0.195E-02    0.195E-02
DAV:   5    -0.331031104910E+04   -0.47745E-05   -0.60547E-05  3904   0.989E-03    0.902E-03
DAV:   6    -0.331031104990E+04   -0.80082E-06   -0.93564E-06  4064   0.347E-03
  19 F= -.33243901E+04 E0= -.33243901E+04  d E =-.259026E-02
 BRION: g(F)=  0.519E-02 g(S)=  0.000E+00 retain N=  2 mean eig= 0.24
 eig:   0.116  0.368
 bond charge predicted
       N       E                     dE             d eps       ncg     rms          rms(c)
DAV:   1    -0.331031354734E+04   -0.24982E-02   -0.26655E-01  3680   0.587E-01    0.845E-02
DAV:   2    -0.331031388121E+04   -0.33387E-03   -0.45405E-03  4256   0.694E-02    0.828E-02
DAV:   3    -0.331031383048E+04    0.50735E-04   -0.14858E-04  4576   0.142E-02    0.687E-02
DAV:   4    -0.331031378701E+04    0.43472E-04   -0.27010E-04  4352   0.207E-02    0.187E-02
DAV:   5    -0.331031379203E+04   -0.50188E-05   -0.63055E-05  4000   0.964E-03    0.973E-03
DAV:   6    -0.331031379253E+04   -0.50163E-06   -0.99883E-06  4000   0.363E-03
  20 F= -.33243929E+04 E0= -.33243929E+04  d E =-.274323E-02
 BRION: g(F)=  0.565E-02 g(S)=  0.000E+00 retain N=  3 mean eig= 0.49
 eig:   1.010  0.235  0.235
 bond charge predicted
       N       E                     dE             d eps       ncg     rms          rms(c)
DAV:   1    -0.331031505682E+04   -0.12648E-02   -0.74454E-02  3648   0.317E-01    0.473E-02
DAV:   2    -0.331031516159E+04   -0.10478E-03   -0.14662E-03  4224   0.404E-02    0.472E-02
DAV:   3    -0.331031514784E+04    0.13758E-04   -0.52537E-05  4640   0.768E-03    0.409E-02
DAV:   4    -0.331031512175E+04    0.26088E-04   -0.65219E-05  4032   0.107E-02    0.154E-02
DAV:   5    -0.331031512327E+04   -0.15243E-05   -0.25981E-05  3840   0.600E-03    0.588E-03
DAV:   6    -0.331031512341E+04   -0.13993E-06   -0.40605E-06  3456   0.223E-03
  21 F= -.33243942E+04 E0= -.33243942E+04  d E =-.133485E-02
 BRION: g(F)=  0.421E-02 g(S)=  0.000E+00 retain N=  2 mean eig= 1.21
 eig:   0.187  2.230
 bond charge predicted
       N       E                     dE             d eps       ncg     rms          rms(c)
DAV:   1    -0.331031749469E+04   -0.23714E-02   -0.23633E-01  3680   0.545E-01    0.797E-02
DAV:   2    -0.331031776114E+04   -0.26646E-03   -0.37297E-03  4224   0.617E-02    0.759E-02
DAV:   3    -0.331031770830E+04    0.52849E-04   -0.11995E-04  4384   0.139E-02    0.575E-02
DAV:   4    -0.331031768998E+04    0.18321E-04   -0.19994E-04  4096   0.166E-02    0.140E-02
DAV:   5    -0.331031769202E+04   -0.20497E-05   -0.42698E-05  4000   0.728E-03    0.833E-03
DAV:   6    -0.331031769248E+04   -0.45658E-06   -0.70358E-06  4096   0.303E-03
  22 F= -.33243967E+04 E0= -.33243967E+04  d E =-.255552E-02
 BRION: g(F)=  0.344E-02 g(S)=  0.000E+00 retain N=  2 mean eig= 0.85
 eig:   0.147  1.558
 bond charge predicted
       N       E                     dE             d eps       ncg     rms          rms(c)
DAV:   1    -0.331031929518E+04   -0.16032E-02   -0.12897E-01  3680   0.406E-01    0.583E-02
DAV:   2    -0.331031945207E+04   -0.15690E-03   -0.21464E-03  4256   0.474E-02    0.566E-02
DAV:   3    -0.331031942651E+04    0.25559E-04   -0.69261E-05  4512   0.992E-03    0.458E-02
DAV:   4    -0.331031941087E+04    0.15642E-04   -0.12575E-04  4256   0.138E-02    0.118E-02
DAV:   5    -0.331031941276E+04   -0.18930E-05   -0.27552E-05  4000   0.626E-03    0.674E-03
DAV:   6    -0.331031941293E+04   -0.16904E-06   -0.47424E-06  4032   0.244E-03
  23 F= -.33243985E+04 E0= -.33243985E+04  d E =-.171463E-02
 BRION: g(F)=  0.333E-02 g(S)=  0.000E+00 retain N=  2 mean eig= 0.53
 eig:   0.110  0.945
 bond charge predicted
       N       E                     dE             d eps       ncg     rms          rms(c)
DAV:   1    -0.331032132922E+04   -0.19165E-02   -0.20812E-01  3680   0.513E-01    0.749E-02
DAV:   2    -0.331032156944E+04   -0.24022E-03   -0.33423E-03  4192   0.587E-02    0.718E-02
DAV:   3    -0.331032152266E+04    0.46783E-04   -0.10630E-04  4512   0.128E-02    0.553E-02
DAV:   4    -0.331032150194E+04    0.20719E-04   -0.18892E-04  4192   0.163E-02    0.130E-02
DAV:   5    -0.331032150403E+04   -0.20909E-05   -0.39809E-05  3968   0.705E-03    0.790E-03
DAV:   6    -0.331032150442E+04   -0.39069E-06   -0.61897E-06  4000   0.284E-03
  24 F= -.33244005E+04 E0= -.33244005E+04  d E =-.208273E-02
 BRION: g(F)=  0.346E-02 g(S)=  0.000E+00 retain N=  2 mean eig= 0.11
 eig:   0.077  0.142
 bond charge predicted
       N       E                     dE             d eps       ncg     rms          rms(c)
DAV:   1    -0.331032224729E+04   -0.74326E-03   -0.41435E-02  3648   0.237E-01    0.356E-02
DAV:   2    -0.331032230730E+04   -0.60005E-04   -0.83916E-04  4288   0.305E-02    0.357E-02
DAV:   3    -0.331032229969E+04    0.76036E-05   -0.28182E-05  4640   0.565E-03    0.313E-02
DAV:   4    -0.331032228330E+04    0.16394E-04   -0.39688E-05  4064   0.839E-03    0.113E-02
DAV:   5    -0.331032228411E+04   -0.80897E-06   -0.15158E-05  3776   0.447E-03    0.458E-03
DAV:   6    -0.331032228415E+04   -0.46799E-07   -0.20780E-06  2944   0.163E-03
  25 F= -.33244013E+04 E0= -.33244013E+04  d E =-.764283E-03
 BRION: g(F)=  0.309E-02 g(S)=  0.000E+00 retain N=  2 mean eig= 0.89
 eig:   0.218  1.567
 bond charge predicted
       N       E                     dE             d eps       ncg     rms          rms(c)
DAV:   1    -0.331032384098E+04   -0.15569E-02   -0.13884E-01  3680   0.419E-01    0.606E-02
DAV:   2    -0.331032399860E+04   -0.15761E-03   -0.21972E-03  4256   0.475E-02    0.579E-02
DAV:   3    -0.331032396825E+04    0.30347E-04   -0.68632E-05  4288   0.105E-02    0.442E-02
DAV:   4    -0.331032395739E+04    0.10857E-04   -0.11569E-04  4128   0.126E-02    0.106E-02
DAV:   5    -0.331032395874E+04   -0.13511E-05   -0.24449E-05  4032   0.549E-03    0.648E-03
DAV:   6    -0.331032395896E+04   -0.21351E-06   -0.38090E-06  3904   0.221E-03
  26 F= -.33244030E+04 E0= -.33244030E+04  d E =-.166225E-02
 BRION: g(F)=  0.254E-02 g(S)=  0.000E+00 retain N=  2 mean eig= 0.91
 eig:   0.163  1.654
 bond charge predicted
       N       E                     dE             d eps       ncg     rms          rms(c)
DAV:   1    -0.331032511638E+04   -0.11576E-02   -0.85230E-02  3680   0.329E-01    0.478E-02
DAV:   2    -0.331032521663E+04   -0.10025E-03   -0.13874E-03  4192   0.379E-02    0.460E-02
DAV:   3    -0.331032519794E+04    0.18696E-04   -0.43675E-05  4480   0.806E-03    0.361E-02
DAV:   4    -0.331032518853E+04    0.94089E-05   -0.77596E-05  4064   0.106E-02    0.857E-03
DAV:   5    -0.331032518960E+04   -0.10697E-05   -0.16709E-05  3968   0.462E-03    0.510E-03
DAV:   6    -0.331032518973E+04   -0.13155E-06   -0.23495E-06  3392   0.180E-03
  27 F= -.33244042E+04 E0= -.33244042E+04  d E =-.122030E-02
 BRION: g(F)=  0.228E-02 g(S)=  0.000E+00 retain N=  2 mean eig= 0.54
 eig:   0.048  1.026
 bond charge predicted
       N       E                     dE             d eps       ncg     rms          rms(c)
DAV:   1    -0.331032675510E+04   -0.15655E-02   -0.17794E-01  3680   0.473E-01    0.681E-02
DAV:   2    -0.331032695506E+04   -0.19996E-03   -0.27810E-03  4256   0.534E-02    0.651E-02
DAV:   3    -0.331032691671E+04    0.38345E-04   -0.85456E-05  4288   0.119E-02    0.496E-02
DAV:   4    -0.331032690482E+04    0.11895E-04   -0.15731E-04  4160   0.148E-02    0.111E-02
DAV:   5    -0.331032690565E+04   -0.83062E-06   -0.32727E-05  3936   0.646E-03    0.732E-03
DAV:   6    -0.331032690580E+04   -0.14540E-06   -0.50852E-06  4032   0.251E-03
  28 F= -.33244059E+04 E0= -.33244059E+04  d E =-.168879E-02
 BRION: g(F)=  0.237E-02 g(S)=  0.000E+00 retain N=  2 mean eig= 0.19
 eig:   0.079  0.295
 bond charge predicted
       N       E                     dE             d eps       ncg     rms          rms(c)
DAV:   1    -0.331032742910E+04   -0.52345E-03   -0.29295E-02  3648   0.199E-01    0.295E-02
DAV:   2    -0.331032747079E+04   -0.41692E-04   -0.57738E-04  4224   0.253E-02    0.295E-02
DAV:   3    -0.331032746547E+04    0.53254E-05   -0.19695E-05  4576   0.472E-03    0.257E-02
DAV:   4    -0.331032745479E+04    0.10677E-04   -0.27213E-05  3904   0.697E-03    0.903E-03
DAV:   5    -0.331032745548E+04   -0.68662E-06   -0.10131E-05  3840   0.373E-03    0.364E-03
DAV:   6    -0.331032745551E+04   -0.36671E-07   -0.13409E-06  2624   0.131E-03
  29 F= -.33244064E+04 E0= -.33244064E+04  d E =-.549387E-03
 BRION: g(F)=  0.234E-02 g(S)=  0.000E+00 retain N=  2 mean eig= 0.82
 eig:   0.140  1.492
 bond charge predicted
       N       E                     dE             d eps       ncg     rms          rms(c)
DAV:   1    -0.331032862184E+04   -0.11664E-02   -0.10298E-01  3680   0.361E-01    0.523E-02
DAV:   2    -0.331032873945E+04   -0.11760E-03   -0.16410E-03  4256   0.412E-02    0.501E-02
DAV:   3    -0.331032871660E+04    0.22849E-04   -0.50786E-05  4352   0.896E-03    0.386E-02
DAV:   4    -0.331032870722E+04    0.93810E-05   -0.88491E-05  4128   0.111E-02    0.925E-03
DAV:   5    -0.331032870828E+04   -0.10617E-05   -0.18760E-05  4000   0.483E-03    0.558E-03
DAV:   6    -0.331032870844E+04   -0.15728E-06   -0.27007E-06  3680   0.189E-03
  30 F= -.33244077E+04 E0= -.33244077E+04  d E =-.123460E-02
 BRION: g(F)=  0.196E-02 g(S)=  0.000E+00 retain N=  2 mean eig= 1.04
 eig:   0.166  1.909
 bond charge predicted
       N       E                     dE             d eps       ncg     rms          rms(c)
DAV:   1    -0.331032953338E+04   -0.82510E-03   -0.54366E-02  3680   0.263E-01    0.378E-02
DAV:   2    -0.331032959766E+04   -0.64279E-04   -0.88742E-04  4288   0.304E-02    0.365E-02
DAV:   3    -0.331032958645E+04    0.11209E-04   -0.27823E-05  4352   0.645E-03    0.290E-02
DAV:   4    -0.331032958059E+04    0.58600E-05   -0.49078E-05  4000   0.853E-03    0.701E-03
DAV:   5    -0.331032958130E+04   -0.71444E-06   -0.10698E-05  3936   0.376E-03    0.425E-03
DAV:   6    -0.331032958132E+04   -0.17462E-07   -0.15144E-06  2912   0.143E-03
  31 F= -.33244085E+04 E0= -.33244085E+04  d E =-.856928E-03
 BRION: g(F)=  0.171E-02 g(S)=  0.000E+00 retain N=  2 mean eig= 0.68
 eig:   0.143  1.219
 bond charge predicted
       N       E                     dE             d eps       ncg     rms          rms(c)
DAV:   1    -0.331033079917E+04   -0.12179E-02   -0.13691E-01  3680   0.414E-01    0.600E-02
DAV:   2    -0.331033095100E+04   -0.15183E-03   -0.21279E-03  4192   0.467E-02    0.572E-02
DAV:   3    -0.331033092005E+04    0.30942E-04   -0.64247E-05  4288   0.104E-02    0.432E-02
DAV:   4    -0.331033091129E+04    0.87634E-05   -0.11843E-04  4128   0.127E-02    0.971E-03
DAV:   5    -0.331033091207E+04   -0.78150E-06   -0.25092E-05  4032   0.556E-03    0.630E-03
DAV:   6    -0.331033091227E+04   -0.20151E-06   -0.34026E-06  3872   0.215E-03
  32 F= -.33244098E+04 E0= -.33244098E+04  d E =-.131366E-02
 BRION: g(F)=  0.172E-02 g(S)=  0.000E+00 retain N=  2 mean eig= 0.28
 eig:   0.282  0.282
 bond charge predicted
       N       E                     dE             d eps       ncg     rms          rms(c)
DAV:   1    -0.331033139970E+04   -0.48763E-03   -0.27488E-02  3680   0.190E-01    0.275E-02
DAV:   2    -0.331033143624E+04   -0.36538E-04   -0.50224E-04  4288   0.233E-02    0.272E-02
DAV:   3    -0.331033143122E+04    0.50189E-05   -0.16479E-05  4480   0.451E-03    0.232E-02
DAV:   4    -0.331033142424E+04    0.69846E-05   -0.24565E-05  3968   0.646E-03    0.735E-03
DAV:   5    -0.331033142500E+04   -0.75891E-06   -0.73793E-06  3776   0.309E-03
  33 F= -.33244103E+04 E0= -.33244103E+04  d E =-.500209E-03
 BRION: g(F)=  0.179E-02 g(S)=  0.000E+00 retain N=  2 mean eig= 0.86
 eig:   0.192  1.531
 bond charge predicted
       N       E                     dE             d eps       ncg     rms          rms(c)
DAV:   1    -0.331033235990E+04   -0.93566E-03   -0.86161E-02  3680   0.330E-01    0.482E-02
DAV:   2    -0.331033245810E+04   -0.98201E-04   -0.13685E-03  4224   0.377E-02    0.462E-02
DAV:   3    -0.331033243921E+04    0.18886E-04   -0.42447E-05  4288   0.830E-03    0.354E-02
DAV:   4    -0.331033243293E+04    0.62856E-05   -0.71456E-05  4064   0.100E-02    0.857E-03
DAV:   5    -0.331033243387E+04   -0.94459E-06   -0.15555E-05  4064   0.441E-03    0.512E-03
DAV:   6    -0.331033243399E+04   -0.12014E-06   -0.22668E-06  3392   0.176E-03
  34 F= -.33244113E+04 E0= -.33244113E+04  d E =-.991961E-03
 BRION: g(F)=  0.159E-02 g(S)=  0.000E+00 retain N=  2 mean eig= 1.11
 eig:   0.161  2.057
 bond charge predicted
       N       E                     dE             d eps       ncg     rms          rms(c)
DAV:   1    -0.331033296657E+04   -0.53270E-03   -0.29388E-02  3680   0.195E-01    0.282E-02
DAV:   2    -0.331033300289E+04   -0.36318E-04   -0.49989E-04  4192   0.230E-02    0.275E-02
DAV:   3    -0.331033299675E+04    0.61386E-05   -0.15625E-05  4512   0.463E-03    0.224E-02
DAV:   4    -0.331033299192E+04    0.48298E-05   -0.26681E-05  3840   0.640E-03    0.586E-03
DAV:   5    -0.331033299252E+04   -0.60420E-06   -0.61136E-06  3712   0.283E-03
  35 F= -.33244119E+04 E0= -.33244119E+04  d E =-.551128E-03
 BRION: g(F)=  0.135E-02 g(S)=  0.000E+00 retain N=  2 mean eig= 0.60
 eig:   0.105  1.103
 bond charge predicted
       N       E                     dE             d eps       ncg     rms          rms(c)
DAV:   1    -0.331033397754E+04   -0.98562E-03   -0.10896E-01  3680   0.370E-01    0.533E-02
DAV:   2    -0.331033409827E+04   -0.12072E-03   -0.16762E-03  4224   0.415E-02    0.509E-02
DAV:   3    -0.331033407524E+04    0.23021E-04   -0.50512E-05  4256   0.933E-03    0.387E-02
DAV:   4    -0.331033407022E+04    0.50280E-05   -0.95431E-05  4128   0.114E-02    0.847E-03
DAV:   5    -0.331033407050E+04   -0.28242E-06   -0.20183E-05  4000   0.512E-03    0.569E-03
DAV:   6    -0.331033407056E+04   -0.64494E-07   -0.29319E-06  3744   0.194E-03
  36 F= -.33244129E+04 E0= -.33244129E+04  d E =-.105676E-02
 BRION: g(F)=  0.132E-02 g(S)=  0.000E+00 retain N=  2 mean eig= 0.13
 eig:   0.028  0.229
 bond charge predicted
       N       E                     dE             d eps       ncg     rms          rms(c)
DAV:   1    -0.331033451694E+04   -0.44644E-03   -0.26247E-02  3680   0.184E-01    0.268E-02
DAV:   2    -0.331033454979E+04   -0.32854E-04   -0.45704E-04  4192   0.221E-02    0.262E-02
DAV:   3    -0.331033454420E+04    0.55899E-05   -0.14763E-05  4512   0.446E-03    0.214E-02
DAV:   4    -0.331033453943E+04    0.47736E-05   -0.22031E-05  3872   0.585E-03    0.627E-03
DAV:   5    -0.331033454008E+04   -0.65635E-06   -0.54866E-06  3584   0.264E-03
  37 F= -.33244134E+04 E0= -.33244134E+04  d E =-.460788E-03
 BRION: g(F)=  0.137E-02 g(S)=  0.000E+00 retain N=  2 mean eig= 0.76
 eig:   0.085  1.426
 bond charge predicted
       N       E                     dE             d eps       ncg     rms          rms(c)
DAV:   1    -0.331033533008E+04   -0.79065E-03   -0.77895E-02  3680   0.314E-01    0.454E-02
DAV:   2    -0.331033541851E+04   -0.88436E-04   -0.12274E-03  4224   0.356E-02    0.436E-02
DAV:   3    -0.331033540178E+04    0.16733E-04   -0.37179E-05  4288   0.778E-03    0.336E-02
DAV:   4    -0.331033539607E+04    0.57055E-05   -0.67722E-05  4064   0.975E-03    0.777E-03
DAV:   5    -0.331033539670E+04   -0.62690E-06   -0.14550E-05  4032   0.430E-03    0.485E-03
DAV:   6    -0.331033539677E+04   -0.68918E-07   -0.20231E-06  3328   0.167E-03
  38 F= -.33244142E+04 E0= -.33244142E+04  d E =-.840797E-03
 BRION: g(F)=  0.129E-02 g(S)=  0.000E+00 retain N=  2 mean eig= 1.08
 eig:   0.152  1.998
 bond charge predicted
       N       E                     dE             d eps       ncg     rms          rms(c)
DAV:   1    -0.331033574735E+04   -0.35065E-03   -0.16285E-02  3744   0.146E-01    0.209E-02
DAV:   2    -0.331033576863E+04   -0.21280E-04   -0.28938E-04  4288   0.176E-02    0.206E-02
DAV:   3    -0.331033576571E+04    0.29276E-05   -0.91357E-06  4352   0.342E-03    0.176E-02
DAV:   4    -0.331033576206E+04    0.36431E-05   -0.14860E-05  3840   0.500E-03    0.523E-03
DAV:   5    -0.331033576249E+04   -0.42655E-06   -0.39808E-06  3328   0.234E-03
  39 F= -.33244146E+04 E0= -.33244146E+04  d E =-.357335E-03
 BRION: g(F)=  0.112E-02 g(S)=  0.000E+00 retain N=  2 mean eig= 0.72
 eig:   0.167  1.274
 bond charge predicted
       N       E                     dE             d eps       ncg     rms          rms(c)
DAV:   1    -0.331033655166E+04   -0.78960E-03   -0.83800E-02  3680   0.324E-01    0.472E-02
DAV:   2    -0.331033664445E+04   -0.92784E-04   -0.12986E-03  4224   0.365E-02    0.451E-02
DAV:   3    -0.331033662558E+04    0.18867E-04   -0.38239E-05  4224   0.817E-03    0.341E-02
DAV:   4    -0.331033662097E+04    0.46080E-05   -0.71304E-05  4128   0.983E-03    0.772E-03
DAV:   5    -0.331033662146E+04   -0.49092E-06   -0.15288E-05  4064   0.431E-03    0.494E-03
DAV:   6    -0.331033662155E+04   -0.87428E-07   -0.19818E-06  3200   0.170E-03
  40 F= -.33244154E+04 E0= -.33244154E+04  d E =-.841798E-03
 BRION: g(F)=  0.104E-02 g(S)=  0.000E+00 retain N=  2 mean eig= 0.10
 eig:   0.096  0.096
 bond charge predicted
       N       E                     dE             d eps       ncg     rms          rms(c)
DAV:   1    -0.331033705671E+04   -0.43524E-03   -0.28798E-02  3680   0.192E-01    0.273E-02
DAV:   2    -0.331033709111E+04   -0.34400E-04   -0.47423E-04  4256   0.224E-02    0.265E-02
DAV:   3    -0.331033708535E+04    0.57541E-05   -0.14725E-05  4384   0.463E-03    0.215E-02
DAV:   4    -0.331033708159E+04    0.37660E-05   -0.26144E-05  3904   0.626E-03    0.544E-03
DAV:   5    -0.331033708207E+04   -0.48208E-06   -0.57945E-06  3840   0.275E-03
  41 F= -.33244159E+04 E0= -.33244159E+04  d E =-.451658E-03
 BRION: g(F)=  0.109E-02 g(S)=  0.000E+00 retain N=  2 mean eig= 0.66
 eig:   0.096  1.219
 bond charge predicted
       N       E                     dE             d eps       ncg     rms          rms(c)
DAV:   1    -0.331033779234E+04   -0.71075E-03   -0.78488E-02  3680   0.315E-01    0.455E-02
DAV:   2    -0.331033788132E+04   -0.88979E-04   -0.12348E-03  4224   0.358E-02    0.437E-02
DAV:   3    -0.331033786449E+04    0.16829E-04   -0.36913E-05  4320   0.782E-03    0.338E-02
DAV:   4    -0.331033785912E+04    0.53657E-05   -0.69108E-05  4064   0.985E-03    0.769E-03
DAV:   5    -0.331033785968E+04   -0.55705E-06   -0.14927E-05  3968   0.437E-03    0.490E-03
DAV:   6    -0.331033785975E+04   -0.72527E-07   -0.20444E-06  3296   0.167E-03
  42 F= -.33244166E+04 E0= -.33244166E+04  d E =-.760089E-03
 BRION: g(F)=  0.109E-02 g(S)=  0.000E+00 retain N=  2 mean eig= 1.04
 eig:   0.140  1.947
 bond charge predicted
       N       E                     dE             d eps       ncg     rms          rms(c)
DAV:   1    -0.331033801369E+04   -0.15401E-03   -0.58463E-03  3744   0.902E-02    0.134E-02
DAV:   2    -0.331033802297E+04   -0.92854E-05   -0.12669E-04  4224   0.119E-02    0.136E-02
DAV:   3    -0.331033802222E+04    0.75041E-06   -0.41919E-06  3808   0.216E-03
  43 F= -.33244168E+04 E0= -.33244168E+04  d E =-.160221E-03
 BRION: g(F)=  0.959E-03 g(S)=  0.000E+00 retain N=  2 mean eig= 0.80
 eig:   0.241  1.361
 bond charge predicted
       N       E                     dE             d eps       ncg     rms          rms(c)
DAV:   1    -0.331033866187E+04   -0.63890E-03   -0.62116E-02  3680   0.279E-01    0.434E-02
DAV:   2    -0.331033872437E+04   -0.62498E-04   -0.93259E-04  4224   0.310E-02    0.408E-02
DAV:   3    -0.331033870784E+04    0.16536E-04   -0.32720E-05  4128   0.799E-03    0.280E-02
DAV:   4    -0.331033870781E+04    0.22119E-07   -0.51895E-05  4000   0.819E-03    0.643E-03
DAV:   5    -0.331033870764E+04    0.17055E-06   -0.12084E-05  4128   0.384E-03    0.432E-03
DAV:   6    -0.331033870773E+04   -0.87777E-07   -0.15980E-06  3008   0.154E-03
  44 F= -.33244175E+04 E0= -.33244175E+04  d E =-.670469E-03
 BRION: g(F)=  0.811E-03 g(S)=  0.000E+00 retain N=  2 mean eig= 0.61
 eig:   0.250  0.976
 bond charge predicted
       N       E                     dE             d eps       ncg     rms          rms(c)
DAV:   1    -0.331033949168E+04   -0.78404E-03   -0.13548E-01  3680   0.414E-01    0.593E-02
DAV:   2    -0.331033964458E+04   -0.15290E-03   -0.21400E-03  4192   0.471E-02    0.571E-02
DAV:   3    -0.331033961463E+04    0.29948E-04   -0.62266E-05  4320   0.101E-02    0.445E-02
DAV:   4    -0.331033960307E+04    0.11561E-04   -0.12499E-04  4128   0.132E-02    0.101E-02
DAV:   5    -0.331033960413E+04   -0.10590E-05   -0.26443E-05  4000   0.575E-03    0.647E-03
DAV:   6    -0.331033960430E+04   -0.17090E-06   -0.34838E-06  3872   0.217E-03
  45 F= -.33244184E+04 E0= -.33244184E+04  d E =-.874110E-03
 BRION: g(F)=  0.140E-02 g(S)=  0.000E+00 retain N=  3 mean eig= 1.93
 eig:   5.273  0.226  0.302
 bond charge predicted
       N       E                     dE             d eps       ncg     rms          rms(c)
DAV:   1    -0.331033717208E+04    0.24320E-02   -0.11257E+01  3680   0.376E+00    0.537E-01
DAV:   2    -0.331034971330E+04   -0.12541E-01   -0.17337E-01  4192   0.422E-01    0.515E-01
DAV:   3    -0.331034727829E+04    0.24350E-02   -0.49704E-03  4192   0.940E-02    0.395E-01
DAV:   4    -0.331034644137E+04    0.83692E-03   -0.10228E-02  4064   0.117E-01    0.850E-02
DAV:   5    -0.331034648517E+04   -0.43803E-04   -0.21468E-03  4032   0.511E-02    0.572E-02
DAV:   6    -0.331034649124E+04   -0.60726E-05   -0.28422E-04  4000   0.192E-02    0.249E-02
DAV:   7    -0.331034649779E+04   -0.65475E-05   -0.92222E-05  4160   0.108E-02    0.901E-03
DAV:   8    -0.331034649814E+04   -0.35577E-06   -0.20345E-05  4096   0.497E-03    0.561E-03
DAV:   9    -0.331034649743E+04    0.71083E-06   -0.26970E-06  3744   0.205E-03
  46 F= -.33244251E+04 E0= -.33244251E+04  d E =-.673202E-02
 BRION: g(F)=  0.132E-02 g(S)=  0.000E+00 retain N=  4 mean eig= 3.87
 eig:   7.087  7.087  0.237  1.079
 bond charge predicted
       N       E                     dE             d eps       ncg     rms          rms(c)
DAV:   1    -0.331034720752E+04   -0.70937E-03   -0.58976E-01  3680   0.860E-01    0.123E-01
DAV:   2    -0.331034785356E+04   -0.64604E-03   -0.90679E-03  4192   0.966E-02    0.118E-01
DAV:   3    -0.331034772538E+04    0.12818E-03   -0.26136E-04  4192   0.213E-02    0.907E-02
DAV:   4    -0.331034769032E+04    0.35054E-04   -0.55206E-04  4128   0.274E-02    0.195E-02
DAV:   5    -0.331034769184E+04   -0.15208E-05   -0.11552E-04  4032   0.121E-02    0.133E-02
DAV:   6    -0.331034769251E+04   -0.67009E-06   -0.15456E-05  4000   0.448E-03    0.562E-03
DAV:   7    -0.331034769287E+04   -0.35483E-06   -0.44256E-06  4064   0.239E-03
  47 F= -.33244262E+04 E0= -.33244262E+04  d E =-.116226E-02
 BRION: g(F)=  0.473E-03 g(S)=  0.000E+00 retain N=  3 mean eig= 1.92
 eig:   0.406  2.676  2.676
 bond charge predicted
       N       E                     dE             d eps       ncg     rms          rms(c)
DAV:   1    -0.331034577365E+04    0.19189E-02   -0.75006E-01  3680   0.972E-01    0.139E-01
DAV:   2    -0.331034660012E+04   -0.82647E-03   -0.11555E-02  4160   0.109E-01    0.134E-01
DAV:   3    -0.331034643843E+04    0.16169E-03   -0.33963E-04  4224   0.242E-02    0.103E-01
DAV:   4    -0.331034638598E+04    0.52451E-04   -0.68787E-04  4128   0.309E-02    0.223E-02
DAV:   5    -0.331034638884E+04   -0.28549E-05   -0.14674E-04  4000   0.140E-02    0.150E-02
DAV:   6    -0.331034638960E+04   -0.76531E-06   -0.20605E-05  4000   0.506E-03    0.645E-03
DAV:   7    -0.331034638994E+04   -0.33609E-06   -0.48872E-06  4160   0.254E-03
  48 F= -.33244250E+04 E0= -.33244250E+04  d E =0.126642E-02
 BRION: g(F)=  0.179E-02 g(S)=  0.000E+00 retain N=  4 mean eig= 2.01
 eig:   4.681  2.620  0.397  0.330
 bond charge predicted
       N       E                     dE             d eps       ncg     rms          rms(c)
DAV:   1    -0.331034574785E+04    0.64175E-03   -0.43745E+00  3680   0.234E+00    0.335E-01
DAV:   2    -0.331035055694E+04   -0.48091E-02   -0.67141E-02  4160   0.263E-01    0.321E-01
DAV:   3    -0.331034959280E+04    0.96415E-03   -0.19314E-03  4192   0.584E-02    0.246E-01
DAV:   4    -0.331034929108E+04    0.30172E-03   -0.40115E-03  4096   0.736E-02    0.528E-02
DAV:   5    -0.331034930485E+04   -0.13776E-04   -0.84693E-04  4032   0.322E-02    0.357E-02
DAV:   6    -0.331034930902E+04   -0.41638E-05   -0.11091E-04  4000   0.121E-02    0.153E-02
DAV:   7    -0.331034931193E+04   -0.29174E-05   -0.35738E-05  4160   0.670E-03    0.584E-03
DAV:   8    -0.331034931208E+04   -0.15029E-06   -0.78162E-06  4096   0.311E-03
  49 F= -.33244278E+04 E0= -.33244278E+04  d E =-.283451E-02
 BRION: g(F)=  0.265E-03 g(S)=  0.000E+00 retain N=  3 mean eig= 2.65
 eig:   6.555  0.697  0.697
 bond charge predicted
       N       E                     dE             d eps       ncg     rms          rms(c)
DAV:   1    -0.331034954809E+04   -0.23615E-03   -0.37853E-02  3712   0.220E-01    0.311E-02
DAV:   2    -0.331034959122E+04   -0.43130E-04   -0.61303E-04  4224   0.256E-02    0.305E-02
DAV:   3    -0.331034958316E+04    0.80577E-05   -0.16949E-05  4320   0.508E-03    0.251E-02
DAV:   4    -0.331034957883E+04    0.43277E-05   -0.41064E-05  3840   0.765E-03    0.601E-03
DAV:   5    -0.331034957943E+04   -0.59360E-06   -0.83029E-06  3904   0.314E-03
  50 F= -.33244281E+04 E0= -.33244281E+04  d E =-.264099E-03
 BRION: g(F)=  0.355E-03 g(S)=  0.000E+00 retain N=  2 mean eig= 0.84
 eig:   1.356  0.323
 bond charge predicted
       N       E                     dE             d eps       ncg     rms          rms(c)
DAV:   1    -0.331034958929E+04   -0.10462E-04   -0.23638E-03  3744   0.575E-02    0.870E-03
DAV:   2    -0.331034959286E+04   -0.35668E-05   -0.50169E-05  4352   0.756E-03    0.877E-03
DAV:   3    -0.331034959240E+04    0.45577E-06   -0.13530E-06  2688   0.141E-03
  51 F= -.33244281E+04 E0= -.33244281E+04  d E =-.146603E-04
 BRION: g(F)=  0.258E-03 g(S)=  0.000E+00 retain N=  1 mean eig= 0.21
 eig:   0.215
 bond charge predicted
       N       E                     dE             d eps       ncg     rms          rms(c)
DAV:   1    -0.331034980497E+04   -0.21211E-03   -0.29701E-02  3712   0.195E-01    0.279E-02
DAV:   2    -0.331034983861E+04   -0.33643E-04   -0.47694E-04  4096   0.225E-02    0.273E-02
DAV:   3    -0.331034983217E+04    0.64445E-05   -0.13123E-05  4288   0.452E-03    0.223E-02
DAV:   4    -0.331034982925E+04    0.29210E-05   -0.31379E-05  3744   0.665E-03    0.512E-03
DAV:   5    -0.331034982962E+04   -0.36915E-06   -0.65011E-06  3776   0.277E-03
  52 F= -.33244283E+04 E0= -.33244283E+04  d E =-.233276E-03
 BRION: g(F)=  0.297E-03 g(S)=  0.000E+00 retain N=  2 mean eig= 0.30
 eig:   0.217  0.386
 bond charge predicted
       N       E                     dE             d eps       ncg     rms          rms(c)
DAV:   1    -0.331034989708E+04   -0.67832E-04   -0.30032E-03  3776   0.633E-02    0.938E-03
DAV:   2    -0.331034990139E+04   -0.43107E-05   -0.57350E-05  4320   0.794E-03    0.943E-03
DAV:   3    -0.331034990091E+04    0.47858E-06   -0.13489E-06  2624   0.143E-03
  53 F= -.33244284E+04 E0= -.33244284E+04  d E =-.715502E-04
 BRION: g(F)=  0.262E-03 g(S)=  0.000E+00 retain N=  1 mean eig= 0.16
 eig:   0.160
 bond charge predicted
       N       E                     dE             d eps       ncg     rms          rms(c)
DAV:   1    -0.331035008892E+04   -0.18753E-03   -0.23247E-02  3776   0.172E-01    0.260E-02
DAV:   2    -0.331035011354E+04   -0.24627E-04   -0.35897E-04  4256   0.195E-02    0.251E-02
DAV:   3    -0.331035010776E+04    0.57850E-05   -0.98965E-06  4160   0.433E-03    0.190E-02
DAV:   4    -0.331035010712E+04    0.63668E-06   -0.22841E-05  3840   0.561E-03    0.425E-03
DAV:   5    -0.331035010720E+04   -0.80443E-07   -0.51028E-06  3264   0.245E-03
  54 F= -.33244286E+04 E0= -.33244286E+04  d E =-.204911E-03
 BRION: g(F)=  0.261E-03 g(S)=  0.000E+00 retain N=  2 mean eig= 0.32
 eig:   0.033  0.606
 bond charge predicted
       N       E                     dE             d eps       ncg     rms          rms(c)
DAV:   1    -0.331035019652E+04   -0.89400E-04   -0.64305E-03  3776   0.920E-02    0.135E-02
DAV:   2    -0.331035020509E+04   -0.85653E-05   -0.11745E-04  4256   0.114E-02    0.135E-02
DAV:   3    -0.331035020403E+04    0.10617E-05   -0.33590E-06  3296   0.211E-03    0.120E-02
DAV:   4    -0.331035020258E+04    0.14518E-05   -0.10379E-05  3712   0.407E-03    0.307E-03
DAV:   5    -0.331035020265E+04   -0.71595E-07   -0.18777E-06  2688   0.181E-03
  55 F= -.33244287E+04 E0= -.33244287E+04  d E =-.931843E-04
 BRION: g(F)=  0.313E-03 g(S)=  0.000E+00 retain N=  1 mean eig= 0.22
 eig:   0.217
 bond charge predicted
       N       E                     dE             d eps       ncg     rms          rms(c)
DAV:   1    -0.331035033201E+04   -0.12944E-03   -0.15876E-02  3776   0.144E-01    0.209E-02
DAV:   2    -0.331035035228E+04   -0.20266E-04   -0.28068E-04  4192   0.174E-02    0.208E-02
DAV:   3    -0.331035034925E+04    0.30276E-05   -0.79543E-06  4320   0.326E-03    0.179E-02
DAV:   4    -0.331035034591E+04    0.33432E-05   -0.16059E-05  3712   0.505E-03    0.520E-03
DAV:   5    -0.331035034634E+04   -0.43458E-06   -0.38549E-06  2848   0.226E-03
  56 F= -.33244288E+04 E0= -.33244288E+04  d E =-.140987E-03
 BRION: g(F)=  0.475E-03 g(S)=  0.000E+00 retain N=  2 mean eig= 0.14
 eig:   0.135  0.135
 bond charge predicted
       N       E                     dE             d eps       ncg     rms          rms(c)
DAV:   1    -0.331035041318E+04   -0.67274E-04   -0.25024E-03  3744   0.592E-02    0.916E-03
DAV:   2    -0.331035041720E+04   -0.40216E-05   -0.55751E-05  4256   0.796E-03    0.927E-03
DAV:   3    -0.331035041677E+04    0.43074E-06   -0.15584E-06  2720   0.147E-03
  57 F= -.33244289E+04 E0= -.33244289E+04  d E =-.706343E-04
 BRION: g(F)=  0.228E-03 g(S)=  0.000E+00 retain N=  2 mean eig= 3.37
 eig:   0.226  6.506
 reached required accuracy - stopping structural energy minimisation
 PROFILE, used timers:     336
