Ge Se
 1.0000000000000000
     4.7999999999999998    0.0000000000000000    0.0000000000000000
     0.0000000000000000    4.0500000000000007    0.0000000000000000
     0.0000000000000000    0.0000000000000000   11.1422209999999993
 Ge  Se 
   4   4
Selective dynamics
Cartesian
  0.5361888966698606  1.0125000000000002  1.4135634211671901   T   T   T
  2.9361888966698602  3.0375000000000005  4.1575470788328026   T   T   T
  4.2638111033301378  3.0375000000000005  9.7286575788328022   T   T   T
  1.8638111033301381  1.0125000000000002  6.9846739211671895   T   T   T
 -0.1878072447945978  1.0125000000000002  3.8913568413963739   T   T   T
  2.2121927552054017  3.0375000000000005  1.6797536586036188   T   T   T
  4.9878072447945954  3.0375000000000005  7.2508641586036182   T   T   T
  2.5878072447945963  1.0125000000000002  9.4624673413963727   T   T   T
