Ge Se                                   
    1.000000000000000     
     3.8581001758999998    0.0000000000000000    0.0000000000000000
     0.0000000000000000    4.5265750884999987    0.0000000000000000
     0.0000000000000000    0.0000000000000000   11.0851764678999984
   Ge   Se
     4     4
Direct
  0.8586956521739140  0.9981784054293570  0.1229826644232546
  0.3586956521739140  0.4981784054293570  0.3770173355767454
  0.7500000000000000  0.8858795655851353  0.8770173355767454
  0.2500000000000000  0.3858795655851353  0.6229826644232546
  0.8586956521739140  0.8773678599662915  0.3523818102187519
  0.3586956521739140  0.3773678599662915  0.1476181897812481
  0.7500000000000000  0.0066901110482007  0.6476181897812481
  0.2500000000000000  0.5066901110482007  0.8523818102187519
 
  0.00000000E+00  0.00000000E+00  0.00000000E+00
  0.00000000E+00  0.00000000E+00  0.00000000E+00
  0.00000000E+00  0.00000000E+00  0.00000000E+00
  0.00000000E+00  0.00000000E+00  0.00000000E+00
  0.00000000E+00  0.00000000E+00  0.00000000E+00
  0.00000000E+00  0.00000000E+00  0.00000000E+00
  0.00000000E+00  0.00000000E+00  0.00000000E+00
  0.00000000E+00  0.00000000E+00  0.00000000E+00
