Ge Se                                   
    1.000000000000000     
    12.4136193605247236    0.0000059534735689   -0.0000024888479094
     0.0000060006980157   12.5120785078842101   -0.0000025179289726
    -0.0000028561123070   -0.0000028667449482   11.0663776323554721
   Ge   Se
    36    36
Direct
  0.0845743557654046  0.0398539334510133  0.1146766800744814
  0.2303167057851141  0.8917085744840847  0.3585619541612886
  0.5642673487029626  0.2173753781360546  0.3740993416223546
  0.5639169425090245  0.5367230383552553  0.3524361345355729
  0.5661098007909828  0.8442082038891527  0.3808613778872356
  0.8977898566290818  0.1945382570279861  0.3644347790569782
  0.9129023579644979  0.5287114226440579  0.3709573430429458
  0.9065508205775146  0.8838400457099667  0.3741408750666508
  0.0990808021704339  0.1748225665338055  0.6247367319392509
  0.0584947913315972  0.4836692698310898  0.6264712179649905
  0.0795970357528759  0.8156939797271505  0.6200981042249580
  0.4078575976174079  0.1420994271543563  0.6337741956246745
  0.4278275920878158  0.5074047988465153  0.6344878212283120
  0.4070566052907481  0.8109153407435628  0.6406396719581693
  0.7390445667326517  0.1420313708180387  0.6363747133185740
  0.7444532152056951  0.4851501376779765  0.6275182530007655
  0.2190326031076921  0.5510292990875527  0.3590362573697945
  0.2606191267949995  0.2091358715831504  0.3779180107907294
  0.7487884464779171  0.8292312565276774  0.6416953664858482
  0.9143594671944939  0.6489297739983186  0.8547257074983108
  0.9140436375395495  0.9906369165832203  0.8618866252680988
  0.0525606517504684  0.3506877511177180  0.1424644903968755
  0.0695448964374137  0.7118923595533957  0.1302656092075480
  0.4085718603593804  0.0462688478721560  0.1165586485412575
  0.4093317606040827  0.3778446680114342  0.1167848270699636
  0.7427165511585727  0.0369469318397080  0.1337656402916139
  0.7341160353327183  0.3814658828570003  0.1237779402733210
  0.4051857853433347  0.7136641804363251  0.1498255181952217
  0.2569205470637215  0.3309151821260770  0.8699760489432506
  0.2399766964321088  0.6404843823472177  0.8876318397093641
  0.2370637547253978  0.9794907061802789  0.8637479140363595
  0.5864600041174839  0.3294340852631450  0.8668093309506020
  0.5896052261568556  0.6659173631457023  0.8835278154106589
  0.5677675491636336  0.9761356804572330  0.8626589814250067
  0.9074256241552305  0.3063640627270274  0.8480481233819361
  0.7346161363766157  0.7127971936308626  0.1302290838167011
  0.8852813297557773  0.9925222816658845  0.6302790987254951
  0.2270742751955055  0.3365916736082966  0.6359438640866131
  0.2350839663174469  0.6827331040250755  0.6396320863532807
  0.5689602613510942  0.0126813345001295  0.6195595531814035
  0.5837526981294801  0.3576252505304538  0.6420635157601424
  0.5646225429331935  0.6628896577032251  0.6455505189876476
  0.8987668154223698  0.3434474705870940  0.6181293241372927
  0.7370774755439129  0.0160844653216259  0.3535106028645316
  0.0710097968121914  0.0267750765382075  0.3494448506224543
  0.0932614178121369  0.3539664641958353  0.3686810798283204
  0.0610499782405824  0.6886767127894728  0.3681742322987915
  0.4160502150910617  0.0051437782576755  0.3455691309482347
  0.4027130879146057  0.3468515967735826  0.3378297237342949
  0.4041008953954091  0.6858998467761452  0.3670878493218837
  0.2526265850606961  0.0030714337977500  0.6389309720326040
  0.9156924957771082  0.6829809196040486  0.6355907683584192
  0.9038019854514872  0.8465602814345630  0.1462137214683352
  0.2399659384251578  0.1699766748653815  0.1440535935576150
  0.9127281793040751  0.1824991884620104  0.1402668673313414
  0.7453229182171555  0.3436906637905608  0.3539531827661264
  0.0515013310333217  0.1625328834771480  0.8532606029267171
  0.0690388399738993  0.5015838396241392  0.8715098771722865
  0.0689509770253736  0.8477376833696013  0.8693951561250657
  0.4065657501751829  0.1977529881139191  0.8649268990825334
  0.3925688581724671  0.5078556917978574  0.8720659004024185
  0.3949632536316372  0.8351789400693121  0.8692679113584489
  0.7343343657018266  0.1846573501022277  0.8654028433619416
  0.7477797370220856  0.5201858648137474  0.8622468054656309
  0.7192476322643557  0.8462696713184954  0.8707996992182672
  0.2417249996987891  0.5300092997629804  0.1468443773941459
  0.2386464417668606  0.8511093508906669  0.1356792773663145
  0.5667979880405056  0.1852996723960914  0.1455785493889721
  0.5607984081549944  0.5149218914166553  0.1378608480750572
  0.5847263775991962  0.8434792193521403  0.1357674901802142
  0.9008474513112645  0.4906817836768909  0.1395306133080396
  0.7139466568462751  0.6651572545281894  0.3511437191685900
 
  0.00000000E+00  0.00000000E+00  0.00000000E+00
  0.00000000E+00  0.00000000E+00  0.00000000E+00
  0.00000000E+00  0.00000000E+00  0.00000000E+00
  0.00000000E+00  0.00000000E+00  0.00000000E+00
  0.00000000E+00  0.00000000E+00  0.00000000E+00
  0.00000000E+00  0.00000000E+00  0.00000000E+00
  0.00000000E+00  0.00000000E+00  0.00000000E+00
  0.00000000E+00  0.00000000E+00  0.00000000E+00
  0.00000000E+00  0.00000000E+00  0.00000000E+00
  0.00000000E+00  0.00000000E+00  0.00000000E+00
  0.00000000E+00  0.00000000E+00  0.00000000E+00
  0.00000000E+00  0.00000000E+00  0.00000000E+00
  0.00000000E+00  0.00000000E+00  0.00000000E+00
  0.00000000E+00  0.00000000E+00  0.00000000E+00
  0.00000000E+00  0.00000000E+00  0.00000000E+00
  0.00000000E+00  0.00000000E+00  0.00000000E+00
  0.00000000E+00  0.00000000E+00  0.00000000E+00
  0.00000000E+00  0.00000000E+00  0.00000000E+00
  0.00000000E+00  0.00000000E+00  0.00000000E+00
  0.00000000E+00  0.00000000E+00  0.00000000E+00
  0.00000000E+00  0.00000000E+00  0.00000000E+00
  0.00000000E+00  0.00000000E+00  0.00000000E+00
  0.00000000E+00  0.00000000E+00  0.00000000E+00
  0.00000000E+00  0.00000000E+00  0.00000000E+00
  0.00000000E+00  0.00000000E+00  0.00000000E+00
  0.00000000E+00  0.00000000E+00  0.00000000E+00
  0.00000000E+00  0.00000000E+00  0.00000000E+00
  0.00000000E+00  0.00000000E+00  0.00000000E+00
  0.00000000E+00  0.00000000E+00  0.00000000E+00
  0.00000000E+00  0.00000000E+00  0.00000000E+00
  0.00000000E+00  0.00000000E+00  0.00000000E+00
  0.00000000E+00  0.00000000E+00  0.00000000E+00
  0.00000000E+00  0.00000000E+00  0.00000000E+00
  0.00000000E+00  0.00000000E+00  0.00000000E+00
  0.00000000E+00  0.00000000E+00  0.00000000E+00
  0.00000000E+00  0.00000000E+00  0.00000000E+00
  0.00000000E+00  0.00000000E+00  0.00000000E+00
  0.00000000E+00  0.00000000E+00  0.00000000E+00
  0.00000000E+00  0.00000000E+00  0.00000000E+00
  0.00000000E+00  0.00000000E+00  0.00000000E+00
  0.00000000E+00  0.00000000E+00  0.00000000E+00
  0.00000000E+00  0.00000000E+00  0.00000000E+00
  0.00000000E+00  0.00000000E+00  0.00000000E+00
  0.00000000E+00  0.00000000E+00  0.00000000E+00
  0.00000000E+00  0.00000000E+00  0.00000000E+00
  0.00000000E+00  0.00000000E+00  0.00000000E+00
  0.00000000E+00  0.00000000E+00  0.00000000E+00
  0.00000000E+00  0.00000000E+00  0.00000000E+00
  0.00000000E+00  0.00000000E+00  0.00000000E+00
  0.00000000E+00  0.00000000E+00  0.00000000E+00
  0.00000000E+00  0.00000000E+00  0.00000000E+00
  0.00000000E+00  0.00000000E+00  0.00000000E+00
  0.00000000E+00  0.00000000E+00  0.00000000E+00
  0.00000000E+00  0.00000000E+00  0.00000000E+00
  0.00000000E+00  0.00000000E+00  0.00000000E+00
  0.00000000E+00  0.00000000E+00  0.00000000E+00
  0.00000000E+00  0.00000000E+00  0.00000000E+00
  0.00000000E+00  0.00000000E+00  0.00000000E+00
  0.00000000E+00  0.00000000E+00  0.00000000E+00
  0.00000000E+00  0.00000000E+00  0.00000000E+00
  0.00000000E+00  0.00000000E+00  0.00000000E+00
  0.00000000E+00  0.00000000E+00  0.00000000E+00
  0.00000000E+00  0.00000000E+00  0.00000000E+00
  0.00000000E+00  0.00000000E+00  0.00000000E+00
  0.00000000E+00  0.00000000E+00  0.00000000E+00
  0.00000000E+00  0.00000000E+00  0.00000000E+00
  0.00000000E+00  0.00000000E+00  0.00000000E+00
  0.00000000E+00  0.00000000E+00  0.00000000E+00
  0.00000000E+00  0.00000000E+00  0.00000000E+00
  0.00000000E+00  0.00000000E+00  0.00000000E+00
  0.00000000E+00  0.00000000E+00  0.00000000E+00
  0.00000000E+00  0.00000000E+00  0.00000000E+00
