Ge Se                                   
    1.000000000000000     
     4.5999999999999996    0.0000000000000000    0.0000000000000000
     0.0000000000000000    4.1500000000000004    0.0000000000000000
     0.0000000000000000    0.0000000000000000   11.1422209999999993
   Ge   Se
     4     4
Selective dynamics
Direct
  0.1107564949418318  0.2500000000000000  0.1285244318832071   T   T   T
  0.6107564949418318  0.7500000000000000  0.3714755681167929   T   T   T
  0.8892435050581682  0.7500000000000000  0.8714755681167929   T   T   T
  0.3892435050581682  0.2500000000000000  0.6285244318832071   T   T   T
  0.9712886792434148  0.2500000000000000  0.3518013600294978   T   T   T
  0.4712886792434148  0.7500000000000000  0.1481986399705022   T   T   T
  0.0287113207565852  0.7500000000000000  0.6481986399705022   T   T   T
  0.5287113207565852  0.2500000000000000  0.8518013600294978   T   T   T
 
  0.00000000E+00  0.00000000E+00  0.00000000E+00
  0.00000000E+00  0.00000000E+00  0.00000000E+00
  0.00000000E+00  0.00000000E+00  0.00000000E+00
  0.00000000E+00  0.00000000E+00  0.00000000E+00
  0.00000000E+00  0.00000000E+00  0.00000000E+00
  0.00000000E+00  0.00000000E+00  0.00000000E+00
  0.00000000E+00  0.00000000E+00  0.00000000E+00
  0.00000000E+00  0.00000000E+00  0.00000000E+00
