Ge Se                                   
    1.000000000000000     
     3.8499999999999996    0.0000000000000000    0.0000000000000000
     0.0000000000000000    4.1499999999999995    0.0000000000000000
     0.0000000000000000    0.0000000000000000   11.1422209999999993
   Ge   Se
     4     4
Selective dynamics
Direct
  0.2500000000000000  0.1013747066955304  0.1255145419240336   T   T   T
  0.7500000000000000  0.6013747066955304  0.3744854580759664   T   T   T
  0.7500000000000000  0.8986252933044696  0.8744854580759664   T   T   T
  0.2500000000000000  0.3986252933044696  0.6255145419240336   T   T   T
  0.2500000000000000  0.0159873001183328  0.3564981624100838   T   T   T
  0.7500000000000000  0.5159873001183328  0.1435018375899162   T   T   T
  0.7500000000000000  0.9840126998816672  0.6435018375899162   T   T   T
  0.2500000000000000  0.4840126998816672  0.8564981624100838   T   T   T
 
  0.00000000E+00  0.00000000E+00  0.00000000E+00
  0.00000000E+00  0.00000000E+00  0.00000000E+00
  0.00000000E+00  0.00000000E+00  0.00000000E+00
  0.00000000E+00  0.00000000E+00  0.00000000E+00
  0.00000000E+00  0.00000000E+00  0.00000000E+00
  0.00000000E+00  0.00000000E+00  0.00000000E+00
  0.00000000E+00  0.00000000E+00  0.00000000E+00
  0.00000000E+00  0.00000000E+00  0.00000000E+00
