Ge Se                                   
    1.000000000000000     
     4.2500000000000000    0.0000000000000000    0.0000000000000000
     0.0000000000000000    4.5000000000000000    0.0000000000000000
     0.0000000000000000    0.0000000000000000   11.1422209999999975
   Ge   Se
     4     4
Selective dynamics
Direct
  0.2500000000000000  0.1067594575276516  0.1305436010725955   T   T   T
  0.7500000000000000  0.6067594575276516  0.3694563989274045   T   T   T
  0.7500000000000000  0.8932405424723484  0.8694563989274045   T   T   T
  0.2500000000000000  0.3932405424723484  0.6305436010725955   T   T   T
  0.2500000000000000  0.9713931889329217  0.3534109378717289   T   T   T
  0.7500000000000000  0.4713931889329217  0.1465890621282711   T   T   T
  0.7500000000000000  0.0286068110670783  0.6465890621282711   T   T   T
  0.2500000000000000  0.5286068110670783  0.8534109378717289   T   T   T
 
  0.00000000E+00  0.00000000E+00  0.00000000E+00
  0.00000000E+00  0.00000000E+00  0.00000000E+00
  0.00000000E+00  0.00000000E+00  0.00000000E+00
  0.00000000E+00  0.00000000E+00  0.00000000E+00
  0.00000000E+00  0.00000000E+00  0.00000000E+00
  0.00000000E+00  0.00000000E+00  0.00000000E+00
  0.00000000E+00  0.00000000E+00  0.00000000E+00
  0.00000000E+00  0.00000000E+00  0.00000000E+00
