INCAR created by Atomic Simulation Environment
 ENCUT = 520.000000
 SIGMA = 0.050000
 EDIFF = 1.00e-06
 ALGO = N
 GGA = PE
 PREC = Accurate
 SYSTEM = 01_AOPT
 ICHARG = 0
 ISMEAR = 0
 ISPIN = 2
 ISTART = 1
 ISYM = -1
 KPAR = 2
 LORBIT = 11
 NBANDS = 220
 NELM = 100
 NELMIN = 5
 NPAR = 8
 LASPH = .TRUE.
 LCHARG = .FALSE.
 LWAVE = .FALSE.
 LREAL = .FALSE.
