Ge Se                                   
    1.000000000000000     
     4.2500000000000000    0.0000000000000000    0.0000000000000000
     0.0000000000000000    4.0999999999999988    0.0000000000000000
     0.0000000000000000    0.0000000000000000   11.1422209999999975
   Ge   Se
     4     4
Selective dynamics
Direct
  0.1005476346175769  0.2500000000000000  0.1300312670418080   T   T   T
  0.6005476346175769  0.7500000000000000  0.3699687329581849   T   T   T
  0.8994523653824231  0.7500000000000000  0.8699687329581849   T   T   T
  0.3994523653824231  0.2500000000000000  0.6300312670418080   T   T   T
  0.9973591958128338  0.2500000000000000  0.3569522239401479   T   T   T
  0.4973591958128338  0.7500000000000000  0.1430477760598521   T   T   T
  0.0026408041871662  0.7500000000000000  0.6430477760598521   T   T   T
  0.5026408041871662  0.2500000000000000  0.8569522239401479   T   T   T
 
  0.00000000E+00  0.00000000E+00  0.00000000E+00
  0.00000000E+00  0.00000000E+00  0.00000000E+00
  0.00000000E+00  0.00000000E+00  0.00000000E+00
  0.00000000E+00  0.00000000E+00  0.00000000E+00
  0.00000000E+00  0.00000000E+00  0.00000000E+00
  0.00000000E+00  0.00000000E+00  0.00000000E+00
  0.00000000E+00  0.00000000E+00  0.00000000E+00
  0.00000000E+00  0.00000000E+00  0.00000000E+00
