Ge Se                                   
    1.000000000000000     
     4.7999999999999998    0.0000000000000000    0.0000000000000000
     0.0000000000000000    4.4500000000000002    0.0000000000000000
     0.0000000000000000    0.0000000000000000   11.1422209999999993
   Ge   Se
     4     4
Selective dynamics
Direct
  0.1122421907646398  0.2500000000000000  0.1338271478916013   T   T   T
  0.6122421907646398  0.7500000000000000  0.3661728521083987   T   T   T
  0.8877578092353602  0.7500000000000000  0.8661728521083987   T   T   T
  0.3877578092353602  0.2500000000000000  0.6338271478916013   T   T   T
  0.9473728744253052  0.2500000000000000  0.3501032689307948   T   T   T
  0.4473728744253052  0.7500000000000000  0.1498967310692052   T   T   T
  0.0526271255746948  0.7500000000000000  0.6498967310692052   T   T   T
  0.5526271255746948  0.2500000000000000  0.8501032689307948   T   T   T
 
  0.00000000E+00  0.00000000E+00  0.00000000E+00
  0.00000000E+00  0.00000000E+00  0.00000000E+00
  0.00000000E+00  0.00000000E+00  0.00000000E+00
  0.00000000E+00  0.00000000E+00  0.00000000E+00
  0.00000000E+00  0.00000000E+00  0.00000000E+00
  0.00000000E+00  0.00000000E+00  0.00000000E+00
  0.00000000E+00  0.00000000E+00  0.00000000E+00
  0.00000000E+00  0.00000000E+00  0.00000000E+00
