Ge Se 
 1.0000000000000000
    23.3038576169270186    0.0000000000000000    0.0000000000000000
     0.0000000000000000   27.3416086400291292    0.0000000000000000
     0.0000000000000000    0.0000000000000000   22.3190494962531787
 Ge  Se 
 288 288
Cartesian
  0.9709940678226495  0.5357901633445292  1.4091459435658886
  4.8549703373104869  0.5357901633445292  1.3991459435658877
  8.7389466067983221  0.5357901633445292  1.3991459435658877
 12.6229228762861592  0.5357901633445292  1.3991459435658877
 16.5068991457739962  0.5357901633445292  1.3991459435658877
 20.3908754152618314  0.5357901633445292  1.3991459435658877
  0.9709940678226495  5.0927249366827150  1.3991459435658877
  4.8549703373104869  5.0927249366827150  1.3991459435658877
  8.7389466067983221  5.0927249366827150  1.3991459435658877
 12.6229228762861592  5.0927249366827150  1.3991459435658877
 16.5068991457739962  5.0927249366827150  1.3991459435658877
 20.3908754152618314  5.0927249366827150  1.3991459435658877
  0.9709940678226495  9.6496597100209041  1.3991459435658877
  4.8549703373104869  9.6496597100209041  1.3991459435658877
  8.7389466067983221  9.6496597100209041  1.3991459435658877
 12.6229228762861592  9.6496597100209041  1.3991459435658877
 16.5068991457739962  9.6496597100209041  1.3991459435658877
 20.3908754152618314  9.6496597100209041  1.3991459435658877
  0.9709940678226495 14.2065944833590958  1.3991459435658877
  4.8549703373104869 14.2065944833590958  1.3991459435658877
  8.7389466067983221 14.2065944833590958  1.3991459435658877
 12.6229228762861592 14.2065944833590958  1.3991459435658877
 16.5068991457739962 14.2065944833590958  1.3991459435658877
 20.3908754152618314 14.2065944833590958  1.3991459435658877
  0.9709940678226495 18.7635292566972822  1.3991459435658877
  4.8549703373104869 18.7635292566972822  1.3991459435658877
  8.7389466067983221 18.7635292566972822  1.3991459435658877
 12.6229228762861592 18.7635292566972822  1.3991459435658877
 16.5068991457739962 18.7635292566972822  1.3991459435658877
 20.3908754152618314 18.7635292566972822  1.3991459435658877
  0.9709940678226495 23.3204640300354669  1.3991459435658877
  4.8549703373104869 23.3204640300354669  1.3991459435658877
  8.7389466067983221 23.3204640300354669  1.3991459435658877
 12.6229228762861592 23.3204640300354669  1.3991459435658877
 16.5068991457739962 23.3204640300354669  1.3991459435658877
 20.3908754152618314 23.3204640300354669  1.3991459435658877
  0.9709940678226495  0.5357901633445292 12.5586706916924769
  4.8549703373104869  0.5357901633445292 12.5586706916924769
  8.7389466067983221  0.5357901633445292 12.5586706916924769
 12.6229228762861592  0.5357901633445292 12.5586706916924769
 16.5068991457739962  0.5357901633445292 12.5586706916924769
 20.3908754152618314  0.5357901633445292 12.5586706916924769
  0.9709940678226495  5.0927249366827150 12.5586706916924769
  4.8549703373104869  5.0927249366827150 12.5586706916924769
  8.7389466067983221  5.0927249366827150 12.5586706916924769
 12.6229228762861592  5.0927249366827150 12.5586706916924769
 16.5068991457739962  5.0927249366827150 12.5586706916924769
 20.3908754152618314  5.0927249366827150 12.5586706916924769
  0.9709940678226495  9.6496597100209041 12.5586706916924769
  4.8549703373104869  9.6496597100209041 12.5586706916924769
  8.7389466067983221  9.6496597100209041 12.5586706916924769
 12.6229228762861592  9.6496597100209041 12.5586706916924769
 16.5068991457739962  9.6496597100209041 12.5586706916924769
 20.3908754152618314  9.6496597100209041 12.5586706916924769
  0.9709940678226495 14.2065944833590958 12.5586706916924769
  4.8549703373104869 14.2065944833590958 12.5586706916924769
  8.7389466067983221 14.2065944833590958 12.5586706916924769
 12.6229228762861592 14.2065944833590958 12.5586706916924769
 16.5068991457739962 14.2065944833590958 12.5586706916924769
 20.3908754152618314 14.2065944833590958 12.5586706916924769
  0.9709940678226495 18.7635292566972822 12.5586706916924769
  4.8549703373104869 18.7635292566972822 12.5586706916924769
  8.7389466067983221 18.7635292566972822 12.5586706916924769
 12.6229228762861592 18.7635292566972822 12.5586706916924769
 16.5068991457739962 18.7635292566972822 12.5586706916924769
 20.3908754152618314 18.7635292566972822 12.5586706916924769
  0.9709940678226495 23.3204640300354669 12.5586706916924769
  4.8549703373104869 23.3204640300354669 12.5586706916924769
  8.7389466067983221 23.3204640300354669 12.5586706916924769
 12.6229228762861592 23.3204640300354669 12.5586706916924769
 16.5068991457739962 23.3204640300354669 12.5586706916924769
 20.3908754152618314 23.3204640300354669 12.5586706916924769
  2.9129822024664183  4.0211447126528368  9.7603786385032354
  6.7969584719542535  4.0211447126528368  9.7603786385032354
 10.6809347414420905  4.0211447126528368  9.7603786385032354
 14.5649110109299276  4.0211447126528368  9.7603786385032354
 18.4488872804177646  4.0211447126528368  9.7603786385032354
 22.3328635499055999  4.0211447126528368  9.7603786385032354
  2.9129822024664183  8.5780794859910259  9.7603786385032354
  6.7969584719542535  8.5780794859910259  9.7603786385032354
 10.6809347414420905  8.5780794859910259  9.7603786385032354
 14.5649110109299276  8.5780794859910259  9.7603786385032354
 18.4488872804177646  8.5780794859910259  9.7603786385032354
 22.3328635499055999  8.5780794859910259  9.7603786385032354
  2.9129822024664183 13.1350142593292123  9.7603786385032354
  6.7969584719542535 13.1350142593292123  9.7603786385032354
 10.6809347414420905 13.1350142593292123  9.7603786385032354
 14.5649110109299276 13.1350142593292123  9.7603786385032354
 18.4488872804177646 13.1350142593292123  9.7603786385032354
 22.3328635499055999 13.1350142593292123  9.7603786385032354
  2.9129822024664183 17.6919490326673987  9.7603786385032354
  6.7969584719542535 17.6919490326673987  9.7603786385032354
 10.6809347414420905 17.6919490326673987  9.7603786385032354
 14.5649110109299276 17.6919490326673987  9.7603786385032354
 18.4488872804177646 17.6919490326673987  9.7603786385032354
 22.3328635499055999 17.6919490326673987  9.7603786385032354
  2.9129822024664183 22.2488838060055905  9.7603786385032354
  6.7969584719542535 22.2488838060055905  9.7603786385032354
 10.6809347414420905 22.2488838060055905  9.7603786385032354
 14.5649110109299276 22.2488838060055905  9.7603786385032354
 18.4488872804177646 22.2488838060055905  9.7603786385032354
 22.3328635499055999 22.2488838060055905  9.7603786385032354
  2.9129822024664183 26.8058185793437751  9.7603786385032354
  6.7969584719542535 26.8058185793437751  9.7603786385032354
 10.6809347414420905 26.8058185793437751  9.7603786385032354
 14.5649110109299276 26.8058185793437751  9.7603786385032354
 18.4488872804177646 26.8058185793437751  9.7603786385032354
 22.3328635499055999 26.8058185793437751  9.7603786385032354
  2.9129822024664183  4.0211447126528368 20.9199033866298230
  6.7969584719542535  4.0211447126528368 20.9199033866298230
 10.6809347414420905  4.0211447126528368 20.9199033866298230
 14.5649110109299276  4.0211447126528368 20.9199033866298230
 18.4488872804177646  4.0211447126528368 20.9199033866298230
 22.3328635499055999  4.0211447126528368 20.9199033866298230
  2.9129822024664183  8.5780794859910259 20.9199033866298230
  6.7969584719542535  8.5780794859910259 20.9199033866298230
 10.6809347414420905  8.5780794859910259 20.9199033866298230
 14.5649110109299276  8.5780794859910259 20.9199033866298230
 18.4488872804177646  8.5780794859910259 20.9199033866298230
 22.3328635499055999  8.5780794859910259 20.9199033866298230
  2.9129822024664183 13.1350142593292123 20.9199033866298230
  6.7969584719542535 13.1350142593292123 20.9199033866298230
 10.6809347414420905 13.1350142593292123 20.9199033866298230
 14.5649110109299276 13.1350142593292123 20.9199033866298230
 18.4488872804177646 13.1350142593292123 20.9199033866298230
 22.3328635499055999 13.1350142593292123 20.9199033866298230
  2.9129822024664183 17.6919490326673987 20.9199033866298230
  6.7969584719542535 17.6919490326673987 20.9199033866298230
 10.6809347414420905 17.6919490326673987 20.9199033866298230
 14.5649110109299276 17.6919490326673987 20.9199033866298230
 18.4488872804177646 17.6919490326673987 20.9199033866298230
 22.3328635499055999 17.6919490326673987 20.9199033866298230
  2.9129822024664183 22.2488838060055905 20.9199033866298230
  6.7969584719542535 22.2488838060055905 20.9199033866298230
 10.6809347414420905 22.2488838060055905 20.9199033866298230
 14.5649110109299276 22.2488838060055905 20.9199033866298230
 18.4488872804177646 22.2488838060055905 20.9199033866298230
 22.3328635499055999 22.2488838060055905 20.9199033866298230
  2.9129822024664183 26.8058185793437751 20.9199033866298230
  6.7969584719542535 26.8058185793437751 20.9199033866298230
 10.6809347414420905 26.8058185793437751 20.9199033866298230
 14.5649110109299276 26.8058185793437751 20.9199033866298230
 18.4488872804177646 26.8058185793437751 20.9199033866298230
 22.3328635499055999 26.8058185793437751 20.9199033866298230
  2.9129822024664183  2.8142574476048345  4.1806162648405314
  6.7969584719542535  2.8142574476048345  4.1806162648405314
 10.6809347414420905  2.8142574476048345  4.1806162648405314
 14.5649110109299276  2.8142574476048345  4.1806162648405314
 18.4488872804177646  2.8142574476048345  4.1806162648405314
 22.3328635499055999  2.8142574476048345  4.1806162648405314
  2.9129822024664183  7.3711922209430201  4.1806162648405314
  6.7969584719542535  7.3711922209430201  4.1806162648405314
 10.6809347414420905  7.3711922209430201  4.1806162648405314
 14.5649110109299276  7.3711922209430201  4.1806162648405314
 18.4488872804177646  7.3711922209430201  4.1806162648405314
 22.3328635499055999  7.3711922209430201  4.1806162648405314
  2.9129822024664183 11.9281269942812109  4.1806162648405314
  6.7969584719542535 11.9281269942812109  4.1806162648405314
 10.6809347414420905 11.9281269942812109  4.1806162648405314
 14.5649110109299276 11.9281269942812109  4.1806162648405314
 18.4488872804177646 11.9281269942812109  4.1806162648405314
 22.3328635499055999 11.9281269942812109  4.1806162648405314
  2.9129822024664183 16.4850617676193991  4.1806162648405314
  6.7969584719542535 16.4850617676193991  4.1806162648405314
 10.6809347414420905 16.4850617676193991  4.1806162648405314
 14.5649110109299276 16.4850617676193991  4.1806162648405314
 18.4488872804177646 16.4850617676193991  4.1806162648405314
 22.3328635499055999 16.4850617676193991  4.1806162648405314
  2.9129822024664183 21.0419965409575838  4.1806162648405314
  6.7969584719542535 21.0419965409575838  4.1806162648405314
 10.6809347414420905 21.0419965409575838  4.1806162648405314
 14.5649110109299276 21.0419965409575838  4.1806162648405314
 18.4488872804177646 21.0419965409575838  4.1806162648405314
 22.3328635499055999 21.0419965409575838  4.1806162648405314
  2.9129822024664183 25.5989313142957755  4.1806162648405314
  6.7969584719542535 25.5989313142957755  4.1806162648405314
 10.6809347414420905 25.5989313142957755  4.1806162648405314
 14.5649110109299276 25.5989313142957755  4.1806162648405314
 18.4488872804177646 25.5989313142957755  4.1806162648405314
 22.3328635499055999 25.5989313142957755  4.1806162648405314
  2.9129822024664183  2.8142574476048345 15.3401410129671234
  6.7969584719542535  2.8142574476048345 15.3401410129671234
 10.6809347414420905  2.8142574476048345 15.3401410129671234
 14.5649110109299276  2.8142574476048345 15.3401410129671234
 18.4488872804177646  2.8142574476048345 15.3401410129671234
 22.3328635499055999  2.8142574476048345 15.3401410129671234
  2.9129822024664183  7.3711922209430201 15.3401410129671234
  6.7969584719542535  7.3711922209430201 15.3401410129671234
 10.6809347414420905  7.3711922209430201 15.3401410129671234
 14.5649110109299276  7.3711922209430201 15.3401410129671234
 18.4488872804177646  7.3711922209430201 15.3401410129671234
 22.3328635499055999  7.3711922209430201 15.3401410129671234
  2.9129822024664183 11.9281269942812109 15.3401410129671234
  6.7969584719542535 11.9281269942812109 15.3401410129671234
 10.6809347414420905 11.9281269942812109 15.3401410129671234
 14.5649110109299276 11.9281269942812109 15.3401410129671234
 18.4488872804177646 11.9281269942812109 15.3401410129671234
 22.3328635499055999 11.9281269942812109 15.3401410129671234
  2.9129822024664183 16.4850617676193991 15.3401410129671234
  6.7969584719542535 16.4850617676193991 15.3401410129671234
 10.6809347414420905 16.4850617676193991 15.3401410129671234
 14.5649110109299276 16.4850617676193991 15.3401410129671234
 18.4488872804177646 16.4850617676193991 15.3401410129671234
 22.3328635499055999 16.4850617676193991 15.3401410129671234
  2.9129822024664183 21.0419965409575838 15.3401410129671234
  6.7969584719542535 21.0419965409575838 15.3401410129671234
 10.6809347414420905 21.0419965409575838 15.3401410129671234
 14.5649110109299276 21.0419965409575838 15.3401410129671234
 18.4488872804177646 21.0419965409575838 15.3401410129671234
 22.3328635499055999 21.0419965409575838 15.3401410129671234
  2.9129822024664183 25.5989313142957755 15.3401410129671234
  6.7969584719542535 25.5989313142957755 15.3401410129671234
 10.6809347414420905 25.5989313142957755 15.3401410129671234
 14.5649110109299276 25.5989313142957755 15.3401410129671234
 18.4488872804177646 25.5989313142957755 15.3401410129671234
 22.3328635499055999 25.5989313142957755 15.3401410129671234
  0.9709940678226495  1.7426771900229250  6.9789084834863555
  4.8549703373104869  1.7426771900229250  6.9789084834863555
  8.7389466067983221  1.7426771900229250  6.9789084834863555
 12.6229228762861592  1.7426771900229250  6.9789084834863555
 16.5068991457739962  1.7426771900229250  6.9789084834863555
 20.3908754152618314  1.7426771900229250  6.9789084834863555
  0.9709940678226495  6.2996119633611141  6.9789084834863555
  4.8549703373104869  6.2996119633611141  6.9789084834863555
  8.7389466067983221  6.2996119633611141  6.9789084834863555
 12.6229228762861592  6.2996119633611141  6.9789084834863555
 16.5068991457739962  6.2996119633611141  6.9789084834863555
 20.3908754152618314  6.2996119633611141  6.9789084834863555
  0.9709940678226495 10.8565467366993040  6.9789084834863555
  4.8549703373104869 10.8565467366993040  6.9789084834863555
  8.7389466067983221 10.8565467366993040  6.9789084834863555
 12.6229228762861592 10.8565467366993040  6.9789084834863555
 16.5068991457739962 10.8565467366993040  6.9789084834863555
 20.3908754152618314 10.8565467366993040  6.9789084834863555
  0.9709940678226495 15.4134815100374869  6.9789084834863555
  4.8549703373104869 15.4134815100374869  6.9789084834863555
  8.7389466067983221 15.4134815100374869  6.9789084834863555
 12.6229228762861592 15.4134815100374869  6.9789084834863555
 16.5068991457739962 15.4134815100374869  6.9789084834863555
 20.3908754152618314 15.4134815100374869  6.9789084834863555
  0.9709940678226495 19.9704162833756769  6.9789084834863555
  4.8549703373104869 19.9704162833756769  6.9789084834863555
  8.7389466067983221 19.9704162833756769  6.9789084834863555
 12.6229228762861592 19.9704162833756769  6.9789084834863555
 16.5068991457739962 19.9704162833756769  6.9789084834863555
 20.3908754152618314 19.9704162833756769  6.9789084834863555
  0.9709940678226495 24.5273510567138686  6.9789084834863555
  4.8549703373104869 24.5273510567138686  6.9789084834863555
  8.7389466067983221 24.5273510567138686  6.9789084834863555
 12.6229228762861592 24.5273510567138686  6.9789084834863555
 16.5068991457739962 24.5273510567138686  6.9789084834863555
 20.3908754152618314 24.5273510567138686  6.9789084834863555
  0.9709940678226495  1.7426771900229250 18.1384332316129431
  4.8549703373104869  1.7426771900229250 18.1384332316129431
  8.7389466067983221  1.7426771900229250 18.1384332316129431
 12.6229228762861592  1.7426771900229250 18.1384332316129431
 16.5068991457739962  1.7426771900229250 18.1384332316129431
 20.3908754152618314  1.7426771900229250 18.1384332316129431
  0.9709940678226495  6.2996119633611141 18.1384332316129431
  4.8549703373104869  6.2996119633611141 18.1384332316129431
  8.7389466067983221  6.2996119633611141 18.1384332316129431
 12.6229228762861592  6.2996119633611141 18.1384332316129431
 16.5068991457739962  6.2996119633611141 18.1384332316129431
 20.3908754152618314  6.2996119633611141 18.1384332316129431
  0.9709940678226495 10.8565467366993040 18.1384332316129431
  4.8549703373104869 10.8565467366993040 18.1384332316129431
  8.7389466067983221 10.8565467366993040 18.1384332316129431
 12.6229228762861592 10.8565467366993040 18.1384332316129431
 16.5068991457739962 10.8565467366993040 18.1384332316129431
 20.3908754152618314 10.8565467366993040 18.1384332316129431
  0.9709940678226495 15.4134815100374869 18.1384332316129431
  4.8549703373104869 15.4134815100374869 18.1384332316129431
  8.7389466067983221 15.4134815100374869 18.1384332316129431
 12.6229228762861592 15.4134815100374869 18.1384332316129431
 16.5068991457739962 15.4134815100374869 18.1384332316129431
 20.3908754152618314 15.4134815100374869 18.1384332316129431
  0.9709940678226495 19.9704162833756769 18.1384332316129431
  4.8549703373104869 19.9704162833756769 18.1384332316129431
  8.7389466067983221 19.9704162833756769 18.1384332316129431
 12.6229228762861592 19.9704162833756769 18.1384332316129431
 16.5068991457739962 19.9704162833756769 18.1384332316129431
 20.3908754152618314 19.9704162833756769 18.1384332316129431
  0.9709940678226495 24.5273510567138686 18.1384332316129431
  4.8549703373104869 24.5273510567138686 18.1384332316129431
  8.7389466067983221 24.5273510567138686 18.1384332316129431
 12.6229228762861592 24.5273510567138686 18.1384332316129431
 16.5068991457739962 24.5273510567138686 18.1384332316129431
 20.3908754152618314 24.5273510567138686 18.1384332316129431
  0.9709940678226495  2.2974770328989496  9.5110100411994427
  4.8549703373104869  2.2974770328989496  9.5110100411994427
  8.7389466067983221  2.2974770328989496  9.5110100411994427
 12.6229228762861592  2.2974770328989496  9.5110100411994427
 16.5068991457739962  2.2974770328989496  9.5110100411994427
 20.3908754152618314  2.2974770328989496  9.5110100411994427
  0.9709940678226495  6.8544118062371417  9.5110100411994427
  4.8549703373104869  6.8544118062371417  9.5110100411994427
  8.7389466067983221  6.8544118062371417  9.5110100411994427
 12.6229228762861592  6.8544118062371417  9.5110100411994427
 16.5068991457739962  6.8544118062371417  9.5110100411994427
 20.3908754152618314  6.8544118062371417  9.5110100411994427
  0.9709940678226495 11.4113465795753282  9.5110100411994427
  4.8549703373104869 11.4113465795753282  9.5110100411994427
  8.7389466067983221 11.4113465795753282  9.5110100411994427
 12.6229228762861592 11.4113465795753282  9.5110100411994427
 16.5068991457739962 11.4113465795753282  9.5110100411994427
 20.3908754152618314 11.4113465795753282  9.5110100411994427
  0.9709940678226495 15.9682813529135128  9.5110100411994427
  4.8549703373104869 15.9682813529135128  9.5110100411994427
  8.7389466067983221 15.9682813529135128  9.5110100411994427
 12.6229228762861592 15.9682813529135128  9.5110100411994427
 16.5068991457739962 15.9682813529135128  9.5110100411994427
 20.3908754152618314 15.9682813529135128  9.5110100411994427
  0.9709940678226495 20.5252161262516992  9.5110100411994427
  4.8549703373104869 20.5252161262516992  9.5110100411994427
  8.7389466067983221 20.5252161262516992  9.5110100411994427
 12.6229228762861592 20.5252161262516992  9.5110100411994427
 16.5068991457739962 20.5252161262516992  9.5110100411994427
 20.3908754152618314 20.5252161262516992  9.5110100411994427
  0.9709940678226495 25.0821508995898910  9.5110100411994427
  4.8549703373104869 25.0821508995898910  9.5110100411994427
  8.7389466067983221 25.0821508995898910  9.5110100411994427
 12.6229228762861592 25.0821508995898910  9.5110100411994427
 16.5068991457739962 25.0821508995898910  9.5110100411994427
 20.3908754152618314 25.0821508995898910  9.5110100411994427
  0.9709940678226495  2.2974770328989496 20.6705347893260303
  4.8549703373104869  2.2974770328989496 20.6705347893260303
  8.7389466067983221  2.2974770328989496 20.6705347893260303
 12.6229228762861592  2.2974770328989496 20.6705347893260303
 16.5068991457739962  2.2974770328989496 20.6705347893260303
 20.3908754152618314  2.2974770328989496 20.6705347893260303
  0.9709940678226495  6.8544118062371417 20.6705347893260303
  4.8549703373104869  6.8544118062371417 20.6705347893260303
  8.7389466067983221  6.8544118062371417 20.6705347893260303
 12.6229228762861592  6.8544118062371417 20.6705347893260303
 16.5068991457739962  6.8544118062371417 20.6705347893260303
 20.3908754152618314  6.8544118062371417 20.6705347893260303
  0.9709940678226495 11.4113465795753282 20.6705347893260303
  4.8549703373104869 11.4113465795753282 20.6705347893260303
  8.7389466067983221 11.4113465795753282 20.6705347893260303
 12.6229228762861592 11.4113465795753282 20.6705347893260303
 16.5068991457739962 11.4113465795753282 20.6705347893260303
 20.3908754152618314 11.4113465795753282 20.6705347893260303
  0.9709940678226495 15.9682813529135128 20.6705347893260303
  4.8549703373104869 15.9682813529135128 20.6705347893260303
  8.7389466067983221 15.9682813529135128 20.6705347893260303
 12.6229228762861592 15.9682813529135128 20.6705347893260303
 16.5068991457739962 15.9682813529135128 20.6705347893260303
 20.3908754152618314 15.9682813529135128 20.6705347893260303
  0.9709940678226495 20.5252161262516992 20.6705347893260303
  4.8549703373104869 20.5252161262516992 20.6705347893260303
  8.7389466067983221 20.5252161262516992 20.6705347893260303
 12.6229228762861592 20.5252161262516992 20.6705347893260303
 16.5068991457739962 20.5252161262516992 20.6705347893260303
 20.3908754152618314 20.5252161262516992 20.6705347893260303
  0.9709940678226495 25.0821508995898910 20.6705347893260303
  4.8549703373104869 25.0821508995898910 20.6705347893260303
  8.7389466067983221 25.0821508995898910 20.6705347893260303
 12.6229228762861592 25.0821508995898910 20.6705347893260303
 16.5068991457739962 25.0821508995898910 20.6705347893260303
 20.3908754152618314 25.0821508995898910 20.6705347893260303
  2.9129822024664183  2.2594576047288149  1.6485143736103567
  6.7969584719542535  2.2594576047288149  1.6485143736103567
 10.6809347414420905  2.2594576047288149  1.6485143736103567
 14.5649110109299276  2.2594576047288149  1.6485143736103567
 18.4488872804177646  2.2594576047288149  1.6485143736103567
 22.3328635499055999  2.2594576047288149  1.6485143736103567
  2.9129822024664183  6.8163923780670013  1.6485143736103567
  6.7969584719542535  6.8163923780670013  1.6485143736103567
 10.6809347414420905  6.8163923780670013  1.6485143736103567
 14.5649110109299276  6.8163923780670013  1.6485143736103567
 18.4488872804177646  6.8163923780670013  1.6485143736103567
 22.3328635499055999  6.8163923780670013  1.6485143736103567
  2.9129822024664183 11.3733271514051903  1.6485143736103567
  6.7969584719542535 11.3733271514051903  1.6485143736103567
 10.6809347414420905 11.3733271514051903  1.6485143736103567
 14.5649110109299276 11.3733271514051903  1.6485143736103567
 18.4488872804177646 11.3733271514051903  1.6485143736103567
 22.3328635499055999 11.3733271514051903  1.6485143736103567
  2.9129822024664183 15.9302619247433803  1.6485143736103567
  6.7969584719542535 15.9302619247433803  1.6485143736103567
 10.6809347414420905 15.9302619247433803  1.6485143736103567
 14.5649110109299276 15.9302619247433803  1.6485143736103567
 18.4488872804177646 15.9302619247433803  1.6485143736103567
 22.3328635499055999 15.9302619247433803  1.6485143736103567
  2.9129822024664183 20.4871966980815650  1.6485143736103567
  6.7969584719542535 20.4871966980815650  1.6485143736103567
 10.6809347414420905 20.4871966980815650  1.6485143736103567
 14.5649110109299276 20.4871966980815650  1.6485143736103567
 18.4488872804177646 20.4871966980815650  1.6485143736103567
 22.3328635499055999 20.4871966980815650  1.6485143736103567
  2.9129822024664183 25.0441314714197567  1.6485143736103567
  6.7969584719542535 25.0441314714197567  1.6485143736103567
 10.6809347414420905 25.0441314714197567  1.6485143736103567
 14.5649110109299276 25.0441314714197567  1.6485143736103567
 18.4488872804177646 25.0441314714197567  1.6485143736103567
 22.3328635499055999 25.0441314714197567  1.6485143736103567
  2.9129822024664183  2.2594576047288149 12.8080391217369449
  6.7969584719542535  2.2594576047288149 12.8080391217369449
 10.6809347414420905  2.2594576047288149 12.8080391217369449
 14.5649110109299276  2.2594576047288149 12.8080391217369449
 18.4488872804177646  2.2594576047288149 12.8080391217369449
 22.3328635499055999  2.2594576047288149 12.8080391217369449
  2.9129822024664183  6.8163923780670013 12.8080391217369449
  6.7969584719542535  6.8163923780670013 12.8080391217369449
 10.6809347414420905  6.8163923780670013 12.8080391217369449
 14.5649110109299276  6.8163923780670013 12.8080391217369449
 18.4488872804177646  6.8163923780670013 12.8080391217369449
 22.3328635499055999  6.8163923780670013 12.8080391217369449
  2.9129822024664183 11.3733271514051903 12.8080391217369449
  6.7969584719542535 11.3733271514051903 12.8080391217369449
 10.6809347414420905 11.3733271514051903 12.8080391217369449
 14.5649110109299276 11.3733271514051903 12.8080391217369449
 18.4488872804177646 11.3733271514051903 12.8080391217369449
 22.3328635499055999 11.3733271514051903 12.8080391217369449
  2.9129822024664183 15.9302619247433803 12.8080391217369449
  6.7969584719542535 15.9302619247433803 12.8080391217369449
 10.6809347414420905 15.9302619247433803 12.8080391217369449
 14.5649110109299276 15.9302619247433803 12.8080391217369449
 18.4488872804177646 15.9302619247433803 12.8080391217369449
 22.3328635499055999 15.9302619247433803 12.8080391217369449
  2.9129822024664183 20.4871966980815650 12.8080391217369449
  6.7969584719542535 20.4871966980815650 12.8080391217369449
 10.6809347414420905 20.4871966980815650 12.8080391217369449
 14.5649110109299276 20.4871966980815650 12.8080391217369449
 18.4488872804177646 20.4871966980815650 12.8080391217369449
 22.3328635499055999 20.4871966980815650 12.8080391217369449
  2.9129822024664183 25.0441314714197567 12.8080391217369449
  6.7969584719542535 25.0441314714197567 12.8080391217369449
 10.6809347414420905 25.0441314714197567 12.8080391217369449
 14.5649110109299276 25.0441314714197567 12.8080391217369449
 18.4488872804177646 25.0441314714197567 12.8080391217369449
 22.3328635499055999 25.0441314714197567 12.8080391217369449
  2.9129822024664183  0.0190097396246605  7.2282770807901473
  6.7969584719542535  0.0190097396246605  7.2282770807901473
 10.6809347414420905  0.0190097396246605  7.2282770807901473
 14.5649110109299276  0.0190097396246605  7.2282770807901473
 18.4488872804177646  0.0190097396246605  7.2282770807901473
 22.3328635499055999  0.0190097396246605  7.2282770807901473
  2.9129822024664183  4.5759445129628471  7.2282770807901473
  6.7969584719542535  4.5759445129628471  7.2282770807901473
 10.6809347414420905  4.5759445129628471  7.2282770807901473
 14.5649110109299276  4.5759445129628471  7.2282770807901473
 18.4488872804177646  4.5759445129628471  7.2282770807901473
 22.3328635499055999  4.5759445129628471  7.2282770807901473
  2.9129822024664183  9.1328792863010353  7.2282770807901473
  6.7969584719542535  9.1328792863010353  7.2282770807901473
 10.6809347414420905  9.1328792863010353  7.2282770807901473
 14.5649110109299276  9.1328792863010353  7.2282770807901473
 18.4488872804177646  9.1328792863010353  7.2282770807901473
 22.3328635499055999  9.1328792863010353  7.2282770807901473
  2.9129822024664183 13.6898140596392253  7.2282770807901473
  6.7969584719542535 13.6898140596392253  7.2282770807901473
 10.6809347414420905 13.6898140596392253  7.2282770807901473
 14.5649110109299276 13.6898140596392253  7.2282770807901473
 18.4488872804177646 13.6898140596392253  7.2282770807901473
 22.3328635499055999 13.6898140596392253  7.2282770807901473
  2.9129822024664183 18.2467488329774099  7.2282770807901473
  6.7969584719542535 18.2467488329774099  7.2282770807901473
 10.6809347414420905 18.2467488329774099  7.2282770807901473
 14.5649110109299276 18.2467488329774099  7.2282770807901473
 18.4488872804177646 18.2467488329774099  7.2282770807901473
 22.3328635499055999 18.2467488329774099  7.2282770807901473
  2.9129822024664183 22.8036836063156017  7.2282770807901473
  6.7969584719542535 22.8036836063156017  7.2282770807901473
 10.6809347414420905 22.8036836063156017  7.2282770807901473
 14.5649110109299276 22.8036836063156017  7.2282770807901473
 18.4488872804177646 22.8036836063156017  7.2282770807901473
 22.3328635499055999 22.8036836063156017  7.2282770807901473
  2.9129822024664183  0.0190097396246605 18.3878018289167358
  6.7969584719542535  0.0190097396246605 18.3878018289167358
 10.6809347414420905  0.0190097396246605 18.3878018289167358
 14.5649110109299276  0.0190097396246605 18.3878018289167358
 18.4488872804177646  0.0190097396246605 18.3878018289167358
 22.3328635499055999  0.0190097396246605 18.3878018289167358
  2.9129822024664183  4.5759445129628471 18.3878018289167358
  6.7969584719542535  4.5759445129628471 18.3878018289167358
 10.6809347414420905  4.5759445129628471 18.3878018289167358
 14.5649110109299276  4.5759445129628471 18.3878018289167358
 18.4488872804177646  4.5759445129628471 18.3878018289167358
 22.3328635499055999  4.5759445129628471 18.3878018289167358
  2.9129822024664183  9.1328792863010353 18.3878018289167358
  6.7969584719542535  9.1328792863010353 18.3878018289167358
 10.6809347414420905  9.1328792863010353 18.3878018289167358
 14.5649110109299276  9.1328792863010353 18.3878018289167358
 18.4488872804177646  9.1328792863010353 18.3878018289167358
 22.3328635499055999  9.1328792863010353 18.3878018289167358
  2.9129822024664183 13.6898140596392253 18.3878018289167358