 C  S  O 
 1.0000000000000000
    32.3722991942999982    0.0000000000000000    0.0000000000000000
     0.0000000000000000   19.9214134216000005    0.0000000000000000
     0.0000000000000000    0.0000000000000000   40.4480476378999967
 C   S   O  
 364   1   1
Cartesian
 12.0064077471066994 10.7193983681875888  0.0983262009009135
 11.9355735524548354 10.8288143888351822  2.5426828399585721
 10.9429684538207095 11.8505424264467099  2.4696667456271446
 10.3752572269168120 12.1787658606772506  1.2093724379408111
  8.9941904398801977 12.5272402335656832  1.1357028970357113
 11.8606685538293810 10.9354577956356565  4.9868496671282019
 10.8338843493603356 11.9228137736823498  4.9142074751982614
 10.2552156082743711 12.2314992152157807  3.6540147003667638
  8.8629899545441759 12.5322451085803301  3.5803507398702381
  8.2087347871330714 12.4903425938992871  2.3200179672328054
  6.8663251660635884 12.0140954167225029  2.2465621388522803
  6.3319156749196583 11.6341911447701918  0.9860664376054423
  5.4392867396466746 10.5241269376067503  0.9127386735580442
 11.7819110125174156 11.0390884618779772  7.4306467670190788
 10.7223181069489701 11.9908300691484406  7.3584885835087261
 10.1335743182349205 12.2799838645157582  6.0985392643714169
  8.7318239429498412 12.5330374133584055  6.0251704307391298
  8.0793534209910600 12.4685115945292555  4.7648719794808656
  6.7542467094806797 11.9461912890623214  4.6916384338673032
  6.2331968315066506 11.5481715175749571  3.4310762535016264
  5.3795911856428384 10.4079514267570481  3.3574428388857251
  5.1444244581831207  9.7956769473323888  2.0972384952755947
  5.0150532452451539  8.3770878371722208  2.0237493164884466
  5.1358887049151667  7.7321635409745868  0.7636061911587398
  5.7691906718975003  6.4562818165161495  0.6906132816062736
 11.7013930650901621 11.1400752452137493  9.8740769013883281
 10.6096144191971984 12.0550684834267230  9.8027020659590498
 10.0105781952825588 12.3239008489772051  8.5432686267495068
  8.6010479970755593 12.5287013798421842  8.4703669381220283
  7.9509744228892165 12.4421070368925690  7.2098502498725736
  6.6448274306967434 11.8742371533946471  7.1367493577628380
  6.1375204541266353 11.4588332023180115  5.8761941948080540
  5.3239054615646015 10.2895968300180858  5.8022209581605191
  5.1102827894935841  9.6695605199503660  4.5420002869310787
  5.0298653989067752  8.2473822908557484  4.4684618002675380
  5.1726609332790554  7.6071205580772521  3.2081071650306416
  5.8491242916033510  6.3536204455086542  3.1348572808359561
  6.3065744752014394  5.8831358968102192  1.8749528406299416
  7.5401287997418054  5.1709103950903135  1.8013842247241281
  8.1768142776663790  5.0107094857804491  0.5416077195141346
  9.6005081333846540  5.0529913437734297  0.4687588321454799
 12.0105313564047975 10.7083611150252853 13.5753851460307242
 11.6197688637208572 11.2383836180988670 12.3176364448607689
 10.4965234457799799 12.1142296568635537 12.2474602629685698
  9.8872769938422085 12.3622730728633368 10.9879372439438843
  8.4718385954711390 12.5175612427747112 10.9157707343439707
  7.8243759308177045 12.4102334467996229  9.6553366995274192
  6.5382711543108485 11.7976966815617121  9.5820718301601033
  6.0455843698648577 11.3654081349587663  8.3215645424326503
  5.2728589039902580 10.1687525884361882  8.2470937939975641
  5.0807616164721674  9.5419741459654936  6.9866246972749737
  5.0493303448696309  8.1179805489603130  6.9130270626477568
  5.2136495075124873  7.4831368644076059  5.6527559297678254
  5.9325971405789542  6.2533303101994182  5.5792662496156025
  6.4059668660921627  5.7991350959095405  4.3191782186621719
  7.6631006081438988  5.1295530552350810  4.2456903485619053
  8.3049221184596203  4.9915317626207285  2.9857130023106304
  9.7263854195431509  5.0828072026746698  2.9127649663794459
 10.3451925601743877  5.3027465432360721  1.6531659533804053
 11.5066144052862196  6.1273801655247748  1.5797044166695051
 11.9181724748557798  6.6391292516263842  0.3200314190625463
 12.4748304574977702  7.9502098408555071  0.2472481598726182
 11.9469169746847133 10.8138846531040720 16.0187110643427886
 11.5366066756516759 11.3323573377851119 14.7602417152783154
 10.3832599427326109 12.1646403380040855 14.6919604330726692
  9.7649596654658630 12.3944973746704541 13.4333365801879427
  8.3442668295506710 12.4991733677542420 13.3615780211718018
  7.7004670985814316 12.3709619145969434 12.1017292509009042
  6.4358021682625255 11.7150218087337112 12.0277686347614150
  5.9574535564234044 11.2675859489767909 10.7667694745268570
  5.2256592193629645 10.0457473998779818 10.6917780591954230
  5.0549111636353627  9.4132033700677766  9.4311653024602222
  5.0723161142655604  7.9888116681580419  9.3574304711941441
  5.2591167475704825  7.3602931779009015  8.0973628171904632
  6.0196227654999319  6.1557780835822449  8.0237850279985974
  6.5079824791954755  5.7180534122388291  6.7635210054583101
  7.7871493766489319  5.0915107304012599  6.6903322132538694
  8.4333522629909385  4.9758922612657210  5.4301914558187692
  9.8508321535651273  5.1160410788280153  5.3570327489136300
 10.4619125146763476  5.3574882276798093  4.0972938051374479
 11.5941349012815582  6.2216747470104501  4.0237688844552260
 11.9880206730430707  6.7476625383249651  2.7641854300950270
 12.4991399323753178  8.0772209953757148  2.6914941022417866
 12.5594721434379437  8.7311856781407009  1.4317878546248746
 12.2976283166445750 10.1313511486818193  1.3583253325689228
 11.8893992716706229 10.8985367427067477 18.4614667908184273
 11.4534696423698588 11.4110382708010185 17.2068977400333303
 10.2683010259850160 12.1998450183024190 17.1380159431171180
  9.6431039205342106 12.4135193968236610 15.8816704599375278
  8.2189245775818076 12.4690896373521412 15.8083461926694646
  7.5792413669308329 12.3225565153415104 14.5476054461127315
  6.3371796971201615 11.6262035047281334 14.4727294851856332
  5.8730412431691841 11.1649549393997347 13.2115105058300664
  5.1810026209721496  9.9198207272401735 13.1362376989993965
  5.0323143570999269  9.2826034062999927 11.8756697222184435
  5.0976041852755056  7.8595592953981361 11.8017643029676709
  5.3072806379005488  7.2382971108014154 10.5415316898241809
  6.1090622231789409  6.0610870910467343 10.4679898148146524
  6.6126195404213624  5.6402402424561489  9.2081867221148954
  7.9128325937760229  5.0576029803999294  9.1355528482134165
  8.5623303353001337  4.9643058526881418  7.8749756059952976
  9.9740197326567426  5.1531742475025952  7.8015119844353986
 10.5762927485005527  5.4156262586825328  6.5415609833409443
 11.6780344811709949  6.3185039432433969  6.4678587677368311
 12.0536267472372245  6.8580472578698641  5.2083292902971214
 12.5181284808022966  8.2045850802588269  5.1354591868055328
 12.5562275511258346  8.8605550169873926  3.8759403137506032
 12.2465514782261167 10.2508417735796797  3.8025188624901749
 11.8329327417975971 11.0520287172831573 20.9159119031009872
 11.3700195618766813 11.4915091330252004 19.6666517036435806
 10.1460774761011745 12.2253148608405695 19.5862255586528597
  9.5155010405299816 12.4129814065206627 18.3266228907587667
  8.0943894948045774 12.4283735422120145 18.2520637446299538
  7.4591440415366268 12.2665830453031965 16.9914558214011855
  6.2376248231414797 11.5339997702597099 16.9164629328169660
  5.7899648930004615 11.0583192093728933 15.6561840167087976
  5.1375120313344995  9.7918805873833801 15.5810298451868388
  5.0116880679576061  9.1502406305576756 14.3198124577650336
  5.1247211101243080  7.7306746014242833 14.2457804764429348
  5.3564629495918989  7.1172259093922587 12.9857806761686039
  6.2000656070659881  5.9689438243027793 12.9124728484377638
  6.7194274237276863  5.5667783296185798 11.6531560946097112
  8.0393199999308305  5.0303457421297706 11.5811704830800331
  8.6915784658652857  4.9578707103927160 10.3202273329269580
 10.0961647084336086  5.1952281170735972 10.2465372247129860
 10.6887867007822397  5.4776823680021947  8.9862716666950924
 11.7585500865367454  6.4183465296171454  8.9121240729642359
 12.1149731888664665  6.9705039109071345  7.6522386669603915
 12.5324789546457289  8.3321309853609371  7.5788208078701818
 12.5479725991477231  8.9892467285108886  6.3196387884688932
 12.1908808599258940 10.3681495043780245  6.2464532083120137
 11.7380960801765699 11.1471722937265731 23.3674923737179405
 11.2642608309182322 11.5848977113404565 22.0955740406270991
 10.0179657252128020 12.2741794500076882 22.0234297526157796
  9.3859258712988840 12.4337003617208275 20.7660586693138143
  7.9582930149971940 12.4072603381956874 20.6928190120827153
  7.3345876687910740 12.2126970813891287 19.4357130538864666
  6.1366623789323693 11.4422243849339367 19.3606567320982776
  5.7077399575738266 10.9491731081926353 18.0997498726181973
  5.0984211128116517  9.6632145902053139 18.0253375298317593
  4.9927974621965499  9.0175335352797372 16.7643393426200120
  5.1542531038000190  7.6018785111121154 16.6903995128577165
  5.4081691027347070  6.9972875855182526 15.4306672555280127
  6.2923016520514565  5.8799421657994424 15.3574899594613310
  6.8275667298719007  5.4976375632003149 14.0977598675370466
  8.1661108060343910  5.0108088052622639 14.0259517683239441
  8.8207709384989847  4.9589307766736610 12.7662344462917190
 10.2176691950018839  5.2439040870145206 12.6928788455046018
 10.7993441621700388  5.5454101842548837 11.4310546264602362
 11.8358879742068837  6.5216225919585957 11.3560246453027727
 12.1732351132442052  7.0850944215712266 10.0958408289384778
 12.5442395747141600  8.4602844703895101 10.0215402121914465
 12.5360962875706790  9.1174505372806358  8.7627481694910561
 12.1320109741155466 10.4833480960442049  8.6900017988992744
 11.6348940418543414 11.2408936515669389 25.8091670723776119
 11.1672227821969230 11.6921228027673649 24.5419512012680059
  9.8969518578341091 12.3465415953335000 24.4673720943867679
  9.2539727789682473 12.4653158618269408 23.2086463185308034
  7.8329408276131769 12.3810025191401447 23.1357028900131354
  7.2125976271690844 12.1642565816929853 21.8762757096397706
  6.0433364978388910 11.3506345692874113 21.8030943599968978
  5.6272280378732384 10.8437692442968086 20.5443048525343386
  5.0619987556791877  9.5342424482518240 20.4707339698807971
  4.9799742147229233  8.8849043910543273 19.2108348437756788
  5.1901930569191812  7.4756413478047143 19.1366299871581553
  5.4643584162871601  6.8798395801953527 17.8756385581393999
  6.3869307760286187  5.7950764299836326 17.8021692441995540
  6.9348131044841965  5.4311031224217245 16.5428017663137403
  8.2924332024589216  4.9959250073558339 16.4705751100607571
  8.9498975744553526  4.9704189311413369 15.2122575554601251
 10.3357541349578632  5.3037526413721450 15.1394130217053196
 10.9087558333313606  5.6182057127297256 13.8758244935653519
 11.9144443526842920  6.6274331577934600 13.8000666269486985
 12.2296279153864020  7.2020260422592974 12.5395151074072153
 12.5537709351613174  8.5889481493185258 12.4636245095476905
 12.5217707401367662  9.2456054046961587 11.2047378904624857
 12.0713702107603424 10.5964272986635031 11.1328659694211733
 11.5394813200384405 11.3371584543218500 28.2514617161601507
 11.0533438063316893 11.7743704431113994 26.9902463180652177
  9.7702284019884651 12.3943066019008459 26.9139580620231484
  9.1256744980388955 12.4996416618784334 25.6504637053411848
  7.7077227784857563 12.3565863839105745 25.5782319560988682
  7.0952597727800271 12.1154380969352466 24.3203651806084515
  5.9560477340596032 11.2582481475043892 24.2478640248496049
  5.5585767901919043 10.7337080801442362 22.9892232089946837
  5.0407109430119776  9.4073157435635011 22.9165696441528617
  4.9765064932971317  8.7539080173286301 21.6558689899779964
  5.2365632670097346  7.3532946748751762 21.5817705130424109
  5.5254276765710006  6.7657501013439063 20.3217405408140159
  6.4877007070341337  5.7127325794989918 20.2479060477811110
  7.0465630521761291  5.3701706474313307 18.9886270774138275
  8.4190079753895830  4.9869236438558984 18.9155839179037777
  9.0765992710913626  4.9883695648370336 17.6559550113264230
 10.4458816899259581  5.3782822873500766 17.5823186242570983
 11.0133345017211877  5.7021414972997428 16.3224913829839018
 11.9957973510514115  6.7396864168069097 16.2480149637575764
 12.2879330405389311  7.3214787358047850 14.9816950403194600
 12.5617752249839736  8.7167750979258471 14.9031516113746463
 12.5067473297246536  9.3729779249712699 13.6456716344752689
 11.4457314521915858 11.4316965169193612 30.6953470906548098
 10.9425344455661424 11.8510463652040556 29.4345541232848831
  9.6417701499838078 12.4300295302807839 29.3589383275183629
  8.9937595398352332 12.5204850979650892 28.0964674580775018
  7.5811315750189996 12.3277794025959189 28.0234338528374245
  6.9804989345586836 12.0617263892510795 26.7642536897468979
  5.8755047440633188 11.1628423300509905 26.6922808114934398
  5.4954825879985032 10.6248347163518009 25.4331656862024289
  5.0247970504716735  9.2801805656903209 25.3612451075822953
  4.9825493277912853  8.6245802815598189 24.1020707428805672
  5.2921792967579684  7.2337549382281017 24.0284660022659224
  5.6026059577373308  6.6569651236453424 22.7679525920482284
  6.5996756572268476  5.6415634137141133 22.6941082877539344
  7.1663425702644119  5.3163628728032277 21.4324001138494289
  8.5508385787111632  4.9852481917917837 21.3572802322351478
  9.2030459594760465  5.0062476222003722 20.0992404629906289
 10.5578445217068708  5.4560295081149457 20.0245033012923521
 11.1033627658699068  5.8124556965425143 18.7677630942186298
 12.0543436017419854  6.8744928056236452 18.6957716344774738
 12.3542813025149236  7.4427767036186978 17.4224978677620363
 12.5842216513640714  8.8501493367352815 17.3414343442459149
 12.4896188632466778  9.4999312783055707 16.0854166769232201
 11.3505170511125844 11.5228977830457442 33.1391920333438392
 10.8330675628887008 11.9253775523677934 31.8785201578766362
  9.5128951095818692 12.4602122141912321 31.8039513343956450
  8.8613138994016030 12.5295567345547596 30.5430161424825926
  7.4570393789310057 12.2896424686207890 30.4692501308475556
  6.8660226216264908 12.0046890819019278 29.2085334713732863
  5.7950715308973981 11.0651264659399633 29.1366840992442597
  5.4362383710149231 10.5137053552727124 27.8778132586357188
  5.0140568793227329  9.1528226377376303 27.8059813047135584
  4.9960281593127336  8.4958009317238279 26.5467794463311542
  5.3540491463511763  7.1175485985519247 26.4731699052091010
  5.6829484430490975  6.5511025751821830 25.2125508814291699
  6.7153159335534784  5.5693674707204135 25.1384149243059731
  7.2932476346865123  5.2654458429465913 23.8778194625988363
  8.6886140656112136  4.9787334539771990 23.8026229276146530
  9.3400257311076480  5.0358363716204213 22.5413587460475426
 10.6741229550013337  5.5238290375091710 22.4658944255389308
 11.2045590240465973  5.9105157942168614 21.2042755041301376
 12.1193099236494106  7.0015349958377247 21.1221594491499332
 12.4181784831823752  7.5683885264846138 19.8726781233502514
 12.7844716986258522  8.9867863630820626 19.7829291260781552
 12.4958335749776914  9.6317172975123881 18.5153405295409037
 11.2533085605821039 11.6110327900431134 35.5834797010509618
 10.7220731311806219 11.9955125219884717 34.3231433632614582
  9.3842255140950463 12.4844807215063351 34.2491992841573492
  8.7301342616119957 12.5318686966519017 32.9884713258802407
  7.3352150948900272 12.2442227207402663 32.9144687867736394
  6.7535309883479941 11.9407455863008902 31.6538995041244711
  5.7164507299405525 10.9635551098596853 31.5817573616655523
  5.3794065309167065 10.3996510300297107 30.3222817204096202
  5.0067124698655281  9.0249334568967665 30.2500778324128348
  5.0121880802377961  8.3679547668509322 28.9906106855400267
  5.4177412252304595  7.0024206850702893 28.9171976521541829
  5.7671504453289391  6.4478390386584170 27.6572398467222804
  6.8311721546063255  5.5004822701488729 27.5831907831558958
  7.4206675027407192  5.2163911882364280 26.3221692282569393
  8.8229556903820736  4.9699222730774828 26.2468550426035279
  9.4737889928938834  5.0416013202604981 24.9853220351244651
 10.7993930283598019  5.5646508830367036 24.9113253826178109
 11.3174401852179329  5.9714460906546414 23.6536181432783970
 12.1812605553635258  7.1038440628952628 23.5842498487892911
 12.4254146738859124  7.7298669378741263 22.3287208500762873
 12.5963868820488649  9.1251469043601858 22.2764712570399723
 12.6548022311441279  9.8372309916204461 21.0054311026055132
 11.1530099312410265 11.6948495595033197 38.0282319253134347
 10.6086980602352572 12.0610047586762672 36.7677809306971568
  9.2548912900150473 12.5035372847610429 36.6940987690416662
  8.5995186881243786 12.5289239760432345 35.4335853922135442
  7.2152187203897746 12.1932663556895218 35.3595907955578923
  6.6442542798993287 11.8702324692415253 34.0992967504185813
  5.6418670445910921 10.8580467281258137 34.0267579112340712
  5.3245957312112049 10.2832475038350069 32.7666778671478056
  5.0009047254607104  8.8960085727239129 32.6939942665370964
  5.0305603534647059  8.2399320926680950 31.4346552542213793
  5.4825012308499064  6.8889430587833225 31.3616020252828385
  5.8519313707603153  6.3468387431807818 30.1015351441580741
  6.9457535428121275  5.4348448755851200 30.0277107489706765
  7.5446530403254766  5.1688701766541589 28.7669890645685840
  8.9547849958194767  4.9670853280646448 28.6924776321860797
  9.6041746366012308  5.0569063155818306 27.4324018357173856
 10.9111971300553421  5.6236903041198776 27.3604843119299090
 11.4187017012839291  6.0425485882503187 26.1010786945701163
 12.2367946560269214  7.2059950108872624 26.0325088905815889
 12.4554078601338407  7.8288425811274935 24.7731804794151103
 12.5405058608647622  9.2481583580402908 24.7065258579003313
 12.4212149648774446  9.8929054633766391 23.4494983783567825
 11.0495098532348432 11.7744853893302182  0.0249781577061101
 10.4933111387179743 12.1221454636639123 39.2125643261874544
  9.1249564552876858 12.5178355610308092 39.1389404321180834
  8.4690928131520202 12.5207997054247393 37.8785840542411734
  7.0972113517640620 12.1376529990162609 37.8046921786116457
  6.5376831630836998 11.7953008521375828 36.5442785621080475
  5.5709267239868892 10.7492324828960797 36.4714579151100438
  5.2737703805135245 10.1642053044033300 35.2113816635047456
  4.9983403201348597  8.7665494828210697 35.1382908072557569
  5.0515018172598083  8.1120936524756733 33.8787066773508982
  5.5494001740505468  6.7776566305330377 33.8058672597711478
  5.9372277294267777  6.2481569350190744 32.5458300037865484
  7.0615243909577670  5.3734938549062807 32.4722956406910512
  7.6692169308186573  5.1272472389619272 31.2122618057677101
  9.0853940060238614  4.9734051248077709 31.1385983325003224
  9.7317875920465404  5.0843799862100294 29.8782211393666195
 11.0172330128636755  5.6966496694288171 29.8063231978999070
 11.5107979814625754  6.1297175250802400 28.5461282004754118
 12.2855324268181292  7.3247872866550239 28.4753393865029807
 12.4816798601626964  7.9518013708784387 27.2169161898053495
 12.5140577667074897  9.3763307449498914 27.1466303031384335
 12.3517695498941293 10.0129936357207416 25.8886383261652355
  8.3388760017376740 12.5077462232700398 40.3233436789122095
  6.9810416915475511 12.0776864022021719 40.2496489357492777
  6.4336828432408515 11.7165126562701296 38.9891902418616638
  5.5033400543311863 10.6378240793519261 38.9161438235708914
  5.2266904581639357 10.0429432063377639 37.6560880183062352
  4.9996530340034289  8.6367866292091779 37.5826960430674504
  5.0756948905256500  7.9848663679417715 36.3228026714230836
  5.6194173851695144  6.6683721584783973 36.2501215423424554
  6.0254212682094401  6.1526905450492171 34.9903081234187781
  7.1789928890423749  5.3170255878421004 34.9169013283280520
  7.7951707477622287  5.0916814876067420 33.6569736581465122
  9.2154218118573077  4.9865876869634009 33.5837866663071978
  9.8578114359375100  5.1184221119266606 32.3233285205145435
 11.1215745752716568  5.7752969083824102 32.2509695078828997
 11.5990780271751230  6.2247941128646218 30.9912444151342896
 12.3306682901994158  7.4471403252292721 30.9191498955691699
 12.5023094916199664  8.0805089774214185 29.6599373998211782
 12.4856298135442625  9.5044284098106662 29.5880793728457547
 12.3010879443588195 10.1337566930590679 28.3282822089632447
  5.1835515472527183  9.9200245220186769 40.1006387713853485
  5.0051030578998139  8.5068665881217491 40.0271280766344404
  5.1036114276248261  7.8580197390180624 38.7671488663034722
  5.6925260856121849  6.5610157904707584 38.6944063676781198
  6.1164379307406831  6.0598787942568748 37.4346231200730202
  7.2980437129269449  5.2645655270821861 37.3611768308965111
  7.9217182402141795  5.0604213255187398 36.1012832184653121
  9.3449316391597268  5.0045136808924680 36.0283392748348987
  9.9824462111523093  5.1583094581834512 34.7683060018687300
 11.2228907089779550  5.8585973996829921 34.6954908585504072
 11.6842602822890242  6.3245361394891821 33.4356163085065461
 12.3726681208628815  7.5713355870594166 33.3628719430788649
 12.5217871031091139  8.2099670211862374 32.1029865354701442
 12.4555109188496100  9.6328194012697974 32.0303477520823989
 12.2485835800819629 10.2549863899843636 30.7708392133791477
  6.2101793846773212  5.9701224329353986 39.8788077139542665
  7.4185206197939042  5.2159519045769720 39.8052726605546709
  8.0489664374439496  5.0334663962832664 38.5455475929905305
  9.4733688585171887  5.0267108790917030 38.4727569511223635
 10.1053679372037237  5.2029819525473426 37.2128233305998180
 11.3206918554012681  5.9456761502445437 37.1396797326857069
 11.7660909474900759  6.4270873897838046 35.8797327382966458
 12.4111831579198508  7.6970005628489044 35.8067690302590407
 12.5378037416810670  8.3403636061316337 34.5468529449326951
 12.4220247268245583  9.7601081248691077 34.4738119209136542
 12.1928148655639195 10.3744515656341640 33.2139003230171070
 10.2265437010774320  5.2508821628115427 39.6570470993218507
 11.4156226333012309  6.0351626275857120 39.5837076173668549
 11.8440972781071867  6.5321307940668518 38.3239396209258913
 12.4454256182133509  7.8233687205633275 38.2510277110555208
 12.5497749222639818  8.4710613699521886 36.9909492166224823
 12.3853414291130175  9.8859012663543595 36.9176987616641199
 12.1349057748541647 10.4921845268869820 35.6576341558833079
 12.5572756131276364  8.6013515600027013 39.4352909171052772
 12.3440080940823940 10.0097582077983347 39.3619393694761470
 12.0730138136177629 10.6072765147595067 38.1019476964585948
 14.5811055429206107  9.8368356495753950 20.3991638862361313
 14.8910743643029253 10.9800426812918115 19.4998749392287714
