Ge Se                                   
    1.000000000000000     
     3.8581001759000002    0.0000000000000000    0.0000000000000000
     0.0000000000000000    4.5265750884999996    0.0000000000000000
     0.0000000000000000    0.0000000000000000   13.0851764679000002
   Ge   Se
     4     4
Direct
  0.2500000000064801  0.1156418993976018  0.1046577973449203
  0.7500000000194404  0.8843581080031413  0.8189198414165304
  0.7500000000194404  0.6156418920520892  0.3189198414127077
  0.2500000000064801  0.3843581080583647  0.6046578036917936
  0.2500000000064801  0.5049489736306185  0.7987324367110631
  0.7500000000194404  0.4950509668320962  0.1248451830976478
  0.7500000000194404  0.0049490225086330  0.6248452083972680
  0.2500000000064801  0.9950510264246120  0.2987324620030378
 
  0.00000000E+00  0.00000000E+00  0.00000000E+00
  0.00000000E+00  0.00000000E+00  0.00000000E+00
  0.00000000E+00  0.00000000E+00  0.00000000E+00
  0.00000000E+00  0.00000000E+00  0.00000000E+00
  0.00000000E+00  0.00000000E+00  0.00000000E+00
  0.00000000E+00  0.00000000E+00  0.00000000E+00
  0.00000000E+00  0.00000000E+00  0.00000000E+00
  0.00000000E+00  0.00000000E+00  0.00000000E+00
