Ge Se                                   
    1.000000000000000     
     3.8581001759000002    0.0000000000000000    0.0000000000000000
     0.0000000000000000    4.5265750884999996    0.0000000000000000
     0.0000000000000000    0.0000000000000000   31.0851764678999984
   Ge   Se
     2     2
Direct
  0.2500000000064801  0.1156418993976018  0.0440552669345209
  0.7500000000194404  0.6156418920520892  0.1342479882110155
  0.7500000000194404  0.4950509668320962  0.0525530634734181
  0.2500000000064801  0.9950510264246120  0.1257501943422028
 
  0.00000000E+00  0.00000000E+00  0.00000000E+00
  0.00000000E+00  0.00000000E+00  0.00000000E+00
  0.00000000E+00  0.00000000E+00  0.00000000E+00
  0.00000000E+00  0.00000000E+00  0.00000000E+00
