Ge Se 
 1.0000000000000000
    12.4369624748032912   -0.0000081482823343    0.0000030632842211
    -0.0000081876053246   12.4969810620199837    0.0000000815960597
     0.0000035023937280    0.0000000928444673   11.0464396904060926
 Ge  Se 
  36  36
Cartesian
  1.0228959494023024  0.5764591831907978  1.4273532074943713
  2.9356772858912077 10.8442539292780271  4.0528827781025081
  7.0940803942769337  2.6301845287815482  4.1426988173753001
  7.0991333026501717  6.9466156974974229  4.1462815028123758
  7.1561907903947590 11.0701611821188965  4.2644512784340574
 11.4444688864145707  2.7399843966468849  4.1321163070107065
 10.9466513840856656  6.7861160503336908  3.8309118791160288
 11.2550362755064111 10.9515795115437005  4.0817237568758511
  0.7662426261039395  1.8502397168583147  7.0201336702856985
  0.7088714652769037  6.2956171005632919  6.9801552349750642
  0.7631153396987378 10.3224716556123717  7.1201383418769648
  4.9703510176355552  1.9320011732456899  6.7736248171627063
  5.0984027286525047  6.0391709938691802  7.0100940684130304
  4.9722846536322223 10.1289976233066987  6.9489985937431413
  8.8648484400700678  2.0678317850044223  7.0242539988760111
  9.2190546297819402  6.1174132771883603  7.0501465024991408
  2.9831655849832956  6.7003916001261743  3.9098335225152261
  2.8428556050192180  2.4866737285176086  4.2393294540272235
  8.9253435694295380 10.3483464232268183  7.0262617305888790
 11.1276030444307903  8.1316148767355045  9.6166771159101909
 11.1937215616296655 12.4379894009481546  9.6617367163480150
  0.8165792785688321  4.7656579582231489  1.5237507923202704
  0.8989005613342133  8.8655195056986766  1.5823944548447557
  4.8637736635890434  0.4710849158464388  1.4299603260516502
  5.1674409188540329  4.7702764118269378  1.7393128037893890
  9.2272735230456160  0.6338891728687848  1.4350711836410837
  9.0763471851528568  4.4188072583869227  1.5206815482112395
  5.0443394969064661  8.9330271565848829  1.4715880961603804
  2.9810255963366568  3.9579487871748698  9.6571823789577209
  2.8312767782427248  8.1812619503542550  9.7017862606310974
  2.8594719707885350 12.2203411575060485  9.5536000763423541
  6.8648659329707691  3.9435588744823966  9.5229608891959927
  6.9587397560581543  8.1909804773416486  9.6547270525652369
  7.0888798428841637 12.4384172883247341  9.6230304876469148
 11.3142175255753870  4.1691207202391176  9.5122234443005027
  9.1121135460157063  8.8813298168759669  1.6216744115795672
 11.1800449103441171  0.2304486647609734  7.1546420498409988
  2.9884611815167421  4.2485282823475705  7.1542539358827737
  2.9030986454203660  8.6127456100474031  7.1342650993017518
  7.1681958910318597  0.0854451151176778  7.1201917846544305
  7.2171183432614221  4.3380796992442940  7.0220937832129939
  7.1343432126004744  8.5248607421505476  7.1932121100165505
 11.3210230064942134  4.3810921923792474  6.9378517323592783
  9.2764602808133034  0.1347849499672650  4.0531652447660456
  1.0127124042418372  0.2007829830905841  4.0135980466303236
  0.9352722918483017  4.4802507898261394  4.1386424632697052
  1.0823586383387793  8.6974412194141326  4.0911379484486847
  5.2757669864979135  0.2912363159682300  4.0077457934110683
  5.0773527562225729  4.5017798915421467  4.1564733744662483
  4.8871138338875779  8.4955626013520753  3.8437257120461159
  3.0826165780088455  0.1202552442958784  6.9952508967374438
 11.2834952847678913  8.4622114288082049  7.1194932114386447
 11.2548705455765319 10.5521834647401089  1.5283949687744898
  2.8265358180969344  2.1876099594793774  1.7303793107882144
 11.2496417121495540  2.2969577712434317  1.5560483461564978
  9.4574426137217369  4.3852325890765682  3.9687244925895713
  0.8396759977420986  2.2897235298400838  9.4954430379422128
  0.8215102185823795  6.4544290860086644  9.4434723296684826
  0.8075028650301381 10.5784108421763428  9.5800809633357105
  5.1297964899771333  2.2261882069552144  9.4501911069282212
  4.9880368292885606  6.3828298795394121  9.6044708060778063
  5.1416899968716505 10.5536894035983462  9.4113560974886319
  9.2377575122528288  2.3587734169319483  9.5355977604256950
  9.1958831398207970  6.4181314521990744  9.5626294893025783
  9.2011372803045859 10.7048874117986781  9.5115717816754071
  2.8235055670121323  6.3590151603756597  1.3621406607842605
  2.8373855336077192 10.7017123441210273  1.4235150534119150
  7.1881935056111352  2.3531745918920417  1.4915184143157918
  7.3347548425894979  6.5436132295493366  1.7385063883122218
  6.9938348667462220 10.6928912953350501  1.6864353869323245
 11.1149112077210734  6.4484714379363650  1.4916270382551267
  9.1539925834015445  8.6120757033574709  4.0374273683365143
