 S                                      
    1.000000000000000     
    32.3722991942999982    0.0000000000000000    0.0000000000000000
     0.0000000000000000   19.9214134216000005    0.0000000000000000
     0.0000000000000000    0.0000000000000000   40.4480476378999967
   S 
     1
Direct
  0.4166319829199807  0.4125130043779777  0.4896280023771311
 
  0.00000000E+00  0.00000000E+00  0.00000000E+00
