INCAR created by Atomic Simulation Environment
 AMIX = 0.200000
 AMIX_MAG = 0.800000
 BMIX = 0.000100
 BMIX_MAG = 0.000010
 ENCUT = 400.000000
 SIGMA = 0.010000
 EDIFF = 1.00e-06
 EDIFFG = -1.00e-02
 ALGO = N
 GGA = PE
 PREC = Normal
 SYSTEM = 01_AOPT
 IBRION = 1
 ICHARG = 1
 ISIF = 2
 ISMEAR = 0
 ISPIN = 2
 ISTART = 1
 KPAR = 2
 NBANDS = 896
 NELM = 1000
 NPAR = 32
 NSW = 400
 IVDW = 11
 LCHARG = .TRUE.
 LWAVE = .FALSE.
 LREAL = .FALSE.
