Ge Se 
 1.0000000000000000
    12.4683074153175451    0.0000029958743175    0.0000012509762891
     0.0000030015201228   12.4918037954188019    0.0000083537970154
     0.0000014268899376    0.0000095105940827   11.0478895030868340
 Ge  Se 
  36  36
Cartesian
  0.9984169776776466  0.5937660885395689  1.4321352527487072
  2.8016856002799240 11.0384596535537813  4.0914906319582389
  7.0066128740570024  2.6517524838700037  4.1416289516987979
  7.1215910879819653  6.8546023352261383  4.1287823496299927
  7.4167078159909590 10.3885181530832060  3.8865539587789248
 11.2387671468136716  2.7679962511895471  4.1194971967805589
 11.4529689339749243  6.4908384088724187  3.7828000691319570
 11.3465410986537165 10.7081560954987349  3.9854312862720129
  1.3431258044830778  2.0573324798498009  6.9258375949295159
  0.7294302653833840  6.0800399346825484  6.9225627193996511
  0.7199454194189262 10.1669978228552598  6.9348089268793931
  5.0967528706172622  1.7048246532933020  6.8047700847537911
  5.2777041073796749  6.2838430691917724  6.9279101367219145
  4.7846052598687505  9.9434271866930732  6.7206478522729443
  9.1146113856635438  1.7503420076087486  6.9901900240186334
  9.0705257327412436  6.1759821735758882  7.0909448684555310
  3.1292704876469499  6.7048455404842606  4.1012898081772429
  3.1679750426192785  2.3257177631425487  4.0306605303690430
  9.4967688714090794 10.6837625781396639  7.0640401912430999
 11.5106269747816281  8.1574307568452422  9.6400888204945065
 11.5658557399595274 12.5157983111101156  9.5975082627376800
  1.0151192381640239  4.3951678914916119  1.2456071713104708
  0.8937502988125265  8.9482681670950015  1.4413723799843354
  5.2464855564439832  0.4212354624213039  1.4142887141650151
  5.0693794277272595  4.5866875108133014  1.4173971028948857
  9.4032866435370845  0.2954694697935995  1.7523428035349473
  8.9816648595927795  4.7998685327102395  1.4137141103983686
  4.9328434408718236  8.8381192974698095  1.3507744075001762
  3.3181477060341145  4.3241450875767082  9.3885756292548770
  2.7188629436545955  8.0077031554787155  9.5926793959506771
  3.1351205146319163 12.2752761965788508  9.6631237466437661
  7.2193026796080737  3.9217111704170180  9.4526308147814770
  7.3668264312823641  8.3773182246215470  9.4251302686052068
  7.2161312205363384 12.3411614936347327  9.5120679322799155
 11.0492927502603422  3.9775524628722474  9.4836216209054189
  9.3704335109805470  8.6383645835810832  1.4071325261194119
 11.0526065196052343  0.1889915439023399  7.1343102949308994
  2.7456057136178722  4.1325313622253397  7.0173049124069458
  2.6201990076899357  8.2667998157373379  6.9592694471649095
  7.1563718799197487  0.0769899116243151  7.0450530512849818
  7.1878059463976376  4.4069869724065276  6.9510464786949138
  6.9996942111145479  8.5116076151220934  6.9438578450682229
 11.0999176894498799  4.2589818904898928  7.0117521468378401
  9.1690280035008431 -0.0034728480895265  4.1791448432387659
  0.6452527780932233  0.2161732593727718  4.1064729236318893
  0.7827321304602893  4.4345837576706222  3.9736874055703981
  0.7898246720955238  8.4583045663408694  3.8621203561255220
  4.6590816002069895  0.2125621647796826  3.9407706038963886
  4.8375356080252336  4.2654193811017782  4.0123850943873309
  5.0053513037074158  8.5712426437802538  3.9636169157030428
  3.0091145177015637 -0.0275875128279575  7.0859975732173588
 11.2655813424978675  8.5197750049892829  7.2232513661377755
 11.2704176877175843 10.5222368436600711  1.5152702536501952
  2.8336779750401124  2.4288675062161902  1.4126994764124727
 11.2732057510768797  2.1510433337486368  1.6473142596220838
  8.8753518207581319  4.4544880291758124  3.8690150835712074
  0.7163584679799027  2.1327336041100509  9.5012178009928299
  0.7771769105692482  6.1653295583297325  9.4769241509989062
  1.0370062392473425 10.6505873518248233  9.5694636711431933
  5.2635091913090983  2.3294420391723984  9.3454433894095104
  4.8653823678514287  6.4420992053707780  9.3318816078618401
  4.8612315984928136 10.4305236254452272  9.3735660432680348
  9.0052957993811820  2.0418894424107688  9.5326508969849115
  9.3257066798032984  6.5456354905896639  9.5581715815581063
  9.0970511670072689 10.5341299245611690  9.4724186240274406
  2.9420005455308371  6.2271995699439353  1.5565019965888474
  2.9145674388655913 10.5264783428602406  1.5738812027126761
  7.2394370213036341  2.0120315284979777  1.6386236250230553
  6.8193513754482344  6.3493452979815421  1.7361723703759704
  6.9436759909319532 10.6240675960907627  1.4035580602026148
 11.0585451477512056  6.4625826277126839  1.3322914064797127
  9.1799399538143547  8.5028152995146780  3.8245485243286117
