 C  S                                   
    1.000000000000000     
    32.3722991942999982    0.0000000000000000    0.0000000000000000
     0.0000000000000000   19.9214134216000005    0.0000000000000000
     0.0000000000000000    0.0000000000000000   40.4480476378999967
   C    S 
   364     1
Direct
  0.3709364401936509  0.5383527773490614  0.0024555812957584
  0.3687494029482286  0.5438867548550856  0.0628908460310392
  0.3380115760487959  0.5950539617248500  0.0610811025979833
  0.3204530146209916  0.6114463286273997  0.0299246544237811
  0.2777710001583969  0.6288021152218581  0.0281076240103317
  0.3664161561753191  0.5493231342810834  0.1233195927169745
  0.3346195835268706  0.5987471665343167  0.1215096312211823
  0.3167326743648122  0.6141281053109227  0.0903514776558204
  0.2737053232244264  0.6290695563857777  0.0885273658497425
  0.2535019070680244  0.6268948299136456  0.0573779267468224
  0.2120523948450056  0.6029134175932440  0.0555683695482014
  0.1955503420157529  0.5838229960619772  0.0244181864071336
  0.1679990022446035  0.5280754071909129  0.0226111244403776
  0.3639388574826053  0.5546533448446582  0.1837430843364084
  0.3311294704661478  0.6022954357566574  0.1819363074971847
  0.3129414052135256  0.6166447990442434  0.1507769410240336
  0.2696219617666309  0.6291603356784492  0.1489506517856156
  0.2494864560262288  0.6258180305929476  0.1177972853722460
  0.2085777725205233  0.5995101390321500  0.1159913034257381
  0.1924962263618580  0.5795001881185720  0.0848403139861742
  0.1661502776165888  0.5222377920429374  0.0830296535461685
  0.1589062469257957  0.4914867959394238  0.0518859675068145
  0.1549613426223282  0.4202751751794683  0.0500752773911761
  0.1587259581565151  0.3879074320215705  0.0189298128036637
  0.1783661608155067  0.3239263857899836  0.0171273317606874
  0.3613665791718431  0.5598707267201933  0.2441663682799939
  0.3275690381823514  0.6056705880725655  0.2423704434633823
  0.3090843723607669  0.6189836715017204  0.2112064080227044
  0.2655297806535837  0.6290547078837330  0.2093816421161706
  0.2454822093541572  0.6245650171126861  0.1782204240058974
  0.2051645038278687  0.5959447269473543  0.1764173562833118
  0.1895249289177858  0.5750257906911204  0.1452667476566916
  0.1644202557514324  0.5163061538995034  0.1434529328212331
  0.1578434885681434  0.4851588820667190  0.1123062930120364
  0.1554125012170693  0.4137699168643115  0.1104995241991741
  0.1598645444294666  0.3816336567904125  0.0793515919571373
  0.1808439395638584  0.3187839529064277  0.0775462078155440
  0.1950121170072094  0.2952156911195108  0.0464039194147149
  0.2331665785519218  0.2596058538126738  0.0445879583682624
  0.2528375536204606  0.2516169713014004  0.0134416705899183
  0.2968168383170002  0.2538497680531637  0.0116386786605920
  0.3707269533143334  0.5383395051401499  0.3357203314611441
  0.3587077429497821  0.5648978514634850  0.3045911573528313
  0.3239523894845103  0.6087387889594295  0.3028184544110689
  0.3051931045365351  0.6210869318694194  0.2716452769364692
  0.2614492666271980  0.6287078902371815  0.2698259785615476
  0.2415062394049425  0.6231043412922798  0.2386593476782822
  0.2018269359045982  0.5922055856817108  0.2368518968656600
  0.1866564755333619  0.5703897645042628  0.2056972155256958
  0.1628396132369991  0.5102765884013777  0.2038794179806464
  0.1569225698849561  0.4787781498448968  0.1727317306174392
  0.1560075255433975  0.4072931596225974  0.1709293967649445
  0.1611267743476869  0.3754263618326131  0.1397799003929165
  0.1834177176700468  0.3137802179427138  0.1379698148301936
  0.1980834383100738  0.2910248566292887  0.1068250626235476
  0.2369696007919709  0.2575718971286433  0.1050142356678494
  0.2568079963574325  0.2506978038660170  0.0738691744737429
  0.3007152002336756  0.2554012143901934  0.0720691249035556
  0.3198175632023060  0.2664509908136357  0.0409216343322820
  0.3556767630158018  0.3078885839483623  0.0391035307108491
  0.3683740316580654  0.3335603454396203  0.0079491172380329
  0.3855380602305223  0.3993995223685080  0.0061439552010033
  0.3683748142609370  0.5430064417334285  0.3961378034498735
  0.3558770962252488  0.5693075911351675  0.3650196743450032
  0.3202324107743215  0.6111659177781393  0.3632787806391188
  0.3012673520114110  0.6227872134875018  0.3321114849057762
  0.2573803467436745  0.6280552474600596  0.3302936403963833
  0.2375735070358833  0.6213776729103738  0.2991120099577233
  0.1985856300954163  0.5882546061312200  0.2972925708667861
  0.1838872130840067  0.5656113389736603  0.2661323412923390
  0.1613818115873046  0.5041735790040163  0.2643110022163110
  0.1561458844328405  0.4723566580155613  0.2331628743005508
  0.1567489691459242  0.4008642247165232  0.2313629483344146
  0.1625357283165735  0.3692985557139012  0.2002115878661257
  0.1860985489007042  0.3089200921299510  0.1983983248618305
  0.2012238098597599  0.2869878351955598  0.1672524341428709
  0.2407904556567089  0.2557031245706482  0.1654489992157960
  0.2607715133626898  0.2499711097201386  0.1343011752510924
  0.3045490603113552  0.2571425027453683  0.1324989505839450
  0.3234227825941860  0.2692662663491412  0.1013558383723073
  0.3583789132742537  0.3126967115792651  0.0995413665224254
  0.3705367859116575  0.3390675439310116  0.0683907727762990
  0.3862949069711723  0.4058302879395325  0.0665892510517464
  0.3881308883358157  0.4386234233793584  0.0354315562026429
  0.3799718708057128  0.5088849800800164  0.0336107875715256
  0.3660577835651307  0.5466238127755062  0.4565303734110554
  0.3526499473876578  0.5723122874765918  0.4254781782742376
  0.3163511504419036  0.6125577178034528  0.4237446981741282
  0.2972528454813667  0.6237367752797552  0.3925856852484768
  0.2533184060444257  0.6269387354205972  0.3907636643316053
  0.2336516172241393  0.6193828958849056  0.3595653630633709
  0.1953787292731340  0.5841185867403633  0.3577353111638201
  0.1812093432109055  0.5606489282551176  0.3265706904434508
  0.1600355279921786  0.4979762089054710  0.3247479040902125
  0.1554997497629150  0.4658864707185307  0.2935914858924211
  0.1576046346297035  0.3944792727155629  0.2917913296911547
  0.1640571072691220  0.3632451782327865  0.2606438940337850
  0.1888682429090162  0.3041932690445666  0.2588329627619527
  0.2044543559262616  0.2831141299690929  0.2276878632595018
  0.2446474910677969  0.2540235496095911  0.2258915948445702
  0.2647347729194500  0.2494139596778562  0.1947369741489120
  0.3083329017587196  0.2590607706511305  0.1929290454686979
  0.3269359027558796  0.2722702149529914  0.1617899499555775
  0.3609376530847031  0.3176670132795847  0.1599764951636749
  0.3725439266249383  0.3447071995603783  0.1288292088329890
  0.3868631731275608  0.4123172346005766  0.1270255375354603
  0.3880308532485288  0.4451879709766948  0.0958712900739166
  0.3783920653551814  0.5149545171878877  0.0940471499969944
  0.3636229495119385  0.5515398899343924  0.5172754152395367
  0.3498879347716430  0.5758196188510812  0.4859924602386414
  0.3127348217317980  0.6136512560555608  0.4841769450863839
  0.2932661012706210  0.6239139036599539  0.4530365009485244
  0.2493271450326842  0.6253139662554312  0.4512179185271213
  0.2297848564835863  0.6169687211305188  0.4200336715187239
  0.1922158914287440  0.5797570018218520  0.4181943566336697
  0.1785754452037092  0.5555340025850943  0.3870101002044429
  0.1587423333860323  0.4917346848572962  0.3851893836236255
  0.1549184865528967  0.4594012314524160  0.3540263623228796
  0.1585150524843063  0.3881438368627627  0.3522243586757064
  0.1656676600154517  0.3572845731249416  0.3210832622816160
  0.1917130000916505  0.2996529812246683  0.3192790534508329
  0.2077519613202620  0.2794399881596877  0.2881299292297733
  0.2485351153071559  0.2526198093933473  0.2863401186473657
  0.2687030999785819  0.2490763326731519  0.2551900865227831
  0.3120785267013728  0.2611998619948602  0.2533701944511172
  0.3303749453955663  0.2754668968572239  0.2222222208676266
  0.3633611930251590  0.3227890257971988  0.2204003174898586
  0.3743877459649871  0.3504708069273623  0.1892570172728300
  0.3872519350661077  0.4188527498148759  0.1874466237106779
  0.3877393228206306  0.4517619029172751  0.1563012468652885
  0.3766367156206618  0.5209535204171747  0.1544798146543578
  0.3611868621767933  0.5585604786651098  0.5776233576305256
  0.3467012357331015  0.5807659821384279  0.5464457958031886
  0.3088259633500586  0.6169387319741215  0.5445740407842123
  0.2892770383158333  0.6248872425917058  0.5134381538985360
  0.2453676741630569  0.6239042145900429  0.5116387222043682
  0.2259606078217780  0.6142534395837800  0.4804783556544551
  0.1892026298820703  0.5751986855471053  0.4786517909468364
  0.1760123533708225  0.5502800208070909  0.4474618565882070
  0.1575358292250232  0.4854202551549050  0.4456516845396379
  0.1544060398782582  0.4528969766123660  0.4144829832802814
  0.1595027839563896  0.3818861176311699  0.4126760051721997
  0.1673333867854263  0.3514289133984589  0.3815237384234747
  0.1946124758657605  0.2953471434873181  0.3797225239406749
  0.2111063555629493  0.2760318744206362  0.3485872507808004
  0.2524849648062861  0.2516770003383415  0.3468044890743660
  0.2727027908429719  0.2491577399400919  0.3156561118809472
  0.3157864203272271  0.2636807488685833  0.3138172870767033
  0.3337583698327098  0.2788743438639044  0.2826479117943242
  0.3657025699851081  0.3280579416604590  0.2808016465860702
  0.3761063792156262  0.3563457639424313  0.2496698572351418
  0.3875022474024450  0.4254229479592224  0.2478484541799134
  0.3872805886229408  0.4583364783381377  0.2167107452825857
  0.3747434966490731  0.5268703057025839  0.2149016867806200
  0.3587846980260578  0.5646398835444599  0.6380464899212998
  0.3440260014042776  0.5868878490935052  0.6068760025698087
  0.3051837222856249  0.6203571372325488  0.6050192487371434
  0.2853369238778758  0.6269719998908422  0.5738594962621922
  0.2414247151773989  0.6228921194014301  0.5720756297143053
  0.2222767430007627  0.6118807470923835  0.5409465279320335
  0.1863616010349816  0.5705886663350026  0.5391348786061907
  0.1736772094621691  0.5448527038549175  0.5079740773840806
  0.1566007249157837  0.4790418891755855  0.5061639072935971
  0.1540942116293482  0.4463697024631846  0.4749626682755553
  0.1606869120534623  0.3757546039108209  0.4731435007583933
  0.1690995736628292  0.3457399969478079  0.4419862088207448
  0.1976679629449997  0.2913714418354674  0.4401847387741141
  0.2145594398021847  0.2730345097091073  0.4090539267426417
  0.2565049284724691  0.2515283662930262  0.4072692780551186
  0.2767426828061867  0.2499992453884286  0.3761129366951239
  0.3194497321343465  0.2669650324373793  0.3742507643770586
  0.3371159463686899  0.2826307545688841  0.3430790064928678
  0.3680680879391744  0.3335040441429002  0.3411939852197320
  0.3777631664416514  0.3623523111293854  0.3100438195888293
  0.3876920947170621  0.4319823307859739  0.3082084711224347
  0.3867303243434643  0.4648973859242087  0.2770899767378623
  0.3727732412244709  0.5327107567382203  0.2753096112624923
  0.3561040332215236  0.5696010000379059  0.6984776338656719
  0.3409700480645869  0.5914995569419078  0.6673095782878762
  0.3013977749337812  0.6227659486971199  0.6654805845366099
  0.2814201199276363  0.6284045016040903  0.6343290253643856
  0.2376245746007440  0.6213452459076150  0.6325401959763187
  0.2187131410522778  0.6092278049685999  0.6014060003480542
  0.1837797226079665  0.5657778769833770  0.5996013609902505
  0.1715841369184264  0.5393887983009039  0.5684449246501179
  0.1558966452037999  0.4725990797943067  0.5666435399206922
  0.1540162617044297  0.4398245283178779  0.5354766109573439
  0.1621196641551328  0.3695743261612910  0.5336564327701138
  0.1711445521789713  0.3401491591424520  0.5024686259397020
  0.2008813602719614  0.2876326658179488  0.5006551389859130
  0.2182298127140020  0.2705093558464141  0.4694944447066651
  0.2606416794901439  0.2520150535137823  0.4676883597330060
  0.2807906305903473  0.2518957890749898  0.4365542538263672
  0.3229671040346700  0.2718622764092569  0.4346825262046004
  0.3403618014862850  0.2876021040147373  0.4035026113475492
  0.3706311926236278  0.3393505519968317  0.4015782580503862
  0.3796195570425312  0.3683903883176729  0.3703439539416257
  0.3880846483481016  0.4384559377923710  0.3684972158675564
  0.3862028589705151  0.4713661261555410  0.3374573148190745
  0.3533491121698249  0.5742603008340228  0.7589025984156380
  0.3377591924716192  0.5953810394691509  0.7277555306995654
  0.2975434023780588  0.6244421625921553  0.7259474081307142
  0.2774523037919274  0.6290598061319281  0.6947973834591437
  0.2338624680140642  0.6193824798440030  0.6929971350805448
  0.2152519566943881  0.6062062339283512  0.6618489665939361
  0.1812823940813461  0.5607615752578939  0.6600488557780417
  0.1696790886327475  0.5337145594040705  0.6289020623160196
  0.1554062245633929  0.4660876575125589  0.6270988344107054
  0.1542259670448439  0.4332207289676041  0.5959374503761817
  0.1638125450240393  0.3634634416591203  0.5941083079998439
  0.1733769379306523  0.3345386720124591  0.5629241776790482
  0.2041803839759975  0.2834854509694322  0.5610973073838436
  0.2218642210758142  0.2675972352836710  0.5299144341339916
  0.2646623991262663  0.2513969417658485  0.5280851026200908
  0.2850851990255298  0.2535578150362945  0.4969462383735495
  0.3268141575264930  0.2754046351164866  0.4951375252366405
  0.3437924691433927  0.2934463590267209  0.4638505836337070
  0.3749999220917333  0.3429943638752301  0.4616324292459534
  0.3829486609599011  0.3736220221768927  0.4307833733977930
  0.3899145184384581  0.4450127764570885  0.4289286565762894
  0.3857659014043959  0.4774299229154448  0.3978326222779163
  0.3505042045032010  0.5787402815914472  0.8193343019445214
  0.3344587014692193  0.5989598989826843  0.7881943136276525
  0.2936556912087477  0.6257174802122074  0.7863958307601283
  0.2734783348815008  0.6292613016335321  0.7552456238589581
  0.2301153107909743  0.6171367143998150  0.7534396729102791
  0.2118152479720483  0.6029396102905643  0.7222954211045991
  0.1788290006265564  0.5556178318234654  0.7204935848030687
  0.1678381166722116  0.5279340546320344  0.6893416133631146
  0.1549885295207695  0.4595642185632225  0.6875324262567806
  0.1545307029013415  0.4266486628621615  0.6563765958480136
  0.1655993855219963  0.3574532463044784  0.6545485113226126
  0.1757945881033192  0.3290556118870989  0.6233822811658798
  0.2075670867968044  0.2795974202914892  0.6215596377941872
  0.2254859612241892  0.2644199267387835  0.5903649374866213
  0.2685543946557233  0.2499597843255855  0.5885315797489157
  0.2887581405197839  0.2531783677545295  0.5573739956528599
  0.3300276853657148  0.2776992190639688  0.5556502858072547
  0.3469095129369636  0.2972538008201406  0.5245967551470113
  0.3769009011993844  0.3488465417441973  0.5232780406365013
  0.3918085517465040  0.3735293679754388  0.4915211009128885
  0.3980472899216456  0.4547486313831587  0.4896002899202505
  0.3873207460605559  0.4846300650821732  0.4578428147930103
  0.3475583108553550  0.5830678770950856  0.8797716689549931
  0.3310963215982661  0.6023554092605082  0.8486258106878123
  0.2897441493614169  0.6267839023828831  0.8468293778549151
  0.2695038227275705  0.6291912486498107  0.8156865716664555
  0.2264191728132668  0.6146573159405476  0.8138744351981074
  0.2084278170102378  0.5994454710608141  0.7827315227992052
  0.1764502396922044  0.5503374348848389  0.7809291756451038
  0.1660577149381183  0.5220688967213756  0.7497747649783253
  0.1546471657058226  0.4530170538873048  0.7479615028568005
  0.1549104008885771  0.4200977663146269  0.7168112045777404
  0.1674512677639890  0.3515679264944493  0.7149896481721832
  0.1782772821555628  0.3237584619271487  0.6838254186265572
  0.2110613869548866  0.2760810064197600  0.6820063087296327
  0.2292515738016662  0.2617006007785450  0.6508291994134413
  0.2725849607687730  0.2492462943500501  0.6490036059714175
  0.2927315868803999  0.2529377698421860  0.6178373665058841
  0.3336131906819648  0.2792769175294354  0.6161081478721611
  0.3497080428322065  0.2997959564513906  0.5849920884910678
  0.3764876225477167  0.3564159756480596  0.5832877935889030
  0.3854139962070180  0.3861945958849394  0.5521941255454719
  0.3894643065537218  0.4581819343223086  0.5503475376412101
  0.3863825951120959  0.4910524903303928  0.5194951974699888
  0.3444907974406444  0.5872256657780052  0.9402090345000489
  0.3276407048396048  0.6055724657079936  0.9090588810888950
  0.2857921613589910  0.6276635342823589  0.9072580553648389
  0.2655205769926975  0.6289147018722924  0.8761159907644722
  0.2227737623377220  0.6119857171669166  0.8743008669545408
  0.2051153887234503  0.5957791912404470  0.8431566313489535
  0.1741769785012356  0.5449373040181880  0.8413559713123913
  0.1643754138779506  0.5161061515883169  0.8102086093332872
  0.1544282504983317  0.4464565305861680  0.8083908356660787
  0.1553949273455602  0.4135694389082455  0.7772403914785433
  0.1693942515162509  0.3457901380593601  0.7754278055900504
  0.1808121900802250  0.3186081704951070  0.7442674706679477
  0.2145976222872321  0.2728021233860603  0.7424533697042208
  0.2330894639756801  0.2594110840328345  0.7112906207290075
  0.2766416166189208  0.2492965229622822  0.7094696830285547
  0.2967014526248415  0.2537815562807722  0.6782970102634670
  0.3370188269161774  0.2824053910286123  0.6765339330116167
  0.3526929406154654  0.3033542003133571  0.6454084080762775
  0.3778241440387328  0.3620973652989237  0.6436628061370799
  0.3846303855262679  0.3932595243720708  0.6126252112344565
  0.3870262951155334  0.4645601761380346  0.6107902193332747
  0.3827078405665883  0.4963151337105420  0.5795548252170577
  0.3413067252583388  0.5912156399895238  0.0006467437152089
  0.3240951004906301  0.6086065172750598  0.9694930220559017
  0.2818036351174005  0.6283421060692441  0.9676841372176451
  0.2615285897481936  0.6284524784297850  0.9365391356278261
  0.2191637091456775  0.6091488796594263  0.9347236116951696
  0.2018664292430265  0.5919579036735891  0.9035794235675514
  0.1720196636247757  0.5394204077383432  0.9017789124100246
  0.1628369817929426  0.5100563587884430  0.8706352376097630
  0.1543679957607316  0.4398989665557897  0.8688159882317799
  0.1560205839735212  0.4070796472584006  0.8376678972346284
  0.1714626009827242  0.3401302693628598  0.8358622214989094
  0.1834554618866028  0.3136086979172530  0.8047073392338139
  0.2182139500646366  0.2697705943129227  0.8028934092998615
  0.2369721735547542  0.2574211151985250  0.7717334281962325
  0.2807150750546135  0.2497713165822643  0.7699134055897658
  0.3006555765463608  0.2552943505811832  0.7387481004216296
  0.3403377629733023  0.2862059897708711  0.7369559560522991
  0.3555116246217001  0.3079866709592083  0.7058181088038721
  0.3793049623104576  0.3681431307332630  0.7040311724823747
  0.3852254874057859  0.3996694002778186  0.6729139006265543
  0.3861440631596568  0.4711318001031151  0.6710915188379741
  0.3811051804063189  0.5029773202023181  0.6399423962741673
  0.2575239316688576  0.6277778520923805  0.9969593965463207
  0.2155923406474276  0.6061190263827859  0.9951461480677264
  0.1986815408533454  0.5879701972141262  0.9639996009917293
  0.1699647118287432  0.5337983200588052  0.9621965299944285
  0.1614164389414211  0.5039333671601797  0.9310545210249603
  0.1544440581986314  0.4333412297122242  0.9292367320206174
  0.1568013354517168  0.4006376261856742  0.8980920165677097
  0.1736651764526760  0.3346014529416915  0.8962905117805485
  0.1862199626487847  0.3087789790974092  0.8651383990740125
  0.2218976156550486  0.2669426472794443  0.8633205267318843
  0.2409123221456998  0.2556709947651392  0.8321653066442575
  0.2847951068815762  0.2504936998258888  0.8303484793467264
  0.3046030471792500  0.2571409516030915  0.7991862854760312
  0.3436102756785417  0.2902189267709130  0.7973779396736747
  0.3582920261309169  0.3128407682357876  0.7662234158538207
  0.3808135167871828  0.3742650915569890  0.7644129121667506
  0.3860205859995937  0.4060853376286374  0.7332761751170924
  0.3854412692936935  0.4775974790339095  0.7314653203899735
  0.3796381717172688  0.5091801841097435  0.7003357014757315
  0.1601072756512871  0.4977405445267160  0.9914696368974755
  0.1546421790577399  0.4267954425495255  0.9896545936494061
  0.1577063901638191  0.3942376914565904  0.9585110119646980
  0.1759690538461856  0.3291916750806477  0.9567104784595171
  0.1890752440734242  0.3040887980347551  0.9255625227475889
  0.2256277551102281  0.2642867175429885  0.9237425571286465
  0.2448812194769874  0.2541101255557230  0.8925913581065552
  0.2888486094566207  0.2514072867554771  0.8907791577506488
  0.3085107350271812  0.2591756529646618  0.8596178905871218
  0.3468057288609559  0.2943876942906566  0.8578005870011784
  0.3610109052873100  0.3178099593358139  0.8266433032959590
  0.3822395138698046  0.3804466497731776  0.8248253732878377
  0.3867598528674719  0.4125420664076382  0.7936787849519163
  0.3846601945143943  0.4839682952815347  0.7918733391159560
  0.3781684827032799  0.5152184387652710  0.7607345921135015
  0.1920131677663384  0.2995725073706390  0.9859844112435376
  0.2293891097811216  0.2618429140161345  0.9841650639563417
  0.2488591246550447  0.2527504374275603  0.9530161461695309
  0.2928597706943398  0.2525168831247661  0.9512099398906838
  0.3123560073928003  0.2614005405863409  0.9200521016032067
  0.3498842744744393  0.2987309662985632  0.9182308148238378
  0.3636031858280103  0.3229267818434975  0.8870737414521020
  0.3835007668382359  0.3867018298813860  0.8852577436294463
  0.3873555246273876  0.4190282898918403  0.8541012161748195
  0.3837285544401149  0.4902899100947774  0.8522963620338245
  0.3765854702984398  0.5211436109354787  0.8211522081350926
  0.3161352563151612  0.2638083391681260  0.9804873508093872
  0.3528520609159569  0.3032200562987404  0.9786662713757933
  0.3660597603405734  0.3281774278411565  0.9475095168946868
  0.3846057433782788  0.3930174153665235  0.9456990620358602
  0.3877894623143417  0.4255391239119792  0.9145394799812512
  0.3826487364423355  0.4965570767093172  0.9127306608451980
  0.3748586265565834  0.5269877327594247  0.8815834672751248
  0.3880505797487637  0.4320725208603871  0.9749847114808278
  0.3813944456270048  0.5027548804002486  0.9731701265848556
  0.3729771054147554  0.5327242948316154  0.9420185034043270
  0.4452236446519442  0.4039364448878758  0.4905532587043048
 
  0.00000000E+00  0.00000000E+00  0.00000000E+00
  0.00000000E+00  0.00000000E+00  0.00000000E+00
  0.00000000E+00  0.00000000E+00  0.00000000E+00
  0.00000000E+00  0.00000000E+00  0.00000000E+00
  0.00000000E+00  0.00000000E+00  0.00000000E+00
  0.00000000E+00  0.00000000E+00  0.00000000E+00
  0.00000000E+00  0.00000000E+00  0.00000000E+00
  0.00000000E+00  0.00000000E+00  0.00000000E+00
  0.00000000E+00  0.00000000E+00  0.00000000E+00
  0.00000000E+00  0.00000000E+00  0.00000000E+00
  0.00000000E+00  0.00000000E+00  0.00000000E+00
  0.00000000E+00  0.00000000E+00  0.00000000E+00
  0.00000000E+00  0.00000000E+00  0.00000000E+00
  0.00000000E+00  0.00000000E+00  0.00000000E+00
  0.00000000E+00  0.00000000E+00  0.00000000E+00
  0.00000000E+00  0.00000000E+00  0.00000000E+00
  0.00000000E+00  0.00000000E+00  0.00000000E+00
  0.00000000E+00  0.00000000E+00  0.00000000E+00
  0.00000000E+00  0.00000000E+00  0.00000000E+00
  0.00000000E+00  0.00000000E+00  0.00000000E+00
  0.00000000E+00  0.00000000E+00  0.00000000E+00
  0.00000000E+00  0.00000000E+00  0.00000000E+00
  0.00000000E+00  0.00000000E+00  0.00000000E+00
  0.00000000E+00  0.00000000E+00  0.00000000E+00
  0.00000000E+00  0.00000000E+00  0.00000000E+00
  0.00000000E+00  0.00000000E+00  0.00000000E+00
  0.00000000E+00  0.00000000E+00  0.00000000E+00
  0.00000000E+00  0.00000000E+00  0.00000000E+00
  0.00000000E+00  0.00000000E+00  0.00000000E+00
  0.00000000E+00  0.00000000E+00  0.00000000E+00
  0.00000000E+00  0.00000000E+00  0.00000000E+00
  0.00000000E+00  0.00000000E+00  0.00000000E+00
  0.00000000E+00  0.00000000E+00  0.00000000E+00
  0.00000000E+00  0.00000000E+00  0.00000000E+00
  0.00000000E+00  0.00000000E+00  0.00000000E+00
  0.00000000E+00  0.00000000E+00  0.00000000E+00
  0.00000000E+00  0.00000000E+00  0.00000000E+00
  0.00000000E+00  0.00000000E+00  0.00000000E+00
  0.00000000E+00  0.00000000E+00  0.00000000E+00
  0.00000000E+00  0.00000000E+00  0.00000000E+00
  0.00000000E+00  0.00000000E+00  0.00000000E+00
  0.00000000E+00  0.00000000E+00  0.00000000E+00
  0.00000000E+00  0.00000000E+00  0.00000000E+00
  0.00000000E+00  0.00000000E+00  0.00000000E+00
  0.00000000E+00  0.00000000E+00  0.00000000E+00
  0.00000000E+00  0.00000000E+00  0.00000000E+00
  0.00000000E+00  0.00000000E+00  0.00000000E+00
  0.00000000E+00  0.00000000E+00  0.00000000E+00
  0.00000000E+00  0.00000000E+00  0.00000000E+00
  0.00000000E+00  0.00000000E+00  0.00000000E+00
  0.00000000E+00  0.00000000E+00  0.00000000E+00
  0.00000000E+00  0.00000000E+00  0.00000000E+00
  0.00000000E+00  0.00000000E+00  0.00000000E+00
  0.00000000E+00  0.00000000E+00  0.00000000E+00
  0.00000000E+00  0.00000000E+00  0.00000000E+00
  0.00000000E+00  0.00000000E+00  0.00000000E+00
  0.00000000E+00  0.00000000E+00  0.00000000E+00
  0.00000000E+00  0.00000000E+00  0.00000000E+00
  0.00000000E+00  0.00000000E+00  0.00000000E+00
  0.00000000E+00  0.00000000E+00  0.00000000E+00
  0.00000000E+00  0.00000000E+00  0.00000000E+00
  0.00000000E+00  0.00000000E+00  0.00000000E+00
  0.00000000E+00  0.00000000E+00  0.00000000E+00
  0.00000000E+00  0.00000000E+00  0.00000000E+00
  0.00000000E+00  0.00000000E+00  0.00000000E+00
  0.00000000E+00  0.00000000E+00  0.00000000E+00
  0.00000000E+00  0.00000000E+00  0.00000000E+00
  0.00000000E+00  0.00000000E+00  0.00000000E+00
  0.00000000E+00  0.00000000E+00  0.00000000E+00
  0.00000000E+00  0.00000000E+00  0.00000000E+00
  0.00000000E+00  0.00000000E+00  0.00000000E+00
  0.00000000E+00  0.00000000E+00  0.00000000E+00
  0.00000000E+00  0.00000000E+00  0.00000000E+00
  0.00000000E+00  0.00000000E+00  0.00000000E+00
  0.00000000E+00  0.00000000E+00  0.00000000E+00
  0.00000000E+00  0.00000000E+00  0.00000000E+00
  0.00000000E+00  0.00000000E+00  0.00000000E+00
  0.00000000E+00  0.00000000E+00  0.00000000E+00
  0.00000000E+00  0.00000000E+00  0.00000000E+00
  0.00000000E+00  0.00000000E+00  0.00000000E+00
  0.00000000E+00  0.00000000E+00  0.00000000E+00
  0.00000000E+00  0.00000000E+00  0.00000000E+00
  0.00000000E+00  0.00000000E+00  0.00000000E+00
  0.00000000E+00  0.00000000E+00  0.00000000E+00
  0.00000000E+00  0.00000000E+00  0.00000000E+00
  0.00000000E+00  0.00000000E+00  0.00000000E+00
  0.00000000E+00  0.00000000E+00  0.00000000E+00
  0.00000000E+00  0.00000000E+00  0.00000000E+00
  0.00000000E+00  0.00000000E+00  0.00000000E+00
  0.00000000E+00  0.00000000E+00  0.00000000E+00
  0.00000000E+00  0.00000000E+00  0.00000000E+00
  0.00000000E+00  0.00000000E+00  0.00000000E+00
  0.00000000E+00  0.00000000E+00  0.00000000E+00
  0.00000000E+00  0.00000000E+00  0.00000000E+00
  0.00000000E+00  0.00000000E+00  0.00000000E+00
  0.00000000E+00  0.00000000E+00  0.00000000E+00
  0.00000000E+00  0.00000000E+00  0.00000000E+00
  0.00000000E+00  0.00000000E+00  0.00000000E+00
  0.00000000E+00  0.00000000E+00  0.00000000E+00
  0.00000000E+00  0.00000000E+00  0.00000000E+00
  0.00000000E+00  0.00000000E+00  0.00000000E+00
  0.00000000E+00  0.00000000E+00  0.00000000E+00
  0.00000000E+00  0.00000000E+00  0.00000000E+00
  0.00000000E+00  0.00000000E+00  0.00000000E+00
  0.00000000E+00  0.00000000E+00  0.00000000E+00
  0.00000000E+00  0.00000000E+00  0.00000000E+00
  0.00000000E+00  0.00000000E+00  0.00000000E+00
  0.00000000E+00  0.00000000E+00  0.00000000E+00
  0.00000000E+00  0.00000000E+00  0.00000000E+00
  0.00000000E+00  0.00000000E+00  0.00000000E+00
  0.00000000E+00  0.00000000E+00  0.00000000E+00
  0.00000000E+00  0.00000000E+00  0.00000000E+00
  0.00000000E+00  0.00000000E+00  0.00000000E+00
  0.00000000E+00  0.00000000E+00  0.00000000E+00
  0.00000000E+00  0.00000000E+00  0.00000000E+00
  0.00000000E+00  0.00000000E+00  0.00000000E+00
  0.00000000E+00  0.00000000E+00  0.00000000E+00
  0.00000000E+00  0.00000000E+00  0.00000000E+00
  0.00000000E+00  0.00000000E+00  0.00000000E+00
  0.00000000E+00  0.00000000E+00  0.00000000E+00
  0.00000000E+00  0.00000000E+00  0.00000000E+00
  0.00000000E+00  0.00000000E+00  0.00000000E+00
  0.00000000E+00  0.00000000E+00  0.00000000E+00
  0.00000000E+00  0.00000000E+00  0.00000000E+00
  0.00000000E+00  0.00000000E+00  0.00000000E+00
  0.00000000E+00  0.00000000E+00  0.00000000E+00
  0.00000000E+00  0.00000000E+00  0.00000000E+00
  0.00000000E+00  0.00000000E+00  0.00000000E+00
  0.00000000E+00  0.00000000E+00  0.00000000E+00
  0.00000000E+00  0.00000000E+00  0.00000000E+00
  0.00000000E+00  0.00000000E+00  0.00000000E+00
  0.00000000E+00  0.00000000E+00  0.00000000E+00
  0.00000000E+00  0.00000000E+00  0.00000000E+00
  0.00000000E+00  0.00000000E+00  0.00000000E+00
  0.00000000E+00  0.00000000E+00  0.00000000E+00
  0.00000000E+00  0.00000000E+00  0.00000000E+00
  0.00000000E+00  0.00000000E+00  0.00000000E+00
  0.00000000E+00  0.00000000E+00  0.00000000E+00
  0.00000000E+00  0.00000000E+00  0.00000000E+00
  0.00000000E+00  0.00000000E+00  0.00000000E+00
  0.00000000E+00  0.00000000E+00  0.00000000E+00
  0.00000000E+00  0.00000000E+00  0.00000000E+00
  0.00000000E+00  0.00000000E+00  0.00000000E+00
  0.00000000E+00  0.00000000E+00  0.00000000E+00
  0.00000000E+00  0.00000000E+00  0.00000000E+00
  0.00000000E+00  0.00000000E+00  0.00000000E+00
  0.00000000E+00  0.00000000E+00  0.00000000E+00
  0.00000000E+00  0.00000000E+00  0.00000000E+00
  0.00000000E+00  0.00000000E+00  0.00000000E+00
  0.00000000E+00  0.00000000E+00  0.00000000E+00
  0.00000000E+00  0.00000000E+00  0.00000000E+00