 C  S                                   
    1.000000000000000     
    32.3722991942999982    0.0000000000000000    0.0000000000000000
     0.0000000000000000   19.9214134216000005    0.0000000000000000
     0.0000000000000000    0.0000000000000000   40.4480476378999967
   C    S 
   364     1
Direct
  0.3709470492096626  0.5383476226865056  0.0024556137373728
  0.3687615396581002  0.5438796479940180  0.0628912423010113
  0.3380225330238056  0.5950449950818104  0.0610817244260876
  0.3204639319762941  0.6114395295686166  0.0299250045365495
  0.2777816966655933  0.6287967638185339  0.0281082717120659
  0.3664297178539259  0.5493120535852627  0.1233210255387333
  0.3346300687567411  0.5987316715366616  0.1215098173142562
  0.3167432201958681  0.6141150208841671  0.0903515547252160
  0.2737157518662362  0.6290573567668943  0.0885276056400084
  0.2535126277812321  0.6268880012706269  0.0573777050985552
  0.2120620202319520  0.6029098646978043  0.0555685889595583
  0.1955598724132094  0.5838223495990469  0.0244179182323500
  0.1680073226103107  0.5280754613889814  0.0226112979741853
  0.3639506777944101  0.5546414508289308  0.1837450551813680
  0.3311377094730899  0.6022773843018751  0.1819348509896890
  0.3129505497114891  0.6166249682641033  0.1507764178255857
  0.2696307752731135  0.6291411593622240  0.1489487885519923
  0.2494961275884405  0.6258041200338639  0.1177961296070515
  0.2085856336716841  0.5995026777857332  0.1159901979705462
  0.1925041767966572  0.5794971631752923  0.0848390427847643
  0.1661558571307050  0.5222371131555382  0.0830286562165913
  0.1589130095153408  0.4914868490992576  0.0518846956572167
  0.1549679526264062  0.4202749621815702  0.0500744221969435
  0.1587338513094693  0.3879075600096732  0.0189289351451213
  0.1783747039296859  0.3239261982056117  0.0171270301664271
  0.3613715911075687  0.5598670487522893  0.2441676037584526
  0.3275740449306351  0.6056653624195567  0.2423667979285926
  0.3090904181816265  0.6189680790871905  0.2112034478277584
  0.2655359055610432  0.6290387784988369  0.2093769599462363
  0.2454892739166309  0.6245478759887058  0.1782178650630560
  0.2051693727339626  0.5959355863591546  0.1764147548566968
  0.1895295059064081  0.5750202468017875  0.1452650283299394
  0.1644213465738103  0.5163051870740506  0.1434512332056756
  0.1578459618087411  0.4851586850077113  0.1123046957477845
  0.1554153207159859  0.4137695959134687  0.1104978844853677
  0.1598702060530683  0.3816332413067551  0.0793500165159796
  0.1808515106953704  0.3187852997011917  0.0775450538156474
  0.1950207611147039  0.2952166684016453  0.0464030208669674
  0.2331759117736346  0.2596077321187125  0.0445878218981767
  0.2528467364465365  0.2516174651420044  0.0134412851294361
  0.2968262768810312  0.2538494719708299  0.0116387701036821
  0.3707040345904979  0.5383619813509716  0.3357243182308784
  0.3587013219776285  0.5649173681488068  0.3045910974387498
  0.3239538011182684  0.6087710043386910  0.3028128533631350
  0.3051958796550576  0.6210983296331082  0.2716390069099823
  0.2614523665933789  0.6287153498775023  0.2698185145849066
  0.2415106413341108  0.6230970068351105  0.2386541199427215
  0.2018304068150128  0.5922004126995456  0.2368483597659722
  0.1866590092707760  0.5703848424774817  0.2056952839087996
  0.1628385346464440  0.5102750305415723  0.2038782870756510
  0.1569210038528888  0.4787781141688637  0.1727304958638919
  0.1560069444216685  0.4072930981802634  0.1709277085566251
  0.1611290146813427  0.3754269995123612  0.1397781459377672
  0.1834240917162098  0.3137845111850781  0.1379677915248420
  0.1980917875377767  0.2910294794656613  0.1068235828602811
  0.2369792887637107  0.2575798591433784  0.1050132938562320
  0.2568175030097402  0.2507026899997022  0.0738685674760993
  0.3007250890162264  0.2554041881204108  0.0720694802671384
  0.3198272997754268  0.2664507196797465  0.0409213625741709
  0.3556873974918644  0.3078858116094214  0.0391038877830114
  0.3683844727498125  0.3335569114568760  0.0079490009250271
  0.3855489606679398  0.3993949693928172  0.0061441147243709
  0.3683341074626911  0.5430577696905140  0.3961400853466102
  0.3558593548197987  0.5693640604697364  0.3650183475105495
  0.3202314124992409  0.6112574543174739  0.3632725021135567
  0.3012678172038852  0.6228519088860306  0.3321027583976707
  0.2573811715741073  0.6281067875920576  0.3302848715587862
  0.2375761934132690  0.6213975137210556  0.2991049479081221
  0.1985924838339219  0.5882592904201350  0.2972891071467445
  0.1838928321050732  0.5656095772963049  0.2661307501808875
  0.1613874007798452  0.5041704363755464  0.2643116418570836
  0.1561463762055022  0.4723562854152065  0.2331631142846379
  0.1567500506284647  0.4008631103419174  0.2313623431780047
  0.1625364648556272  0.3692997005856981  0.2002100325675301
  0.1861035063959876  0.3089257632169953  0.1983954100978675
  0.2012313942800867  0.2869961687155808  0.1672496408537627
  0.2407992473959064  0.2557165959734472  0.1654463918026092
  0.2607813020781271  0.2499828285717167  0.1342995858578323
  0.3045592306193706  0.2571499511792358  0.1324987914266701
  0.3234335055744044  0.2692689202020066  0.1013556786873929
  0.3583923433330293  0.3126938525447450  0.0995424667432422
  0.3705497087757256  0.3390635661440562  0.0683909072373438
  0.3863090394462645  0.4058246142344425  0.0665899563068151
  0.3881430487371452  0.4386186763822091  0.0354315915068009
  0.3799835963865427  0.5088792297449266  0.0336110299854223
  0.3660109186993732  0.5467030879145131  0.4565309799722791
  0.3526267023945410  0.5724114459601441  0.4254768866769873
  0.3163505781342177  0.6127097320854845  0.4237405525603457
  0.2972536906249984  0.6238661535910781  0.3925774986135296
  0.2533176787200606  0.6270410221583518  0.3907563131912766
  0.2336547775621447  0.6194405050477938  0.3595583550921430
  0.1953955524139185  0.5841354581455109  0.3577330094733692
  0.1812265303011183  0.5606510997513535  0.3265699736505551
  0.1600603348259581  0.4979699576341944  0.3247504464294045
  0.1555140345423222  0.4658831005135872  0.2935934959244450
  0.1576161783204665  0.3944753746217443  0.2917921432524031
  0.1640614894427249  0.3632435812015640  0.2606427847580568
  0.1888715207405132  0.3041916497277716  0.2588287660412045
  0.2044595147989994  0.2831185917053938  0.2276834817488256
  0.2446524102876174  0.2540302620663169  0.2258863217752349
  0.2647429216702445  0.2494260185952763  0.1947335545626370
  0.3083411985885149  0.2590671318952734  0.1929275428517363
  0.3269467905505905  0.2722744003163539  0.1617899957621175
  0.3609529861700764  0.3176632187218754  0.1599784013253336
  0.3725604754805863  0.3447014158788792  0.1288307571392980
  0.3868820553897244  0.4123097749307150  0.1270274505375213
  0.3880474149656967  0.4451814146243935  0.0958723322613364
  0.3784064514518711  0.5149466245220433  0.0940480899012536
  0.3635802598755331  0.5516285671409137  0.5172746239284914
  0.3498655976310715  0.5759430979515248  0.4859921272660422
  0.3127345158182661  0.6138336645256198  0.4841761871548379
  0.2932680953450571  0.6240918361745678  0.4530325878366039
  0.2493277801825479  0.6254507755340536  0.4512144128166566
  0.2297906349754301  0.6170601837544336  0.4200286566519878
  0.1922459283055526  0.5797827409067677  0.4181931311830840
  0.1786106783451352  0.5555379702227240  0.3870103305753195
  0.1587945151223151  0.4917240137142789  0.3851927369898953
  0.1549578056776253  0.4593924089999251  0.3540296112103190
  0.1585445625479017  0.3881343328900266  0.3522263861767603
  0.1656818223789127  0.3572751051629801  0.3210825355403616
  0.1917144239076898  0.2996295898407623  0.3192741798713974
  0.2077519237467483  0.2794242797142371  0.2881236461643588
  0.2485327166715828  0.2525962179624930  0.2863323262889061
  0.2687058011149108  0.2490699980310966  0.2551842238405686
  0.3120810919629951  0.2611924160255469  0.2533675385180258
  0.3303823451851529  0.2754665171347284  0.2222225102564818
  0.3633716874288318  0.3227841866554742  0.2204041944567059
  0.3744038156033959  0.3504640310943508  0.1892611953366462
  0.3872703994946770  0.4188453908372220  0.1874511384438991
  0.3877587650836812  0.4517537545135766  0.1563047539951781
  0.3766519880860417  0.5209436775086584  0.1544813868039707
  0.3611546041215482  0.5586307230375221  0.5776224218849280
  0.3466834535846162  0.5808834597880230  0.5464475067909633
  0.3088262921565199  0.6171075140198264  0.5445773402795188
  0.2892786457051856  0.6250723545510649  0.5134402645625353
  0.2453693177834321  0.6240422549185135  0.5116397041546913
  0.2259697578120867  0.6143567369868596  0.4804775741928086
  0.1892424030601340  0.5752251498074098  0.4786514767648601
  0.1760641979753490  0.5502827405434324  0.4474623505145947
  0.1576111877586615  0.4854064131237754  0.4456536961853261
  0.1544721318246510  0.4528824879488808  0.4144857152098861
  0.1595506502001244  0.3818701759804107  0.4126777199731301
  0.1673598659399061  0.3514071658392947  0.3815231422617383
  0.1946111890387024  0.2952906328077625  0.3797180902215075
  0.2110991265203975  0.2759771339689633  0.3485801100230178
  0.2524724645138318  0.2515989603114484  0.3467955794482987
  0.2726960355213495  0.2491084011179556  0.3156486066548189
  0.3157777366929452  0.2636448599698373  0.3138137383488960
  0.3337549101289120  0.2788603530614222  0.2826484206985126
  0.3656942463678570  0.3280535590491518  0.2808076855768034
  0.3761091073392812  0.3563411762700781  0.2496772819619681
  0.3875054839157715  0.4254185096489223  0.2478566939790093
  0.3872936273900572  0.4583295433229814  0.2167170180945685
  0.3747539050580574  0.5268623540007058  0.2149046633025545
  0.3587683720836262  0.5646802335951939  0.6380459484296808
  0.3440142961071485  0.5869680728578750  0.6068795309416859
  0.3051833438040558  0.6204705195573573  0.6050262561703914
  0.2853371146505735  0.6271173035982605  0.5738666504934956
  0.2414261355714664  0.6229977849522585  0.5720806845569358
  0.2222861307194447  0.6119703554909040  0.5409495489599296
  0.1864015383395240  0.5706100534057166  0.5391347741070599
  0.1737355316708397  0.5448532090801070  0.5079737674661807
  0.1566827328025921  0.4790272256595616  0.5061631034616378
  0.1541755973368894  0.4463526305788171  0.4749634652805999
  0.1607429118044822  0.3757334664250152  0.4731441803859257
  0.1691345705718393  0.3457058919642178  0.4419858750876021
  0.1976634941405503  0.2912830058540289  0.4401822372225245
  0.2145443401279160  0.2729349264088156  0.4090483599914504
  0.2564839723239168  0.2513907944110211  0.4072625250961555
  0.2767248032147458  0.2498896894465456  0.3761060265676242
  0.3194271150118749  0.2668925637151418  0.3742478424546474
  0.3370945967824076  0.2825966421113312  0.3430796091350803
  0.3680263422098837  0.3335028461470753  0.3412011009782653
  0.3777341029797213  0.3623543218709860  0.3100534513483499
  0.3876609423946355  0.4319864101424599  0.3082193847593342
  0.3867206794193810  0.4648966158667206  0.2770988496949729
  0.3727700257110986  0.5327126286524216  0.2753138630472778
  0.3561022104073184  0.5696123470634119  0.6984775159077685
  0.3409664580650670  0.5915364149118137  0.6673132071576307
  0.3013989999277492  0.6228161534400481  0.6654887959754058
  0.2814193006168278  0.6284856708313459  0.6343381518230601
  0.2376264215929654  0.6214029084081836  0.6325475956689972
  0.2187209579081129  0.6092847908631168  0.6014107046269357
  0.1838090954541923  0.5657898265837356  0.5996017584296048
  0.1716339145068878  0.5393879293524929  0.5684437201311455
  0.1559638299945193  0.4725875604433914  0.5666406659693020
  0.1540921674060331  0.4398097654375074  0.5354747111069112
  0.1621697878141525  0.3695530183056138  0.5336559112694642
  0.1711790101828748  0.3401097276390121  0.5024687157406976
  0.2008745147967119  0.2875313854102914  0.5006559396601920
  0.2182100367148406  0.2703776018394647  0.4694929066869596
  0.2606163533408286  0.2518398706197541  0.4676860187973303
  0.2807651131279393  0.2517372633501589  0.4365506026636515
  0.3229322864989515  0.2717593718123187  0.4346804532404326
  0.3403197073099526  0.2875471954045634  0.4035033977509098
  0.3705502590800977  0.3393541657942614  0.4015837041779504
  0.3795463111560552  0.3684041910343507  0.3703535191121985
  0.3880064713152445  0.4384698490967950  0.3685079538593607
  0.3861556648653391  0.4713766395653913  0.3374666034535803
  0.3533558557903470  0.5742535843297548  0.7589027989676622
  0.3377624092412853  0.5953839297307304  0.7277581117612111
  0.2975471370738643  0.6244458204309984  0.7259538048860766
  0.2774536967781894  0.6290835263796108  0.6948051114118386
  0.2338648815906264  0.6193990028757620  0.6930042597600609
  0.2152569150356344  0.6062302322636809  0.6618536258115082
  0.1812973520569258  0.5607665212516527  0.6600499894155402
  0.1697097982698208  0.5337144377632677  0.6288999957112306
  0.1554460862014051  0.4660813894703255  0.6270954108934547
  0.1542787506276961  0.4332122183541871  0.5959342662441005
  0.1638463238322251  0.3634476255298771  0.5941079009085939
  0.1734024505495818  0.3345036433955728  0.5629253877940495
  0.2041724195835135  0.2833968416941515  0.5611017368810379
  0.2218443878930246  0.2674675313590917  0.5299176480205172
  0.2646378617812115  0.2512276623788711  0.5280883331555314
  0.2850578385050119  0.2533856237040878  0.4969468575553017
  0.3267745159235395  0.2752965187595877  0.4951371338833799
  0.3437376213834820  0.2933803231249014  0.4638511835847822
  0.3748960852203809  0.3430073280702906  0.4616340909132746
  0.3828355553477996  0.3736458527687800  0.4307902492314025
  0.3897969832372713  0.4450358482444772  0.4289356287328658
  0.3856786829856840  0.4774544060593910  0.3978393070873241
  0.3505141857816707  0.5787281225427239  0.8193340173449718
  0.3344663087852056  0.5989469633110320  0.7881956056612227
  0.2936620567388451  0.6257015488758457  0.7863991551784236
  0.2734827079065343  0.6292525348047034  0.7552509344562223
  0.2301198522068108  0.6171314199246002  0.7534445288559949
  0.2118186938474228  0.6029414102414479  0.7222991969727279
  0.1788334025773053  0.5556193618567006  0.7204951998632645
  0.1678499220880058  0.5279350747166212  0.6893402974088571
  0.1550030756927440  0.4595630866398324  0.6875305457485796
  0.1545562138813224  0.4266463570139459  0.6563738951076378
  0.1656162306743202  0.3574466152740368  0.6545490943184982
  0.1758088575159831  0.3290343431942521  0.6233844870970162
  0.2075617075658174  0.2795417699852406  0.6215662718490436
  0.2254704667156079  0.2643220478972524  0.5903718966112219
  0.2685358210969195  0.2498335137601140  0.5885387774988508
  0.2887349569358759  0.2530330855335655  0.5573780487096002
  0.3299910633213083  0.2776135569083381  0.5556510845423822
  0.3468532254645195  0.2971970418693435  0.5245959652669381
  0.3767949491698770  0.3488619830492316  0.5232747864113484
  0.3916881665176775  0.3735756118322831  0.4915202075123071
  0.3979231533775612  0.4547550148709257  0.4896005638776713
  0.3872135370807794  0.4846597187100159  0.4578453386338885
  0.3475689037109940  0.5830575188321909  0.8797714204731224
  0.3311055876798799  0.6023413855366777  0.8486261662328396
  0.2897528951233059  0.6267677292307845  0.8468305784232415
  0.2695110771169163  0.6291747131737285  0.8156894505085490
  0.2264258093619660  0.6146475606058367  0.8138770692059000
  0.2084318962053048  0.5994394568566618  0.7827348213884372
  0.1764511129710943  0.5503382427505727  0.7809309995203169
  0.1660588950180334  0.5220708425661269  0.7497752329876402
  0.1546479826863442  0.4530193234837888  0.7479614799632227
  0.1549166389973666  0.4200998633732311  0.7168103228011729
  0.1674572675687166  0.3515691655828558  0.7149912425753892
  0.1782837545810493  0.3237526973774104  0.6838287473728472
  0.2110608168227805  0.2760619428690850  0.6820133215194705
  0.2292447888276356  0.2616511542258961  0.6508373926324843
  0.2725757317903322  0.2491827241393946  0.6490120279098158
  0.2927170289816004  0.2528486290750150  0.6178430590491231
  0.3335872985851483  0.2792275857685626  0.6161089706281547
  0.3496606692579414  0.2997609084680833  0.5849891406210144
  0.3764002709041374  0.3564288330608851  0.5832806576684917
  0.3852978317543712  0.3862209582324854  0.5521872101028639
  0.3893509468287355  0.4582045295136835  0.5503407001459728
  0.3862803005942957  0.4910842572395383  0.5194927474382928
  0.3445012282017043  0.5872192224191408  0.9402089856685183
  0.3276508873386626  0.6055633465479113  0.9090589595824479
  0.2858021752844498  0.6276546309388623  0.9072584921085914
  0.2655300186670205  0.6289035178559650  0.8761172902662601
  0.2227820419907159  0.6119798834167215  0.8743021752124175
  0.2051214804016591  0.5957745704921028  0.8431591349063126
  0.1741794806460383  0.5449384931162869  0.8413578727592635
  0.1643750505057748  0.5161085156098408  0.8102105515102731
  0.1544269660427760  0.4464595579929516  0.8083925151318363
  0.1553943954547163  0.4135729037769655  0.7772414895593615
  0.1693974975991636  0.3457954902555303  0.7754301817290076
  0.1808166060981499  0.3186127536248269  0.7442706505102823
  0.2146021740341312  0.2728080592771010  0.7424587438935342
  0.2330906384701463  0.2594024557841372  0.7112975350920145
  0.2766420825190514  0.2492819887758830  0.7094761496088062
  0.2966975896602709  0.2537471501957042  0.6783017613653376
  0.3370098001985885  0.2823857635219705  0.6765340546881584
  0.3526665375133550  0.3033386566770447  0.6454039799822217
  0.3777758803433534  0.3621049712951768  0.6436535400919957
  0.3845509200264981  0.3932762507300702  0.6126139260824380
  0.3869508972782071  0.4645768815805562  0.6107801702172173
  0.3826276314961631  0.4963446774637323  0.5795495484282119
  0.3413174539735446  0.5912100451891650  0.0006469811504951
  0.3241056855550962  0.6086011925148122  0.9694931668413792
  0.2818143751928380  0.6283380617898119  0.9676843625361988
  0.2615390670661942  0.6284479360986636  0.9365398023678280
  0.2191734553426236  0.6091473129022069  0.9347244239977817
  0.2018745602508700  0.5919566461014527  0.9035810566365537
  0.1720257777396801  0.5394221030027198  0.9017803660040786
  0.1628400843201453  0.5100586744766338  0.8706373966031098
  0.1543705458917934  0.4399018158385261  0.8688177844998038
  0.1560217928528506  0.4070829817774449  0.8376697310393059
  0.1714675238335050  0.3401360657093760  0.8358642837199400
  0.1834612037338099  0.3136170824851249  0.8047098673553871
  0.2182222857674085  0.2697847499214830  0.8028963516088861
  0.2369793858896936  0.2574334547826411  0.7717377993889828
  0.2807219813994075  0.2497812220409659  0.7699168437127476
  0.3006602866272021  0.2552937869145017  0.7387511552232258
  0.3403428625055256  0.2862029683753660  0.7369549624021643
  0.3555078775273063  0.3079814766413339  0.7058132133563068
  0.3792953480851839  0.3681438946591568  0.7040227093612555
  0.3851938743571011  0.3996749127648016  0.6729022913806769
  0.3861144487351008  0.4711382648472815  0.6710817594879106
  0.3810630561071503  0.5029936492454786  0.6399349861258627
  0.2575347528210767  0.6277750060720857  0.9969598225282950
  0.2156024271204341  0.6061180347495881  0.9951467048864588
  0.1986910398867922  0.5879704747798763  0.9640005760793769
  0.1699731510370921  0.5337995222643004  0.9621973863422824
  0.1614233288482228  0.5039349507607965  0.9310560477032503
  0.1544506680068665  0.4333429047646215  0.9292378648513994
  0.1568066934569733  0.4006397676204305  0.8980936534063284
  0.1736724566484510  0.3346050535674980  0.8962916661553526
  0.1862277008100937  0.3087856032413149  0.8651398837819380
  0.2219075190420285  0.2669533580844917  0.8633215978868928
  0.2409221761287415  0.2556857086045195  0.8321674812735960
  0.2848050202269085  0.2505065019146984  0.8303492004794455
  0.3046122865601942  0.2571512145855871  0.7991877609284552
  0.3436225963198098  0.2902208946823475  0.7973763621568797
  0.3583023956902219  0.3128390159830632  0.7662202636614198
  0.3808262836724142  0.3742619978418693  0.7644069384652734
  0.3860235021372226  0.4060835730809295  0.7332675487580101
  0.3854434052659012  0.4775962400609612  0.7314584389661765
  0.3796295758207802  0.5091844313017280  0.7003294265002366
  0.1601156109569480  0.4977411403263716  0.9914697604887942
  0.1546502981744017  0.4267959147278017  0.9896549905573946
  0.1577143552822809  0.3942384729782306  0.9585115338650535
  0.1759776276831630  0.3291925185743426  0.9567110613191360
  0.1890840467493266  0.3040915674416650  0.9255630978847638
  0.2256374451247115  0.2642908671183062  0.9237429495417254
  0.2448914034164758  0.2541182744846319  0.8925917982706676
  0.2888588940904307  0.2514139148735207  0.8907789433733537
  0.3085214562756586  0.2591831235802058  0.8596183470839781
  0.3468192069528213  0.2943884769699276  0.8577991365583431
  0.3610259119901039  0.3178078688962714  0.8266418777361652
  0.3822584935196782  0.3804424259935494  0.8248218083111583
  0.3867775744061035  0.4125367821330007  0.7936742731242787
  0.3846756492903085  0.4839634776586188  0.7918693990643085
  0.3781783051609553  0.5152143100716401  0.7607306072091017
  0.1920218671898900  0.2995731532419978  0.9859839827946564
  0.2293984765870692  0.2618431638429720  0.9841650815458991
  0.2488682772426567  0.2527523088180476  0.9530158232097043
  0.2928695618584902  0.2525178030282839  0.9512099455033671
  0.3123661840589058  0.2614024644135336  0.9200519190275636
  0.3498958035105054  0.2987296075520381  0.9182304162541252
  0.3636169064004391  0.3229242594154061  0.8870732532096302
  0.3835166486766192  0.3866974510640606  0.8852563824625843
  0.3873737949582816  0.4190230137502896  0.8540994688791070
  0.3837446900816087  0.4902842586180484  0.8522944895245491
  0.3766002790267653  0.5211364347255344  0.8211501787504344
  0.3161446907717944  0.2638072255844916  0.9804871512660474
  0.3528620581140005  0.3032174242685694  0.9786663803782920
  0.3660708953956423  0.3281744674115392  0.9475093970209667
  0.3846175766509577  0.3930131714898179  0.9456988848013226
  0.3878032250858704  0.4255346749201547  0.9145390554643561
  0.3826615605561862  0.4965516822996566  0.9127300941738083
  0.3748718661775427  0.5269810122326158  0.8815826835087532
  0.3880615480074857  0.4320682532997860  0.9749846086071330
  0.3814052170343409  0.5027501880857970  0.9731701487933092
  0.3729880559722940  0.5327189866125371  0.9420183415891387
  0.4451173622024993  0.4039604549610997  0.4905523512229357
 
  0.00000000E+00  0.00000000E+00  0.00000000E+00
  0.00000000E+00  0.00000000E+00  0.00000000E+00
  0.00000000E+00  0.00000000E+00  0.00000000E+00
  0.00000000E+00  0.00000000E+00  0.00000000E+00
  0.00000000E+00  0.00000000E+00  0.00000000E+00
  0.00000000E+00  0.00000000E+00  0.00000000E+00
  0.00000000E+00  0.00000000E+00  0.00000000E+00
  0.00000000E+00  0.00000000E+00  0.00000000E+00
  0.00000000E+00  0.00000000E+00  0.00000000E+00
  0.00000000E+00  0.00000000E+00  0.00000000E+00
  0.00000000E+00  0.00000000E+00  0.00000000E+00
  0.00000000E+00  0.00000000E+00  0.00000000E+00
  0.00000000E+00  0.00000000E+00  0.00000000E+00
  0.00000000E+00  0.00000000E+00  0.00000000E+00
  0.00000000E+00  0.00000000E+00  0.00000000E+00
  0.00000000E+00  0.00000000E+00  0.00000000E+00
  0.00000000E+00  0.00000000E+00  0.00000000E+00
  0.00000000E+00  0.00000000E+00  0.00000000E+00
  0.00000000E+00  0.00000000E+00  0.00000000E+00
  0.00000000E+00  0.00000000E+00  0.00000000E+00
  0.00000000E+00  0.00000000E+00  0.00000000E+00
  0.00000000E+00  0.00000000E+00  0.00000000E+00
  0.00000000E+00  0.00000000E+00  0.00000000E+00
  0.00000000E+00  0.00000000E+00  0.00000000E+00
  0.00000000E+00  0.00000000E+00  0.00000000E+00
  0.00000000E+00  0.00000000E+00  0.00000000E+00
  0.00000000E+00  0.00000000E+00  0.00000000E+00
  0.00000000E+00  0.00000000E+00  0.00000000E+00
  0.00000000E+00  0.00000000E+00  0.00000000E+00
  0.00000000E+00  0.00000000E+00  0.00000000E+00
  0.00000000E+00  0.00000000E+00  0.00000000E+00
  0.00000000E+00  0.00000000E+00  0.00000000E+00
  0.00000000E+00  0.00000000E+00  0.00000000E+00
  0.00000000E+00  0.00000000E+00  0.00000000E+00
  0.00000000E+00  0.00000000E+00  0.00000000E+00
  0.00000000E+00  0.00000000E+00  0.00000000E+00
  0.00000000E+00  0.00000000E+00  0.00000000E+00
  0.00000000E+00  0.00000000E+00  0.00000000E+00
  0.00000000E+00  0.00000000E+00  0.00000000E+00
  0.00000000E+00  0.00000000E+00  0.00000000E+00
  0.00000000E+00  0.00000000E+00  0.00000000E+00
  0.00000000E+00  0.00000000E+00  0.00000000E+00
  0.00000000E+00  0.00000000E+00  0.00000000E+00
  0.00000000E+00  0.00000000E+00  0.00000000E+00
  0.00000000E+00  0.00000000E+00  0.00000000E+00
  0.00000000E+00  0.00000000E+00  0.00000000E+00
  0.00000000E+00  0.00000000E+00  0.00000000E+00
  0.00000000E+00  0.00000000E+00  0.00000000E+00
  0.00000000E+00  0.00000000E+00  0.00000000E+00
  0.00000000E+00  0.00000000E+00  0.00000000E+00
  0.00000000E+00  0.00000000E+00  0.00000000E+00
  0.00000000E+00  0.00000000E+00  0.00000000E+00
  0.00000000E+00  0.00000000E+00  0.00000000E+00
  0.00000000E+00  0.00000000E+00  0.00000000E+00
  0.00000000E+00  0.00000000E+00  0.00000000E+00
  0.00000000E+00  0.00000000E+00  0.00000000E+00
  0.00000000E+00  0.00000000E+00  0.00000000E+00
  0.00000000E+00  0.00000000E+00  0.00000000E+00
  0.00000000E+00  0.00000000E+00  0.00000000E+00
  0.00000000E+00  0.00000000E+00  0.00000000E+00
  0.00000000E+00  0.00000000E+00  0.00000000E+00
  0.00000000E+00  0.00000000E+00  0.00000000E+00
  0.00000000E+00  0.00000000E+00  0.00000000E+00
  0.00000000E+00  0.00000000E+00  0.00000000E+00
  0.00000000E+00  0.00000000E+00  0.00000000E+00
  0.00000000E+00  0.00000000E+00  0.00000000E+00
  0.00000000E+00  0.00000000E+00  0.00000000E+00
  0.00000000E+00  0.00000000E+00  0.00000000E+00
  0.00000000E+00  0.00000000E+00  0.00000000E+00
  0.00000000E+00  0.00000000E+00  0.00000000E+00
  0.00000000E+00  0.00000000E+00  0.00000000E+00
  0.00000000E+00  0.00000000E+00  0.00000000E+00
  0.00000000E+00  0.00000000E+00  0.00000000E+00
  0.00000000E+00  0.00000000E+00  0.00000000E+00
  0.00000000E+00  0.00000000E+00  0.00000000E+00
  0.00000000E+00  0.00000000E+00  0.00000000E+00
  0.00000000E+00  0.00000000E+00  0.00000000E+00
  0.00000000E+00  0.00000000E+00  0.00000000E+00
  0.00000000E+00  0.00000000E+00  0.00000000E+00
  0.00000000E+00  0.00000000E+00  0.00000000E+00
  0.00000000E+00  0.00000000E+00  0.00000000E+00
  0.00000000E+00  0.00000000E+00  0.00000000E+00
  0.00000000E+00  0.00000000E+00  0.00000000E+00
  0.00000000E+00  0.00000000E+00  0.00000000E+00
  0.00000000E+00  0.00000000E+00  0.00000000E+00
  0.00000000E+00  0.00000000E+00  0.00000000E+00
  0.00000000E+00  0.00000000E+00  0.00000000E+00
  0.00000000E+00  0.00000000E+00  0.00000000E+00
  0.00000000E+00  0.00000000E+00  0.00000000E+00
  0.00000000E+00  0.00000000E+00  0.00000000E+00
  0.00000000E+00  0.00000000E+00  0.00000000E+00
  0.00000000E+00  0.00000000E+00  0.00000000E+00
  0.00000000E+00  0.00000000E+00  0.00000000E+00
  0.00000000E+00  0.00000000E+00  0.00000000E+00
  0.00000000E+00  0.00000000E+00  0.00000000E+00
  0.00000000E+00  0.00000000E+00  0.00000000E+00
  0.00000000E+00  0.00000000E+00  0.00000000E+00
  0.00000000E+00  0.00000000E+00  0.00000000E+00
  0.00000000E+00  0.00000000E+00  0.00000000E+00
  0.00000000E+00  0.00000000E+00  0.00000000E+00
  0.00000000E+00  0.00000000E+00  0.00000000E+00
  0.00000000E+00  0.00000000E+00  0.00000000E+00
  0.00000000E+00  0.00000000E+00  0.00000000E+00
  0.00000000E+00  0.00000000E+00  0.00000000E+00
  0.00000000E+00  0.00000000E+00  0.00000000E+00
  0.00000000E+00  0.00000000E+00  0.00000000E+00
  0.00000000E+00  0.00000000E+00  0.00000000E+00
  0.00000000E+00  0.00000000E+00  0.00000000E+00
  0.00000000E+00  0.00000000E+00  0.00000000E+00
  0.00000000E+00  0.00000000E+00  0.00000000E+00
  0.00000000E+00  0.00000000E+00  0.00000000E+00
  0.00000000E+00  0.00000000E+00  0.00000000E+00
  0.00000000E+00  0.00000000E+00  0.00000000E+00
  0.00000000E+00  0.00000000E+00  0.00000000E+00
  0.00000000E+00  0.00000000E+00  0.00000000E+00
  0.00000000E+00  0.00000000E+00  0.00000000E+00
  0.00000000E+00  0.00000000E+00  0.00000000E+00
  0.00000000E+00  0.00000000E+00  0.00000000E+00
  0.00000000E+00  0.00000000E+00  0.00000000E+00
  0.00000000E+00  0.00000000E+00  0.00000000E+00
  0.00000000E+00  0.00000000E+00  0.00000000E+00
  0.00000000E+00  0.00000000E+00  0.00000000E+00
  0.00000000E+00  0.00000000E+00  0.00000000E+00
  0.00000000E+00  0.00000000E+00  0.00000000E+00
  0.00000000E+00  0.00000000E+00  0.00000000E+00
  0.00000000E+00  0.00000000E+00  0.00000000E+00
  0.00000000E+00  0.00000000E+00  0.00000000E+00
  0.00000000E+00  0.00000000E+00  0.00000000E+00
  0.00000000E+00  0.00000000E+00  0.00000000E+00
  0.00000000E+00  0.00000000E+00  0.00000000E+00
  0.00000000E+00  0.00000000E+00  0.00000000E+00
  0.00000000E+00  0.00000000E+00  0.00000000E+00
  0.00000000E+00  0.00000000E+00  0.00000000E+00
  0.00000000E+00  0.00000000E+00  0.00000000E+00
  0.00000000E+00  0.00000000E+00  0.00000000E+00
  0.00000000E+00  0.00000000E+00  0.00000000E+00
  0.00000000E+00  0.00000000E+00  0.00000000E+00
  0.00000000E+00  0.00000000E+00  0.00000000E+00
  0.00000000E+00  0.00000000E+00  0.00000000E+00
  0.00000000E+00  0.00000000E+00  0.00000000E+00
  0.00000000E+00  0.00000000E+00  0.00000000E+00
  0.00000000E+00  0.00000000E+00  0.00000000E+00
  0.00000000E+00  0.00000000E+00  0.00000000E+00
  0.00000000E+00  0.00000000E+00  0.00000000E+00
  0.00000000E+00  0.00000000E+00  0.00000000E+00
  0.00000000E+00  0.00000000E+00  0.00000000E+00
  0.00000000E+00  0.00000000E+00  0.00000000E+00
  0.00000000E+00  0.00000000E+00  0.00000000E+00
  0.00000000E+00  0.00000000E+00  0.00000000E+00
  0.00000000E+00  0.00000000E+00  0.00000000E+00
  0.00000000E+00  0.00000000E+00  0.00000000E+00