Ge Se
 1.0000000000000000
     4.4000000000000004    0.0000000000000000    0.0000000000000000
     0.0000000000000000    4.7500000000000000    0.0000000000000000
     0.0000000000000000    0.0000000000000000   11.1422210000000010
 Ge  Se 
   4   4
Selective dynamics
Cartesian
  1.1000000000000001  0.5322050294892565  1.4808339341170655   T   T   T
  3.3000000000000003  2.9072050294892553  4.0902765658829372   T   T   T
  3.3000000000000003  4.2177949705107434  9.6613870658829377   T   T   T
  1.1000000000000001  1.8427949705107427  7.0519444341170665   T   T   T
  1.1000000000000001 -0.2284724050985545  3.9065318020243214   T   T   T
  3.3000000000000003  2.1465275949014444  1.6645786979756798   T   T   T
  3.3000000000000003  4.9784724050985529  7.2356891979756837   T   T   T
  1.1000000000000001  2.6034724050985547  9.4776423020243232   T   T   T
