Ge Se                                   
    1.000000000000000     
    12.4196451033239352    0.0000059563634674   -0.0000024900560307
     0.0000059942855299   12.4987078091172545   -0.0000025152382551
    -0.0000028508648401   -0.0000028614779462   11.0460456411180967
   Ge   Se
    36    36
Direct
  0.0827022747759898  0.0450038096923322  0.1275290355001459
  0.2342598438126728  0.8798187595496856  0.3695776085761509
  0.5662805023112938  0.1972710593620945  0.3722647053093624
  0.5630118880586110  0.5448738815353025  0.3560291084423071
  0.5694850980607242  0.8562674171544131  0.3727198216148508
  0.8749555390145787  0.1746787419887852  0.3665065059856616
  0.8992177812328137  0.5410200831683127  0.3718840414723488
  0.9138331973532985  0.8747186670849842  0.3529935871401051
  0.0893789802137022  0.1634254351791569  0.6464066087596763
  0.0558003404580631  0.4786040850060544  0.6260774892965060
  0.0845771092544538  0.8221016748876977  0.6228412042198883
  0.4270973238411457  0.1500062407747222  0.6341733106920131
  0.4313692904783863  0.4890146544844285  0.6357739372931164
  0.3980545677462501  0.8109572701125813  0.6181812219810325
  0.7424518435788272  0.1301809432954855  0.6350277367922743
  0.7483458109383321  0.4861118677616219  0.6420018431493517
  0.2117367942773853  0.5348919496845923  0.3532897961763837
  0.2379727055797503  0.2265608928741401  0.3633025489610517
  0.7536432314165253  0.8283875395685172  0.6390999009908498
  0.9253831978092464  0.6717576187215002  0.8691103471000616
  0.9310538190705273  0.9880279767236075  0.8753679957765996
  0.0646045642761237  0.3856487003973683  0.1057190149292850
  0.0689980825032848  0.6974655180942690  0.1212158495788955
  0.4036187797505377  0.0408143647993953  0.1373969630650933
  0.4105635692262055  0.3822698884782625  0.1355397490503023
  0.7192354373828920  0.0333542635265189  0.1307436937615591
  0.7489286234596975  0.3821445684064955  0.1248374879861487
  0.3938261197581028  0.7076065604776787  0.1233990798565330
  0.2489212006047978  0.3320071668712714  0.8629973119012320
  0.2471444917491255  0.6458994863778429  0.8648085998637356
  0.2604931316663865  0.9763899991717082  0.8647436511686948
  0.5798110742500242  0.3151591993735749  0.8907976431606954
  0.5756569933864242  0.6764060579439644  0.8580167765725832
  0.5640309628270614  0.9683861675068002  0.8654040676787602
  0.8735043247219423  0.3271093158411986  0.8783826731833742
  0.7493513193155081  0.7194116334674092  0.1223219769869957
  0.9018220099975096  0.0007211452694165  0.6507080131872982
  0.2202993887305382  0.3470145729608873  0.6293610242564824
  0.2396218750025270  0.6735008926133048  0.6256563988809063
  0.5601406899932684  0.0072654251265689  0.6371012287649407
  0.5886405500631469  0.3442905934203324  0.6622861772503086
  0.5628489808076935  0.6841000169772968  0.6258902551324965
  0.8913823890579664  0.3353846548742538  0.6354146759034052
  0.7413498378046199  0.0186111453918016  0.3643276090560903
  0.0697656453870010  0.0168161260093243  0.3606729221069003
  0.0865071329272524  0.3616666981770820  0.3422910435486770
  0.0701153687870075  0.6843507320598690  0.3615364430124828
  0.3982264027685076  0.0105002684067941  0.3655481453390195
  0.4216341618558488  0.3556193132071357  0.3686109860472868
  0.4035369647767908  0.6796786195265270  0.3598651234937051
  0.2446277717254333  0.0254457706067370  0.6456915870214033
  0.9277495793148844  0.6898322216313417  0.6425228368450462
  0.9126037651526886  0.8487809002588236  0.1376482147525735
  0.2345064222094777  0.1876406287253545  0.1341537140398259
  0.9108454052217780  0.1605096905434493  0.1420213147330855
  0.7241902787603891  0.3279963020794625  0.3429443147799915
  0.0537968843013346  0.1812066765303229  0.8613705742052318
  0.0712558115636810  0.5183408338177458  0.8611831139665327
  0.0883025199792442  0.8471619941500350  0.8735181038357496
  0.4024144442562303  0.1961426223636735  0.8599106779572523
  0.3922026650029125  0.4943342386292215  0.8622980978492691
  0.4041009687997388  0.8383184685020240  0.8524575942455215
  0.7250791418352378  0.1658723874775774  0.8675050474086561
  0.7410891405580813  0.5291601175629239  0.8715399206101608
  0.7179379291235009  0.8247887769642333  0.8609938362006844
  0.2520674322146945  0.5217212712782100  0.1226352560075554
  0.2302269132273409  0.8362339068087934  0.1343100648909257
  0.5641194470982782  0.1645212716059135  0.1536464134519449
  0.5804482624636904  0.5147843052288366  0.1413817490733820
  0.5648045487108249  0.8375105446756237  0.1331808524847631
  0.9030527545566471  0.5192789438404333  0.1414010311150165
  0.7461640387399413  0.6799014298317587  0.3577455721907157
 
  0.00000000E+00  0.00000000E+00  0.00000000E+00
  0.00000000E+00  0.00000000E+00  0.00000000E+00
  0.00000000E+00  0.00000000E+00  0.00000000E+00
  0.00000000E+00  0.00000000E+00  0.00000000E+00
  0.00000000E+00  0.00000000E+00  0.00000000E+00
  0.00000000E+00  0.00000000E+00  0.00000000E+00
  0.00000000E+00  0.00000000E+00  0.00000000E+00
  0.00000000E+00  0.00000000E+00  0.00000000E+00
  0.00000000E+00  0.00000000E+00  0.00000000E+00
  0.00000000E+00  0.00000000E+00  0.00000000E+00
  0.00000000E+00  0.00000000E+00  0.00000000E+00
  0.00000000E+00  0.00000000E+00  0.00000000E+00
  0.00000000E+00  0.00000000E+00  0.00000000E+00
  0.00000000E+00  0.00000000E+00  0.00000000E+00
  0.00000000E+00  0.00000000E+00  0.00000000E+00
  0.00000000E+00  0.00000000E+00  0.00000000E+00
  0.00000000E+00  0.00000000E+00  0.00000000E+00
  0.00000000E+00  0.00000000E+00  0.00000000E+00
  0.00000000E+00  0.00000000E+00  0.00000000E+00
  0.00000000E+00  0.00000000E+00  0.00000000E+00
  0.00000000E+00  0.00000000E+00  0.00000000E+00
  0.00000000E+00  0.00000000E+00  0.00000000E+00
  0.00000000E+00  0.00000000E+00  0.00000000E+00
  0.00000000E+00  0.00000000E+00  0.00000000E+00
  0.00000000E+00  0.00000000E+00  0.00000000E+00
  0.00000000E+00  0.00000000E+00  0.00000000E+00
  0.00000000E+00  0.00000000E+00  0.00000000E+00
  0.00000000E+00  0.00000000E+00  0.00000000E+00
  0.00000000E+00  0.00000000E+00  0.00000000E+00
  0.00000000E+00  0.00000000E+00  0.00000000E+00
  0.00000000E+00  0.00000000E+00  0.00000000E+00
  0.00000000E+00  0.00000000E+00  0.00000000E+00
  0.00000000E+00  0.00000000E+00  0.00000000E+00
  0.00000000E+00  0.00000000E+00  0.00000000E+00
  0.00000000E+00  0.00000000E+00  0.00000000E+00
  0.00000000E+00  0.00000000E+00  0.00000000E+00
  0.00000000E+00  0.00000000E+00  0.00000000E+00
  0.00000000E+00  0.00000000E+00  0.00000000E+00
  0.00000000E+00  0.00000000E+00  0.00000000E+00
  0.00000000E+00  0.00000000E+00  0.00000000E+00
  0.00000000E+00  0.00000000E+00  0.00000000E+00
  0.00000000E+00  0.00000000E+00  0.00000000E+00
  0.00000000E+00  0.00000000E+00  0.00000000E+00
  0.00000000E+00  0.00000000E+00  0.00000000E+00
  0.00000000E+00  0.00000000E+00  0.00000000E+00
  0.00000000E+00  0.00000000E+00  0.00000000E+00
  0.00000000E+00  0.00000000E+00  0.00000000E+00
  0.00000000E+00  0.00000000E+00  0.00000000E+00
  0.00000000E+00  0.00000000E+00  0.00000000E+00
  0.00000000E+00  0.00000000E+00  0.00000000E+00
  0.00000000E+00  0.00000000E+00  0.00000000E+00
  0.00000000E+00  0.00000000E+00  0.00000000E+00
  0.00000000E+00  0.00000000E+00  0.00000000E+00
  0.00000000E+00  0.00000000E+00  0.00000000E+00
  0.00000000E+00  0.00000000E+00  0.00000000E+00
  0.00000000E+00  0.00000000E+00  0.00000000E+00
  0.00000000E+00  0.00000000E+00  0.00000000E+00
  0.00000000E+00  0.00000000E+00  0.00000000E+00
  0.00000000E+00  0.00000000E+00  0.00000000E+00
  0.00000000E+00  0.00000000E+00  0.00000000E+00
  0.00000000E+00  0.00000000E+00  0.00000000E+00
  0.00000000E+00  0.00000000E+00  0.00000000E+00
  0.00000000E+00  0.00000000E+00  0.00000000E+00
  0.00000000E+00  0.00000000E+00  0.00000000E+00
  0.00000000E+00  0.00000000E+00  0.00000000E+00
  0.00000000E+00  0.00000000E+00  0.00000000E+00
  0.00000000E+00  0.00000000E+00  0.00000000E+00
  0.00000000E+00  0.00000000E+00  0.00000000E+00
  0.00000000E+00  0.00000000E+00  0.00000000E+00
  0.00000000E+00  0.00000000E+00  0.00000000E+00
  0.00000000E+00  0.00000000E+00  0.00000000E+00
  0.00000000E+00  0.00000000E+00  0.00000000E+00
