Ge Se                                   
    1.000000000000000     
    12.3946821023653051   -0.0000016424671017   -0.0000033957925101
    -0.0000016599520785   12.5266292296867459    0.0000014046452916
    -0.0000039121963802    0.0000016012063273   11.0929014415153269
   Ge   Se
    36    36
Direct
  0.0719525277311490  0.0214045636290621  0.1541474499112709
  0.2316958608983839  0.8707657104434574  0.3706351683385947
  0.5789510449657982  0.2133063350918292  0.3658606567185032
  0.5635957236943625  0.5459421066410712  0.3663401358792342
  0.5602391890033402  0.8660347666204444  0.3669825844517973
  0.8855743334301209  0.2060908390017744  0.3570643284740953
  0.9025038637251370  0.5470495151419357  0.3762827214028377
  0.8888870713227845  0.8852737936129458  0.4025642692954179
  0.0920676932880156  0.1440111416565983  0.6273475831143784
  0.0964801081541893  0.5095993639688814  0.6489504723961517
  0.0683911940105375  0.8221577603981345  0.6289263484143746
  0.3961297643932440  0.1393457521607573  0.6118028274630802
  0.4123952083963403  0.4829660193907301  0.6026549149188227
  0.4445296095273861  0.8298432193920888  0.6270102833953786
  0.7575153484280222  0.1532050618929972  0.6442305010242819
  0.7353113698148945  0.4857336573860564  0.6192042759140435
  0.2144277602820566  0.5299175320590308  0.3467475549436756
  0.2316453502689910  0.2157495682598807  0.3660088998767819
  0.7478949610307097  0.8269380752854758  0.6354644935977305
  0.8917576606457587  0.6511036415904528  0.8808750539979258
  0.9135099548586751  0.9931082299411713  0.8901336607665797
  0.0723946311087076  0.3751677661608497  0.1262046294421211
  0.0697670869924423  0.7172706134896245  0.1187539131441895
  0.4009178859262121  0.0423397649067212  0.1351995189816080
  0.4070713140541216  0.3785810534443499  0.1275904249612339
  0.7279561428020145  0.0458891129333452  0.1318402581448836
  0.7502252921603372  0.3692594893075594  0.1124121872789274
  0.4280881244266013  0.6918376397104282  0.1309041656436136
  0.2565136094370288  0.3128488498574171  0.8804968526617287
  0.2515014142070982  0.6834118937608906  0.8565587395789436
  0.2331958943411081  0.9800242619267863  0.8654108129731455
  0.5550423150816570  0.3097199255514482  0.8695642729080220
  0.5652439439860899  0.6400215179639162  0.8884340753984503
  0.6033356255625080  0.0056690615858059  0.8663021429500830
  0.9290392846716884  0.3505261736540177  0.8617455536626935
  0.7398049329073118  0.7018856322142568  0.1398552987187429
  0.9084157547508980  0.0219567074265328  0.6425863945682622
  0.2422077874719548  0.3554589719403083  0.6357633827436757
  0.2298166246100521  0.6801994176071915  0.6306849842742039
  0.5611779905366134  0.0134637038351926  0.6394552256784962
  0.5523804725822856  0.3487563242694947  0.6391138113783867
  0.5820619968232918  0.6901833092743317  0.6659115921730177
  0.8997152689613443  0.3456513487945116  0.6448489456977384
  0.7184827666732545  0.0098251577529354  0.3621834083269064
  0.0600888635804537  0.0179650970651579  0.3809617068806759
  0.0741231289842261  0.3472545740529398  0.3638293621658306
  0.0521993740432407  0.6819318860590968  0.3599381261199923
  0.3955346981640702  0.0017156251637687  0.3642076179858975
  0.3990538781835369  0.3529202083044680  0.3535025943869670
  0.3984666454236603  0.6809368256889883  0.3523762825746886
  0.2383239200845964  0.0027422529585337  0.6182820238547180
  0.9025277331192285  0.6903299869628441  0.6562103535555579
  0.9058037353872805  0.8473495368715831  0.1564381127771100
  0.2368076097422289  0.1752931027635327  0.1402536469141182
  0.8966437982390332  0.1816755263086378  0.1310131607438336
  0.7297056570110243  0.3623825085248598  0.3457587948094627
  0.0814322535410241  0.1847212725684813  0.8596871280200276
  0.0574735274528280  0.5105939959268184  0.8752085772386167
  0.0722730806231837  0.8438626556305309  0.8473678309417565
  0.3982973224365409  0.1681706220493240  0.8492482954813099
  0.4085969300947454  0.5068726238529067  0.8520372926302215
  0.3943454422064576  0.8418945261448627  0.8637495770617605
  0.7338137641450970  0.1787814549881688  0.8660216018694200
  0.7405677078385438  0.5135105565294396  0.8546878181221018
  0.7504939438231304  0.8549523016277050  0.8699731867274068
  0.2291031132187271  0.5089518954914567  0.1216313426952880
  0.2283813011445019  0.8482142494266327  0.1347980068488255
  0.5647393323661944  0.1913615773312145  0.1441109313411246
  0.5802883300878676  0.5057473298196271  0.1312885572875189
  0.5664727096311708  0.8322016506520882  0.1356871524157199
  0.9008951945672337  0.5125766643020455  0.1546439129239943
  0.7433822832635713  0.6798877367733596  0.3664545374052892
 
  0.00000000E+00  0.00000000E+00  0.00000000E+00
  0.00000000E+00  0.00000000E+00  0.00000000E+00
  0.00000000E+00  0.00000000E+00  0.00000000E+00
  0.00000000E+00  0.00000000E+00  0.00000000E+00
  0.00000000E+00  0.00000000E+00  0.00000000E+00
  0.00000000E+00  0.00000000E+00  0.00000000E+00
  0.00000000E+00  0.00000000E+00  0.00000000E+00
  0.00000000E+00  0.00000000E+00  0.00000000E+00
  0.00000000E+00  0.00000000E+00  0.00000000E+00
  0.00000000E+00  0.00000000E+00  0.00000000E+00
  0.00000000E+00  0.00000000E+00  0.00000000E+00
  0.00000000E+00  0.00000000E+00  0.00000000E+00
  0.00000000E+00  0.00000000E+00  0.00000000E+00
  0.00000000E+00  0.00000000E+00  0.00000000E+00
  0.00000000E+00  0.00000000E+00  0.00000000E+00
  0.00000000E+00  0.00000000E+00  0.00000000E+00
  0.00000000E+00  0.00000000E+00  0.00000000E+00
  0.00000000E+00  0.00000000E+00  0.00000000E+00
  0.00000000E+00  0.00000000E+00  0.00000000E+00
  0.00000000E+00  0.00000000E+00  0.00000000E+00
  0.00000000E+00  0.00000000E+00  0.00000000E+00
  0.00000000E+00  0.00000000E+00  0.00000000E+00
  0.00000000E+00  0.00000000E+00  0.00000000E+00
  0.00000000E+00  0.00000000E+00  0.00000000E+00
  0.00000000E+00  0.00000000E+00  0.00000000E+00
  0.00000000E+00  0.00000000E+00  0.00000000E+00
  0.00000000E+00  0.00000000E+00  0.00000000E+00
  0.00000000E+00  0.00000000E+00  0.00000000E+00
  0.00000000E+00  0.00000000E+00  0.00000000E+00
  0.00000000E+00  0.00000000E+00  0.00000000E+00
  0.00000000E+00  0.00000000E+00  0.00000000E+00
  0.00000000E+00  0.00000000E+00  0.00000000E+00
  0.00000000E+00  0.00000000E+00  0.00000000E+00
  0.00000000E+00  0.00000000E+00  0.00000000E+00
  0.00000000E+00  0.00000000E+00  0.00000000E+00
  0.00000000E+00  0.00000000E+00  0.00000000E+00
  0.00000000E+00  0.00000000E+00  0.00000000E+00
  0.00000000E+00  0.00000000E+00  0.00000000E+00
  0.00000000E+00  0.00000000E+00  0.00000000E+00
  0.00000000E+00  0.00000000E+00  0.00000000E+00
  0.00000000E+00  0.00000000E+00  0.00000000E+00
  0.00000000E+00  0.00000000E+00  0.00000000E+00
  0.00000000E+00  0.00000000E+00  0.00000000E+00
  0.00000000E+00  0.00000000E+00  0.00000000E+00
  0.00000000E+00  0.00000000E+00  0.00000000E+00
  0.00000000E+00  0.00000000E+00  0.00000000E+00
  0.00000000E+00  0.00000000E+00  0.00000000E+00
  0.00000000E+00  0.00000000E+00  0.00000000E+00
  0.00000000E+00  0.00000000E+00  0.00000000E+00
  0.00000000E+00  0.00000000E+00  0.00000000E+00
  0.00000000E+00  0.00000000E+00  0.00000000E+00
  0.00000000E+00  0.00000000E+00  0.00000000E+00
  0.00000000E+00  0.00000000E+00  0.00000000E+00
  0.00000000E+00  0.00000000E+00  0.00000000E+00
  0.00000000E+00  0.00000000E+00  0.00000000E+00
  0.00000000E+00  0.00000000E+00  0.00000000E+00
  0.00000000E+00  0.00000000E+00  0.00000000E+00
  0.00000000E+00  0.00000000E+00  0.00000000E+00
  0.00000000E+00  0.00000000E+00  0.00000000E+00
  0.00000000E+00  0.00000000E+00  0.00000000E+00
  0.00000000E+00  0.00000000E+00  0.00000000E+00
  0.00000000E+00  0.00000000E+00  0.00000000E+00
  0.00000000E+00  0.00000000E+00  0.00000000E+00
  0.00000000E+00  0.00000000E+00  0.00000000E+00
  0.00000000E+00  0.00000000E+00  0.00000000E+00
  0.00000000E+00  0.00000000E+00  0.00000000E+00
  0.00000000E+00  0.00000000E+00  0.00000000E+00
  0.00000000E+00  0.00000000E+00  0.00000000E+00
  0.00000000E+00  0.00000000E+00  0.00000000E+00
  0.00000000E+00  0.00000000E+00  0.00000000E+00
  0.00000000E+00  0.00000000E+00  0.00000000E+00
  0.00000000E+00  0.00000000E+00  0.00000000E+00
