Ge Se                                   
    1.000000000000000     
     3.7500000000000000    0.0000000000000000    0.0000000000000000
     0.0000000000000000    3.8999999999999995    0.0000000000000000
     0.0000000000000000    0.0000000000000000   11.1422209999999993
   Ge   Se
     4     4
Selective dynamics
Direct
  0.2500000000000000  0.0636350585193384  0.1167331736061357   T   T   T
  0.7500000000000000  0.5636350585193384  0.3832668263938643   T   T   T
  0.7500000000000000  0.9363649414806687  0.8832668263938643   T   T   T
  0.2500000000000000  0.4363649414806616  0.6167331736061357   T   T   T
  0.2500000000000000  0.0137398393619677  0.3510839754523900   T   T   T
  0.7500000000000000  0.5137398393619677  0.1489160245476100   T   T   T
  0.7500000000000000  0.9862601606380323  0.6489160245476100   T   T   T
  0.2500000000000000  0.4862601606380323  0.8510839754523900   T   T   T
 
  0.00000000E+00  0.00000000E+00  0.00000000E+00
  0.00000000E+00  0.00000000E+00  0.00000000E+00
  0.00000000E+00  0.00000000E+00  0.00000000E+00
  0.00000000E+00  0.00000000E+00  0.00000000E+00
  0.00000000E+00  0.00000000E+00  0.00000000E+00
  0.00000000E+00  0.00000000E+00  0.00000000E+00
  0.00000000E+00  0.00000000E+00  0.00000000E+00
  0.00000000E+00  0.00000000E+00  0.00000000E+00
