Ge Se 
 1.0000000000000000
    12.4184239409828923    0.0000002475665866    0.0000012083302977
     0.0000002492109603   12.5009197767076312    0.0000057635601316
     0.0000013849570543    0.0000065624553282   11.0572675144072612
 Ge  Se 
  36  36
Cartesian
  0.8355983658040581  0.5228527315783770  1.5803437891522254
  2.8585865332468434 10.8500228380957235  4.0641622753698758
  7.4202391571847484  2.3123641064329199  3.8843936870005047
  7.0187820416789259  6.7541585278949894  3.8526308282610562
  6.7957737499799213 10.8493478780950401  4.2522974354764660
 11.0678437012373507  2.5944455363287919  4.1114724893905406
 11.0262997916123044  6.7781889568900162  4.2217509762494965
 11.4409201626408024 10.8648444911102633  4.2061436502704357
  1.0392261581683564  2.0978939090169679  6.9143782768734372
  0.9050059938415421  6.0603706876160661  6.8587952041527567
  0.9685397453384306 10.1063672750755877  6.9811213345747509
  4.9061535288867990  1.8604352256980883  7.1225395419701334
  5.1690504473497221  6.0968429109163500  7.1263976978807380
  5.0180963075947354 10.3663075725765381  7.1540197947956683
  9.4188991958435615  1.7307086490352703  6.8569710367228813
  9.0213179888617976  6.0593907647065803  7.0662039508650043
  2.9692012451269352  6.8592995373247474  4.0052868254309102
  2.9979298876457330  2.5649987455210068  3.9451755169159246
  9.0957648275901128 10.1865702051643670  7.1340876596859628
 11.1068203297049752  8.1088905061849452  9.5587363449176888
 11.2599927149600827 12.3739185321488083  9.5238653096453980
  0.7021246175465667  4.9223398974160943  1.4676713324254251
  0.7087445145250656  8.7901144088337020  1.2779025948289411
  4.9947808440209371  0.3361837861021985  1.1893935475184405
  5.2108812422620225  4.5622049467208727  1.5596425807761951
  8.9337900583492207  0.2790935378742169  1.4359825447645682
  9.2970276045969502  4.7847455537443571  1.5025482405779198
  4.8723350449008898  8.7746408999946919  1.5300702765158509
  2.8807965735775967  4.2979438284611469  9.6414800094157318
  3.1234015888844118  8.0161980980873579  9.5123069308106309
  2.5483594998615282 12.2413400302228208  9.5643675007307731
  7.1665199349610047  3.8327847564645969  9.6199830167326432
  7.3703504664168760  8.2359324961087363  9.6208727453427798
  6.9409226028995663 12.1276370011529160  9.6046486960399537
 11.3038830356193181  4.0841000758017492  9.3639031061023719
  9.1952758966856205  9.0478459402100810  1.6607313507460899
 11.4273880109789623  0.2766299343981927  6.9791020548051277
  2.9233572769084124  4.3751684730631277  7.0261194637367828
  2.9153886619599696  8.4014760577003216  7.0656650711020221
  7.1263464619549906 -0.0588232163037599  7.0395491123792757
  6.9626441444366529  4.3683514939230017  7.0217943703301522
  7.0863987265514439  8.4899029527410352  7.0406411590496258
 11.1436274727235816  4.3228880914098173  6.9645527231627016
  9.0925157217142694  0.1193136341478382  3.9877565685714860
  0.8976314263552403  0.2269594338288035  4.1930072987324376
  0.9153595629967735  4.2260114529514947  3.9163081372589681
  0.6496530529777609  8.5149546916696917  3.8439658373222882
  4.9527430039298341  0.1108708582633095  3.8146338394572532
  4.8846581755836640  4.3510797387736542  3.9908549128903088
  5.0224739908396048  8.5545976619890318  4.1848918504004322
  2.9370731692102132  0.1743580791639457  7.1630425613733895
 11.2274537294037273  8.4041324009064926  7.1168613753719692
 11.2322605024910054 10.6697532070970276  1.5992190793997774
  3.0080040638312164  2.1889929691224688  1.4553925490152022
 11.4158290770321500  2.1729937728847388  1.6437087533797032
  9.0803191197973270  4.2740085849734841  4.0597398185217832
  0.9904625889370152  2.2673075412436505  9.4707665532135046
  0.7261079978288909  6.4143966409380875  9.4611714323581566
  0.7294209605741602 10.6331357009812510  9.4219142885654232
  5.0758213814035704  2.2393634967428526  9.5841963505783827
  4.9929945598115433  6.2309168554568721  9.5382091019460660
  4.8541627779890870 10.3900892595443537  9.5832226927348376
  9.2929252328034835  2.1725080980868334  9.4369675922184477
  9.1709140239659170  6.3322661033350114  9.6890151523179071
  9.1594418159857014 10.5772303903027787  9.5681812477477663
  3.0173595466852374  6.5629583646573568  1.5518338300036292
  2.9081214993292490 10.4232852439678521  1.6475922660590945
  7.0388957562001275  2.1499912249045487  1.4132452363606103
  7.0443774677089088  6.2156897903742987  1.4765949541901735
  7.1237354214100224 10.5800426928525617  1.7872364695442204
 11.1277778057697976  6.5187483939788127  1.7610104271426488
  9.0535379578908124  8.4737928520722345  4.0816831154301054
