 C  S  O 
 1.0000000000000000
    32.3722991942999982    0.0000000000000000    0.0000000000000000
     0.0000000000000000   19.9214134216000005    0.0000000000000000
     0.0000000000000000    0.0000000000000000   40.4480476378999967
 C   S   O  
 364   1   2
Cartesian
 12.0076527935382238 10.7240375926705251  0.0997675810539417
 11.9364809647067087 10.8342325233663619  2.5454354467747340
 10.9412045149254435 11.8532940551436923  2.4718726948483694
 10.3730566282266548 12.1797207013850688  1.2111831434511175
  8.9913148295528611 12.5254504057172920  1.1375347477491813
 11.8600004553719902 10.9423865740750212  4.9908119322759044
 10.8305481178384024 11.9268726021695795  4.9167961607173636
 10.2520803011429429 12.2332029537282239  3.6559732658661002
  8.8592003489900364 12.5309420973610024  3.5817087796825002
  8.2055067966385877 12.4877262479317288  2.3214908505324021
  6.8635118450542434 12.0105841418400097  2.2481308561798570
  6.3292110933353545 11.6305948754644302  0.9881218863595724
  5.4366577735690917 10.5205599258959719  0.9149539982426464
 11.7781328948246049 11.0483007487217950  7.4359383521797762
 10.7160892734355144 11.9974277609364801  7.3614347479301934
 10.1281884722798239 12.2833867878269700  6.1004510369830625
  8.7259621496611661 12.5330238952428381  6.0258183960244045
  8.0747114030461233 12.4665762121507875  4.7654362302357534
  6.7501664350342203 11.9429867392753568  4.6921082387645399
  6.2298511449087322 11.5445496854132568  3.4320196712903224
  5.3764179072979656 10.4042397586466429  3.3586586698956205
  5.1418568235424225  9.7917559043982880  2.0989224366977921
  5.0138542626695584  8.3731973839740519  2.0255771439727202
  5.1358849871277501  7.7283870647374204  0.7658652090637652
  5.7719959156811322  6.4539775420006125  0.6928957122786091
 11.6920730073450603 11.1521189052166623  9.8806370013772540
 10.5988707297271407 12.0650763889959034  9.8057342956675733
 10.0016927065940333 12.3303976566006277  8.5446995833107451
  8.5917750561860124 12.5317405915974707  8.4699471270505313
  7.9436613399868286 12.4420464883310764  7.2093808580659164
  6.6383037732669372 11.8722022008456545  7.1361980544902490
  6.1326291585019694 11.4555166726357385  5.8760503673342397
  5.3195905642706034 10.2860200020637205  5.8025876957846867
  5.1068929128371119  9.6656734953561916  4.5427058524640973
  5.0278834700885291  8.2435127733231131  4.4695010524515437
  5.1723841505724115  7.6033426150794412  3.2096317902462075
  5.8517696248977575  6.3514849475711834  3.1365404773898828
  6.3109244870049857  5.8821429297667978  1.8770007925799976
  7.5462550917638591  5.1731003708900989  1.8036476566807420
  8.1832460866079071  5.0141213036397598  0.5438796938193102
  9.6069654229882353  5.0583998983324676  0.4710497026435115
 11.9866141618910049 10.7253612183490805 13.5860820405302682
 11.6025645791613155 11.2539866022601167 12.3248909986899182
 10.4799449057751346 12.1304663629650413 12.2498017918301016
  9.8737630052671364 12.3744650696134304 10.9888049806097499
  8.4576624304713839 12.5269024022347555 10.9142238633597657
  7.8130175619666247 12.4139691567907668  9.6536068471368530
  6.5286745855014630 11.7981522615123300  9.5805419796322724
  6.0383679640888328 11.3633572581209368  8.3203258028169103
  5.2672826138884972 10.1657651988491509  8.2468706129877827
  5.0761820429344624  9.5384520872689542  6.9868371504431703
  5.0462014582867010  8.1144001036089417  6.9137691191524713
  5.2123501389184819  7.4796212988972846  5.6537169685969406
  5.9340188431532521  6.2516127455668427  5.5803712861309922
  6.4095506751878348  5.7984993179358364  4.3208228470563492
  7.6685364349386980  5.1323254337555664  4.2478014977045975
  8.3112950817021769  4.9956391113766063  2.9882112660396327
  9.7326699644697356  5.0891298982273891  2.9158302479584526
 10.3514051464181644  5.3090832907034047  1.6558787063897378
 11.5127239692635346  6.1339446573201046  1.5826072469775105
 11.9240586159351238  6.6450340602328550  0.3219934751557413
 12.4803015394050938  7.9564047441653623  0.2489881790138508
 11.9120286688999943 10.8382748134049312 16.0296866617553029
 11.5103168753716520 11.3538062648765123 14.7687424738977686
 10.3595708075804307 12.1930923620653466 14.6939314929360734
  9.7451617005423010 12.4158749269242339 13.4329696215050660
  8.3245316519964998 12.5184262336446839 13.3588737065621288
  7.6840644714917641 12.3818792338578874 12.0982219779266167
  6.4227678142323121 11.7200865355645778 12.0252325492173586
  5.9477246399621091 11.2682547698261590 10.7650249859280827
  5.2197022163128848 10.0439162081070137 10.6916661989850983
  5.0502306067107536  9.4103693594982953  9.4314108669383323
  5.0692111218211933  7.9861293993302551  9.3583669229277984
  5.2566243434930504  7.3574042551140266  8.0981579613049632
  6.0191618326433387  6.1543136757033592  8.0245265960610777
  6.5098317451269079  5.7177503833094390  6.7648378341984161
  7.7906979527945195  5.0947178543878602  6.6921375322263259
  8.4384547971401584  4.9807646312053206  5.4326600268424396
  9.8557010447859241  5.1234415990660880  5.3605800307779781
 10.4673324141827191  5.3649335778508620  4.1010414391160657
 11.5993962521634142  6.2295980216468632  4.0283523419310718
 11.9936414315278022  6.7546608850386090  2.7679731389949525
 12.5043290475508293  8.0844257126663539  2.6952927937628632
 12.5642689219798740  8.7375111071765588  1.4343477717734749
 12.3000990572042959 10.1372299328582756  1.3605610567730904
 11.8353104004638023 10.9490132299764689 18.4727491888708641
 11.4167541746971342 11.4515766284798275 17.2123832122492573
 10.2385225062056300 12.2518250431625191 17.1382791386915123
  9.6159863305398758 12.4533798409725325 15.8774670396628075
  8.1925989185570476 12.5052912349827103 15.8039662047478124
  7.5569854290054472 12.3457757721709349 14.5432530728776133
  6.3207299073197687 11.6382035650418132 14.4702212093685993
  5.8619931279745670 11.1693468614715101 13.2100060460213822
  5.1778970948699143  9.9199942578556684 13.1367931145292367
  5.0297701448124803  9.2812070493159098 11.8763072831040049
  5.0969125083119247  7.8583854732924197 11.8031872707947088
  5.3049639335774978  7.2364134650444827 10.5427869391239728
  6.1069135134216452  6.0592107796665653 10.4689093709221446
  6.6122386507563551  5.6396144182551788  9.2090572580351466
  7.9133787750193605  5.0600701634402476  9.1365313042918856
  8.5649893596793572  4.9690512476549937  7.8771571269732403
  9.9764357185606407  5.1612012603495137  7.8052708933111354
 10.5796679020726678  5.4245102522362911  6.5460926091494578
 11.6807584484906197  6.3283534154673253  6.4740311788586657
 12.0574942762729052  6.8667966022926787  5.2138952385012569
 12.5216012521665885  8.2135112109272672  5.1413069554025377
 12.5601891661490157  8.8681638750637859  3.8805070490170799
 12.2481785299772827 10.2580132897703642  3.8063993914353862
 11.7597900271504443 11.0539031405172228 20.9171746339067965
 11.3211038493267520 11.5428140572236213 19.6572561333724032
 10.1167001144204143 12.3019025363998331 19.5835333835462393
  9.4870197035597599 12.4838922680625402 18.3226655443453801
  8.0626884406436652 12.4853981486702263 18.2495832378984630
  7.4326472835491284 12.3043215832104149 16.9888092329204845
  6.2228741314279663 11.5523064402365279 16.9155315072940446
  5.7809239445617022 11.0674148890215580 15.6552150758905011
  5.1410391255832888  9.7948021239848622 15.5821401719687529
  5.0146355347053042  9.1512463779396249 14.3215859735732067
  5.1293506394514354  7.7314390378367461 14.2483351036868253
  5.3574570868261722  7.1168039028852634 12.9877238228467977
  6.1975954348625795  5.9665065915783000 12.9137186358546661
  6.7163945943879639  5.5641279688870364 11.6535738214056757
  8.0364454349550165  5.0288754831839189 11.5810990383016659
  8.6910798243984946  4.9607848515251236 10.3218305443294742
 10.0948587536693761  5.2028207197339089 10.2499219728898900
 10.6888413318274207  5.4875556531526239  8.9909957346799008
 11.7570725353847472  6.4300182888807909  8.9194601471245232
 12.1153574683324425  6.9813383639455902  7.6596281014348051
 12.5322928059648735  8.3434394232697020  7.5869619217549547
 12.5492653821386995  8.9989090071320703  6.3263143333763354
 12.1899863975020200 10.3772218593815744  6.2520045485833107
 11.6821097138581980 11.1542808172189254 23.3603666165474912
 11.2261507036901733 11.6292154136213295 22.1019301291104036
  9.9945550063857969 12.3451684044419103 22.0288179974052056
  9.3581434972166253 12.5064360386334119 20.7687550490750894
  7.9346686173638563 12.4583859984357233 20.6956306376836210
  7.3109684985527759 12.2561916705580476 19.4346913727500024
  6.1282882351269272 11.4625022181022018 19.3610271533333851
  5.7037094728645741 10.9625988500335421 18.1004856515611365
  5.1087045268469247  9.6684817157423204 18.0274918299258289
  5.0045805967075303  9.0208129970494646 16.7669473481728275
  5.1669870957591781  7.6056847820935536 16.6935929030238732
  5.4147546329338310  6.9988117981879441 15.4328808097170693
  6.2919313143290001  5.8764852348285173 15.3589641138748760
  6.8232862002509451  5.4916035383441404 14.0984475511780101
  8.1606479549740172  5.0013191066298042 14.0258131918076447
  8.8171685576772827  4.9564182262957370 12.7664628052826199
 10.2113600046230122  5.2483027965505933 12.6944183911879076
 10.7947866890227715  5.5544448639903559 11.4356817569967326
 11.8283564744107430  6.5347881725314698 11.3644508546335992
 12.1676601589151581  7.0982423675194353 10.1049741801994717
 12.5369327011589728  8.4739599733964095 10.0321087974137519
 12.5321589860406952  9.1294666826417252  8.7716051756747255
 12.1265212993479690 10.4948275120852195  8.6971756189655771
 11.6016903196515901 11.2520738035964811 25.8043238095415930
 11.1279689967129780 11.7092805478193007 24.5456911730183975
  9.8718836030009598 12.3808890280060755 24.4735331070443394
  9.2296521366058890 12.5215216090226811 23.2138235076644008
  7.8085062668035379 12.4249576987574084 23.1409865393494734
  7.1913227993277271 12.2029178953251307 21.8805083978716226
  6.0363018817812986 11.3692378499332385 21.8065795555427293
  5.6295654477750743 10.8549996894279719 20.5459392082761525
  5.0794393662529265  9.5412866945486261 20.4728899137837850
  4.9984354080883353  8.8903705026075084 19.2122945841755310
  5.2086524389135693  7.4816353166660674 19.1388619802702173
  5.4766581735739468  6.8831484826491831 17.8783010404155753
  6.3903541986253343  5.7903070924465414 17.8047484578228712
  6.9332773533798653  5.4225940894521552 16.5438666600732631
  8.2863378977934925  4.9773736693599337 16.4708438955451228
  8.9435508518382871  4.9556105492311335 15.2111675230008743
 10.3263843945270928  5.2974970487717039 15.1387420066714036
 10.8982565765483876  5.6248604417541008 13.8801375241931844
 11.8956566423226793  6.6420106298721793 13.8088780000025650
 12.2145340079371216  7.2174077893169715 12.5497098695436851
 12.5359338007990040  8.6050187611912499 12.4765792001886968
 12.5093909751794250  9.2598974601150896 11.2163102761911233
 12.0585932630074488 10.6109510130010172 11.1418793126060027
 11.5189468121666696 11.3470201400689792 28.2486633378644392
 11.0285724020528182 11.7865798967250583 26.9898138222374975
  9.7491457280785667 12.4127900998170038 26.9182379285145217
  9.1018797447055082 12.5305609494785770 25.6588515938342283
  7.6847696422169856 12.3857933840511265 25.5861667423485457
  7.0748366992747416 12.1436955623708123 24.3258681687125993
  5.9478542568099115 11.2725515620618122 24.2519989856323654
  5.5582219191255238 10.7452675147045937 22.9912549428153987
  5.0528091089778391  9.4136065326375569 22.9181935600174356
  4.9948106252454787  8.7601368333130889 21.6577680847446459
  5.2534639869822115  7.3594613242637372 21.5843396467746160
  5.5425010118916598  6.7703413315090817 20.3239161763499467
  6.4929149807978472  5.7094609550616706 20.2508311818489268
  7.0472775866469277  5.3591591150193674 18.9898543004693074
  8.4146505148926902  4.9600572549923703 18.9165261526472470
  9.0708455123246861  4.9590230940459623 17.6561350553705196
 10.4405824798142426  5.3499827991820350 17.5830884952767583
 10.9994882583470179  5.6984970163301991 16.3243064136491718
 11.9591009245629873  6.7513703181899620 16.2524335080057760
 12.2575090031637846  7.3380675368422690 14.9937275429013521
 12.5302957893107649  8.7362273054160511 14.9203130508657669
 12.4817746748945417  9.3898959211621236 13.6603303264172347
 11.4329339807511534 11.4392979720492907 30.6933426755111149
 10.9271084603239323 11.8606785529807635 29.4342993409828715
  9.6261096667276327 12.4409137385241806 29.3629665842537086
  8.9747313252550338 12.5355855394300981 28.1036792893123675
  7.5634655933274946 12.3426602551558346 28.0309848491909541
  6.9612683585334150 12.0803829295536360 26.7709807835796312
  5.8636277208110981 11.1725482759742754 26.6973650595734249
  5.4910642287516742 10.6328772899024173 25.4366938593825367
  5.0304081424195912  9.2850491427032988 25.3635325590860568
  4.9948453336840082  8.6299742586122790 24.1030932013618902
  5.3021385637952481  7.2391682617440214 24.0297123424677892
  5.6114877295174663  6.6603631941652859 22.7694202713164167
  6.5989769688816731  5.6336744364476434 22.6967082480358755
  7.1649405061439229  5.3023422905728319 21.4360447095681899
  8.5454232135071582  4.9514274046374585 21.3625292289883788
  9.2003547237569467  4.9711942314018183 20.1016903791691384
 10.5552432549119466  5.4095563925992263 20.0282771503543131
 11.0991727523930610  5.7753806096933422 18.7681541215904382
 12.0163153069927553  6.8642871607006741 18.6952054942274799
 12.2945580285555529  7.4605514713844086 17.4369820978818240
 12.5185899423367140  8.8678190059187081 17.3631540283914632
 12.4495381380681867  9.5193934473125026 16.1032714807659509
 11.3429733623221338 11.5284298716206521 33.1383248554794960
 10.8227369269622749 11.9314476117727608 31.8789912893585594
  9.5020757401874256 12.4651527342838193 31.8075847019974276
  8.8478877181228199 12.5368086331281656 30.5483018218559153
  7.4440079449911449 12.2957509390833870 30.4755912489658165
  6.8508360390411323 12.0133577858812330 29.2158466003236121
  5.7837121307397519 11.0698243339797280 29.1425690217089333
  5.4286243331152546 10.5181671507784777 27.8820648678659673
  5.0132047667605564  9.1557348211646907 27.8087556415526329
  4.9994974614867349  8.4999000548072061 26.5483811381605612
  5.3556213016551881  7.1207529616536540 26.4750648925303231
  5.6851728491183291  6.5533911089984640 25.2148303906824545
  6.7092133277446093  5.5632300248167779 25.1421863315957168
  7.2859338625119099  5.2518231023704072 23.8816226626352375
  8.6781122613978923  4.9507846427335798 23.8076008889928943
  9.3312043374660032  4.9920620838490910 22.5468333525086102
 10.6705621680274358  5.4768192550023302 22.4728631450881089
 11.2004252225857268  5.8598473799600370 21.2121778224378410
 12.0808784043351700  6.9784984172699005 21.1390796859002599
 12.3263548434287316  7.5845618131938508 19.8794135094854738
 12.5068697495472101  8.9990039080191782 19.8057451947545289
 12.4117955190359783  9.6479753384094078 18.5451674038519876
 11.2491958665539240 11.6146788640336656 35.5836589618285757
 10.7156853373524985 11.9989671106540285 34.3239148839232726
  9.3770423871010262 12.4858783939300952 34.2521708483195582
  8.7210006180679525 12.5343200002160593 32.9928535354175025
  7.3262001316580045 12.2452888759468692 32.9199736107622911
  6.7428058638962876 11.9428015345479892 31.6603831334884482
  5.7075944449703648 10.9644023123411536 31.5873989439303458
  5.3708534904833813 10.4013044946336617 30.3271174176932838
  5.0016262349154017  9.0256140427960165 30.2537063977370764
  5.0099355224036568  8.3698641754240324 28.9934718272783343
  5.4146380182941325  7.0041777702870442 28.9202503683463767
  5.7638263687072646  6.4491810632108777 27.6599207181162647
  6.8233236572322902  5.4970980209041089 27.5870542526189588
  7.4104394385246772  5.2068630637360682 26.3265909572724901
  8.8124059822768803  4.9556560798704048 26.2521316402498499
  9.4629341142577257  5.0199527026622608 24.9911293483856234
 10.7849694954432032  5.5496563761145916 24.9164964422119084
 11.3016562582763367  5.9498246601685851 23.6553878642990476
 12.1485604516360510  7.0952063926552622 23.5808810533598816
 12.3775070362652091  7.7085936403032704 22.3211574156502124
 12.5065064184828660  9.1280336445318628 22.2481874788822296
 12.3831882138910636  9.7745020417962607 20.9906807756371201
 11.1508642845984216 11.6974411134044249 38.0291420011242849
 10.6050101963862851 12.0628415517022791 36.7690216653138364
  9.2502720399180944 12.5029549620306035 36.6967124739485513
  8.5935117304468527 12.5283061787471777 35.4371884708368938
  7.2095643134792127 12.1915853014407798 35.3641215027366727
  6.6371014260889325 11.8691912494564153 34.1045568902827654
  5.6352592683556662 10.8566418428355842 34.0317557517166165
  5.3173844284045204 10.2824121711048271 32.7718239335519002
  4.9951679300790044  8.8949480340038622 32.6982825492780478
  5.0258307925580405  8.2398786106544328 31.4381895137564200
  5.4784152585201102  6.8893317662123508 31.3650937694925354
  5.8469806844081003  6.3474351891343472 30.1047350853653235
  6.9400235796087530  5.4341156893655675 30.0315039758579019
  7.5371908762607438  5.1657182471642313 28.7710744302415939
  8.9471209701546908  4.9640440261469649 28.6964240482672679
  9.5948865836580524  5.0510880251124295 27.4353443822832617
 10.8987801114000895  5.6241046398839121 27.3605179117230897
 11.4012855035115059  6.0415164760330882 26.0993158057963761
 12.2101334278263316  7.2138724491528858 26.0243830084746754
 12.4183744284058992  7.8348362314550259 24.7642333729284019
 12.4979917186311518  9.2568171245900697 24.6913775106601463
 12.3537775604226212  9.8981800682905785 23.4323764767908500
 11.0481229052826304 11.7768443596659473  0.0265954063788134
 10.4908768628723443 12.1231546834350148 39.2141793043123030
  9.1217919136493073 12.5162660351837776 39.1411938844537488
  8.4652128681938663 12.5187650513978710 37.8814213510891520
  7.0935865063005572 12.1347982789244426 37.8081826444754014
  6.5330459326099710 11.7927331735768526 36.5485473608678006
  5.5663243274424961 10.7466390031526817 36.4757546511558530
  5.2684191956753734 10.1618319755401689 35.2160483006283300
  4.9939427342714540  8.7642611717597791 35.1424487365743161
  5.0469590417186430  8.1105027218982961 33.8825523745257300
  5.5466865686371927  6.7767190922260312 33.8095400000601316
  5.9341234492872541  6.2482410327998981 32.5493127118005248
  7.0592162783644739  5.3747234846066894 32.4757665707180436
  7.6654311988782338  5.1281380667300827 31.2152997067597724
  9.0815409309966295  4.9758137676543530 31.1407331973043995
  9.7258961030792594  5.0855662087086344 29.8796261553641500
 11.0100175968347145  5.7015900591280895 29.8047792397751330
 11.4987413985742570  6.1355416790815323 28.5436019081026799
 12.2684093993700785  7.3339271754808708 28.4685971043666726
 12.4556847213893107  7.9615509673025571 27.2081083999424216
 12.4859413754462931  9.3855105069264173 27.1353589230918715
 12.3182978079108558 10.0209169030865901 25.8759926943694296
  8.3359409328813303 12.5051886223975295 40.3255435042843118
  6.9783289161461646 12.0743431974529933 40.2522158361437263
  6.4305236691235752 11.7131915246494192 38.9923943090901233
  5.5002689627029406 10.6345976315341399 38.9194467520020666
  5.2230395999469073 10.0397927557938829 37.6598624279387977
  4.9970093150616552  8.6335767994163444 37.5862884170549094
  5.0730303099054721  7.9820906230723150 36.3265495479299858
  5.6190715796756425  6.6666345422170785 36.2536360501399670
  6.0250309198542151  6.1522025826132865 34.9935471492099879
  7.1800681500781431  5.3188401224374626 34.9197891778501486
  7.7949344537671594  5.0941746085765542 33.6594005363747328
  9.2154560217434067  4.9909604678190824 33.5851322853812420
  9.8558160024272556  5.1231060003715267 32.3240515839317339
 11.1186251425534106  5.7817498118753852 32.2493726505922211
 11.5927015294632323  6.2320469932299600 30.9881915531815793
 12.3218969298918353  7.4555674678114165 30.9133947174207044
 12.4882804837059425  8.0892210763151819 29.6527360171828356
 12.4695004381763752  9.5135413982619248 29.5801051897711993
 12.2795749690628018 10.1426482527685113 28.3204618815611369
  5.1809183770405456  9.9163696464840534 40.1034135448840630
  5.0036909664647569  8.5031370592935609 40.0299157549190383
  5.1028045715920891  7.8545336341132401 38.7702480708397417
  5.6942760787772739  6.5588854703166177 38.6973580178753025
  6.1184837127597058  6.0589100545919079 37.4374906702262820
  7.3019212895195036  5.2662726870922070 37.3637131873523103
  7.9247404146506124  5.0634671418039527 36.1034921201048249
  9.3480273076970590  5.0094816079956273 36.0296722714612940
  9.9838699135747486  5.1639184249107446 34.7687336004069465
 11.2237736375482609  5.8649581012253602 34.6942934788933570
 11.6828121117531296  6.3312409442593554 33.4331849925089770
 12.3702926207143555  7.5787543455355912 33.3587516313907315
 12.5155258067600226  8.2177719611329660 32.0979010173897521
 12.4474765348005096  9.6405925561300769 32.0252395323687153
 12.2361511646126129 10.2628390878756015 30.7653928470674067
  6.2140119592645808  5.9689897966459196 39.8813212897588869
  7.4241498375234993  5.2177448189148325 39.8076898859366324
  8.0543003563391604  5.0366415004224674 38.5476657072522784
  9.4786845231496510  5.0318033801543463 38.4743939624396987
 10.1094466934611198  5.2084926966159459 37.2136927502568327
 11.3246420030670158  5.9515906644096210 37.1395427267811300
 11.7682884084373178  6.4332172845453304 35.8785367219474907
 12.4128593792103210  7.7034291477811756 35.8045752850212580
 12.5369242959525256  8.3470834155299904 34.5435606056225097
 12.4194979330644877  9.7667112848187898 34.4707682926769579
 12.1872522867724005 10.3810401064757993 33.2106476773130268
 10.2323151777620112  5.2565516357043336 39.6587964958519947
 11.4213284548591716  6.0410351665249742 39.5850332157909008
 11.8488303217920627  6.5378258139260694 38.3241806298259036
 12.4497650098371633  7.8292717488918200 38.2507339096518137
 12.5524167393564063  8.4768760903871989 36.9896580494391927
 12.3859827633463464  9.8916446807905150 36.9165953475316755
 12.1331470150893672 10.4975994859369450 35.6562604510636874
 12.5616816332288845  8.6070517290470310 39.4359856199932253
 12.3461587640589343 10.0151362759374614 39.3625827242646267
 12.0733670655788305 10.6119347568201157 38.1020153997846904
 15.5557223367941280  8.1653152824485140 19.4000464088754612
 15.7319495099137487  6.8877188206150999 20.0623564826697312
 16.0596281270477768  9.3608775027092630 20.0468851454071171
