Ge Se                                   
    1.000000000000000     
     3.8581001759000002    0.0000000000000000    0.0000000000000000
     0.0000000000000000    4.5265750884999996    0.0000000000000000
     0.0000000000000000    0.0000000000000000   21.0851764678999984
   Ge   Se
     4     4
Direct
  0.2500000000064801  0.1156418993976018  0.0649492191390877
  0.7500000000194404  0.8843581080031413  0.6979173572677055
  0.7500000000194404  0.6156418920520892  0.1979173572653323
  0.2500000000064801  0.3843581080583647  0.5649492230778748
  0.2500000000064801  0.5049489736306185  0.6853893258612729
  0.7500000000194404  0.4950509668320962  0.0774772387837004
  0.7500000000194404  0.0049490225086330  0.5774772544843074
  0.2500000000064801  0.9950510264246120  0.1853893415571335
 
  0.00000000E+00  0.00000000E+00  0.00000000E+00
  0.00000000E+00  0.00000000E+00  0.00000000E+00
  0.00000000E+00  0.00000000E+00  0.00000000E+00
  0.00000000E+00  0.00000000E+00  0.00000000E+00
  0.00000000E+00  0.00000000E+00  0.00000000E+00
  0.00000000E+00  0.00000000E+00  0.00000000E+00
  0.00000000E+00  0.00000000E+00  0.00000000E+00
  0.00000000E+00  0.00000000E+00  0.00000000E+00
