Ge Se                                   
    1.000000000000000     
     3.9499999999999997    0.0000000000000000    0.0000000000000000
     0.0000000000000000    4.2000000000000002    0.0000000000000000
     0.0000000000000000    0.0000000000000000   11.1422209999999993
   Ge   Se
     4     4
Selective dynamics
Direct
  0.2500000000000000  0.1012977770767804  0.1273197407714477   T   T   T
  0.7500000000000000  0.6012977770767804  0.3726802592285523   T   T   T
  0.7500000000000000  0.8987022229232196  0.8726802592285452   T   T   T
  0.2500000000000000  0.3987022229232196  0.6273197407714548   T   T   T
  0.2500000000000000  0.0079317969877550  0.3567918676721291   T   T   T
  0.7500000000000000  0.5079317969877550  0.1432081323278709   T   T   T
  0.7500000000000000  0.9920682030122450  0.6432081323278709   T   T   T
  0.2500000000000000  0.4920682030122450  0.8567918676721291   T   T   T
 
  0.00000000E+00  0.00000000E+00  0.00000000E+00
  0.00000000E+00  0.00000000E+00  0.00000000E+00
  0.00000000E+00  0.00000000E+00  0.00000000E+00
  0.00000000E+00  0.00000000E+00  0.00000000E+00
  0.00000000E+00  0.00000000E+00  0.00000000E+00
  0.00000000E+00  0.00000000E+00  0.00000000E+00
  0.00000000E+00  0.00000000E+00  0.00000000E+00
  0.00000000E+00  0.00000000E+00  0.00000000E+00
