 H                                      
    1.000000000000000     
    32.3722991942999982    0.0000000000000000    0.0000000000000000
     0.0000000000000000   19.9214134216000005    0.0000000000000000
     0.0000000000000000    0.0000000000000000   40.4480476378999967
   H 
     1
Direct
  0.4183759900311514  0.4840204822286935  0.4583789838011256
 
  0.00000000E+00  0.00000000E+00  0.00000000E+00
