 H 
 1.0000000000000000
    32.3722991942999982    0.0000000000000000    0.0000000000000000
     0.0000000000000000   19.9214134216000005    0.0000000000000000
     0.0000000000000000    0.0000000000000000   40.4480476378999967
 H  
   1
Cartesian
 13.5437927249999994  9.6423721310000001 18.5405349729999998
