Ge Se                                   
    1.000000000000000     
     4.2999999999999998    0.0000000000000000    0.0000000000000000
     0.0000000000000000    4.1500000000000004    0.0000000000000000
     0.0000000000000000    0.0000000000000000   11.1422210000000010
   Ge   Se
     4     4
Selective dynamics
Direct
  0.1017270686277172  0.2500000000000000  0.1304323523141662   T   T   T
  0.6017270686277172  0.7500000000000000  0.3695676476858338   T   T   T
  0.8982729313722828  0.7500000000000000  0.8695676476858338   T   T   T
  0.3982729313722828  0.2500000000000000  0.6304323523141662   T   T   T
  0.9908771211170233  0.2500000000000000  0.3562485579927426   T   T   T
  0.4908771211170233  0.7500000000000000  0.1437514420072574   T   T   T
  0.0091228788829767  0.7500000000000000  0.6437514420072574   T   T   T
  0.5091228788829767  0.2500000000000000  0.8562485579927426   T   T   T
 
  0.00000000E+00  0.00000000E+00  0.00000000E+00
  0.00000000E+00  0.00000000E+00  0.00000000E+00
  0.00000000E+00  0.00000000E+00  0.00000000E+00
  0.00000000E+00  0.00000000E+00  0.00000000E+00
  0.00000000E+00  0.00000000E+00  0.00000000E+00
  0.00000000E+00  0.00000000E+00  0.00000000E+00
  0.00000000E+00  0.00000000E+00  0.00000000E+00
  0.00000000E+00  0.00000000E+00  0.00000000E+00
