Ge Se
 1.0000000000000000
     4.5499999999999998    0.0000000000000000    0.0000000000000000
     0.0000000000000000    4.5000000000000000    0.0000000000000000
     0.0000000000000000    0.0000000000000000   11.1422209999999993
 Ge  Se 
   4   4
Cartesian
  0.0201694431581560  1.1250000000000000  1.8077120583386441
  2.2951694431581560  3.3750000000000000  3.7633984416613560
  4.5298305568418433  3.3750000000000000  9.3345089416613547
  2.2548305568418439  1.1250000000000000  7.3788225583386424
  0.0000000000000000  1.1250000000000000  4.3676326027233117
  2.2749999999999999  3.3750000000000000  1.2034778972766886
  4.5499999999999998  3.3750000000000000  6.7745883972766876
  2.2749999999999999  1.1250000000000000  9.9387431027233113
