Ge Se
 1.0000000000000000
     3.7500000000000000    0.0000000000000000    0.0000000000000000
     0.0000000000000000    4.7000000000000002    0.0000000000000000
     0.0000000000000000    0.0000000000000000   11.1422209999999993
 Ge  Se 
   4   4
Cartesian
  0.9375000000000000  0.4923802077564271  1.3941085676414968
  2.8125000000000000  2.8423802077564275  4.1770019323585021
  2.8125000000000000  4.2076197922435732  9.7481124323585018
  0.9375000000000000  1.8576197922435727  6.9652190676414971
  0.9375000000000000  0.0000000000000000  3.9063111333216085
  2.8125000000000000  2.3500000000000001  1.6647993666783909
  2.8125000000000000  4.7000000000000002  7.2359098666783908
  0.9375000000000000  2.3500000000000001  9.4774216333216081
