Ge Se
 1.0000000000000000
     4.5499999999999998    0.0000000000000000    0.0000000000000000
     0.0000000000000000    3.7500000000000000    0.0000000000000000
     0.0000000000000000    0.0000000000000000   11.1422209999999993
 Ge  Se 
   4   4
Cartesian
  0.4094817245563713  0.9375000000000000  1.4173143935608896
  2.6844817245563712  2.8125000000000000  4.1537961064391098
  4.1405182754436280  2.8125000000000000  9.7249066064391094
  1.8655182754436284  0.9375000000000000  6.9884248935608886
  0.0000000000000000  0.9375000000000000  3.9443531184826788
  2.2749999999999999  2.8125000000000000  1.6267573815173209
  4.5499999999999998  2.8125000000000000  7.1978678815173209
  2.2749999999999999  0.9375000000000000  9.5154636184826789
