Ge Se
 1.0000000000000000
     3.7000000000000002    0.0000000000000000    0.0000000000000000
     0.0000000000000000    4.2000000000000002    0.0000000000000000
     0.0000000000000000    0.0000000000000000   11.1422209999999993
 Ge  Se 
   4   4
Cartesian
  0.9250000000000000  0.2535189766583630  1.4482529101913535
  2.7750000000000004  2.3535189766583628  4.1228575898086461
  2.7750000000000004  3.9464810233416374  9.6939680898086458
  0.9250000000000000  1.8464810233416373  7.0193634101913540
  0.9250000000000000  0.0000000000000000  3.9956688810280947
  2.7750000000000004  2.1000000000000001  1.5754416189719047
  2.7750000000000004  4.2000000000000002  7.1465521189719041
  0.9250000000000000  2.1000000000000001  9.5667793810280948
