Ge Se
 1.0000000000000000
     4.2999999999999998    0.0000000000000000    0.0000000000000000
     0.0000000000000000    4.2500000000000000    0.0000000000000000
     0.0000000000000000    0.0000000000000000   11.1422209999999993
 Ge  Se 
   4   4
Cartesian
  0.0213594012016136  1.0625000000000000  1.7193289798049061
  2.1713594012016135  3.1875000000000000  3.8517815201950931
  4.2786405987983862  3.1875000000000000  9.4228920201950928
  2.1286405987983863  1.0625000000000000  7.2904394798049061
  0.0000000000000000  1.0625000000000000  4.2792398720002396
  2.1499999999999999  3.1875000000000000  1.2918706279997598
  4.2999999999999998  3.1875000000000000  6.8629811279997597
  2.1499999999999999  1.0625000000000000  9.8503503720002392
