Ge Se
 1.0000000000000000
     4.4000000000000004    0.0000000000000000    0.0000000000000000
     0.0000000000000000    4.4000000000000004    0.0000000000000000
     0.0000000000000000    0.0000000000000000   11.1422209999999993
 Ge  Se 
   4   4
Cartesian
  0.0000000000000000  1.1000000000000001  1.7811901686104041
  2.2000000000000002  3.3000000000000003  3.7899203313895948
  4.4000000000000004  3.3000000000000003  9.3610308313895949
  2.2000000000000002  1.1000000000000001  7.3523006686104040
  0.0000000000000000  1.1000000000000001  4.3411901686104040
  2.2000000000000002  3.3000000000000003  1.2299203313895952
  4.4000000000000004  3.3000000000000003  6.8010308313895953
  2.2000000000000002  1.1000000000000001  9.9123006686104045
