Ge Se
 1.0000000000000000
     3.9500000000000002    0.0000000000000000    0.0000000000000000
     0.0000000000000000    3.9500000000000002    0.0000000000000000
     0.0000000000000000    0.0000000000000000   11.1422209999999993
 Ge  Se 
   4   4
Cartesian
  0.0000000000000000  0.9875000000000000  1.6220911428434313
  1.9750000000000001  2.9625000000000004  3.9490193571565682
  3.9500000000000002  2.9625000000000004  9.5201298571565687
  1.9750000000000001  0.9875000000000000  7.1932016428434311
  0.0000000000000000  0.9875000000000000  4.1820911428434311
  1.9750000000000001  2.9625000000000004  1.3890193571565683
  3.9500000000000002  2.9625000000000004  6.9601298571565673
  1.9750000000000001  0.9875000000000000  9.7532016428434307
