Ge Se
 1.0000000000000000
     4.5499999999999998    0.0000000000000000    0.0000000000000000
     0.0000000000000000    4.2500000000000000    0.0000000000000000
     0.0000000000000000    0.0000000000000000   11.1422209999999993
 Ge  Se 
   4   4
Cartesian
  0.1301181149115452  1.0625000000000000  1.6755197963833171
  2.4051181149115450  3.1875000000000000  3.8955907036166826
  4.4198818850884543  3.1875000000000000  9.4667012036166831
  2.1448818850884548  1.0625000000000000  7.2466302963833167
  0.0000000000000000  1.0625000000000000  4.2322108759179304
  2.2749999999999999  3.1875000000000000  1.3388996240820692
  4.5499999999999998  3.1875000000000000  6.9100101240820688
  2.2749999999999999  1.0625000000000000  9.8033213759179301
