Ge Se
 1.0000000000000000
     4.2500000000000000    0.0000000000000000    0.0000000000000000
     0.0000000000000000    4.1500000000000004    0.0000000000000000
     0.0000000000000000    0.0000000000000000   11.1422209999999993
 Ge  Se 
   4   4
Cartesian
  0.0438851170039049  1.0375000000000001  1.6751769240169267
  2.1688851170039047  3.1125000000000003  3.8959335759830722
  4.2061148829960953  3.1125000000000003  9.4670440759830736
  2.0811148829960953  1.0375000000000001  7.2462874240169270
  0.0000000000000000  1.0375000000000001  4.2348007433516264
  2.1250000000000000  3.1125000000000003  1.3363097566483733
  4.2500000000000000  3.1125000000000003  6.9074202566483729
  2.1250000000000000  1.0375000000000001  9.8059112433516251
