Ge Se
 1.0000000000000000
     4.4000000000000004    0.0000000000000000    0.0000000000000000
     0.0000000000000000    4.5000000000000000    0.0000000000000000
     0.0000000000000000    0.0000000000000000   11.1422209999999993
 Ge  Se 
   4   4
Cartesian
  1.1000000000000001  0.0413772227502962  1.7635420928731618
  3.3000000000000003  2.2913772227502962  3.8075684071268383
  3.3000000000000003  4.4586227772497038  9.3786789071268366
  1.1000000000000001  2.2086227772497038  7.3346525928731614
  1.1000000000000001  0.0000000000000000  4.3232076814681788
  3.3000000000000003  2.2500000000000000  1.2479028185318215
  3.3000000000000003  4.5000000000000000  6.8190133185318205
  1.1000000000000001  2.2500000000000000  9.8943181814681775
