Ge Se
 1.0000000000000000
     3.8000000000000003    0.0000000000000000    0.0000000000000000
     0.0000000000000000    4.6499999999999995    0.0000000000000000
     0.0000000000000000    0.0000000000000000   11.1422209999999993
 Ge  Se 
   4   4
Cartesian
  0.9500000000000001  0.4307167505891471  1.4265635250439725
  2.8500000000000001  2.7557167505891469  4.1445469749560271
  2.8500000000000001  4.2192832494108528  9.7156574749560267
  0.9500000000000001  1.8942832494108528  6.9976740250439722
  0.9500000000000001  0.0000000000000000  3.9500696337668990
  2.8500000000000001  2.3249999999999997  1.6210408662331008
  2.8500000000000001  4.6499999999999995  7.1921513662331007
  0.9500000000000001  2.3249999999999997  9.5211801337668991
