Ge Se
 1.0000000000000000
     4.0000000000000000    0.0000000000000000    0.0000000000000000
     0.0000000000000000    3.7000000000000002    0.0000000000000000
     0.0000000000000000    0.0000000000000000   11.1422209999999993
 Ge  Se 
   4   4
Cartesian
  0.1498774238891499  0.9250000000000000  1.4816951447020146
  2.1498774238891500  2.7750000000000004  4.0894153552979855
  3.8501225761108500  2.7750000000000004  9.6605258552979851
  1.8501225761108500  0.9250000000000000  7.0528056447020138
  0.0000000000000000  0.9250000000000000  4.0373040267120048
  2.0000000000000000  2.7750000000000004  1.5338064732879950
  4.0000000000000000  2.7750000000000004  7.1049169732879953
  2.0000000000000000  0.9250000000000000  9.6084145267120036
