Ge Se
 1.0000000000000000
     4.7999999999999998    0.0000000000000000    0.0000000000000000
     0.0000000000000000    3.9500000000000002    0.0000000000000000
     0.0000000000000000    0.0000000000000000   11.1422209999999993
 Ge  Se 
   4   4
Cartesian
  0.4132796587728365  0.9875000000000000  1.4779329485149544
  2.8132796587728364  2.9625000000000004  4.0931775514850459
  4.3867203412271634  2.9625000000000004  9.6642880514850447
  1.9867203412271635  0.9875000000000000  7.0490434485149533
  0.0000000000000000  0.9875000000000000  4.0043533259748516
  2.3999999999999999  2.9625000000000004  1.5667571740251480
  4.7999999999999998  2.9625000000000004  7.1378676740251485
  2.3999999999999999  0.9875000000000000  9.5754638259748504
