Ge Se
 1.0000000000000000
     4.5000000000000000    0.0000000000000000    0.0000000000000000
     0.0000000000000000    4.2999999999999998    0.0000000000000000
     0.0000000000000000    0.0000000000000000   11.1422209999999993
 Ge  Se 
   4   4
Cartesian
  0.0851977884171539  1.0750000000000000  1.7106343629176495
  2.3351977884171538  3.2249999999999996  3.8604761370823497
  4.4148022115828462  3.2249999999999996  9.4315866370823507
  2.1648022115828462  1.0750000000000000  7.2817448629176500
  0.0000000000000000  1.0750000000000000  4.2692162624957781
  2.2500000000000000  3.2249999999999996  1.3018942375042213
  4.5000000000000000  3.2249999999999996  6.8730047375042211
  2.2500000000000000  1.0750000000000000  9.8403267624957778
