Ge Se
 1.0000000000000000
     4.5000000000000000    0.0000000000000000    0.0000000000000000
     0.0000000000000000    4.7999999999999998    0.0000000000000000
     0.0000000000000000    0.0000000000000000   11.1422209999999993
 Ge  Se 
   4   4
Cartesian
  1.1250000000000000  0.1227620982050589  1.7637121193447090
  3.3750000000000000  2.5227620982050589  3.8073983806552909
  3.3750000000000000  4.6772379017949408  9.3785088806552910
  1.1250000000000000  2.2772379017949409  7.3348226193447079
  1.1250000000000000  0.0000000000000000  4.3207669617844040
  3.3750000000000000  2.3999999999999999  1.2503435382155959
  3.3750000000000000  4.7999999999999998  6.8214540382155953
  1.1250000000000000  2.3999999999999999  9.8918774617844036
