Ge Se
 1.0000000000000000
     4.7000000000000002    0.0000000000000000    0.0000000000000000
     0.0000000000000000    4.5999999999999996    0.0000000000000000
     0.0000000000000000    0.0000000000000000   11.1422209999999993
 Ge  Se 
   4   4
Cartesian
  0.0395682690906556  1.1499999999999999  1.8342375695212720
  2.3895682690906557  3.4499999999999997  3.7368729304787278
  4.6604317309093446  3.4499999999999997  9.3079834304787266
  2.3104317309093445  1.1499999999999999  7.4053480695212714
  0.0000000000000000  1.1499999999999999  4.3939317606466828
  2.3500000000000001  3.4499999999999997  1.1771787393533168
  4.7000000000000002  3.4499999999999997  6.7482892393533165
  2.3500000000000001  1.1499999999999999  9.9650422606466815
