Ge Se
 1.0000000000000000
     4.7999999999999998    0.0000000000000000    0.0000000000000000
     0.0000000000000000    4.0499999999999998    0.0000000000000000
     0.0000000000000000    0.0000000000000000   11.1422209999999993
 Ge  Se 
   4   4
Cartesian
  0.3524597945198357  1.0125000000000000  1.5287890654006062
  2.7524597945198357  3.0374999999999996  4.0423214345993932
  4.4475402054801636  3.0374999999999996  9.6134319345993937
  2.0475402054801641  1.0125000000000000  7.0998995654006061
  0.0000000000000000  1.0125000000000000  4.0644097178734944
  2.3999999999999999  3.0374999999999996  1.5067007821265050
  4.7999999999999998  3.0374999999999996  7.0778112821265049
  2.3999999999999999  1.0125000000000000  9.6355202178734931
