Ge Se
 1.0000000000000000
     4.3499999999999996    0.0000000000000000    0.0000000000000000
     0.0000000000000000    4.2500000000000000    0.0000000000000000
     0.0000000000000000    0.0000000000000000   11.1422209999999993
 Ge  Se 
   4   4
Cartesian
  0.0428463403730353  1.0625000000000000  1.7105223657967523
  2.2178463403730353  3.1875000000000000  3.8605881342032471
  4.3071536596269642  3.1875000000000000  9.4316986342032472
  2.1321536596269643  1.0625000000000000  7.2816328657967526
  0.0000000000000000  1.0625000000000000  4.2701637842607996
  2.1749999999999998  3.1875000000000000  1.3009467157392003
  4.3499999999999996  3.1875000000000000  6.8720572157392006
  2.1749999999999998  1.0625000000000000  9.8412742842607983
