Ge Se
 1.0000000000000000
     4.7500000000000000    0.0000000000000000    0.0000000000000000
     0.0000000000000000    3.9500000000000002    0.0000000000000000
     0.0000000000000000    0.0000000000000000   11.1422209999999993
 Ge  Se 
   4   4
Cartesian
  0.3874766786707181  0.9875000000000000  1.4860293118322019
  2.7624766786707182  2.9625000000000004  4.0850811881677975
  4.3625233213292818  2.9625000000000004  9.6561916881677980
  1.9875233213292820  0.9875000000000000  7.0571398118322017
  0.0000000000000000  0.9875000000000000  4.0165355504110183
  2.3750000000000000  2.9625000000000004  1.5545749495889816
  4.7500000000000000  2.9625000000000004  7.1256854495889810
  2.3750000000000000  0.9875000000000000  9.5876460504110170
