Ge Se
 1.0000000000000000
     3.8500000000000001    0.0000000000000000    0.0000000000000000
     0.0000000000000000    4.3499999999999996    0.0000000000000000
     0.0000000000000000    0.0000000000000000   11.1422209999999993
 Ge  Se 
   4   4
Cartesian
  0.9625000000000000  0.2432826352928274  1.5006928621341771
  2.8875000000000002  2.4182826352928273  4.0704176378658232
  2.8875000000000002  4.1067173647071717  9.6415281378658229
  0.9625000000000000  1.9317173647071724  7.0718033621341760
  0.9625000000000000  0.0000000000000000  4.0491067922807256
  2.8875000000000002  2.1749999999999998  1.5220037077192743
  2.8875000000000002  4.3499999999999996  7.0931142077192737
  0.9625000000000000  2.1749999999999998  9.6202172922807243
