Ge Se
 1.0000000000000000
     3.7500000000000000    0.0000000000000000    0.0000000000000000
     0.0000000000000000    4.7999999999999998    0.0000000000000000
     0.0000000000000000    0.0000000000000000   11.1422209999999993
 Ge  Se 
   4   4
Cartesian
  0.9375000000000000  0.5489640005737608  1.3790539958021151
  2.8125000000000000  2.9489640005737603  4.1920565041978843
  2.8125000000000000  4.2510359994262394  9.7631670041978840
  0.9375000000000000  1.8510359994262393  6.9501644958021149
  0.9375000000000000  0.0000000000000000  3.8795016609361110
  2.8125000000000000  2.3999999999999999  1.6916088390638884
  2.8125000000000000  4.7999999999999998  7.2627193390638878
  0.9375000000000000  2.3999999999999999  9.4506121609361120
