Ge Se
 1.0000000000000000
     4.7000000000000002    0.0000000000000000    0.0000000000000000
     0.0000000000000000    4.5000000000000000    0.0000000000000000
     0.0000000000000000    0.0000000000000000   11.1422209999999993
 Ge  Se 
   4   4
Cartesian
  0.0813676317334988  1.1250000000000000  1.7812778362288970
  2.4313676317334987  3.3750000000000000  3.7898326637711031
  4.6186323682665016  3.3750000000000000  9.3609431637711022
  2.2686323682665015  1.1250000000000000  7.3523883362288966
  0.0000000000000000  1.1250000000000000  4.3399844056709815
  2.3500000000000001  3.3750000000000000  1.2311260943290185
  4.7000000000000002  3.3750000000000000  6.8022365943290177
  2.3500000000000001  1.1250000000000000  9.9110949056709803
