Ge Se
 1.0000000000000000
     4.2500000000000000    0.0000000000000000    0.0000000000000000
     0.0000000000000000    3.8000000000000003    0.0000000000000000
     0.0000000000000000    0.0000000000000000   11.1422209999999993
 Ge  Se 
   4   4
Cartesian
  0.2211309152653468  0.9500000000000001  1.4915447029525510
  2.3461309152653467  2.8500000000000001  4.0795657970474482
  4.0288690847346533  2.8500000000000001  9.6506762970474487
  1.9038690847346531  0.9500000000000001  7.0626552029525511
  0.0000000000000000  0.9500000000000001  4.0419762582611645
  2.1250000000000000  2.8500000000000001  1.5291342417388354
  4.2500000000000000  2.8500000000000001  7.1002447417388348
  2.1250000000000000  0.9500000000000001  9.6130867582611650
