Ge Se
 1.0000000000000000
     3.7500000000000000    0.0000000000000000    0.0000000000000000
     0.0000000000000000    4.0999999999999996    0.0000000000000000
     0.0000000000000000    0.0000000000000000   11.1422209999999993
 Ge  Se 
   4   4
Cartesian
  0.9375000000000000  0.1730940122693156  1.4908159562895820
  2.8125000000000000  2.2230940122693150  4.0802945437104174
  2.8125000000000000  3.9269059877306844  9.6514050437104171
  0.9375000000000000  1.8769059877306844  7.0619264562895818
  0.9375000000000000  0.0000000000000000  4.0449573899060747
  2.8125000000000000  2.0499999999999998  1.5261531100939252
  2.8125000000000000  4.0999999999999996  7.0972636100939246
  0.9375000000000000  2.0499999999999998  9.6160678899060734
