Ge Se
 1.0000000000000000
     4.4000000000000004    0.0000000000000000    0.0000000000000000
     0.0000000000000000    4.5999999999999996    0.0000000000000000
     0.0000000000000000    0.0000000000000000   11.1422209999999993
 Ge  Se 
   4   4
Cartesian
  1.1000000000000001  0.0832386665756919  1.7459546179178906
  3.3000000000000003  2.3832386665756919  3.8251558820821092
  3.3000000000000003  4.5167613334243084  9.3962663820821088
  1.1000000000000001  2.2167613334243077  7.3170651179178900
  1.1000000000000001  0.0000000000000000  4.3046010030963311
  3.3000000000000003  2.2999999999999998  1.2665094969036683
  3.3000000000000003  4.5999999999999996  6.8376199969036682
  1.1000000000000001  2.2999999999999998  9.8757115030963316
