Ge Se
 1.0000000000000000
     3.9500000000000002    0.0000000000000000    0.0000000000000000
     0.0000000000000000    4.5999999999999996    0.0000000000000000
     0.0000000000000000    0.0000000000000000   11.1422209999999993
 Ge  Se 
   4   4
Cartesian
  0.9875000000000000  0.3113146437395719  1.5106388402554429
  2.9625000000000004  2.6113146437395716  4.0604716597445565
  2.9625000000000004  4.2886853562604275  9.6315821597445552
  0.9875000000000000  1.9886853562604281  7.0817493402554428
  0.9875000000000000  0.0000000000000000  4.0516392716984022
  2.9625000000000004  2.2999999999999998  1.5194712283015976
  2.9625000000000004  4.5999999999999996  7.0905817283015971
  0.9875000000000000  2.2999999999999998  9.6227497716984018
