Ge Se
 1.0000000000000000
     3.8000000000000003    0.0000000000000000    0.0000000000000000
     0.0000000000000000    3.9500000000000002    0.0000000000000000
     0.0000000000000000    0.0000000000000000   11.1422209999999993
 Ge  Se 
   4   4
Cartesian
  0.9500000000000001  0.0721745655375391  1.5427581701662190
  2.8500000000000001  2.0471745655375391  4.0283523298337807
  2.8500000000000001  3.8778254344624612  9.5994628298337812
  0.9500000000000001  1.9028254344624611  7.1138686701662177
  0.9500000000000001  0.0000000000000000  4.1017405523035926
  2.8500000000000001  1.9750000000000001  1.4693699476964071
  2.8500000000000001  3.9500000000000002  7.0404804476964067
  0.9500000000000001  1.9750000000000001  9.6728510523035922
