Ge Se
 1.0000000000000000
     4.3499999999999996    0.0000000000000000    0.0000000000000000
     0.0000000000000000    4.1500000000000004    0.0000000000000000
     0.0000000000000000    0.0000000000000000   11.1422209999999993
 Ge  Se 
   4   4
Cartesian
  0.0883157423594427  1.0375000000000001  1.6576602522464816
  2.2633157423594423  3.1125000000000003  3.9134502477535174
  4.2616842576405567  3.1125000000000003  9.4845607477535179
  2.0866842576405573  1.0375000000000001  7.2287707522464819
  0.0000000000000000  1.0375000000000001  4.2161364256066127
  2.1749999999999998  3.1125000000000003  1.3549740743933862
  4.3499999999999996  3.1125000000000003  6.9260845743933865
  2.1749999999999998  1.0375000000000001  9.7872469256066132
