Ge Se
 1.0000000000000000
     4.0999999999999996    0.0000000000000000    0.0000000000000000
     0.0000000000000000    4.2999999999999998    0.0000000000000000
     0.0000000000000000    0.0000000000000000   11.1422209999999993
 Ge  Se 
   4   4
Cartesian
  1.0249999999999999  0.0894064094337856  1.6400040730983327
  3.0749999999999997  2.2394064094337858  3.9311064269016671
  3.0749999999999997  4.2105935905662148  9.5022169269016672
  1.0249999999999999  2.0605935905662141  7.2111145730983317
  1.0249999999999999  0.0000000000000000  4.1984423650944791
  3.0749999999999997  2.1499999999999999  1.3726681349055205
  3.0749999999999997  4.2999999999999998  6.9437786349055202
  1.0249999999999999  2.1499999999999999  9.7695528650944787
