Ge Se
 1.0000000000000000
     3.8000000000000003    0.0000000000000000    0.0000000000000000
     0.0000000000000000    4.7999999999999998    0.0000000000000000
     0.0000000000000000    0.0000000000000000   11.1422209999999993
 Ge  Se 
   4   4
Cartesian
  0.9500000000000001  0.5130987788826440  1.4033353163263635
  2.8500000000000001  2.9130987788826439  4.1677751836736361
  2.8500000000000001  4.2869012211173558  9.7388856836736348
  0.9500000000000001  1.8869012211173561  6.9744458163263632
  0.9500000000000001  0.0000000000000000  3.9113882749197701
  2.8500000000000001  2.3999999999999999  1.6597222250802295
  2.8500000000000001  4.7999999999999998  7.2308327250802291
  0.9500000000000001  2.3999999999999999  9.4824987749197707
