Ge Se
 1.0000000000000000
     3.8000000000000003    0.0000000000000000    0.0000000000000000
     0.0000000000000000    4.2999999999999998    0.0000000000000000
     0.0000000000000000    0.0000000000000000   11.1422209999999993
 Ge  Se 
   4   4
Cartesian
  0.9500000000000001  0.2466015027388432  1.4832030847417992
  2.8500000000000001  2.3966015027388430  4.0879074152582007
  2.8500000000000001  4.0533984972611563  9.6590179152582003
  0.9500000000000001  1.9033984972611568  7.0543135847417986
  0.9500000000000001  0.0000000000000000  4.0312980003300991
  2.8500000000000001  2.1499999999999999  1.5398124996699007
  2.8500000000000001  4.2999999999999998  7.1109229996699002
  0.9500000000000001  2.1499999999999999  9.6024085003300979
