Ge Se
 1.0000000000000000
     4.3499999999999996    0.0000000000000000    0.0000000000000000
     0.0000000000000000    4.0499999999999998    0.0000000000000000
     0.0000000000000000    0.0000000000000000   11.1422209999999993
 Ge  Se 
   4   4
Cartesian
  0.1366698873088463  1.0125000000000000  1.6050012531588540
  2.3116698873088461  3.0374999999999996  3.9661092468411452
  4.2133301126911533  3.0374999999999996  9.5372197468411457
  2.0383301126911535  1.0125000000000000  7.1761117531588541
  0.0000000000000000  1.0125000000000000  4.1613504745883105
  2.1749999999999998  3.0374999999999996  1.4097600254116891
  4.3499999999999996  3.0374999999999996  6.9808705254116887
  2.1749999999999998  1.0125000000000000  9.7324609745883102
