Ge Se
 1.0000000000000000
     3.8999999999999999    0.0000000000000000    0.0000000000000000
     0.0000000000000000    4.5499999999999998    0.0000000000000000
     0.0000000000000000    0.0000000000000000   11.1422209999999993
 Ge  Se 
   4   4
Cartesian
  0.9750000000000000  0.3154985512879017  1.4932570975023953
  2.9249999999999998  2.5904985512879013  4.0778534024976043
  2.9249999999999998  4.2345014487120975  9.6489639024976039
  0.9750000000000000  1.9595014487120983  7.0643675975023950
  0.9750000000000000  0.0000000000000000  4.0337414340286477
  2.9249999999999998  2.2749999999999999  1.5373690659713513
  2.9249999999999998  4.5499999999999998  7.1084795659713516
  0.9750000000000000  2.2749999999999999  9.6048519340286482
