Ge Se
 1.0000000000000000
     4.3499999999999996    0.0000000000000000    0.0000000000000000
     0.0000000000000000    4.3499999999999996    0.0000000000000000
     0.0000000000000000    0.0000000000000000   11.1422209999999993
 Ge  Se 
   4   4
Cartesian
  0.0000000000000000  1.0874999999999999  1.7635124990807407
  2.1749999999999998  3.2624999999999997  3.8075980009192589
  4.3499999999999996  3.2624999999999997  9.3787085009192594
  2.1749999999999998  1.0874999999999999  7.3346229990807403
  0.0000000000000000  1.0874999999999999  4.3235124990807403
  2.1749999999999998  3.2624999999999997  1.2475980009192589
  4.3499999999999996  3.2624999999999997  6.8187085009192590
  2.1749999999999998  1.0874999999999999  9.8946229990807399
