Ge Se
 1.0000000000000000
     3.8999999999999999    0.0000000000000000    0.0000000000000000
     0.0000000000000000    4.1500000000000004    0.0000000000000000
     0.0000000000000000    0.0000000000000000   11.1422209999999993
 Ge  Se 
   4   4
Cartesian
  0.9750000000000000  0.1179607778568664  1.5607415843455421
  2.9249999999999998  2.1929607778568667  4.0103689156544569
  2.9249999999999998  4.0320392221431343  9.5814794156544565
  0.9750000000000000  1.9570392221431339  7.1318520843455424
  0.9750000000000000  0.0000000000000000  4.1180224165748465
  2.9249999999999998  2.0750000000000002  1.4530880834251534
  2.9249999999999998  4.1500000000000004  7.0241985834251528
  0.9750000000000000  2.0750000000000002  9.6891329165748452
