Ge Se
 1.0000000000000000
     3.8000000000000003    0.0000000000000000    0.0000000000000000
     0.0000000000000000    4.5000000000000000    0.0000000000000000
     0.0000000000000000    0.0000000000000000   11.1422209999999993
 Ge  Se 
   4   4
Cartesian
  0.9500000000000001  0.3505037579833932  1.4504444666867125
  2.8500000000000001  2.6005037579833932  4.1206660333132872
  2.8500000000000001  4.1494962420166068  9.6917765333132859
  0.9500000000000001  1.8994962420166071  7.0215549666867121
  0.9500000000000001  0.0000000000000000  3.9863362458522826
  2.8500000000000001  2.2500000000000000  1.5847742541477168
  2.8500000000000001  4.5000000000000000  7.1558847541477162
  0.9500000000000001  2.2500000000000000  9.5574467458522836
