Ge Se
 1.0000000000000000
     3.8000000000000003    0.0000000000000000    0.0000000000000000
     0.0000000000000000    4.3499999999999996    0.0000000000000000
     0.0000000000000000    0.0000000000000000   11.1422209999999993
 Ge  Se 
   4   4
Cartesian
  0.9500000000000001  0.2722686751027722  1.4749206252767031
  2.8500000000000001  2.4472686751027717  4.0961898747232963
  2.8500000000000001  4.0777313248972273  9.6673003747232968
  0.9500000000000001  1.9027313248972277  7.0460311252767029
  0.9500000000000001  0.0000000000000000  4.0204008881264821
  2.8500000000000001  2.1749999999999998  1.5507096118735173
  2.8500000000000001  4.3499999999999996  7.1218201118735172
  0.9500000000000001  2.1749999999999998  9.5915113881264826
