Ge Se
 1.0000000000000000
     3.8500000000000001    0.0000000000000000    0.0000000000000000
     0.0000000000000000    4.2999999999999998    0.0000000000000000
     0.0000000000000000    0.0000000000000000   11.1422209999999993
 Ge  Se 
   4   4
Cartesian
  0.9625000000000000  0.2181664335048377  1.5090715822813063
  2.8875000000000002  2.3681664335048378  4.0620389177186933
  2.8875000000000002  4.0818335664951624  9.6331494177186929
  0.9625000000000000  1.9318335664951620  7.0801820822813060
  0.9625000000000000  0.0000000000000000  4.0597584323849754
  2.8875000000000002  2.1499999999999999  1.5113520676150241
  2.8875000000000002  4.2999999999999998  7.0824625676150239
  0.9625000000000000  2.1499999999999999  9.6308689323849741
