Ge Se
 1.0000000000000000
     4.7500000000000000    0.0000000000000000    0.0000000000000000
     0.0000000000000000    4.2999999999999998    0.0000000000000000
     0.0000000000000000    0.0000000000000000   11.1422209999999993
 Ge  Se 
   4   4
Cartesian
  0.1946807597854925  1.0750000000000000  1.6670949203689605
  2.5696807597854923  3.2249999999999996  3.9040155796310390
  4.5553192402145077  3.2249999999999996  9.4751260796310390
  2.1803192402145077  1.0750000000000000  7.2382054203689608
  0.0000000000000000  1.0750000000000000  4.2196817262914044
  2.3750000000000000  3.2249999999999996  1.3514287737085953
  4.7500000000000000  3.2249999999999996  6.9225392737085949
  2.3750000000000000  1.0750000000000000  9.7907922262914031
