Ge Se
 1.0000000000000000
     4.5999999999999996    0.0000000000000000    0.0000000000000000
     0.0000000000000000    4.0999999999999996    0.0000000000000000
     0.0000000000000000    0.0000000000000000   11.1422209999999993
 Ge  Se 
   4   4
Cartesian
  0.2279454780413183  1.0249999999999999  1.5882676140488288
  2.5279454780413180  3.0749999999999997  3.9828428859511709
  4.3720545219586819  3.0749999999999997  9.5539533859511714
  2.0720545219586817  1.0249999999999999  7.1593781140488275
  0.0000000000000000  1.0249999999999999  4.1380991494723975
  2.2999999999999998  3.0749999999999997  1.4330113505276021
  4.5999999999999996  3.0749999999999997  7.0041218505276017
  2.2999999999999998  1.0249999999999999  9.7092096494723972
