Ge Se
 1.0000000000000000
     4.6499999999999995    0.0000000000000000    0.0000000000000000
     0.0000000000000000    4.0000000000000000    0.0000000000000000
     0.0000000000000000    0.0000000000000000   11.1422209999999993
 Ge  Se 
   4   4
Cartesian
  0.3072405394276290  1.0000000000000000  1.5280347468863487
  2.6322405394276287  3.0000000000000000  4.0430757531136514
  4.3427594605723705  3.0000000000000000  9.6141862531136510
  2.0177594605723708  1.0000000000000000  7.0991452468863478
  0.0000000000000000  1.0000000000000000  4.0695310091169699
  2.3249999999999997  3.0000000000000000  1.5015794908830296
  4.6499999999999995  3.0000000000000000  7.0726899908830294
  2.3249999999999997  1.0000000000000000  9.6406415091169695
