Ge Se
 1.0000000000000000
     3.8500000000000001    0.0000000000000000    0.0000000000000000
     0.0000000000000000    4.4000000000000004    0.0000000000000000
     0.0000000000000000    0.0000000000000000   11.1422209999999993
 Ge  Se 
   4   4
Cartesian
  0.9625000000000000  0.2685897045138850  1.4923687842553730
  2.8875000000000002  2.4685897045138852  4.0787417157446262
  2.8875000000000002  4.1314102954861154  9.6498522157446267
  0.9625000000000000  1.9314102954861154  7.0634792842553731
  0.9625000000000000  0.0000000000000000  4.0382398671323401
  2.8875000000000002  2.2000000000000002  1.5328706328676589
  2.8875000000000002  4.4000000000000004  7.1039811328676592
  0.9625000000000000  2.2000000000000002  9.6093503671323397
