Ge Se
 1.0000000000000000
     4.2999999999999998    0.0000000000000000    0.0000000000000000
     0.0000000000000000    4.5000000000000000    0.0000000000000000
     0.0000000000000000    0.0000000000000000   11.1422209999999993
 Ge  Se 
   4   4
Cartesian
  1.0750000000000000  0.0851977884171539  1.7106343629176495
  3.2249999999999996  2.3351977884171538  3.8604761370823497
  3.2249999999999996  4.4148022115828462  9.4315866370823507
  1.0750000000000000  2.1648022115828462  7.2817448629176500
  1.0750000000000000  0.0000000000000000  4.2692162624957781
  3.2249999999999996  2.2500000000000000  1.3018942375042213
  3.2249999999999996  4.5000000000000000  6.8730047375042211
  1.0750000000000000  2.2500000000000000  9.8403267624957778
