Ge Se
 1.0000000000000000
     3.8999999999999999    0.0000000000000000    0.0000000000000000
     0.0000000000000000    4.0000000000000000    0.0000000000000000
     0.0000000000000000    0.0000000000000000   11.1422209999999993
 Ge  Se 
   4   4
Cartesian
  0.9750000000000000  0.0467166499861114  1.5868176843836523
  2.9249999999999998  2.0467166499861116  3.9842928156163473
  2.9249999999999998  3.9532833500138889  9.5554033156163474
  0.9750000000000000  1.9532833500138884  7.1579281843836515
  0.9750000000000000  0.0000000000000000  4.1463913900256832
  2.9249999999999998  2.0000000000000000  1.4247191099743171
  2.9249999999999998  4.0000000000000000  6.9958296099743160
  0.9750000000000000  2.0000000000000000  9.7175018900256820
