Ge Se
 1.0000000000000000
     4.2500000000000000    0.0000000000000000    0.0000000000000000
     0.0000000000000000    4.4500000000000002    0.0000000000000000
     0.0000000000000000    0.0000000000000000   11.1422209999999993
 Ge  Se 
   4   4
Cartesian
  1.0625000000000000  0.0862123493754622  1.6929754456534574
  3.1875000000000000  2.3112123493754622  3.8781350543465423
  3.1875000000000000  4.3637876506245377  9.4492455543465415
  1.0625000000000000  2.1387876506245380  7.2640859456534574
  1.0625000000000000  0.0000000000000000  4.2515233601579254
  3.1875000000000000  2.2250000000000001  1.3195871398420742
  3.1875000000000000  4.4500000000000002  6.8906976398420730
  1.0625000000000000  2.2250000000000001  9.8226338601579251
