Ge Se
 1.0000000000000000
     4.3499999999999996    0.0000000000000000    0.0000000000000000
     0.0000000000000000    4.0999999999999996    0.0000000000000000
     0.0000000000000000    0.0000000000000000   11.1422209999999993
 Ge  Se 
   4   4
Cartesian
  0.1121144305063657  1.0249999999999999  1.6312999855590806
  2.2871144305063655  3.0749999999999997  3.9398105144409192
  4.2378855694936339  3.0749999999999997  9.5109210144409193
  2.0628855694936341  1.0249999999999999  7.2024104855590796
  0.0000000000000000  1.0249999999999999  4.1888437983748519
  2.1749999999999998  3.0749999999999997  1.3822667016251475
  4.3499999999999996  3.0749999999999997  6.9533772016251474
  2.1749999999999998  1.0249999999999999  9.7599542983748524
