Ge Se                                   
    1.000000000000000     
     3.8581001445456637    0.0000000000000000    0.0000000000000000
     0.0000000000000000    4.5265752125770806    0.0000000000000000
     0.0000000000000000    0.0000000000000000   11.0851769054411697
   Ge   Se
     4     4
Direct
  0.2500000001160387  0.1156418976690224  0.1235402719945083
  0.7500000000902531  0.8843581248590971  0.8764597131251566
  0.7500000000902531  0.6156418751958491  0.3764597131610531
  0.2500000001160387  0.3843580950230739  0.6235402868568951
  0.2500000001160387  0.5049490018722833  0.8526300840951475
  0.7500000000902531  0.4950509683466402  0.1473698860364852
  0.7500000000902531  0.0049490223673766  0.6473699158869042
  0.2500000001160387  0.9950509981826630  0.3526301139276179
 
  0.00000000E+00  0.00000000E+00  0.00000000E+00
  0.00000000E+00  0.00000000E+00  0.00000000E+00
  0.00000000E+00  0.00000000E+00  0.00000000E+00
  0.00000000E+00  0.00000000E+00  0.00000000E+00
  0.00000000E+00  0.00000000E+00  0.00000000E+00
  0.00000000E+00  0.00000000E+00  0.00000000E+00
  0.00000000E+00  0.00000000E+00  0.00000000E+00
  0.00000000E+00  0.00000000E+00  0.00000000E+00
