generated by phonopy
   1.0
    23.1486008672739842    0.0000000000000000    0.0000000000000000
     0.0000000000000000   27.1594512754624837    0.0000000000000000
     0.0000000000000000    0.0000000000000000   22.1703538108823395
Ge Se
 288  288
Direct
  0.0413864450714613  0.0189934279969586  0.0617701359972542
  0.2083333333526731  0.0192736496115037  0.0617701359972542
  0.3750000000193398  0.0192736496115037  0.0617701359972542
  0.5416666666860064  0.0192736496115037  0.0617701359972542
  0.7083333333526731  0.0192736496115037  0.0617701359972542
  0.8750000000193398  0.0192736496115037  0.0617701359972542
  0.0416666666860064  0.1859403162781703  0.0617701359972542
  0.2083333333526731  0.1859403162781703  0.0617701359972542
  0.3750000000193398  0.1859403162781703  0.0617701359972542
  0.5416666666860064  0.1859403162781703  0.0617701359972542
  0.7083333333526731  0.1859403162781703  0.0617701359972542
  0.8750000000193398  0.1859403162781703  0.0617701359972542
  0.0416666666860064  0.3526069829448370  0.0617701359972542
  0.2083333333526731  0.3526069829448370  0.0617701359972542
  0.3750000000193398  0.3526069829448370  0.0617701359972542
  0.5416666666860064  0.3526069829448370  0.0617701359972542
  0.7083333333526731  0.3526069829448370  0.0617701359972542
  0.8750000000193398  0.3526069829448370  0.0617701359972542
  0.0416666666860064  0.5192736496115037  0.0617701359972542
  0.2083333333526731  0.5192736496115037  0.0617701359972542
  0.3750000000193398  0.5192736496115037  0.0617701359972542
  0.5416666666860064  0.5192736496115037  0.0617701359972542
  0.7083333333526731  0.5192736496115037  0.0617701359972542
  0.8750000000193398  0.5192736496115037  0.0617701359972542
  0.0416666666860064  0.6859403162781704  0.0617701359972542
  0.2083333333526731  0.6859403162781704  0.0617701359972542
  0.3750000000193398  0.6859403162781704  0.0617701359972542
  0.5416666666860064  0.6859403162781704  0.0617701359972542
  0.7083333333526731  0.6859403162781704  0.0617701359972542
  0.8750000000193398  0.6859403162781704  0.0617701359972542
  0.0416666666860064  0.8526069829448371  0.0617701359972542
  0.2083333333526731  0.8526069829448371  0.0617701359972542
  0.3750000000193398  0.8526069829448371  0.0617701359972542
  0.5416666666860064  0.8526069829448371  0.0617701359972542
  0.7083333333526731  0.8526069829448371  0.0617701359972542
  0.8750000000193398  0.8526069829448371  0.0617701359972542
  0.0416666666860064  0.0192736496115037  0.5617701359972541
  0.2083333333526731  0.0192736496115037  0.5617701359972541
  0.3750000000193398  0.0192736496115037  0.5617701359972541
  0.5416666666860064  0.0192736496115037  0.5617701359972541
  0.7083333333526731  0.0192736496115037  0.5617701359972541
  0.8750000000193398  0.0192736496115037  0.5617701359972541
  0.0416666666860064  0.1859403162781703  0.5617701359972541
  0.2083333333526731  0.1859403162781703  0.5617701359972541
  0.3750000000193398  0.1859403162781703  0.5617701359972541
  0.5416666666860064  0.1859403162781703  0.5617701359972541
  0.7083333333526731  0.1859403162781703  0.5617701359972541
  0.8750000000193398  0.1859403162781703  0.5617701359972541
  0.0416666666860064  0.3526069829448370  0.5617701359972541
  0.2083333333526731  0.3526069829448370  0.5617701359972541
  0.3750000000193398  0.3526069829448370  0.5617701359972541
  0.5416666666860064  0.3526069829448370  0.5617701359972541
  0.7083333333526731  0.3526069829448370  0.5617701359972541
  0.8750000000193398  0.3526069829448370  0.5617701359972541
  0.0416666666860064  0.5192736496115037  0.5617701359972541
  0.2083333333526731  0.5192736496115037  0.5617701359972541
  0.3750000000193398  0.5192736496115037  0.5617701359972541
  0.5416666666860064  0.5192736496115037  0.5617701359972541
  0.7083333333526731  0.5192736496115037  0.5617701359972541
  0.8750000000193398  0.5192736496115037  0.5617701359972541
  0.0416666666860064  0.6859403162781704  0.5617701359972541
  0.2083333333526731  0.6859403162781704  0.5617701359972541
  0.3750000000193398  0.6859403162781704  0.5617701359972541
  0.5416666666860064  0.6859403162781704  0.5617701359972541
  0.7083333333526731  0.6859403162781704  0.5617701359972541
  0.8750000000193398  0.6859403162781704  0.5617701359972541
  0.0416666666860064  0.8526069829448371  0.5617701359972541
  0.2083333333526731  0.8526069829448371  0.5617701359972541
  0.3750000000193398  0.8526069829448371  0.5617701359972541
  0.5416666666860064  0.8526069829448371  0.5617701359972541
  0.7083333333526731  0.8526069829448371  0.5617701359972541
  0.8750000000193398  0.8526069829448371  0.5617701359972541
  0.1250000000150422  0.1473930208098495  0.4382298565625783
  0.2916666666817088  0.1473930208098495  0.4382298565625783
  0.4583333333483754  0.1473930208098495  0.4382298565625783
  0.6250000000150422  0.1473930208098495  0.4382298565625783
  0.7916666666817087  0.1473930208098495  0.4382298565625783
  0.9583333333483753  0.1473930208098495  0.4382298565625783
  0.1250000000150422  0.3140596874765161  0.4382298565625783
  0.2916666666817088  0.3140596874765161  0.4382298565625783
  0.4583333333483754  0.3140596874765161  0.4382298565625783
  0.6250000000150422  0.3140596874765161  0.4382298565625783
  0.7916666666817087  0.3140596874765161  0.4382298565625783
  0.9583333333483753  0.3140596874765161  0.4382298565625783
  0.1250000000150422  0.4807263541431828  0.4382298565625783
  0.2916666666817088  0.4807263541431828  0.4382298565625783
  0.4583333333483754  0.4807263541431828  0.4382298565625783
  0.6250000000150422  0.4807263541431828  0.4382298565625783
  0.7916666666817087  0.4807263541431828  0.4382298565625783
  0.9583333333483753  0.4807263541431828  0.4382298565625783
  0.1250000000150422  0.6473930208098494  0.4382298565625783
  0.2916666666817088  0.6473930208098494  0.4382298565625783
  0.4583333333483754  0.6473930208098494  0.4382298565625783
  0.6250000000150422  0.6473930208098494  0.4382298565625783
  0.7916666666817087  0.6473930208098494  0.4382298565625783
  0.9583333333483753  0.6473930208098494  0.4382298565625783
  0.1250000000150422  0.8140596874765161  0.4382298565625783
  0.2916666666817088  0.8140596874765161  0.4382298565625783
  0.4583333333483754  0.8140596874765161  0.4382298565625783
  0.6250000000150422  0.8140596874765161  0.4382298565625783
  0.7916666666817087  0.8140596874765161  0.4382298565625783
  0.9583333333483753  0.8140596874765161  0.4382298565625783
  0.1250000000150422  0.9807263541431828  0.4382298565625783
  0.2916666666817088  0.9807263541431828  0.4382298565625783
  0.4583333333483754  0.9807263541431828  0.4382298565625783
  0.6250000000150422  0.9807263541431828  0.4382298565625783
  0.7916666666817087  0.9807263541431828  0.4382298565625783
  0.9583333333483753  0.9807263541431828  0.4382298565625783
  0.1250000000150422  0.1473930208098495  0.9382298565625784
  0.2916666666817088  0.1473930208098495  0.9382298565625784
  0.4583333333483754  0.1473930208098495  0.9382298565625784
  0.6250000000150422  0.1473930208098495  0.9382298565625784
  0.7916666666817087  0.1473930208098495  0.9382298565625784
  0.9583333333483753  0.1473930208098495  0.9382298565625784
  0.1250000000150422  0.3140596874765161  0.9382298565625784
  0.2916666666817088  0.3140596874765161  0.9382298565625784
  0.4583333333483754  0.3140596874765161  0.9382298565625784
  0.6250000000150422  0.3140596874765161  0.9382298565625784
  0.7916666666817087  0.3140596874765161  0.9382298565625784
  0.9583333333483753  0.3140596874765161  0.9382298565625784
  0.1250000000150422  0.4807263541431828  0.9382298565625784
  0.2916666666817088  0.4807263541431828  0.9382298565625784
  0.4583333333483754  0.4807263541431828  0.9382298565625784
  0.6250000000150422  0.4807263541431828  0.9382298565625784
  0.7916666666817087  0.4807263541431828  0.9382298565625784
  0.9583333333483753  0.4807263541431828  0.9382298565625784
  0.1250000000150422  0.6473930208098494  0.9382298565625784
  0.2916666666817088  0.6473930208098494  0.9382298565625784
  0.4583333333483754  0.6473930208098494  0.9382298565625784
  0.6250000000150422  0.6473930208098494  0.9382298565625784
  0.7916666666817087  0.6473930208098494  0.9382298565625784
  0.9583333333483753  0.6473930208098494  0.9382298565625784
  0.1250000000150422  0.8140596874765161  0.9382298565625784
  0.2916666666817088  0.8140596874765161  0.9382298565625784
  0.4583333333483754  0.8140596874765161  0.9382298565625784
  0.6250000000150422  0.8140596874765161  0.9382298565625784
  0.7916666666817087  0.8140596874765161  0.9382298565625784
  0.9583333333483753  0.8140596874765161  0.9382298565625784
  0.1250000000150422  0.9807263541431828  0.9382298565625784
  0.2916666666817088  0.9807263541431828  0.9382298565625784
  0.4583333333483754  0.9807263541431828  0.9382298565625784
  0.6250000000150422  0.9807263541431828  0.9382298565625784
  0.7916666666817087  0.9807263541431828  0.9382298565625784
  0.9583333333483753  0.9807263541431828  0.9382298565625784
  0.1250000000150422  0.1026069791993082  0.1882298565805265
  0.2916666666817088  0.1026069791993082  0.1882298565805265
  0.4583333333483754  0.1026069791993082  0.1882298565805265
  0.6250000000150422  0.1026069791993082  0.1882298565805265
  0.7916666666817087  0.1026069791993082  0.1882298565805265
  0.9583333333483753  0.1026069791993082  0.1882298565805265
  0.1250000000150422  0.2692736458659749  0.1882298565805265
  0.2916666666817088  0.2692736458659749  0.1882298565805265
  0.4583333333483754  0.2692736458659749  0.1882298565805265
  0.6250000000150422  0.2692736458659749  0.1882298565805265
  0.7916666666817087  0.2692736458659749  0.1882298565805265
  0.9583333333483753  0.2692736458659749  0.1882298565805265
  0.1250000000150422  0.4359403125326415  0.1882298565805265
  0.2916666666817088  0.4359403125326415  0.1882298565805265
  0.4583333333483754  0.4359403125326415  0.1882298565805265
  0.6250000000150422  0.4359403125326415  0.1882298565805265
  0.7916666666817087  0.4359403125326415  0.1882298565805265
  0.9583333333483753  0.4359403125326415  0.1882298565805265
  0.1250000000150422  0.6026069791993082  0.1882298565805265
  0.2916666666817088  0.6026069791993082  0.1882298565805265
  0.4583333333483754  0.6026069791993082  0.1882298565805265
  0.6250000000150422  0.6026069791993082  0.1882298565805265
  0.7916666666817087  0.6026069791993082  0.1882298565805265
  0.9583333333483753  0.6026069791993082  0.1882298565805265
  0.1250000000150422  0.7692736458659747  0.1882298565805265
  0.2916666666817088  0.7692736458659747  0.1882298565805265
  0.4583333333483754  0.7692736458659747  0.1882298565805265
  0.6250000000150422  0.7692736458659747  0.1882298565805265
  0.7916666666817087  0.7692736458659747  0.1882298565805265
  0.9583333333483753  0.7692736458659747  0.1882298565805265
  0.1250000000150422  0.9359403125326414  0.1882298565805265
  0.2916666666817088  0.9359403125326414  0.1882298565805265
  0.4583333333483754  0.9359403125326414  0.1882298565805265
  0.6250000000150422  0.9359403125326414  0.1882298565805265
  0.7916666666817087  0.9359403125326414  0.1882298565805265
  0.9583333333483753  0.9359403125326414  0.1882298565805265
  0.1250000000150422  0.1026069791993082  0.6882298565805265
  0.2916666666817088  0.1026069791993082  0.6882298565805265
  0.4583333333483754  0.1026069791993082  0.6882298565805265
  0.6250000000150422  0.1026069791993082  0.6882298565805265
  0.7916666666817087  0.1026069791993082  0.6882298565805265
  0.9583333333483753  0.1026069791993082  0.6882298565805265
  0.1250000000150422  0.2692736458659749  0.6882298565805265
  0.2916666666817088  0.2692736458659749  0.6882298565805265
  0.4583333333483754  0.2692736458659749  0.6882298565805265
  0.6250000000150422  0.2692736458659749  0.6882298565805265
  0.7916666666817087  0.2692736458659749  0.6882298565805265
  0.9583333333483753  0.2692736458659749  0.6882298565805265
  0.1250000000150422  0.4359403125326415  0.6882298565805265
  0.2916666666817088  0.4359403125326415  0.6882298565805265
  0.4583333333483754  0.4359403125326415  0.6882298565805265
  0.6250000000150422  0.4359403125326415  0.6882298565805265
  0.7916666666817087  0.4359403125326415  0.6882298565805265
  0.9583333333483753  0.4359403125326415  0.6882298565805265
  0.1250000000150422  0.6026069791993082  0.6882298565805265
  0.2916666666817088  0.6026069791993082  0.6882298565805265
  0.4583333333483754  0.6026069791993082  0.6882298565805265
  0.6250000000150422  0.6026069791993082  0.6882298565805265
  0.7916666666817087  0.6026069791993082  0.6882298565805265
  0.9583333333483753  0.6026069791993082  0.6882298565805265
  0.1250000000150422  0.7692736458659747  0.6882298565805265
  0.2916666666817088  0.7692736458659747  0.6882298565805265
  0.4583333333483754  0.7692736458659747  0.6882298565805265
  0.6250000000150422  0.7692736458659747  0.6882298565805265
  0.7916666666817087  0.7692736458659747  0.6882298565805265
  0.9583333333483753  0.7692736458659747  0.6882298565805265
  0.1250000000150422  0.9359403125326414  0.6882298565805265
  0.2916666666817088  0.9359403125326414  0.6882298565805265
  0.4583333333483754  0.9359403125326414  0.6882298565805265
  0.6250000000150422  0.9359403125326414  0.6882298565805265
  0.7916666666817087  0.9359403125326414  0.6882298565805265
  0.9583333333483753  0.9359403125326414  0.6882298565805265
  0.0416666666860064  0.0640596825038456  0.3117701434284476
  0.2083333333526731  0.0640596825038456  0.3117701434284476
  0.3750000000193398  0.0640596825038456  0.3117701434284476
  0.5416666666860064  0.0640596825038456  0.3117701434284476
  0.7083333333526731  0.0640596825038456  0.3117701434284476
  0.8750000000193398  0.0640596825038456  0.3117701434284476
  0.0416666666860064  0.2307263491705123  0.3117701434284476
  0.2083333333526731  0.2307263491705123  0.3117701434284476
  0.3750000000193398  0.2307263491705123  0.3117701434284476
  0.5416666666860064  0.2307263491705123  0.3117701434284476
  0.7083333333526731  0.2307263491705123  0.3117701434284476
  0.8750000000193398  0.2307263491705123  0.3117701434284476
  0.0416666666860064  0.3973930158371790  0.3117701434284476
  0.2083333333526731  0.3973930158371790  0.3117701434284476
  0.3750000000193398  0.3973930158371790  0.3117701434284476
  0.5416666666860064  0.3973930158371790  0.3117701434284476
  0.7083333333526731  0.3973930158371790  0.3117701434284476
  0.8750000000193398  0.3973930158371790  0.3117701434284476
  0.0416666666860064  0.5640596825038456  0.3117701434284476
  0.2083333333526731  0.5640596825038456  0.3117701434284476
  0.3750000000193398  0.5640596825038456  0.3117701434284476
  0.5416666666860064  0.5640596825038456  0.3117701434284476
  0.7083333333526731  0.5640596825038456  0.3117701434284476
  0.8750000000193398  0.5640596825038456  0.3117701434284476
  0.0416666666860064  0.7307263491705122  0.3117701434284476
  0.2083333333526731  0.7307263491705122  0.3117701434284476
  0.3750000000193398  0.7307263491705122  0.3117701434284476
  0.5416666666860064  0.7307263491705122  0.3117701434284476
  0.7083333333526731  0.7307263491705122  0.3117701434284476
  0.8750000000193398  0.7307263491705122  0.3117701434284476
  0.0416666666860064  0.8973930158371789  0.3117701434284476
  0.2083333333526731  0.8973930158371789  0.3117701434284476
  0.3750000000193398  0.8973930158371789  0.3117701434284476
  0.5416666666860064  0.8973930158371789  0.3117701434284476
  0.7083333333526731  0.8973930158371789  0.3117701434284476
  0.8750000000193398  0.8973930158371789  0.3117701434284476
  0.0416666666860064  0.0640596825038456  0.8117701434284476
  0.2083333333526731  0.0640596825038456  0.8117701434284476
  0.3750000000193398  0.0640596825038456  0.8117701434284476
  0.5416666666860064  0.0640596825038456  0.8117701434284476
  0.7083333333526731  0.0640596825038456  0.8117701434284476
  0.8750000000193398  0.0640596825038456  0.8117701434284476
  0.0416666666860064  0.2307263491705123  0.8117701434284476
  0.2083333333526731  0.2307263491705123  0.8117701434284476
  0.3750000000193398  0.2307263491705123  0.8117701434284476
  0.5416666666860064  0.2307263491705123  0.8117701434284476
  0.7083333333526731  0.2307263491705123  0.8117701434284476
  0.8750000000193398  0.2307263491705123  0.8117701434284476
  0.0416666666860064  0.3973930158371790  0.8117701434284476
  0.2083333333526731  0.3973930158371790  0.8117701434284476
  0.3750000000193398  0.3973930158371790  0.8117701434284476
  0.5416666666860064  0.3973930158371790  0.8117701434284476
  0.7083333333526731  0.3973930158371790  0.8117701434284476
  0.8750000000193398  0.3973930158371790  0.8117701434284476
  0.0416666666860064  0.5640596825038456  0.8117701434284476
  0.2083333333526731  0.5640596825038456  0.8117701434284476
  0.3750000000193398  0.5640596825038456  0.8117701434284476
  0.5416666666860064  0.5640596825038456  0.8117701434284476
  0.7083333333526731  0.5640596825038456  0.8117701434284476
  0.8750000000193398  0.5640596825038456  0.8117701434284476
  0.0416666666860064  0.7307263491705122  0.8117701434284476
  0.2083333333526731  0.7307263491705122  0.8117701434284476
  0.3750000000193398  0.7307263491705122  0.8117701434284476
  0.5416666666860064  0.7307263491705122  0.8117701434284476
  0.7083333333526731  0.7307263491705122  0.8117701434284476
  0.8750000000193398  0.7307263491705122  0.8117701434284476
  0.0416666666860064  0.8973930158371789  0.8117701434284476
  0.2083333333526731  0.8973930158371789  0.8117701434284476
  0.3750000000193398  0.8973930158371789  0.8117701434284476
  0.5416666666860064  0.8973930158371789  0.8117701434284476
  0.7083333333526731  0.8973930158371789  0.8117701434284476
  0.8750000000193398  0.8973930158371789  0.8117701434284476
  0.0416666666860064  0.0841581669787139  0.4263150420475738
  0.2083333333526731  0.0841581669787139  0.4263150420475738
  0.3750000000193398  0.0841581669787139  0.4263150420475738
  0.5416666666860064  0.0841581669787139  0.4263150420475738
  0.7083333333526731  0.0841581669787139  0.4263150420475738
  0.8750000000193398  0.0841581669787139  0.4263150420475738
  0.0416666666860064  0.2508248336453806  0.4263150420475738
  0.2083333333526731  0.2508248336453806  0.4263150420475738
  0.3750000000193398  0.2508248336453806  0.4263150420475738
  0.5416666666860064  0.2508248336453806  0.4263150420475738
  0.7083333333526731  0.2508248336453806  0.4263150420475738
  0.8750000000193398  0.2508248336453806  0.4263150420475738
  0.0416666666860064  0.4174915003120472  0.4263150420475738
  0.2083333333526731  0.4174915003120472  0.4263150420475738
  0.3750000000193398  0.4174915003120472  0.4263150420475738
  0.5416666666860064  0.4174915003120472  0.4263150420475738
  0.7083333333526731  0.4174915003120472  0.4263150420475738
  0.8750000000193398  0.4174915003120472  0.4263150420475738
  0.0416666666860064  0.5841581669787139  0.4263150420475738
  0.2083333333526731  0.5841581669787139  0.4263150420475738
  0.3750000000193398  0.5841581669787139  0.4263150420475738
  0.5416666666860064  0.5841581669787139  0.4263150420475738
  0.7083333333526731  0.5841581669787139  0.4263150420475738
  0.8750000000193398  0.5841581669787139  0.4263150420475738
  0.0416666666860064  0.7508248336453806  0.4263150420475738
  0.2083333333526731  0.7508248336453806  0.4263150420475738
  0.3750000000193398  0.7508248336453806  0.4263150420475738
  0.5416666666860064  0.7508248336453806  0.4263150420475738
  0.7083333333526731  0.7508248336453806  0.4263150420475738
  0.8750000000193398  0.7508248336453806  0.4263150420475738
  0.0416666666860064  0.9174915003120472  0.4263150420475738
  0.2083333333526731  0.9174915003120472  0.4263150420475738
  0.3750000000193398  0.9174915003120472  0.4263150420475738
  0.5416666666860064  0.9174915003120472  0.4263150420475738
  0.7083333333526731  0.9174915003120472  0.4263150420475738
  0.8750000000193398  0.9174915003120472  0.4263150420475738
  0.0416666666860064  0.0841581669787139  0.9263150420475739
  0.2083333333526731  0.0841581669787139  0.9263150420475739
  0.3750000000193398  0.0841581669787139  0.9263150420475739
  0.5416666666860064  0.0841581669787139  0.9263150420475739
  0.7083333333526731  0.0841581669787139  0.9263150420475739
  0.8750000000193398  0.0841581669787139  0.9263150420475739
  0.0416666666860064  0.2508248336453806  0.9263150420475739
  0.2083333333526731  0.2508248336453806  0.9263150420475739
  0.3750000000193398  0.2508248336453806  0.9263150420475739
  0.5416666666860064  0.2508248336453806  0.9263150420475739
  0.7083333333526731  0.2508248336453806  0.9263150420475739
  0.8750000000193398  0.2508248336453806  0.9263150420475739
  0.0416666666860064  0.4174915003120472  0.9263150420475739
  0.2083333333526731  0.4174915003120472  0.9263150420475739
  0.3750000000193398  0.4174915003120472  0.9263150420475739
  0.5416666666860064  0.4174915003120472  0.9263150420475739
  0.7083333333526731  0.4174915003120472  0.9263150420475739
  0.8750000000193398  0.4174915003120472  0.9263150420475739
  0.0416666666860064  0.5841581669787139  0.9263150420475739
  0.2083333333526731  0.5841581669787139  0.9263150420475739
  0.3750000000193398  0.5841581669787139  0.9263150420475739
  0.5416666666860064  0.5841581669787139  0.9263150420475739
  0.7083333333526731  0.5841581669787139  0.9263150420475739
  0.8750000000193398  0.5841581669787139  0.9263150420475739
  0.0416666666860064  0.7508248336453806  0.9263150420475739
  0.2083333333526731  0.7508248336453806  0.9263150420475739
  0.3750000000193398  0.7508248336453806  0.9263150420475739
  0.5416666666860064  0.7508248336453806  0.9263150420475739
  0.7083333333526731  0.7508248336453806  0.9263150420475739
  0.8750000000193398  0.7508248336453806  0.9263150420475739
  0.0416666666860064  0.9174915003120472  0.9263150420475739
  0.2083333333526731  0.9174915003120472  0.9263150420475739
  0.3750000000193398  0.9174915003120472  0.9263150420475739
  0.5416666666860064  0.9174915003120472  0.9263150420475739
  0.7083333333526731  0.9174915003120472  0.9263150420475739
  0.8750000000193398  0.9174915003120472  0.9263150420475739
  0.1250000000150422  0.0825084947244400  0.0736849430182426
  0.2916666666817088  0.0825084947244400  0.0736849430182426
  0.4583333333483754  0.0825084947244400  0.0736849430182426
  0.6250000000150422  0.0825084947244400  0.0736849430182426
  0.7916666666817087  0.0825084947244400  0.0736849430182426
  0.9583333333483753  0.0825084947244400  0.0736849430182426
  0.1250000000150422  0.2491751613911067  0.0736849430182426
  0.2916666666817088  0.2491751613911067  0.0736849430182426
  0.4583333333483754  0.2491751613911067  0.0736849430182426
  0.6250000000150422  0.2491751613911067  0.0736849430182426
  0.7916666666817087  0.2491751613911067  0.0736849430182426
  0.9583333333483753  0.2491751613911067  0.0736849430182426
  0.1250000000150422  0.4158418280577734  0.0736849430182426
  0.2916666666817088  0.4158418280577734  0.0736849430182426
  0.4583333333483754  0.4158418280577734  0.0736849430182426
  0.6250000000150422  0.4158418280577734  0.0736849430182426
  0.7916666666817087  0.4158418280577734  0.0736849430182426
  0.9583333333483753  0.4158418280577734  0.0736849430182426
  0.1250000000150422  0.5825084947244400  0.0736849430182426
  0.2916666666817088  0.5825084947244400  0.0736849430182426
  0.4583333333483754  0.5825084947244400  0.0736849430182426
  0.6250000000150422  0.5825084947244400  0.0736849430182426
  0.7916666666817087  0.5825084947244400  0.0736849430182426
  0.9583333333483753  0.5825084947244400  0.0736849430182426
  0.1250000000150422  0.7491751613911066  0.0736849430182426
  0.2916666666817088  0.7491751613911066  0.0736849430182426
  0.4583333333483754  0.7491751613911066  0.0736849430182426
  0.6250000000150422  0.7491751613911066  0.0736849430182426
  0.7916666666817087  0.7491751613911066  0.0736849430182426
  0.9583333333483753  0.7491751613911066  0.0736849430182426
  0.1250000000150422  0.9158418280577734  0.0736849430182426
  0.2916666666817088  0.9158418280577734  0.0736849430182426
  0.4583333333483754  0.9158418280577734  0.0736849430182426
  0.6250000000150422  0.9158418280577734  0.0736849430182426
  0.7916666666817087  0.9158418280577734  0.0736849430182426
  0.9583333333483753  0.9158418280577734  0.0736849430182426
  0.1250000000150422  0.0825084947244400  0.5736849430182426
  0.2916666666817088  0.0825084947244400  0.5736849430182426
  0.4583333333483754  0.0825084947244400  0.5736849430182426
  0.6250000000150422  0.0825084947244400  0.5736849430182426
  0.7916666666817087  0.0825084947244400  0.5736849430182426
  0.9583333333483753  0.0825084947244400  0.5736849430182426
  0.1250000000150422  0.2491751613911067  0.5736849430182426
  0.2916666666817088  0.2491751613911067  0.5736849430182426
  0.4583333333483754  0.2491751613911067  0.5736849430182426
  0.6250000000150422  0.2491751613911067  0.5736849430182426
  0.7916666666817087  0.2491751613911067  0.5736849430182426
  0.9583333333483753  0.2491751613911067  0.5736849430182426
  0.1250000000150422  0.4158418280577734  0.5736849430182426
  0.2916666666817088  0.4158418280577734  0.5736849430182426
  0.4583333333483754  0.4158418280577734  0.5736849430182426
  0.6250000000150422  0.4158418280577734  0.5736849430182426
  0.7916666666817087  0.4158418280577734  0.5736849430182426
  0.9583333333483753  0.4158418280577734  0.5736849430182426
  0.1250000000150422  0.5825084947244400  0.5736849430182426
  0.2916666666817088  0.5825084947244400  0.5736849430182426
  0.4583333333483754  0.5825084947244400  0.5736849430182426
  0.6250000000150422  0.5825084947244400  0.5736849430182426
  0.7916666666817087  0.5825084947244400  0.5736849430182426
  0.9583333333483753  0.5825084947244400  0.5736849430182426
  0.1250000000150422  0.7491751613911066  0.5736849430182426
  0.2916666666817088  0.7491751613911066  0.5736849430182426
  0.4583333333483754  0.7491751613911066  0.5736849430182426
  0.6250000000150422  0.7491751613911066  0.5736849430182426
  0.7916666666817087  0.7491751613911066  0.5736849430182426
  0.9583333333483753  0.7491751613911066  0.5736849430182426
  0.1250000000150422  0.9158418280577734  0.5736849430182426
  0.2916666666817088  0.9158418280577734  0.5736849430182426
  0.4583333333483754  0.9158418280577734  0.5736849430182426
  0.6250000000150422  0.9158418280577734  0.5736849430182426
  0.7916666666817087  0.9158418280577734  0.5736849430182426
  0.9583333333483753  0.9158418280577734  0.5736849430182426
  0.1250000000150422  0.0008248370612294  0.3236849579434521
  0.2916666666817088  0.0008248370612294  0.3236849579434521
  0.4583333333483754  0.0008248370612294  0.3236849579434521
  0.6250000000150422  0.0008248370612294  0.3236849579434521
  0.7916666666817087  0.0008248370612294  0.3236849579434521
  0.9583333333483753  0.0008248370612294  0.3236849579434521
  0.1250000000150422  0.1674915037278961  0.3236849579434521
  0.2916666666817088  0.1674915037278961  0.3236849579434521
  0.4583333333483754  0.1674915037278961  0.3236849579434521
  0.6250000000150422  0.1674915037278961  0.3236849579434521
  0.7916666666817087  0.1674915037278961  0.3236849579434521
  0.9583333333483753  0.1674915037278961  0.3236849579434521
  0.1250000000150422  0.3341581703945627  0.3236849579434521
  0.2916666666817088  0.3341581703945627  0.3236849579434521
  0.4583333333483754  0.3341581703945627  0.3236849579434521
  0.6250000000150422  0.3341581703945627  0.3236849579434521
  0.7916666666817087  0.3341581703945627  0.3236849579434521
  0.9583333333483753  0.3341581703945627  0.3236849579434521
  0.1250000000150422  0.5008248370612294  0.3236849579434521
  0.2916666666817088  0.5008248370612294  0.3236849579434521
  0.4583333333483754  0.5008248370612294  0.3236849579434521
  0.6250000000150422  0.5008248370612294  0.3236849579434521
  0.7916666666817087  0.5008248370612294  0.3236849579434521
  0.9583333333483753  0.5008248370612294  0.3236849579434521
  0.1250000000150422  0.6674915037278960  0.3236849579434521
  0.2916666666817088  0.6674915037278960  0.3236849579434521
  0.4583333333483754  0.6674915037278960  0.3236849579434521
  0.6250000000150422  0.6674915037278960  0.3236849579434521
  0.7916666666817087  0.6674915037278960  0.3236849579434521
  0.9583333333483753  0.6674915037278960  0.3236849579434521
  0.1250000000150422  0.8341581703945625  0.3236849579434521
  0.2916666666817088  0.8341581703945625  0.3236849579434521
  0.4583333333483754  0.8341581703945625  0.3236849579434521
  0.6250000000150422  0.8341581703945625  0.3236849579434521
  0.7916666666817087  0.8341581703945625  0.3236849579434521
  0.9583333333483753  0.8341581703945625  0.3236849579434521
  0.1250000000150422  0.0008248370612294  0.8236849579434521
  0.2916666666817088  0.0008248370612294  0.8236849579434521
  0.4583333333483754  0.0008248370612294  0.8236849579434521
  0.6250000000150422  0.0008248370612294  0.8236849579434521
  0.7916666666817087  0.0008248370612294  0.8236849579434521
  0.9583333333483753  0.0008248370612294  0.8236849579434521
  0.1250000000150422  0.1674915037278961  0.8236849579434521
  0.2916666666817088  0.1674915037278961  0.8236849579434521
  0.4583333333483754  0.1674915037278961  0.8236849579434521
  0.6250000000150422  0.1674915037278961  0.8236849579434521
  0.7916666666817087  0.1674915037278961  0.8236849579434521
  0.9583333333483753  0.1674915037278961  0.8236849579434521
  0.1250000000150422  0.3341581703945627  0.8236849579434521
  0.2916666666817088  0.3341581703945627  0.8236849579434521
  0.4583333333483754  0.3341581703945627  0.8236849579434521
  0.6250000000150422  0.3341581703945627  0.8236849579434521
  0.7916666666817087  0.3341581703945627  0.8236849579434521
  0.9583333333483753  0.3341581703945627  0.8236849579434521
  0.1250000000150422  0.5008248370612294  0.8236849579434521