Ge Se                                   
    1.000000000000000     
    12.4181505281899476   -0.0000081359573753    0.0000030586507473
    -0.0000081960923129   12.5099350000439635    0.0000000816806394
     0.0000035095435146    0.0000000930340000   11.0689898926748924
   Ge   Se
    36    36
Direct
  0.0583986318743257  0.0504993091405765  0.1233498597625484
  0.2505690376055796  0.8927313688730933  0.3761438541241446
  0.5627184296907615  0.2173547286190427  0.3719616095416782
  0.5587565895803195  0.5531716150155290  0.3780003188113952
  0.5824134862365398  0.8777904534967647  0.3927854441198946
  0.9010223283324521  0.2037913141061551  0.3510496839584860
  0.9061268160753784  0.5589920182281389  0.3568352412050615
  0.9071576402379051  0.8777999681150490  0.3693871854773647
  0.0639643197384885  0.1557820538376546  0.6380228304813187
  0.0777465566936684  0.4823392355732068  0.6358114052480417
  0.0786697804216985  0.8286646008033998  0.6406935479401952
  0.4005561434075489  0.1576842896559754  0.6160456473067910
  0.4128598147432569  0.4938254766187242  0.6246819925658045
  0.3982456227813032  0.8208897775729582  0.6430183300460612
  0.7262333679031627  0.1653409152112104  0.6393401348222838
  0.7438913363845927  0.4863937572289174  0.6310351256004054
  0.2277446759051500  0.5336992809881309  0.3726972889662576
  0.2020413611368568  0.1946939060419197  0.3829172564275964
  0.7530422266806838  0.8044020480107932  0.6309223559929862
  0.8982180840704288  0.6402993312232255  0.8903739928250687
  0.9017698794037798  0.9960314746286016  0.8776319386318008
  0.0543997977561119  0.3766779994853948  0.1283804471092296
  0.0732331571760483  0.7151332855138577  0.1381334792954405
  0.3947847610065764  0.0434476789236911  0.1342798762974553
  0.3828159382435246  0.3654234265601488  0.1407209154050264
  0.7157694536570176  0.0454848249850670  0.1311902845381496
  0.7215658566933456  0.3746914540428250  0.1411764493676841
  0.3878611533588270  0.7052004844097297  0.1258008090471705
  0.2550336812024909  0.3159583927106979  0.8723556732932067
  0.2276553620805331  0.6475994258903697  0.8703572219425411
  0.2228060496706306  0.0029512706713462  0.8640734583447411
  0.5538105093975076  0.3256875361067131  0.8627798933519770
  0.5599204089621139  0.6554792579264088  0.8592296514645952
  0.5767873988746928  0.9693579756050852  0.8804122085608412
  0.8812094184931638  0.3233466456086518  0.8614485554036051
  0.7230363874718293  0.7061005824352762  0.1385382502300558
  0.9169124697939850  0.0299005862793535  0.6382259942568069
  0.2481992785730895  0.3588002372760783  0.6489127324166688
  0.2363596336881528  0.6692188370380094  0.6469801178329107
  0.5605449120077495  0.0281041229961332  0.6385985568089509
  0.5749503591743306  0.3547423860838279  0.6381956222345480
  0.5778230288009567  0.6876582798852553  0.6335523370996441
  0.9095717493917306  0.3526902379302683  0.6292743548138375
  0.7491714626332140  0.0122558095434542  0.3513169064045769
  0.0755018444283166  0.0164229355245311  0.3593544911507536
  0.0811530687169224  0.3449715155784787  0.3789963481023335
  0.0787406903333974  0.6752060072833643  0.3635424592003389
  0.4076225595679333  0.0287181836543411  0.3514410889283610
  0.4046784770225429  0.3436207890062022  0.3630181619766617
  0.3966018250620991  0.6769075397505588  0.3619320310499816
  0.2407465855840059  0.0031914310217047  0.6392072625229375
  0.9114309277170847  0.6791037658769952  0.6421697564388253
  0.9201076027607797  0.8547941010767843  0.1458958918959468
  0.2387282995156568  0.1870706913837097  0.1600414642617878
  0.8972245329147839  0.1914596893956002  0.1313884839045585
  0.7302542839799884  0.3405009726493233  0.3690057427042532
  0.0864414964440812  0.1809431112369850  0.8619411865333078
  0.0780208959689617  0.5231963406168205  0.8641579568341271
  0.0767001643991208  0.8663041207233206  0.8643904271324701
  0.4132425770029542  0.1820145964861410  0.8562169168417100
  0.4196606471896729  0.5150678859376328  0.8624538022187664
  0.4028099608412248  0.8405487840544623  0.8736609875975248
  0.7345355182137396  0.1868821977412054  0.8728287619684281
  0.7291063273520137  0.5056601489633792  0.8617957881849208
  0.7492219935904245  0.8476839600208379  0.8736647935803319
  0.2251190690471319  0.5070379498511883  0.1334306952210156
  0.2516438399200425  0.8560353467346289  0.1503499581510823
  0.5686133362142627  0.1915857740256612  0.1367928507715988
  0.5779139231665695  0.5274171241972709  0.1417743331880317
  0.5726676545093596  0.8372076797249122  0.1562892539368548
  0.9151310425958386  0.5235397849490155  0.1265436887565556
  0.7450968199747621  0.6876064326292592  0.3684731503042684
 
  0.00000000E+00  0.00000000E+00  0.00000000E+00
  0.00000000E+00  0.00000000E+00  0.00000000E+00
  0.00000000E+00  0.00000000E+00  0.00000000E+00
  0.00000000E+00  0.00000000E+00  0.00000000E+00
  0.00000000E+00  0.00000000E+00  0.00000000E+00
  0.00000000E+00  0.00000000E+00  0.00000000E+00
  0.00000000E+00  0.00000000E+00  0.00000000E+00
  0.00000000E+00  0.00000000E+00  0.00000000E+00
  0.00000000E+00  0.00000000E+00  0.00000000E+00
  0.00000000E+00  0.00000000E+00  0.00000000E+00
  0.00000000E+00  0.00000000E+00  0.00000000E+00
  0.00000000E+00  0.00000000E+00  0.00000000E+00
  0.00000000E+00  0.00000000E+00  0.00000000E+00
  0.00000000E+00  0.00000000E+00  0.00000000E+00
  0.00000000E+00  0.00000000E+00  0.00000000E+00
  0.00000000E+00  0.00000000E+00  0.00000000E+00
  0.00000000E+00  0.00000000E+00  0.00000000E+00
  0.00000000E+00  0.00000000E+00  0.00000000E+00
  0.00000000E+00  0.00000000E+00  0.00000000E+00
  0.00000000E+00  0.00000000E+00  0.00000000E+00
  0.00000000E+00  0.00000000E+00  0.00000000E+00
  0.00000000E+00  0.00000000E+00  0.00000000E+00
  0.00000000E+00  0.00000000E+00  0.00000000E+00
  0.00000000E+00  0.00000000E+00  0.00000000E+00
  0.00000000E+00  0.00000000E+00  0.00000000E+00
  0.00000000E+00  0.00000000E+00  0.00000000E+00
  0.00000000E+00  0.00000000E+00  0.00000000E+00
  0.00000000E+00  0.00000000E+00  0.00000000E+00
  0.00000000E+00  0.00000000E+00  0.00000000E+00
  0.00000000E+00  0.00000000E+00  0.00000000E+00
  0.00000000E+00  0.00000000E+00  0.00000000E+00
  0.00000000E+00  0.00000000E+00  0.00000000E+00
  0.00000000E+00  0.00000000E+00  0.00000000E+00
  0.00000000E+00  0.00000000E+00  0.00000000E+00
  0.00000000E+00  0.00000000E+00  0.00000000E+00
  0.00000000E+00  0.00000000E+00  0.00000000E+00
  0.00000000E+00  0.00000000E+00  0.00000000E+00
  0.00000000E+00  0.00000000E+00  0.00000000E+00
  0.00000000E+00  0.00000000E+00  0.00000000E+00
  0.00000000E+00  0.00000000E+00  0.00000000E+00
  0.00000000E+00  0.00000000E+00  0.00000000E+00
  0.00000000E+00  0.00000000E+00  0.00000000E+00
  0.00000000E+00  0.00000000E+00  0.00000000E+00
  0.00000000E+00  0.00000000E+00  0.00000000E+00
  0.00000000E+00  0.00000000E+00  0.00000000E+00
  0.00000000E+00  0.00000000E+00  0.00000000E+00
  0.00000000E+00  0.00000000E+00  0.00000000E+00
  0.00000000E+00  0.00000000E+00  0.00000000E+00
  0.00000000E+00  0.00000000E+00  0.00000000E+00
  0.00000000E+00  0.00000000E+00  0.00000000E+00
  0.00000000E+00  0.00000000E+00  0.00000000E+00
  0.00000000E+00  0.00000000E+00  0.00000000E+00
  0.00000000E+00  0.00000000E+00  0.00000000E+00
  0.00000000E+00  0.00000000E+00  0.00000000E+00
  0.00000000E+00  0.00000000E+00  0.00000000E+00
  0.00000000E+00  0.00000000E+00  0.00000000E+00
  0.00000000E+00  0.00000000E+00  0.00000000E+00
  0.00000000E+00  0.00000000E+00  0.00000000E+00
  0.00000000E+00  0.00000000E+00  0.00000000E+00
  0.00000000E+00  0.00000000E+00  0.00000000E+00
  0.00000000E+00  0.00000000E+00  0.00000000E+00
  0.00000000E+00  0.00000000E+00  0.00000000E+00
  0.00000000E+00  0.00000000E+00  0.00000000E+00
  0.00000000E+00  0.00000000E+00  0.00000000E+00
  0.00000000E+00  0.00000000E+00  0.00000000E+00
  0.00000000E+00  0.00000000E+00  0.00000000E+00
  0.00000000E+00  0.00000000E+00  0.00000000E+00
  0.00000000E+00  0.00000000E+00  0.00000000E+00
  0.00000000E+00  0.00000000E+00  0.00000000E+00
  0.00000000E+00  0.00000000E+00  0.00000000E+00
  0.00000000E+00  0.00000000E+00  0.00000000E+00
  0.00000000E+00  0.00000000E+00  0.00000000E+00
