Ge Se                                   
    1.000000000000000     
    12.4560267177760071   -0.0000052917968704   -0.0000042766128499
    -0.0000053138969981   12.5080463398930313    0.0000018377790019
    -0.0000048884840636    0.0000020919802751   11.0607377311807440
   Ge   Se
    36    36
Direct
  0.0733981137228241  0.0393139647784579  0.1327947328979278
  0.2725274492952181  0.8386636048407894  0.3771362323214973
  0.5726110038717493  0.2099779219214781  0.3804382814220020
  0.5823606704561399  0.5106102663598193  0.3450285453827817
  0.5748535973211162  0.9001736270069927  0.3858603925683113
  0.9269636819159146  0.1831467774648843  0.4000600368043834
  0.9010999347555213  0.5454626466433723  0.3735961081913501
  0.9132289032035459  0.8422147559473103  0.3767392235371858
  0.0974388747447321  0.1686600935658547  0.6170370708638018
  0.0710192195796111  0.4964901375544244  0.6375978971826868
  0.0725853528925455  0.8343785846400920  0.6312994080227838
  0.4080203438427858  0.1492700667501623  0.6264952569256295
  0.4086719370255807  0.4945826216754057  0.6296584706769934
  0.4066104475243648  0.8170589247774416  0.6372927667845758
  0.7257847884765596  0.1523244821241789  0.6436065455869269
  0.7374126869617541  0.4673592115979801  0.6099947048633894
  0.2468142055640641  0.5214580450623814  0.3937110872484482
  0.2344670625057503  0.2129828609260187  0.3548991628032852
  0.7669829655043543  0.8382012316471972  0.6279754730056624
  0.9083837853765715  0.6558184387974322  0.8789594825047757
  0.9291147443847265  0.0185328162382419  0.8788555233650044
  0.0741555974488932  0.3748955130704346  0.1136081441345880
  0.1007458377215329  0.7028796335867113  0.1047707306148808
  0.3965685017703038  0.0451488277853329  0.1388574501556619
  0.4266263779996109  0.3601498202254874  0.1174329240756293
  0.7523112269568273  0.0312166283105242  0.1170001609564721
  0.7497477706847135  0.3584987057555509  0.1171665579909131
  0.4297770485162147  0.7194019025545018  0.1284085334899956
  0.2714006582409638  0.3402815426305423  0.8943927461241330
  0.2294283667284134  0.6494923104716719  0.8706054366629914
  0.2468866887578969  0.9895076841831951  0.8701879702736832
  0.5821429800821747  0.3076354825280774  0.8765164214694678
  0.6038110841663311  0.6538589213874033  0.8654370261211639
  0.5612874570427664  0.9639340713382154  0.9027103457986314
  0.9024849465349618  0.3211335784927485  0.8635748123471316
  0.7398943156729771  0.6970601971628767  0.1304926465654574
  0.8811094905787371  0.0069095460519861  0.6451450635401486
  0.2141854341254117  0.3516881384986021  0.6481142893529466
  0.2257059536333657  0.6796795652527337  0.6400347118575098
  0.5591025647773762  0.0162267983646913  0.6572683978505012
  0.5623300087351311  0.3514926547902490  0.6448060645415339
  0.5583891660975482  0.6678326845290528  0.6407678875201057
  0.8905196603801642  0.3472847090546622  0.6249180030406194
  0.7158433754682392  0.0453441137514545  0.3481177476810942
  0.0470118612375572  0.0009129730366624  0.3629719104184517
  0.0652632981858972  0.3404930812146105  0.3447316973924757
  0.0699864548161386  0.6972674593582866  0.3349839126675533
  0.3974928705532150  0.0076328123804785  0.3696412893133143
  0.3833825855162942  0.3528863794149473  0.3443387111311154
  0.4069812773915942  0.6716457110729763  0.3505737896045176
  0.2433122319618093  0.0205026543629927  0.6433243843973315
  0.9189186381923307  0.6982045251840816  0.6577377178857517
  0.8752628090589880  0.8511226389921873  0.1527416645720407
  0.2172446149492089  0.1753152803038844  0.1401875703652635
  0.9065998841276510  0.1751614497422267  0.1614283544300363
  0.7288241923744749  0.3321173278258271  0.3609017583280050
  0.0546689456402305  0.1760778532198159  0.8362717949718999
  0.0590275358022296  0.5139569012535716  0.8623147491952068
  0.0774643033931142  0.8604451934075854  0.8716394467056006
  0.4060120718071047  0.1908392384112219  0.8620998776073634
  0.3891102113547689  0.5045011276676448  0.8573606261626736
  0.3898241305817436  0.8355638478398504  0.8638364479855269
  0.7398944571142536  0.1820526874806916  0.8652136034434719
  0.7559892149325123  0.5197377979141606  0.8508844888811851
  0.7225457978666441  0.8421172018148084  0.8546330319563253
  0.2121571924381129  0.5242375562016122  0.1578251123096379
  0.2398122364931865  0.8436262625791784  0.1491085925344393
  0.5448381671873577  0.2016881356773723  0.1552059223442370
  0.5718218488041700  0.5048547052848065  0.1219833166506206
  0.5730555677786313  0.8613747863679322  0.1508693195999697
  0.8909149962743044  0.5139635844613508  0.1499087238582888
  0.7178795153419770  0.6658465879365707  0.3649253051513668
 
  0.00000000E+00  0.00000000E+00  0.00000000E+00
  0.00000000E+00  0.00000000E+00  0.00000000E+00
  0.00000000E+00  0.00000000E+00  0.00000000E+00
  0.00000000E+00  0.00000000E+00  0.00000000E+00
  0.00000000E+00  0.00000000E+00  0.00000000E+00
  0.00000000E+00  0.00000000E+00  0.00000000E+00
  0.00000000E+00  0.00000000E+00  0.00000000E+00
  0.00000000E+00  0.00000000E+00  0.00000000E+00
  0.00000000E+00  0.00000000E+00  0.00000000E+00
  0.00000000E+00  0.00000000E+00  0.00000000E+00
  0.00000000E+00  0.00000000E+00  0.00000000E+00
  0.00000000E+00  0.00000000E+00  0.00000000E+00
  0.00000000E+00  0.00000000E+00  0.00000000E+00
  0.00000000E+00  0.00000000E+00  0.00000000E+00
  0.00000000E+00  0.00000000E+00  0.00000000E+00
  0.00000000E+00  0.00000000E+00  0.00000000E+00
  0.00000000E+00  0.00000000E+00  0.00000000E+00
  0.00000000E+00  0.00000000E+00  0.00000000E+00
  0.00000000E+00  0.00000000E+00  0.00000000E+00
  0.00000000E+00  0.00000000E+00  0.00000000E+00
  0.00000000E+00  0.00000000E+00  0.00000000E+00
  0.00000000E+00  0.00000000E+00  0.00000000E+00
  0.00000000E+00  0.00000000E+00  0.00000000E+00
  0.00000000E+00  0.00000000E+00  0.00000000E+00
  0.00000000E+00  0.00000000E+00  0.00000000E+00
  0.00000000E+00  0.00000000E+00  0.00000000E+00
  0.00000000E+00  0.00000000E+00  0.00000000E+00
  0.00000000E+00  0.00000000E+00  0.00000000E+00
  0.00000000E+00  0.00000000E+00  0.00000000E+00
  0.00000000E+00  0.00000000E+00  0.00000000E+00
  0.00000000E+00  0.00000000E+00  0.00000000E+00
  0.00000000E+00  0.00000000E+00  0.00000000E+00
  0.00000000E+00  0.00000000E+00  0.00000000E+00
  0.00000000E+00  0.00000000E+00  0.00000000E+00
  0.00000000E+00  0.00000000E+00  0.00000000E+00
  0.00000000E+00  0.00000000E+00  0.00000000E+00
  0.00000000E+00  0.00000000E+00  0.00000000E+00
  0.00000000E+00  0.00000000E+00  0.00000000E+00
  0.00000000E+00  0.00000000E+00  0.00000000E+00
  0.00000000E+00  0.00000000E+00  0.00000000E+00
  0.00000000E+00  0.00000000E+00  0.00000000E+00
  0.00000000E+00  0.00000000E+00  0.00000000E+00
  0.00000000E+00  0.00000000E+00  0.00000000E+00
  0.00000000E+00  0.00000000E+00  0.00000000E+00
  0.00000000E+00  0.00000000E+00  0.00000000E+00
  0.00000000E+00  0.00000000E+00  0.00000000E+00
  0.00000000E+00  0.00000000E+00  0.00000000E+00
  0.00000000E+00  0.00000000E+00  0.00000000E+00
  0.00000000E+00  0.00000000E+00  0.00000000E+00
  0.00000000E+00  0.00000000E+00  0.00000000E+00
  0.00000000E+00  0.00000000E+00  0.00000000E+00
  0.00000000E+00  0.00000000E+00  0.00000000E+00
  0.00000000E+00  0.00000000E+00  0.00000000E+00
  0.00000000E+00  0.00000000E+00  0.00000000E+00
  0.00000000E+00  0.00000000E+00  0.00000000E+00
  0.00000000E+00  0.00000000E+00  0.00000000E+00
  0.00000000E+00  0.00000000E+00  0.00000000E+00
  0.00000000E+00  0.00000000E+00  0.00000000E+00
  0.00000000E+00  0.00000000E+00  0.00000000E+00
  0.00000000E+00  0.00000000E+00  0.00000000E+00
  0.00000000E+00  0.00000000E+00  0.00000000E+00
  0.00000000E+00  0.00000000E+00  0.00000000E+00
  0.00000000E+00  0.00000000E+00  0.00000000E+00
  0.00000000E+00  0.00000000E+00  0.00000000E+00
  0.00000000E+00  0.00000000E+00  0.00000000E+00
  0.00000000E+00  0.00000000E+00  0.00000000E+00
  0.00000000E+00  0.00000000E+00  0.00000000E+00
  0.00000000E+00  0.00000000E+00  0.00000000E+00
  0.00000000E+00  0.00000000E+00  0.00000000E+00
  0.00000000E+00  0.00000000E+00  0.00000000E+00
  0.00000000E+00  0.00000000E+00  0.00000000E+00
  0.00000000E+00  0.00000000E+00  0.00000000E+00
