Ge Se
 1.0000000000000000
     4.6499999999999995    0.0000000000000000    0.0000000000000000
     0.0000000000000000    4.2000000000000002    0.0000000000000000
     0.0000000000000000    0.0000000000000000   11.1422209999999993
 Ge  Se 
   4   4
Selective dynamics
Cartesian
  0.5219132277483585  1.0499999999999998  1.4405556308933858   T   T   T
  2.8469132277483586  3.1500000000000004  4.1305548691066178   T   T   T
  4.1280867722516428  3.1500000000000004  9.7016653691066139   T   T   T
  1.8030867722516408  1.0499999999999998  7.0116661308933859   T   T   T
 -0.1549741975899402  1.0499999999999998  3.9147736242886144   T   T   T
  2.1700258024100592  3.1500000000000004  1.6563368757113903   T   T   T
  4.8049741975899387  3.1500000000000004  7.2274473757113871   T   T   T
  2.4799741975899403  1.0499999999999998  9.4858841242886118   T   T   T
