
     Program PWSCF v.7.2 starts on  1Apr2024 at  2:18:28 

     This program is part of the open-source Quantum ESPRESSO suite
     for quantum simulation of materials; please cite
         "P. Giannozzi et al., J. Phys.:Condens. Matter 21 395502 (2009);
         "P. Giannozzi et al., J. Phys.:Condens. Matter 29 465901 (2017);
         "P. Giannozzi et al., J. Chem. Phys. 152 154105 (2020);
          URL http://www.quantum-espresso.org", 
     in publications or presentations arising from this work. More details at
     http://www.quantum-espresso.org/quote

     Parallel version (MPI & OpenMP), running on    6144 processor cores
     Number of MPI processes:              1536
     Threads/MPI process:                     4

     MPI processes distributed on    24 nodes
     295116 MiB available memory on the printing compute node when the environment starts

     Reading input from espresso.pwi
Warning: card &IONS ignored
Warning: card / ignored
Warning: card &CELL ignored
Warning: card / ignored

     Current dimensions of program PWSCF are:
     Max number of different atomic species (ntypx) = 10
     Max number of k-points (npk) =  40000
     Max angular momentum in pseudopotentials (lmaxx) =  4
     Message from routine input:
     WARNING: "startingwfc" set to random may spoil restart

     R & G space division:  proc/nbgrp/npool/nimage =    1536
     WARNING: too many processors for an effective parallelization!
     Subspace diagonalization in iterative solution of the eigenvalue problem:
     one sub-group per band group will be used
     custom distributed-memory algorithm (size of sub-group: 39* 39 procs)


     Parallelization info
     --------------------
     sticks:   dense  smooth     PW     G-vecs:    dense   smooth      PW
     Min          28      28      7                 7176     7176     901
     Max          29      29      8                 7217     7217     924
     Sum       43977   43977  11115             11053081 11053081 1403663

     Using Pencil Decomposition



     bravais-lattice index     =            0
     lattice parameter (alat)  =      61.1748  a.u.
     unit-cell volume          =  176044.1909 (a.u.)^3
     number of atoms/cell      =          364
     number of atomic types    =            1
     number of electrons       =      1456.00
     number of Kohn-Sham states=         5000
     kinetic-energy cutoff     =      60.0000  Ry
     charge density cutoff     =     240.0000  Ry
     Exchange-correlation= PBE
                           (   1   4   3   4   0   0   0)

     celldm(1)=  61.174780  celldm(2)=   0.000000  celldm(3)=   0.000000
     celldm(4)=   0.000000  celldm(5)=   0.000000  celldm(6)=   0.000000

     crystal axes: (cart. coord. in units of alat)
               a(1) = (   1.000000   0.000000   0.000000 )  
               a(2) = (   0.000000   0.615409   0.000000 )  
               a(3) = (   0.000000   0.000000   1.249513 )  

     reciprocal axes: (cart. coord. in units 2 pi/alat)
               b(1) = (  1.000000  0.000000  0.000000 )  
               b(2) = (  0.000000  1.624937  0.000000 )  
               b(3) = (  0.000000  0.000000  0.800312 )  


     PseudoPot. # 1 for C  read from file:
     ./C_ONCV_PBE-1.2.upf
     MD5 check sum: 1a5f83a7b1f58d24996abe00ed223ac6
     Pseudo is Norm-conserving, Zval =  4.0
     Generated using ONCVPSP code by D. R. Hamann
     Using radial grid of  602 points,  4 beta functions with: 
                l(1) =   0
                l(2) =   0
                l(3) =   1
                l(4) =   1

     atomic species   valence    mass     pseudopotential
        C              4.00    12.01100     C ( 1.00)

     No symmetry found


                                    s                        frac. trans.

      isym =  1     identity                                     

 cryst.   s( 1) = (     1          0          0      )
                  (     0          1          0      )
                  (     0          0          1      )

 cart.    s( 1) = (  1.0000000  0.0000000  0.0000000 )
                  (  0.0000000  1.0000000  0.0000000 )
                  (  0.0000000  0.0000000  1.0000000 )


   Cartesian axes

     site n.     atom                  positions (alat units)
         1           C   tau(   1) = (   0.3709934   0.3312973   0.0030768  )
         2           C   tau(   2) = (   0.3688304   0.3346927   0.0785354  )
         3           C   tau(   3) = (   0.3380914   0.3661837   0.0762870  )
         4           C   tau(   4) = (   0.3205134   0.3762870   0.0373874  )
         5           C   tau(   5) = (   0.2778290   0.3869766   0.0351263  )
         6           C   tau(   6) = (   0.3665437   0.3380113   0.1540010  )
         7           C   tau(   7) = (   0.3347369   0.3684219   0.1517534  )
         8           C   tau(   8) = (   0.3168225   0.3779110   0.1128502  )
         9           C   tau(   9) = (   0.2737926   0.3871133   0.1105826  )
        10           C   tau(  10) = (   0.2535628   0.3857956   0.0716841  )
        11           C   tau(  11) = (   0.2121064   0.3710462   0.0694273  )
        12           C   tau(  12) = (   0.1955818   0.3593042   0.0305242  )
        13           C   tau(  13) = (   0.1680231   0.3249978   0.0282658  )
        14           C   tau(  14) = (   0.3641286   0.3412472   0.2294843  )
        15           C   tau(  15) = (   0.3312934   0.3705407   0.2272343  )
        16           C   tau(  16) = (   0.3130741   0.3794044   0.1883219  )
        17           C   tau(  17) = (   0.2697534   0.3871167   0.1860513  )
        18           C   tau(  18) = (   0.2495864   0.3850977   0.1471456  )
        19           C   tau(  19) = (   0.2086650   0.3689266   0.1448930  )
        20           C   tau(  20) = (   0.1925543   0.3566270   0.1059855  )
        21           C   tau(  21) = (   0.1661959   0.3213930   0.1037229  )
        22           C   tau(  22) = (   0.1589333   0.3024692   0.0648218  )
        23           C   tau(  23) = (   0.1549840   0.2586418   0.0625577  )
        24           C   tau(  24) = (   0.1587418   0.2387197   0.0236560  )
        25           C   tau(  25) = (   0.1783820   0.1993400   0.0214023  )
        26           C   tau(  26) = (   0.3616055   0.3443998   0.3049885  )
        27           C   tau(  27) = (   0.3277797   0.3725413   0.3027328  )
        28           C   tau(  28) = (   0.3092672   0.3807707   0.2638109  )
        29           C   tau(  29) = (   0.2657095   0.3869883   0.2615380  )
        30           C   tau(  30) = (   0.2456300   0.3842736   0.2226206  )
        31           C   tau(  31) = (   0.2052912   0.3666989   0.2203704  )
        32           C   tau(  32) = (   0.1896176   0.3538516   0.1814578  )
        33           C   tau(  33) = (   0.1644903   0.3177286   0.1791898  )
        34           C   tau(  34) = (   0.1578926   0.2985645   0.1402831  )
        35           C   tau(  35) = (   0.1554564   0.2546284   0.1380233  )
        36           C   tau(  36) = (   0.1598993   0.2348505   0.0991146  )
        37           C   tau(  37) = (   0.1808805   0.1961713   0.0968568  )
        38           C   tau(  38) = (   0.1950389   0.1816622   0.0579583  )
        39           C   tau(  39) = (   0.2331951   0.1597422   0.0556869  )
        40           C   tau(  40) = (   0.2528648   0.1548211   0.0167891  )
        41           C   tau(  41) = (   0.2968469   0.1561891   0.0145366  )
        42           C   tau(  42) = (   0.3709857   0.3311611   0.4194608  )
        43           C   tau(  43) = (   0.3589767   0.3474695   0.3805168  )
        44           C   tau(  44) = (   0.3242046   0.3744311   0.3782528  )
        45           C   tau(  45) = (   0.3054200   0.3820086   0.3393208  )
        46           C   tau(  46) = (   0.2616737   0.3867219   0.3370485  )
        47           C   tau(  47) = (   0.2417028   0.3833167   0.2981197  )
        48           C   tau(  48) = (   0.2019929   0.3643642   0.2958674  )
        49           C   tau(  49) = (   0.1867817   0.3509760   0.2569470  )
        50           C   tau(  50) = (   0.1629254   0.3140047   0.2546739  )
        51           C   tau(  51) = (   0.1569927   0.2946262   0.2157603  )
        52           C   tau(  52) = (   0.1560748   0.2506344   0.2135036  )
        53           C   tau(  53) = (   0.1611867   0.2310238   0.1745889  )
        54           C   tau(  54) = (   0.1834905   0.1930928   0.1723231  )
        55           C   tau(  55) = (   0.1981437   0.1790857   0.1334192  )
        56           C   tau(  56) = (   0.2370336   0.1585018   0.1311500  )
        57           C   tau(  57) = (   0.2568591   0.1542605   0.0922474  )
        58           C   tau(  58) = (   0.3007671   0.1571488   0.0899931  )
        59           C   tau(  59) = (   0.3198668   0.1639442   0.0510957  )
        60           C   tau(  60) = (   0.3557293   0.1894409   0.0488228  )
        61           C   tau(  61) = (   0.3684277   0.2052483   0.0099261  )
        62           C   tau(  62) = (   0.3855938   0.2457637   0.0076755  )
        63           C   tau(  63) = (   0.3688196   0.3345671   0.4950198  )
        64           C   tau(  64) = (   0.3562476   0.3504455   0.4560680  )
        65           C   tau(  65) = (   0.3205705   0.3761946   0.4537964  )
        66           C   tau(  66) = (   0.3015396   0.3831214   0.4148544  )
        67           C   tau(  67) = (   0.2576579   0.3863203   0.4125867  )
        68           C   tau(  68) = (   0.2378189   0.3822234   0.3736455  )
        69           C   tau(  69) = (   0.1987883   0.3619127   0.3713883  )
        70           C   tau(  70) = (   0.1840429   0.3480163   0.3324581  )
        71           C   tau(  71) = (   0.1614820   0.3102398   0.3301833  )
        72           C   tau(  72) = (   0.1562267   0.2906678   0.2912591  )
        73           C   tau(  73) = (   0.1568356   0.2466720   0.2890040  )
        74           C   tau(  74) = (   0.1626218   0.2272507   0.2500825  )
        75           C   tau(  75) = (   0.1862182   0.1901124   0.2478101  )
        76           C   tau(  76) = (   0.2013346   0.1766185   0.2088954  )
        77           C   tau(  77) = (   0.2409085   0.1573868   0.2066310  )
        78           C   tau(  78) = (   0.2608664   0.1538365   0.1677189  )
        79           C   tau(  79) = (   0.3046462   0.1582388   0.1654602  )
        80           C   tau(  80) = (   0.3235043   0.1656849   0.1265587  )
        81           C   tau(  81) = (   0.3584686   0.1923996   0.1242866  )
        82           C   tau(  82) = (   0.3706135   0.2086339   0.0853855  )
        83           C   tau(  83) = (   0.3863774   0.2497154   0.0831376  )
        84           C   tau(  84) = (   0.3881997   0.2699106   0.0442385  )
        85           C   tau(  85) = (   0.3800427   0.3131514   0.0419719  )
        86           C   tau(  86) = (   0.3665372   0.3378993   0.5705903  )
        87           C   tau(  87) = (   0.3534366   0.3533402   0.5316333  )
        88           C   tau(  88) = (   0.3168907   0.3778433   0.5293571  )
        89           C   tau(  89) = (   0.2976270   0.3841041   0.4904075  )
        90           C   tau(  90) = (   0.2536608   0.3857806   0.4881452  )
        91           C   tau(  91) = (   0.2339736   0.3810047   0.4491941  )
        92           C   tau(  92) = (   0.1956712   0.3593511   0.4469304  )
        93           C   tau(  93) = (   0.1814235   0.3449503   0.4079894  )
        94           C   tau(  94) = (   0.1601818   0.3064190   0.4057171  )
        95           C   tau(  95) = (   0.1556008   0.2866850   0.3667780  )
        96           C   tau(  96) = (   0.1577299   0.2427369   0.3645236  )
        97           C   tau(  97) = (   0.1641817   0.2235292   0.3255923  )
        98           C   tau(  98) = (   0.1890451   0.1872269   0.3233165  )
        99           C   tau(  99) = (   0.2046181   0.1742627   0.2843912  )
       100           C   tau( 100) = (   0.2448287   0.1564001   0.2821320  )
       101           C   tau( 101) = (   0.2648887   0.1535420   0.2432072  )
       102           C   tau( 102) = (   0.3084894   0.1594551   0.2409448  )
       103           C   tau( 103) = (   0.3270710   0.1675528   0.2020333  )
       104           C   tau( 104) = (   0.3610948   0.1954565   0.1997662  )
       105           C   tau( 105) = (   0.3726778   0.2120941   0.1608558  )
       106           C   tau( 106) = (   0.3870107   0.2536957   0.1586062  )
       107           C   tau( 107) = (   0.3881426   0.2739384   0.1197032  )
       108           C   tau( 108) = (   0.3784999   0.3168720   0.1174338  )
       109           C   tau( 109) = (   0.3641430   0.3411470   0.6461637  )
       110           C   tau( 110) = (   0.3505121   0.3561244   0.6072072  )
       111           C   tau( 111) = (   0.3131474   0.3793544   0.6049296  )
       112           C   tau( 112) = (   0.2936842   0.3849479   0.5659740  )
       113           C   tau( 113) = (   0.2496853   0.3851023   0.5637178  )
       114           C   tau( 114) = (   0.2301826   0.3796442   0.5247611  )
       115           C   tau( 115) = (   0.1926551   0.3566767   0.5224901  )
       116           C   tau( 116) = (   0.1789130   0.3417982   0.4835409  )
       117           C   tau( 117) = (   0.1590049   0.3025617   0.4812727  )
       118           C   tau( 118) = (   0.1551093   0.2826830   0.4423226  )
       119           C   tau( 119) = (   0.1587508   0.2388344   0.4400645  )
       120           C   tau( 120) = (   0.1658680   0.2198676   0.4011234  )
       121           C   tau( 121) = (   0.1919671   0.1844440   0.3988468  )
       122           C   tau( 122) = (   0.2079725   0.1720234   0.3599091  )
       123           C   tau( 123) = (   0.2487747   0.1555555   0.3576539  )
       124           C   tau( 124) = (   0.2689208   0.1533888   0.3187199  )
       125           C   tau( 125) = (   0.3122905   0.1608102   0.3164517  )
       126           C   tau( 126) = (   0.3305762   0.1695393   0.2775269  )
       127           C   tau( 127) = (   0.3636153   0.1986023   0.2752662  )
       128           C   tau( 128) = (   0.3746122   0.2156264   0.2363435  )
       129           C   tau( 129) = (   0.3874993   0.2576989   0.2340901  )
       130           C   tau( 130) = (   0.3879296   0.2779633   0.1951783  )
       131           C   tau( 131) = (   0.3768065   0.3205358   0.1929097  )
       132           C   tau( 132) = (   0.3616481   0.3443145   0.7217348  )
       133           C   tau( 133) = (   0.3475113   0.3588167   0.6827819  )
       134           C   tau( 134) = (   0.3093648   0.3807422   0.6805077  )
       135           C   tau( 135) = (   0.2897151   0.3856554   0.6415504  )
       136           C   tau( 136) = (   0.2457391   0.3842859   0.6392949  )
       137           C   tau( 137) = (   0.2264328   0.3781600   0.6003376  )
       138           C   tau( 138) = (   0.1897177   0.3539122   0.5980619  )
       139           C   tau( 139) = (   0.1765046   0.3385648   0.5591069  )
       140           C   tau( 140) = (   0.1579636   0.2986656   0.5568443  )
       141           C   tau( 141) = (   0.1547590   0.2786660   0.5178867  )
       142           C   tau( 142) = (   0.1599173   0.2349712   0.5156219  )
       143           C   tau( 143) = (   0.1676743   0.2162607   0.4766728  )
       144           C   tau( 144) = (   0.1949828   0.1817624   0.4743989  )
       145           C   tau( 145) = (   0.2114044   0.1699057   0.4354503  )
       146           C   tau( 146) = (   0.2527472   0.1548551   0.4331950  )
       147           C   tau( 147) = (   0.2729526   0.1533828   0.3942524  )
       148           C   tau( 148) = (   0.3160385   0.1622959   0.3919792  )
       149           C   tau( 149) = (   0.3340105   0.1716504   0.3530445  )
       150           C   tau( 150) = (   0.3660255   0.2018377   0.3507887  )
       151           C   tau( 151) = (   0.3764238   0.2192262   0.3118539  )
       152           C   tau( 152) = (   0.3878472   0.2617181   0.3095943  )
       153           C   tau( 153) = (   0.3875781   0.2819787   0.2706707  )
       154           C   tau( 154) = (   0.3749907   0.3241417   0.2684043  )
       155           C   tau( 155) = (   0.3590414   0.3473951   0.7972957  )
       156           C   tau( 156) = (   0.3444059   0.3613939   0.7583489  )
       157           C   tau( 157) = (   0.3055237   0.3819834   0.7560814  )
       158           C   tau( 158) = (   0.2857216   0.3862218   0.7171252  )
       159           C   tau( 159) = (   0.2418197   0.3833327   0.7148685  )
       160           C   tau( 160) = (   0.2227426   0.3765404   0.6759137  )
       161           C   tau( 161) = (   0.1868861   0.3510422   0.6736363  )
       162           C   tau( 162) = (   0.1742052   0.3352502   0.6346803  )
       163           C   tau( 163) = (   0.1570520   0.2947355   0.6324224  )
       164           C   tau( 164) = (   0.1545397   0.2746393   0.5934625  )
       165           C   tau( 165) = (   0.1611978   0.2311483   0.5911913  )
       166           C   tau( 166) = (   0.1696077   0.2127229   0.5522380  )
       167           C   tau( 167) = (   0.1980871   0.1791855   0.5499689  )
       168           C   tau( 168) = (   0.2149075   0.1679037   0.5110118  )
       169           C   tau( 169) = (   0.2567446   0.1542889   0.5087526  )
       170           C   tau( 170) = (   0.2769841   0.1535161   0.4698032  )
       171           C   tau( 171) = (   0.3197353   0.1639121   0.4675283  )
       172           C   tau( 172) = (   0.3373677   0.1738805   0.4285831  )
       173           C   tau( 173) = (   0.3683158   0.2051562   0.4263301  )
       174           C   tau( 174) = (   0.3781096   0.2228900   0.3873873  )
       175           C   tau( 175) = (   0.3880545   0.2657502   0.3851194  )
       176           C   tau( 176) = (   0.3870843   0.2859851   0.3461849  )
       177           C   tau( 177) = (   0.3730509   0.3276861   0.3439217  )
       178           C   tau( 178) = (   0.3563354   0.3503870   0.8728407  )
       179           C   tau( 179) = (   0.3412176   0.3638685   0.8339034  )
       180           C   tau( 180) = (   0.3016474   0.3831070   0.8316432  )
       181           C   tau( 181) = (   0.2817079   0.3866519   0.7926938  )
       182           C   tau( 182) = (   0.2379309   0.3822498   0.7904321  )
       183           C   tau( 183) = (   0.2190977   0.3748045   0.7514833  )
       184           C   tau( 184) = (   0.1841362   0.3480907   0.7492090  )
       185           C   tau( 185) = (   0.1720164   0.3318656   0.7102543  )
       186           C   tau( 186) = (   0.1562670   0.2907851   0.7079990  )
       187           C   tau( 187) = (   0.1544560   0.2706111   0.6690429  )
       188           C   tau( 188) = (   0.1626107   0.2273767   0.6667671  )
       189           C   tau( 189) = (   0.1716458   0.2092487   0.6278120  )
       190           C   tau( 190) = (   0.2012702   0.1767181   0.6255497  )
       191           C   tau( 191) = (   0.2184686   0.1660200   0.5865888  )
       192           C   tau( 192) = (   0.2607506   0.1538560   0.5843246  )
       193           C   tau( 193) = (   0.2810049   0.1537823   0.5453699  )
       194           C   tau( 194) = (   0.3233729   0.1656446   0.5430962  )
       195           C   tau( 195) = (   0.3406496   0.1762205   0.5041426  )
       196           C   tau( 196) = (   0.3704959   0.2085475   0.5018895  )
       197           C   tau( 197) = (   0.3796640   0.2266091   0.4629397  )
       198           C   tau( 198) = (   0.3881215   0.2697849   0.4606656  )
       199           C   tau( 199) = (   0.3864516   0.2899719   0.4217216  )
       200           C   tau( 200) = (   0.3535344   0.3532928   0.9483651  )
       201           C   tau( 201) = (   0.3379514   0.3662412   0.9094374  )
       202           C   tau( 202) = (   0.2977391   0.3841027   0.9071845  )
       203           C   tau( 203) = (   0.2776804   0.3869560   0.8682462  )
       204           C   tau( 204) = (   0.2340803   0.3810496   0.8659803  )
       205           C   tau( 205) = (   0.2155120   0.3729491   0.8270401  )
       206           C   tau( 206) = (   0.1814964   0.3450421   0.8247732  )
       207           C   tau( 207) = (   0.1699350   0.3284106   0.7858226  )
       208           C   tau( 208) = (   0.1556121   0.2868101   0.7835653  )
       209           C   tau( 209) = (   0.1545016   0.2665827   0.7446159  )
       210           C   tau( 210) = (   0.1641482   0.2236566   0.7423386  )
       211           C   tau( 211) = (   0.1738094   0.2058516   0.7033867  )
       212           C   tau( 212) = (   0.2045359   0.1743588   0.7011297  )
       213           C   tau( 213) = (   0.2220973   0.1642682   0.6621711  )
       214           C   tau( 214) = (   0.2647711   0.1535647   0.6599007  )
       215           C   tau( 215) = (   0.2850154   0.1541888   0.6209443  )
       216           C   tau( 216) = (   0.3269476   0.1675033   0.6186755  )
       217           C   tau( 217) = (   0.3438492   0.1786644   0.5797153  )
       218           C   tau( 218) = (   0.3725604   0.2120057   0.5774589  )
       219           C   tau( 219) = (   0.3810953   0.2303761   0.5385064  )
       220           C   tau( 220) = (   0.3880557   0.2738193   0.5362303  )
       221           C   tau( 221) = (   0.3856896   0.2939325   0.4972774  )
       222           C   tau( 222) = (   0.3506287   0.3560923   1.0238670  )
       223           C   tau( 223) = (   0.3346049   0.3685011   0.9849490  )
       224           C   tau( 224) = (   0.2937991   0.3849618   0.9827008  )
       225           C   tau( 225) = (   0.2736485   0.3871199   0.9437762  )
       226           C   tau( 226) = (   0.2302762   0.3797103   0.9415092  )
       227           C   tau( 227) = (   0.2119954   0.3709777   0.9025790  )
       228           C   tau( 228) = (   0.1789645   0.3419086   0.9003202  )
       229           C   tau( 229) = (   0.1679799   0.3248846   0.8613789  )
       230           C   tau( 230) = (   0.1550971   0.2828143   0.8591173  )
       231           C   tau( 231) = (   0.1546853   0.2625588   0.8201752  )
       232           C   tau( 232) = (   0.1658125   0.2199920   0.8179000  )
       233           C   tau( 233) = (   0.1760828   0.2025287   0.7789531  )
       234           C   tau( 234) = (   0.2078733   0.1721094   0.7766988  )
       235           C   tau( 235) = (   0.2257754   0.1626263   0.7377482  )
       236           C   tau( 236) = (   0.2687960   0.1534081   0.7354729  )
       237           C   tau( 237) = (   0.2890090   0.1547318   0.6965209  )
       238           C   tau( 238) = (   0.3304583   0.1694859   0.6942582  )
       239           C   tau( 239) = (   0.3469650   0.1812187   0.6552967  )
       240           C   tau( 240) = (   0.3745029   0.2155331   0.6530328  )
       241           C   tau( 241) = (   0.3823954   0.2341878   0.6140786  )
       242           C   tau( 242) = (   0.3878477   0.2778462   0.6118041  )
       243           C   tau( 243) = (   0.3847934   0.2978686   0.5728470  )
       244           C   tau( 244) = (   0.3476372   0.3587931   1.0993532  )
       245           C   tau( 245) = (   0.3311922   0.3706449   1.0604435  )
       246           C   tau( 246) = (   0.2898400   0.3856842   1.0581955  )
       247           C   tau( 247) = (   0.2696206   0.3871435   1.0192837  )
       248           C   tau( 248) = (   0.2265304   0.3782343   1.0170147  )
       249           C   tau( 249) = (   0.2085512   0.3688742   0.9780973  )
       250           C   tau( 250) = (   0.1765402   0.3386831   0.9758442  )
       251           C   tau( 251) = (   0.1661534   0.3212883   0.9369137  )
       252           C   tau( 252) = (   0.1547270   0.2787978   0.9346476  )
       253           C   tau( 253) = (   0.1550077   0.2585400   0.8957154  )
       254           C   tau( 254) = (   0.1675917   0.2163786   0.8934463  )
       255           C   tau( 255) = (   0.1784669   0.1992830   0.8545061  )
       256           C   tau( 256) = (   0.2112906   0.1699821   0.8522504  )
       257           C   tau( 257) = (   0.2295095   0.1611196   0.8133097  )
       258           C   tau( 258) = (   0.2728237   0.1533951   0.8110347  )
       259           C   tau( 259) = (   0.2929786   0.1554159   0.7720885  )
       260           C   tau( 260) = (   0.3338918   0.1715975   0.7698307  )
       261           C   tau( 261) = (   0.3499864   0.1838928   0.7308763  )
       262           C   tau( 262) = (   0.3763309   0.2191327   0.7286048  )
       263           C   tau( 263) = (   0.3835692   0.2380430   0.6896508  )
       264           C   tau( 264) = (   0.3875137   0.2818632   0.6873814  )
       265           C   tau( 265) = (   0.3837607   0.3017662   0.6484227  )
       266           C   tau( 266) = (   0.3445479   0.3613734   1.1748256  )
       267           C   tau( 267) = (   0.3277009   0.3726588   1.1359225  )
       268           C   tau( 268) = (   0.2858543   0.3862642   1.1336710  )
       269           C   tau( 269) = (   0.2655935   0.3870265   1.0947684  )
       270           C   tau( 270) = (   0.2228393   0.3766281   1.0924990  )
       271           C   tau( 271) = (   0.2051911   0.3666501   1.0535918  )
       272           C   tau( 272) = (   0.1742360   0.3353758   1.0513410  )
       273           C   tau( 273) = (   0.1644420   0.3176292   1.0124260  )
       274           C   tau( 274) = (   0.1544919   0.2747673   1.0101539  )
       275           C   tau( 275) = (   0.1554706   0.2545265   0.9712340  )
       276           C   tau( 276) = (   0.1694987   0.2128223   0.9689716  )
       277           C   tau( 277) = (   0.1809544   0.1961105   0.9300403  )
       278           C   tau( 278) = (   0.2147709   0.1679592   0.9277796  )
       279           C   tau( 279) = (   0.2332943   0.1597389   0.8888507  )
       280           C   tau( 280) = (   0.2768511   0.1535226   0.8865765  )
       281           C   tau( 281) = (   0.2969307   0.1562396   0.8476397  )
       282           C   tau( 282) = (   0.3372617   0.1738240   0.8453837  )
       283           C   tau( 283) = (   0.3529213   0.1866682   0.8064393  )
       284           C   tau( 284) = (   0.3780419   0.2227915   0.8041633  )
       285           C   tau( 285) = (   0.3846284   0.2419441   0.7652166  )
       286           C   tau( 286) = (   0.3870563   0.2858756   0.7629535  )
       287           C   tau( 287) = (   0.3826163   0.3056347   0.7239977  )
       288           C   tau( 288) = (   0.3413651   0.3638340   0.0008255  )
       289           C   tau( 289) = (   0.3241445   0.3745422   1.2113899  )
       290           C   tau( 290) = (   0.2818527   0.3866977   1.2091338  )
       291           C   tau( 291) = (   0.2615739   0.3867668   1.1702372  )
       292           C   tau( 292) = (   0.2192027   0.3748981   1.1679698  )
       293           C   tau( 293) = (   0.2019073   0.3643146   1.1290686  )
       294           C   tau( 294) = (   0.1720538   0.3319876   1.1268170  )
       295           C   tau( 295) = (   0.1628766   0.3139119   1.0879140  )
       296           C   tau( 296) = (   0.1544093   0.2707342   1.0856387  )
       297           C   tau( 297) = (   0.1560791   0.2505324   1.0467309  )
       298           C   tau( 298) = (   0.1715359   0.2093366   1.0444730  )
       299           C   tau( 299) = (   0.1835579   0.1930227   1.0055546  )
       300           C   tau( 300) = (   0.2183345   0.1660643   1.0032881  )
       301           C   tau( 301) = (   0.2371265   0.1584892   0.9643691  )
       302           C   tau( 302) = (   0.2808741   0.1537870   0.9620992  )
       303           C   tau( 303) = (   0.3008464   0.1572020   0.9231711  )
       304           C   tau( 304) = (   0.3405482   0.1761646   0.9209129  )
       305           C   tau( 305) = (   0.3557597   0.1895467   0.8819822  )
       306           C   tau( 306) = (   0.3796213   0.2265134   0.8797052  )
       307           C   tau( 307) = (   0.3855467   0.2458808   0.8407673  )
       308           C   tau( 308) = (   0.3864611   0.2898702   0.8385099  )
       309           C   tau( 309) = (   0.3813391   0.3094646   0.7995639  )
       310           C   tau( 310) = (   0.2575650   0.3863542   1.2456945  )
       311           C   tau( 311) = (   0.2156281   0.3730327   1.2434322  )
       312           C   tau( 312) = (   0.1987063   0.3618641   1.2045321  )
       313           C   tau( 313) = (   0.1699842   0.3285271   1.2022774  )
       314           C   tau( 314) = (   0.1614363   0.3101426   1.1633815  )
       315           C   tau( 315) = (   0.1544650   0.2666969   1.1611071  )
       316           C   tau( 316) = (   0.1568354   0.2465658   1.1222062  )
       317           C   tau( 317) = (   0.1737052   0.2059269   1.1199528  )
       318           C   tau( 318) = (   0.1862829   0.1900368   1.0810444  )
       319           C   tau( 319) = (   0.2219676   0.1642938   1.0787733  )
       320           C   tau( 320) = (   0.2410144   0.1573742   1.0398633  )
       321           C   tau( 321) = (   0.2848980   0.1541814   1.0376002  )
       322           C   tau( 322) = (   0.3047401   0.1582856   0.9986806  )
       323           C   tau( 323) = (   0.3437697   0.1786003   0.9964205  )
       324           C   tau( 324) = (   0.3585047   0.1925083   0.9575009  )
       325           C   tau( 325) = (   0.3810758   0.2302790   0.9552275  )
       326           C   tau( 326) = (   0.3863293   0.2498463   0.9163005  )
       327           C   tau( 327) = (   0.3857318   0.2938426   0.9140476  )
       328           C   tau( 328) = (   0.3799323   0.3132501   0.8751126  )
       329           C   tau( 329) = (   0.1601221   0.3063260   1.2388348  )
       330           C   tau( 330) = (   0.1546555   0.2626631   1.2365643  )
       331           C   tau( 331) = (   0.1577221   0.2426225   1.1976659  )
       332           C   tau( 332) = (   0.1759866   0.2025885   1.1954142  )
       333           C   tau( 333) = (   0.1891064   0.1871388   1.1565128  )
       334           C   tau( 334) = (   0.2256600   0.1626389   1.1542404  )
       335           C   tau( 335) = (   0.2449361   0.1563809   1.1153366  )
       336           C   tau( 336) = (   0.2889066   0.1547078   1.1130810  )
       337           C   tau( 337) = (   0.3085981   0.1594945   1.0741695  )
       338           C   tau( 338) = (   0.3469063   0.1811462   1.0719071  )
       339           C   tau( 339) = (   0.3611532   0.1955598   1.0329965  )
       340           C   tau( 340) = (   0.3824024   0.2340907   1.0307293  )
       341           C   tau( 341) = (   0.3869773   0.2538331   0.9918105  )
       342           C   tau( 342) = (   0.3848640   0.2977843   0.9895583  )
       343           C   tau( 343) = (   0.3784043   0.3169919   0.9506371  )
       344           C   tau( 344) = (   0.1920303   0.1843499   1.2319700  )
       345           C   tau( 345) = (   0.2294067   0.1611231   1.2296975  )
       346           C   tau( 346) = (   0.2488872   0.1555255   1.1907979  )
       347           C   tau( 347) = (   0.2928920   0.1553739   1.1885474  )
       348           C   tau( 348) = (   0.3124084   0.1608450   1.1496426  )
       349           C   tau( 349) = (   0.3499420   0.1838109   1.1473762  )
       350           C   tau( 350) = (   0.3636890   0.1987051   1.1084723  )
       351           C   tau( 351) = (   0.3835936   0.2379472   1.1062117  )
       352           C   tau( 352) = (   0.3874833   0.2578403   1.0673009  )
       353           C   tau( 353) = (   0.3838477   0.3016927   1.0650471  )
       354           C   tau( 354) = (   0.3767291   0.3206659   1.0261357  )
       355           C   tau( 355) = (   0.3161745   0.1623193   1.2251036  )
       356           C   tau( 356) = (   0.3528943   0.1865695   1.2228331  )
       357           C   tau( 357) = (   0.3661170   0.2019358   1.1839346  )
       358           C   tau( 358) = (   0.3846654   0.2418370   1.1816799  )
       359           C   tau( 359) = (   0.3878627   0.2618587   1.1427759  )
       360           C   tau( 360) = (   0.3827192   0.3055609   1.1405177  )
       361           C   tau( 361) = (   0.3749423   0.3242852   1.1016170  )
       362           C   tau( 362) = (   0.3881069   0.2658832   1.2182402  )
       363           C   tau( 363) = (   0.3814520   0.3093814   1.2159780  )
       364           C   tau( 364) = (   0.3730340   0.3278301   1.1770831  )

   Crystallographic axes

     site n.     atom                  positions (cryst. coord.)
         1           C   tau(   1) = (  0.3709934  0.5383372  0.0024624  )
         2           C   tau(   2) = (  0.3688304  0.5438544  0.0628528  )
         3           C   tau(   3) = (  0.3380914  0.5950254  0.0610534  )
         4           C   tau(   4) = (  0.3205134  0.6114426  0.0299216  )
         5           C   tau(   5) = (  0.2778290  0.6288125  0.0281119  )
         6           C   tau(   6) = (  0.3665437  0.5492471  0.1232488  )
         7           C   tau(   7) = (  0.3347369  0.5986622  0.1214500  )
         8           C   tau(   8) = (  0.3168225  0.6140814  0.0903153  )
         9           C   tau(   9) = (  0.2737926  0.6290346  0.0885006  )
        10           C   tau(  10) = (  0.2535628  0.6268934  0.0573696  )
        11           C   tau(  11) = (  0.2121064  0.6029267  0.0555635  )
        12           C   tau(  12) = (  0.1955818  0.5838466  0.0244288  )
        13           C   tau(  13) = (  0.1680231  0.5281010  0.0226214  )
        14           C   tau(  14) = (  0.3641286  0.5545051  0.1836589  )
        15           C   tau(  15) = (  0.3312934  0.6021053  0.1818582  )
        16           C   tau(  16) = (  0.3130741  0.6165081  0.1507162  )
        17           C   tau(  17) = (  0.2697534  0.6290401  0.1488990  )
        18           C   tau(  18) = (  0.2495864  0.6257594  0.1177623  )
        19           C   tau(  19) = (  0.2086650  0.5994824  0.1159595  )
        20           C   tau(  20) = (  0.1925543  0.5794963  0.0848215  )
        21           C   tau(  21) = (  0.1661959  0.5222433  0.0830107  )
        22           C   tau(  22) = (  0.1589333  0.4914933  0.0518776  )
        23           C   tau(  23) = (  0.1549840  0.4202767  0.0500656  )
        24           C   tau(  24) = (  0.1587418  0.3879044  0.0189322  )
        25           C   tau(  25) = (  0.1783820  0.3239148  0.0171285  )
        26           C   tau(  26) = (  0.3616055  0.5596278  0.2440858  )
        27           C   tau(  27) = (  0.3277797  0.6053561  0.2422805  )
        28           C   tau(  28) = (  0.3092672  0.6187284  0.2111309  )
        29           C   tau(  29) = (  0.2657095  0.6288315  0.2093119  )
        30           C   tau(  30) = (  0.2456300  0.6244203  0.1781659  )
        31           C   tau(  31) = (  0.2052912  0.5958625  0.1763650  )
        32           C   tau(  32) = (  0.1896176  0.5749865  0.1452227  )
        33           C   tau(  33) = (  0.1644903  0.5162890  0.1434077  )
        34           C   tau(  34) = (  0.1578926  0.4851484  0.1122702  )
        35           C   tau(  35) = (  0.1554564  0.4137551  0.1104617  )
        36           C   tau(  36) = (  0.1598993  0.3816173  0.0793226  )
        37           C   tau(  37) = (  0.1808805  0.3187659  0.0775156  )
        38           C   tau(  38) = (  0.1950389  0.2951896  0.0463847  )
        39           C   tau(  39) = (  0.2331951  0.2595709  0.0445669  )
        40           C   tau(  40) = (  0.2528648  0.2515745  0.0134365  )
        41           C   tau(  41) = (  0.2968469  0.2537974  0.0116338  )
        42           C   tau(  42) = (  0.3709857  0.5381158  0.3356993  )
        43           C   tau(  43) = (  0.3589767  0.5646159  0.3045320  )
        44           C   tau(  44) = (  0.3242046  0.6084269  0.3027200  )
        45           C   tau(  45) = (  0.3054200  0.6207398  0.2715624  )
        46           C   tau(  46) = (  0.2616737  0.6283987  0.2697438  )
        47           C   tau(  47) = (  0.2417028  0.6228654  0.2385886  )
        48           C   tau(  48) = (  0.2019929  0.5920688  0.2367861  )
        49           C   tau(  49) = (  0.1867817  0.5703139  0.2056377  )
        50           C   tau(  50) = (  0.1629254  0.5102378  0.2038185  )
        51           C   tau(  51) = (  0.1569927  0.4787490  0.1726755  )
        52           C   tau(  52) = (  0.1560748  0.4072651  0.1708694  )
        53           C   tau(  53) = (  0.1611867  0.3753990  0.1397255  )
        54           C   tau(  54) = (  0.1834905  0.3137636  0.1379122  )
        55           C   tau(  55) = (  0.1981437  0.2910029  0.1067769  )
        56           C   tau(  56) = (  0.2370336  0.2575554  0.1049608  )
        57           C   tau(  57) = (  0.2568591  0.2506635  0.0738267  )
        58           C   tau(  58) = (  0.3007671  0.2553569  0.0720225  )
        59           C   tau(  59) = (  0.3198668  0.2663989  0.0408925  )
        60           C   tau(  60) = (  0.3557293  0.3078295  0.0390735  )
        61           C   tau(  61) = (  0.3684277  0.3335155  0.0079440  )
        62           C   tau(  62) = (  0.3855938  0.3993506  0.0061428  )
        63           C   tau(  63) = (  0.3688196  0.5436504  0.3961700  )
        64           C   tau(  64) = (  0.3562476  0.5694518  0.3649965  )
        65           C   tau(  65) = (  0.3205705  0.6112925  0.3631785  )
        66           C   tau(  66) = (  0.3015396  0.6225481  0.3320127  )
        67           C   tau(  67) = (  0.2576579  0.6277461  0.3301979  )
        68           C   tau(  68) = (  0.2378189  0.6210888  0.2990328  )
        69           C   tau(  69) = (  0.1987883  0.5880852  0.2972264  )
        70           C   tau(  70) = (  0.1840429  0.5655045  0.2660701  )
        71           C   tau(  71) = (  0.1614820  0.5041201  0.2642495  )
        72           C   tau(  72) = (  0.1562267  0.4723168  0.2330980  )
        73           C   tau(  73) = (  0.1568356  0.4008264  0.2312933  )
        74           C   tau(  74) = (  0.1626218  0.3692680  0.2001439  )
        75           C   tau(  75) = (  0.1862182  0.3089206  0.1983252  )
        76           C   tau(  76) = (  0.2013346  0.2869939  0.1671814  )
        77           C   tau(  77) = (  0.2409085  0.2557436  0.1653692  )
        78           C   tau(  78) = (  0.2608664  0.2499746  0.1342274  )
        79           C   tau(  79) = (  0.3046462  0.2571281  0.1324197  )
        80           C   tau(  80) = (  0.3235043  0.2692274  0.1012864  )
        81           C   tau(  81) = (  0.3584686  0.3126372  0.0994680  )
        82           C   tau(  82) = (  0.3706135  0.3390170  0.0683350  )
        83           C   tau(  83) = (  0.3863774  0.4057717  0.0665360  )
        84           C   tau(  84) = (  0.3881997  0.4385877  0.0354046  )
        85           C   tau(  85) = (  0.3800427  0.5088512  0.0335906  )
        86           C   tau(  86) = (  0.3665372  0.5490651  0.4566500  )
        87           C   tau(  87) = (  0.3534366  0.5741556  0.4254723  )
        88           C   tau(  88) = (  0.3168907  0.6139715  0.4236506  )
        89           C   tau(  89) = (  0.2976270  0.6241449  0.3924787  )
        90           C   tau(  90) = (  0.2536608  0.6268692  0.3906682  )
        91           C   tau(  91) = (  0.2339736  0.6191086  0.3594952  )
        92           C   tau(  92) = (  0.1956712  0.5839228  0.3576835  )
        93           C   tau(  93) = (  0.1814235  0.5605224  0.3265186  )
        94           C   tau(  94) = (  0.1601818  0.4979115  0.3247000  )
        95           C   tau(  95) = (  0.1556008  0.4658451  0.2935367  )
        96           C   tau(  96) = (  0.1577299  0.3944322  0.2917324  )
        97           C   tau(  97) = (  0.1641817  0.3632209  0.2605753  )
        98           C   tau(  98) = (  0.1890451  0.3042319  0.2587539  )
        99           C   tau(  99) = (  0.2046181  0.2831658  0.2276015  )
       100           C   tau( 100) = (  0.2448287  0.2541402  0.2257935  )
       101           C   tau( 101) = (  0.2648887  0.2494961  0.1946415  )
       102           C   tau( 102) = (  0.3084894  0.2591044  0.1928309  )
       103           C   tau( 103) = (  0.3270710  0.2722626  0.1616895  )
       104           C   tau( 104) = (  0.3610948  0.3176044  0.1598752  )
       105           C   tau( 105) = (  0.3726778  0.3446396  0.1287347  )
       106           C   tau( 106) = (  0.3870107  0.4122395  0.1269344  )
       107           C   tau( 107) = (  0.3881426  0.4451326  0.0957998  )
       108           C   tau( 108) = (  0.3784999  0.5148970  0.0939836  )
       109           C   tau( 109) = (  0.3641430  0.5543424  0.5171323  )
       110           C   tau( 110) = (  0.3505121  0.5786797  0.4859549  )
       111           C   tau( 111) = (  0.3131474  0.6164269  0.4841321  )
       112           C   tau( 112) = (  0.2936842  0.6255160  0.4529555  )
       113           C   tau( 113) = (  0.2496853  0.6257669  0.4511499  )
       114           C   tau( 114) = (  0.2301826  0.6168978  0.4199724  )
       115           C   tau( 115) = (  0.1926551  0.5795772  0.4181548  )
       116           C   tau( 116) = (  0.1789130  0.5554005  0.3869833  )
       117           C   tau( 117) = (  0.1590049  0.4916437  0.3851681  )
       118           C   tau( 118) = (  0.1551093  0.4593420  0.3539959  )
       119           C   tau( 119) = (  0.1587508  0.3880908  0.3521887  )
       120           C   tau( 120) = (  0.1658680  0.3572709  0.3210237  )
       121           C   tau( 121) = (  0.1919671  0.2997099  0.3192017  )
       122           C   tau( 122) = (  0.2079725  0.2795271  0.2880394  )
       123           C   tau( 123) = (  0.2487747  0.2527678  0.2862346  )
       124           C   tau( 124) = (  0.2689208  0.2492470  0.2550752  )
       125           C   tau( 125) = (  0.3122905  0.2613064  0.2532600  )
       126           C   tau( 126) = (  0.3305762  0.2754906  0.2221080  )
       127           C   tau( 127) = (  0.3636153  0.3227161  0.2202987  )
       128           C   tau( 128) = (  0.3746122  0.3503792  0.1891485  )
       129           C   tau( 129) = (  0.3874993  0.4187444  0.1873450  )
       130           C   tau( 130) = (  0.3879296  0.4516727  0.1562035  )
       131           C   tau( 131) = (  0.3768065  0.5208504  0.1543879  )
       132           C   tau( 132) = (  0.3616481  0.5594893  0.5776127  )
       133           C   tau( 133) = (  0.3475113  0.5830544  0.5464382  )
       134           C   tau( 134) = (  0.3093648  0.6186819  0.5446181  )
       135           C   tau( 135) = (  0.2897151  0.6266657  0.5134402  )
       136           C   tau( 136) = (  0.2457391  0.6244404  0.5116351  )
       137           C   tau( 137) = (  0.2264328  0.6144861  0.4804571  )
       138           C   tau( 138) = (  0.1897177  0.5750849  0.4786358  )
       139           C   tau( 139) = (  0.1765046  0.5501465  0.4474597  )
       140           C   tau( 140) = (  0.1579636  0.4853128  0.4456489  )
       141           C   tau( 141) = (  0.1547590  0.4528147  0.4144707  )
       142           C   tau( 142) = (  0.1599173  0.3818133  0.4126582  )
       143           C   tau( 143) = (  0.1676743  0.3514100  0.3814867  )
       144           C   tau( 144) = (  0.1949828  0.2953523  0.3796669  )
       145           C   tau( 145) = (  0.2114044  0.2760860  0.3484959  )
       146           C   tau( 146) = (  0.2527472  0.2516297  0.3466910  )
       147           C   tau( 147) = (  0.2729526  0.2492374  0.3155247  )
       148           C   tau( 148) = (  0.3160385  0.2637205  0.3137054  )
       149           C   tau( 149) = (  0.3340105  0.2789210  0.2825456  )
       150           C   tau( 150) = (  0.3660255  0.3279735  0.2807402  )
       151           C   tau( 151) = (  0.3764238  0.3562287  0.2495803  )
       152           C   tau( 152) = (  0.3878472  0.4252753  0.2477719  )
       153           C   tau( 153) = (  0.3875781  0.4581975  0.2166208  )
       154           C   tau( 154) = (  0.3749907  0.5267097  0.2148071  )
       155           C   tau( 155) = (  0.3590414  0.5644950  0.6380849  )
       156           C   tau( 156) = (  0.3444059  0.5872422  0.6069154  )
       157           C   tau( 157) = (  0.3055237  0.6206989  0.6051007  )
       158           C   tau( 158) = (  0.2857216  0.6275860  0.5739236  )
       159           C   tau( 159) = (  0.2418197  0.6228914  0.5721175  )
       160           C   tau( 160) = (  0.2227426  0.6118544  0.5409415  )
       161           C   tau( 161) = (  0.1868861  0.5704215  0.5391189  )
       162           C   tau( 162) = (  0.1742052  0.5447604  0.5079420  )
       163           C   tau( 163) = (  0.1570520  0.4789266  0.5061349  )
       164           C   tau( 164) = (  0.1545397  0.4462714  0.4749549  )
       165           C   tau( 165) = (  0.1611978  0.3756014  0.4731372  )
       166           C   tau( 166) = (  0.1696077  0.3456613  0.4419624  )
       167           C   tau( 167) = (  0.1980871  0.2911650  0.4401464  )
       168           C   tau( 168) = (  0.2149075  0.2728330  0.4089686  )
       169           C   tau( 169) = (  0.2567446  0.2507097  0.4071606  )
       170           C   tau( 170) = (  0.2769841  0.2494540  0.3759889  )
       171           C   tau( 171) = (  0.3197353  0.2663468  0.3741683  )
       172           C   tau( 172) = (  0.3373677  0.2825448  0.3430000  )
       173           C   tau( 173) = (  0.3683158  0.3333659  0.3411969  )
       174           C   tau( 174) = (  0.3781096  0.3621821  0.3100305  )
       175           C   tau( 175) = (  0.3880545  0.4318272  0.3082155  )
       176           C   tau( 176) = (  0.3870843  0.4647077  0.2770558  )
       177           C   tau( 177) = (  0.3730509  0.5324692  0.2752445  )
       178           C   tau( 178) = (  0.3563354  0.5693568  0.6985445  )
       179           C   tau( 179) = (  0.3412176  0.5912634  0.6673825  )
       180           C   tau( 180) = (  0.3016474  0.6225247  0.6655737  )
       181           C   tau( 181) = (  0.2817079  0.6282849  0.6344019  )
       182           C   tau( 182) = (  0.2379309  0.6211318  0.6325919  )
       183           C   tau( 183) = (  0.2190977  0.6090336  0.6014208  )
       184           C   tau( 184) = (  0.1841362  0.5656254  0.5996006  )
       185           C   tau( 185) = (  0.1720164  0.5392606  0.5684247  )
       186           C   tau( 186) = (  0.1562670  0.4725074  0.5666197  )
       187           C   tau( 187) = (  0.1544560  0.4397259  0.5354428  )
       188           C   tau( 188) = (  0.1626107  0.3694728  0.5336214  )
       189           C   tau( 189) = (  0.1716458  0.3400159  0.5024451  )
       190           C   tau( 190) = (  0.2012702  0.2871558  0.5006346  )
       191           C   tau( 191) = (  0.2184686  0.2697721  0.4694537  )
       192           C   tau( 192) = (  0.2607506  0.2500064  0.4676417  )
       193           C   tau( 193) = (  0.2810049  0.2498864  0.4364658  )
       194           C   tau( 194) = (  0.3233729  0.2691620  0.4346462  )
       195           C   tau( 195) = (  0.3406496  0.2863471  0.4034712  )
       196           C   tau( 196) = (  0.3704959  0.3388765  0.4016680  )
       197           C   tau( 197) = (  0.3796640  0.3682254  0.3704959  )
       198           C   tau( 198) = (  0.3881215  0.4383835  0.3686760  )
       199           C   tau( 199) = (  0.3864516  0.4711861  0.3375086  )
       200           C   tau( 200) = (  0.3535344  0.5740784  0.7589875  )
       201           C   tau( 201) = (  0.3379514  0.5951188  0.7278332  )
       202           C   tau( 202) = (  0.2977391  0.6241426  0.7260302  )
       203           C   tau( 203) = (  0.2776804  0.6287791  0.6948674  )
       204           C   tau( 204) = (  0.2340803  0.6191815  0.6930540  )
       205           C   tau( 205) = (  0.2155120  0.6060188  0.6618897  )
       206           C   tau( 206) = (  0.1814964  0.5606717  0.6600755  )
       207           C   tau( 207) = (  0.1699350  0.5336464  0.6289028  )
       208           C   tau( 208) = (  0.1556121  0.4660483  0.6270963  )
       209           C   tau( 209) = (  0.1545016  0.4331800  0.5959247  )
       210           C   tau( 210) = (  0.1641482  0.3634278  0.5941021  )
       211           C   tau( 211) = (  0.1738094  0.3344958  0.5629284  )
       212           C   tau( 212) = (  0.2045359  0.2833220  0.5611221  )
       213           C   tau( 213) = (  0.2220973  0.2669254  0.5299431  )
       214           C   tau( 214) = (  0.2647711  0.2495329  0.5281261  )
       215           C   tau( 215) = (  0.2850154  0.2505470  0.4969488  )
       216           C   tau( 216) = (  0.3269476  0.2721823  0.4951331  )
       217           C   tau( 217) = (  0.3438492  0.2903184  0.4639528  )
       218           C   tau( 218) = (  0.3725604  0.3444959  0.4621470  )
       219           C   tau( 219) = (  0.3810953  0.3743465  0.4309729  )
       220           C   tau( 220) = (  0.3880557  0.4449391  0.4291513  )
       221           C   tau( 221) = (  0.3856896  0.4776217  0.3979768  )
       222           C   tau( 222) = (  0.3506287  0.5786275  0.8194126  )
       223           C   tau( 223) = (  0.3346049  0.5987910  0.7882660  )
       224           C   tau( 224) = (  0.2937991  0.6255387  0.7864668  )
       225           C   tau( 225) = (  0.2736485  0.6290453  0.7553150  )
       226           C   tau( 226) = (  0.2302762  0.6170053  0.7535007  )
       227           C   tau( 227) = (  0.2119954  0.6028154  0.7223443  )
       228           C   tau( 228) = (  0.1789645  0.5555798  0.7205366  )
       229           C   tau( 229) = (  0.1679799  0.5279170  0.6893714  )
       230           C   tau( 230) = (  0.1550971  0.4595553  0.6875614  )
       231           C   tau( 231) = (  0.1546853  0.4266415  0.6563957  )
       232           C   tau( 232) = (  0.1658125  0.3574732  0.6545748  )
       233           C   tau( 233) = (  0.1760828  0.3290963  0.6234051  )
       234           C   tau( 234) = (  0.2078733  0.2796668  0.6216010  )
       235           C   tau( 235) = (  0.2257754  0.2642574  0.5904284  )
       236           C   tau( 236) = (  0.2687960  0.2492785  0.5886074  )
       237           C   tau( 237) = (  0.2890090  0.2514295  0.5574337  )
       238           C   tau( 238) = (  0.3304583  0.2754039  0.5556228  )
       239           C   tau( 239) = (  0.3469650  0.2944690  0.5244415  )
       240           C   tau( 240) = (  0.3745029  0.3502277  0.5226296  )
       241           C   tau( 241) = (  0.3823954  0.3805404  0.4914542  )
       242           C   tau( 242) = (  0.3878477  0.4514824  0.4896339  )
       243           C   tau( 243) = (  0.3847934  0.4840176  0.4584560  )
       244           C   tau( 244) = (  0.3476372  0.5830161  0.8798251  )
       245           C   tau( 245) = (  0.3311922  0.6022745  0.8486851  )
       246           C   tau( 246) = (  0.2898400  0.6267125  0.8468860  )
       247           C   tau( 247) = (  0.2696206  0.6290837  0.8157444  )
       248           C   tau( 248) = (  0.2265304  0.6146068  0.8139285  )
       249           C   tau( 249) = (  0.2085512  0.5993973  0.7827825  )
       250           C   tau( 250) = (  0.1765402  0.5503386  0.7809794  )
       251           C   tau( 251) = (  0.1661534  0.5220731  0.7498228  )
       252           C   tau( 252) = (  0.1547270  0.4530288  0.7480092  )
       253           C   tau( 253) = (  0.1550077  0.4201112  0.7168514  )
       254           C   tau( 254) = (  0.1675917  0.3516015  0.7150354  )
       255           C   tau( 255) = (  0.1784669  0.3238222  0.6838711  )
       256           C   tau( 256) = (  0.2112906  0.2762101  0.6820658  )
       257           C   tau( 257) = (  0.2295095  0.2618092  0.6509011  )
       258           C   tau( 258) = (  0.2728237  0.2492573  0.6490804  )
       259           C   tau( 259) = (  0.2929786  0.2525411  0.6179113  )
       260           C   tau( 260) = (  0.3338918  0.2788351  0.6161044  )
       261           C   tau( 261) = (  0.3499864  0.2988141  0.5849287  )
       262           C   tau( 262) = (  0.3763309  0.3560769  0.5831108  )
       263           C   tau( 263) = (  0.3835692  0.3868048  0.5519354  )
       264           C   tau( 264) = (  0.3875137  0.4580099  0.5501192  )
       265           C   tau( 265) = (  0.3837607  0.4903510  0.5189401  )
       266           C   tau( 266) = (  0.3445479  0.5872089  0.9402265  )
       267           C   tau( 267) = (  0.3277009  0.6055470  0.9090919  )
       268           C   tau( 268) = (  0.2858543  0.6276549  0.9072900  )
       269           C   tau( 269) = (  0.2655935  0.6288935  0.8761558  )
       270           C   tau( 270) = (  0.2228393  0.6119968  0.8743396  )
       271           C   tau( 271) = (  0.2051911  0.5957833  0.8432016  )
       272           C   tau( 272) = (  0.1742360  0.5449644  0.8414003  )
       273           C   tau( 273) = (  0.1644420  0.5161273  0.8102561  )
       274           C   tau( 274) = (  0.1544919  0.4464796  0.8084378  )
       275           C   tau( 275) = (  0.1554706  0.4135895  0.7772897  )
       276           C   tau( 276) = (  0.1694987  0.3458228  0.7754791  )
       277           C   tau( 277) = (  0.1809544  0.3186671  0.7443220  )
       278           C   tau( 278) = (  0.2147709  0.2729231  0.7425127  )
       279           C   tau( 279) = (  0.2332943  0.2595656  0.7113575  )
       280           C   tau( 280) = (  0.2768511  0.2494645  0.7095374  )
       281           C   tau( 281) = (  0.2969307  0.2538794  0.6783758  )
       282           C   tau( 282) = (  0.3372617  0.2824530  0.6765703  )
       283           C   tau( 283) = (  0.3529213  0.3033241  0.6454026  )
       284           C   tau( 284) = (  0.3780419  0.3620220  0.6435811  )
       285           C   tau( 285) = (  0.3846284  0.3931438  0.6124117  )
       286           C   tau( 286) = (  0.3870563  0.4645298  0.6106005  )
       287           C   tau( 287) = (  0.3826163  0.4966371  0.5794237  )
       288           C   tau( 288) = (  0.3413651  0.5912072  0.0006606  )
       289           C   tau( 289) = (  0.3241445  0.6086074  0.9694893  )
       290           C   tau( 290) = (  0.2818527  0.6283593  0.9676837  )
       291           C   tau( 291) = (  0.2615739  0.6284717  0.9365543  )
       292           C   tau( 292) = (  0.2192027  0.6091857  0.9347397  )
       293           C   tau( 293) = (  0.2019073  0.5919883  0.9036066  )
       294           C   tau( 294) = (  0.1720538  0.5394589  0.9018046  )
       295           C   tau( 295) = (  0.1628766  0.5100870  0.8706701  )
       296           C   tau( 296) = (  0.1544093  0.4399259  0.8688492  )
       297           C   tau( 297) = (  0.1560791  0.4070993  0.8377108  )
       298           C   tau( 298) = (  0.1715359  0.3401587  0.8359037  )
       299           C   tau( 299) = (  0.1835579  0.3136497  0.8047569  )
       300           C   tau( 300) = (  0.2183345  0.2698441  0.8029430  )
       301           C   tau( 301) = (  0.2371265  0.2575349  0.7717957  )
       302           C   tau( 302) = (  0.2808741  0.2498941  0.7699790  )
       303           C   tau( 303) = (  0.3008464  0.2554433  0.7388245  )
       304           C   tau( 304) = (  0.3405482  0.2862563  0.7370172  )
       305           C   tau( 305) = (  0.3557597  0.3080015  0.7058605  )
       306           C   tau( 306) = (  0.3796213  0.3680699  0.7040382  )
       307           C   tau( 307) = (  0.3855467  0.3995407  0.6728758  )
       308           C   tau( 308) = (  0.3864611  0.4710207  0.6710691  )
       309           C   tau( 309) = (  0.3813391  0.5028604  0.6399002  )
       310           C   tau( 310) = (  0.2575650  0.6278012  0.9969436  )
       311           C   tau( 311) = (  0.2156281  0.6061545  0.9951331  )
       312           C   tau( 312) = (  0.1987063  0.5880063  0.9640009  )
       313           C   tau( 313) = (  0.1699842  0.5338358  0.9621965  )
       314           C   tau( 314) = (  0.1614363  0.5039621  0.9310676  )
       315           C   tau( 315) = (  0.1544650  0.4333656  0.9292474  )
       316           C   tau( 316) = (  0.1568354  0.4006539  0.8981146  )
       317           C   tau( 317) = (  0.1737052  0.3346182  0.8963111  )
       318           C   tau( 318) = (  0.1862829  0.3087978  0.8651722  )
       319           C   tau( 319) = (  0.2219676  0.2669671  0.8633547  )
       320           C   tau( 320) = (  0.2410144  0.2557232  0.8322146  )
       321           C   tau( 321) = (  0.2848980  0.2505350  0.8304034  )
       322           C   tau( 322) = (  0.3047401  0.2572042  0.7992556  )
       323           C   tau( 323) = (  0.3437697  0.2902142  0.7974468  )
       324           C   tau( 324) = (  0.3585047  0.3128138  0.7662990  )
       325           C   tau( 325) = (  0.3810758  0.3741888  0.7644796  )
       326           C   tau( 326) = (  0.3863293  0.4059845  0.7333258  )
       327           C   tau( 327) = (  0.3857318  0.4774756  0.7315229  )
       328           C   tau( 328) = (  0.3799323  0.5090116  0.7003627  )
       329           C   tau( 329) = (  0.1601221  0.4977604  0.9914538  )
       330           C   tau( 330) = (  0.1546555  0.4268110  0.9896366  )
       331           C   tau( 331) = (  0.1577221  0.3942463  0.9585058  )
       332           C   tau( 332) = (  0.1759866  0.3291934  0.9567038  )
       333           C   tau( 333) = (  0.1891064  0.3040887  0.9255705  )
       334           C   tau( 334) = (  0.2256600  0.2642780  0.9237519  )
       335           C   tau( 335) = (  0.2449361  0.2541091  0.8926167  )
       336           C   tau( 336) = (  0.2889066  0.2513903  0.8908115  )
       337           C   tau( 337) = (  0.3085981  0.2591685  0.8596702  )
       338           C   tau( 338) = (  0.3469063  0.2943512  0.8578596  )
       339           C   tau( 339) = (  0.3611532  0.3177723  0.8267190  )
       340           C   tau( 340) = (  0.3824024  0.3803825  0.8249045  )
       341           C   tau( 341) = (  0.3869773  0.4124627  0.7937573  )
       342           C   tau( 342) = (  0.3848640  0.4838807  0.7919549  )
       343           C   tau( 343) = (  0.3784043  0.5150919  0.7608058  )
       344           C   tau( 344) = (  0.1920303  0.2995570  0.9859597  )
       345           C   tau( 345) = (  0.2294067  0.2618149  0.9841410  )
       346           C   tau( 346) = (  0.2488872  0.2527191  0.9530093  )
       347           C   tau( 347) = (  0.2928920  0.2524727  0.9512082  )
       348           C   tau( 348) = (  0.3124084  0.2613630  0.9200722  )
       349           C   tau( 349) = (  0.3499420  0.2986811  0.9182584  )
       350           C   tau( 350) = (  0.3636890  0.3228832  0.8871231  )
       351           C   tau( 351) = (  0.3835936  0.3866491  0.8853139  )
       352           C   tau( 352) = (  0.3874833  0.4189742  0.8541732  )
       353           C   tau( 353) = (  0.3838477  0.4902315  0.8523695  )
       354           C   tau( 354) = (  0.3767291  0.5210619  0.8212282  )
       355           C   tau( 355) = (  0.3161745  0.2637585  0.9804645  )
       356           C   tau( 356) = (  0.3528943  0.3031636  0.9786474  )
       357           C   tau( 357) = (  0.3661170  0.3281329  0.9475165  )
       358           C   tau( 358) = (  0.3846654  0.3929699  0.9457120  )
       359           C   tau( 359) = (  0.3878627  0.4255039  0.9145767  )
       360           C   tau( 360) = (  0.3827192  0.4965171  0.9127695  )
       361           C   tau( 361) = (  0.3749423  0.5269429  0.8816368  )
       362           C   tau( 362) = (  0.3881069  0.4320433  0.9749716  )
       363           C   tau( 363) = (  0.3814520  0.5027252  0.9731612  )
       364           C   tau( 364) = (  0.3730340  0.5327033  0.9420332  )

     number of k points=     1
                       cart. coord. in units 2pi/alat
        k(    1) = (   0.0000000   0.0000000   0.4001558), wk =   2.0000000

                       cryst. coord.
        k(    1) = (   0.0000000   0.0000000   0.5000000), wk =   2.0000000

     Dense  grid: 11053081 G-vectors     FFT dimensions: ( 320, 192, 384)

     Dynamical RAM for                 wfc:      68.59 MB

     Dynamical RAM for     wfc (w. buffer):      68.59 MB

     Dynamical RAM for           str. fact:       0.11 MB

     Dynamical RAM for           local pot:       0.00 MB

     Dynamical RAM for          nlocal pot:      39.95 MB

     Dynamical RAM for                qrad:       0.36 MB

     Dynamical RAM for          rho,v,vnew:       1.74 MB

     Dynamical RAM for           G-vectors:       0.47 MB

     Dynamical RAM for          h,s,v(r/c):      12.00 MB

     Dynamical RAM for          <psi|beta>:     222.17 MB

     Dynamical RAM for                 psi:     274.35 MB

     Dynamical RAM for                hpsi:     274.35 MB

     Dynamical RAM for      wfcinit/wfcrot:     709.42 MB

     Estimated static dynamical RAM per process >     113.76 MB

     Estimated max dynamical RAM per process >     896.64 MB

     Estimated total dynamical RAM >    1344.96 GB

     Atomic positions and unit cell read from directory:
     ./CNT_PBE.save/


     The potential is recalculated from file :
     ./CNT_PBE.save/charge-density

     Starting wfcs are random

     Band Structure Calculation
     Davidson diagonalization with overlap

     Computing kpt #:     1  of     1
     total cpu time spent up to now is    13593.8 secs

     ethr =  5.05E-12,  avg # of iterations = 42.0

     total cpu time spent up to now is    13593.8 secs

     End of band structure calculation

          k = 0.0000 0.0000 0.4002 (****** PWs)   bands (ev):

   -22.6564 -22.6503 -22.5216 -22.5207 -22.4439 -22.4438 -22.4376 -22.4376
   -22.3094 -22.3094 -22.3085 -22.3084 -22.2580 -22.2571 -22.0467 -22.0466
   -22.0456 -22.0456 -21.8639 -21.8631 -21.8162 -21.8160 -21.8095 -21.8094
   -21.6827 -21.6827 -21.6818 -21.6816 -21.6538 -21.6538 -21.6528 -21.6528
   -21.4226 -21.4224 -21.4214 -21.4213 -21.3413 -21.3406 -21.1330 -21.1329
   -21.1319 -21.1318 -21.0337 -21.0336 -21.0323 -21.0322 -20.8009 -20.8008
   -20.7936 -20.7936 -20.6931 -20.6925 -20.6695 -20.6693 -20.6684 -20.6684
   -20.5184 -20.5183 -20.5165 -20.5164 -20.4872 -20.4871 -20.4860 -20.4859
   -20.4139 -20.4139 -20.4127 -20.4126 -20.0325 -20.0325 -20.0307 -20.0306
   -19.9239 -19.9233 -19.8802 -19.8801 -19.8777 -19.8776 -19.7213 -19.7212
   -19.7200 -19.7198 -19.5279 -19.5279 -19.5251 -19.5250 -19.4430 -19.4429
   -19.4349 -19.4348 -19.3150 -19.3150 -19.3141 -19.3139 -19.1256 -19.1255
   -19.1224 -19.1223 -19.0678 -19.0677 -19.0663 -19.0662 -19.0414 -19.0409
   -18.9053 -18.9052 -18.9016 -18.9014 -18.8443 -18.8442 -18.8423 -18.8422
   -18.6996 -18.6995 -18.6969 -18.6969 -18.2714 -18.2713 -18.2655 -18.2654
   -18.2146 -18.2146 -18.2110 -18.2110 -18.1782 -18.1782 -18.1751 -18.1750
   -18.0592 -18.0588 -17.8779 -17.8779 -17.8701 -17.8699 -17.8542 -17.8541
   -17.8431 -17.8430 -17.7401 -17.7399 -17.7236 -17.7236 -17.6253 -17.6252
   -17.6237 -17.6236 -17.5146 -17.5145 -17.4858 -17.4857 -17.4280 -17.4268
   -17.4181 -17.4180 -17.4084 -17.4083 -17.3697 -17.3696 -17.1771 -17.1769
   -17.1354 -17.1353 -17.0522 -17.0520 -17.0087 -17.0084 -16.9808 -16.9807
   -16.9405 -16.9404 -16.8565 -16.8564 -16.7327 -16.7324 -16.6874 -16.6872
   -16.2771 -16.2769 -16.2003 -16.2000 -16.0376 -16.0375 -16.0332 -16.0317
   -16.0315 -16.0286 -15.9144 -15.9143 -15.8607 -15.8606 -15.7719 -15.7719
   -15.7462 -15.7461 -15.5554 -15.5553 -15.5483 -15.5482 -15.4475 -15.4475
   -15.4456 -15.4454 -15.3908 -15.3907 -15.3895 -15.3894 -15.3581 -15.3576
   -15.2518 -15.2517 -15.2416 -15.2416 -15.1948 -15.1946 -15.0894 -15.0892
   -15.0814 -15.0809 -15.0727 -15.0727 -15.0318 -15.0318 -14.9539 -14.9539
   -14.9534 -14.9533 -14.9072 -14.9071 -14.8840 -14.8840 -14.8504 -14.8503
   -14.7125 -14.7125 -14.6823 -14.6819 -14.6573 -14.6573 -14.4342 -14.4340
   -14.3354 -14.3354 -13.9652 -13.9647 -13.9546 -13.9545 -13.9410 -13.9409
   -13.8795 -13.8794 -13.8317 -13.8311 -13.7997 -13.7996 -13.6596 -13.6595
   -13.5364 -13.5364 -13.5303 -13.5301 -13.5246 -13.5246 -13.5029 -13.5029
   -13.4710 -13.4709 -13.4030 -13.4030 -13.3944 -13.3944 -13.3595 -13.3595
   -13.2605 -13.2604 -13.2321 -13.2320 -13.0848 -13.0848 -13.0587 -13.0587
   -13.0378 -13.0377 -12.8819 -12.8813 -12.8475 -12.8475 -12.8260 -12.8259
   -12.8047 -12.8042 -12.7616 -12.7615 -12.7430 -12.7428 -12.7068 -12.7066
   -12.6057 -12.6056 -12.5245 -12.5243 -12.4996 -12.4995 -12.4286 -12.4286
   -12.2341 -12.2341 -12.1046 -12.1046 -11.9984 -11.9983 -11.9792 -11.9791
   -11.8487 -11.8482 -11.7723 -11.7722 -11.7381 -11.7375 -11.6667 -11.6665
   -11.6440 -11.6439 -11.6244 -11.6243 -11.5974 -11.5972 -11.5583 -11.5582
   -11.5172 -11.5170 -11.4920 -11.4920 -11.4885 -11.4884 -11.4398 -11.4397
   -11.4112 -11.4111 -11.3596 -11.3596 -11.3403 -11.3403 -11.3113 -11.3112
   -11.2828 -11.2828 -11.2485 -11.2484 -11.2296 -11.2296 -11.1590 -11.1586
   -11.1558 -11.1558 -11.1557 -11.1556 -11.1333 -11.1333 -10.7856 -10.7803
   -10.7536 -10.7535 -10.7502 -10.7497 -10.7409 -10.7409 -10.7099 -10.7098
   -10.6913 -10.6912 -10.6297 -10.6289 -10.5457 -10.5457 -10.5396 -10.5395
   -10.4800 -10.4798 -10.4723 -10.4722 -10.4509 -10.4507 -10.4234 -10.4232
   -10.4138 -10.4137 -10.3978 -10.3978 -10.3880 -10.3880 -10.3868 -10.3867
   -10.3264 -10.3256 -10.3116 -10.3114 -10.2982 -10.2982 -10.2852 -10.2851
   -10.2286 -10.2286 -10.2110 -10.2109 -10.1784 -10.1783 -10.1191 -10.1190
   -10.1133 -10.1133 -10.0914 -10.0914 -10.0901 -10.0900 -10.0576 -10.0569
   -10.0376 -10.0375 -10.0145 -10.0144  -9.9665  -9.9665  -9.9611  -9.9605
    -9.9300  -9.9297  -9.9235  -9.9235  -9.8912  -9.8911  -9.8874  -9.8867
    -9.8842  -9.8842  -9.7964  -9.7963  -9.7849  -9.7849  -9.7799  -9.7798
    -9.7664  -9.7656  -9.7262  -9.7262  -9.7035  -9.7032  -9.6858  -9.6857
    -9.6783  -9.6778  -9.6404  -9.6399  -9.6090  -9.6089  -9.5933  -9.5926
    -9.5431  -9.5431  -9.4968  -9.4902  -9.4685  -9.4685  -9.4631  -9.4631
    -9.4493  -9.4491  -9.4166  -9.4166  -9.3231  -9.3225  -9.2964  -9.2963
    -9.2881  -9.2880  -9.2832  -9.2829  -9.2636  -9.2636  -9.1754  -9.1754
    -9.1370  -9.1368  -9.1204  -9.1203  -9.1011  -9.1010  -9.0959  -9.0959
    -9.0850  -9.0850  -9.0830  -9.0829  -9.0694  -9.0694  -9.0384  -9.0384
    -9.0335  -9.0334  -9.0167  -9.0166  -8.9963  -8.9963  -8.9435  -8.9435
    -8.9292  -8.9292  -8.9123  -8.9122  -8.9044  -8.9043  -8.7993  -8.7992
    -8.6150  -8.6148  -8.5892  -8.5890  -8.5838  -8.5837  -8.5246  -8.5246
    -8.4951  -8.4950  -8.4500  -8.4498  -8.3596  -8.3594  -8.3024  -8.3019
    -8.2961  -8.2959  -8.2710  -8.2710  -8.2505  -8.2504  -8.2260  -8.2259
    -8.2162  -8.2161  -8.1666  -8.1665  -8.1330  -8.1329  -8.1207  -8.1206
    -8.0832  -8.0832  -8.0670  -8.0669  -8.0662  -8.0661  -8.0488  -8.0487
    -8.0396  -8.0395  -8.0309  -8.0308  -8.0182  -8.0181  -8.0180  -8.0180
    -7.9282  -7.9282  -7.8710  -7.8710  -7.8589  -7.8589  -7.8473  -7.8473
    -7.7564  -7.7563  -7.6833  -7.6832  -7.5908  -7.5908  -7.5639  -7.5639
    -7.5585  -7.5584  -7.5230  -7.5225  -7.4491  -7.4491  -7.4443  -7.4443
    -7.3843  -7.3841  -7.3556  -7.3555  -7.3529  -7.3529  -7.3163  -7.3162
    -7.2890  -7.2889  -7.2852  -7.2851  -7.2589  -7.2589  -7.2575  -7.2574
    -7.2521  -7.2520  -7.1696  -7.1694  -7.1045  -7.1044  -6.9508  -6.9507
    -6.9327  -6.9325  -6.9276  -6.9276  -6.9187  -6.9187  -6.9109  -6.9108
    -6.8067  -6.8065  -6.7990  -6.7988  -6.7504  -6.7503  -6.7308  -6.7307
    -6.6658  -6.6657  -6.6572  -6.6572  -6.6325  -6.6323  -6.6280  -6.6279
    -6.5717  -6.5712  -6.5095  -6.5094  -6.4406  -6.4404  -6.3901  -6.3900
    -6.3896  -6.3895  -6.3894  -6.3893  -6.3803  -6.3802  -6.3754  -6.3752
    -6.3623  -6.3621  -6.3283  -6.3283  -6.2988  -6.2988  -6.1974  -6.1918
    -6.0000  -5.9945  -5.9872  -5.9872  -5.9856  -5.9856  -5.8669  -5.8668
    -5.8403  -5.8402  -5.7199  -5.7199  -5.6643  -5.6643  -5.5401  -5.5396
    -5.5155  -5.5154  -5.4786  -5.4786  -5.4681  -5.4679  -5.3803  -5.3802
    -5.3072  -5.3069  -5.2800  -5.2798  -5.2798  -5.2790  -5.2743  -5.2742
    -5.2113  -5.2111  -5.1915  -5.1914  -5.1487  -5.1486  -5.0994  -5.0994
    -5.0590  -5.0589  -4.9336  -4.9335  -4.9313  -4.9312  -4.8463  -4.8461
    -4.7902  -4.7901  -4.7279  -4.7277  -4.5488  -4.5487  -4.5303  -4.5302
    -4.4960  -4.4957  -4.4487  -4.4485  -4.3729  -4.3728  -4.0040  -4.0038
    -3.9374  -3.9373  -3.8402  -3.8400  -3.5769  -3.5766  -3.4385  -3.4382
    -2.2933  -2.2931  -2.2211  -2.2207  -1.9723  -1.9722  -1.7829  -1.7827
    -1.7561  -1.7560  -1.5995  -1.5993  -1.5755  -1.5753  -1.5673  -1.5671
    -1.5582  -1.5580  -1.4892  -1.4889  -1.4468  -1.4466  -1.4176  -1.4171
    -1.3948  -1.3944  -1.3682  -1.3681  -1.3626  -1.3625  -1.2984  -1.2982
    -1.1609  -1.1609  -1.0839  -1.0839  -1.0642  -1.0641  -1.0113  -1.0112
    -1.0040  -1.0038  -1.0035  -1.0033  -0.9982  -0.9980  -0.9762  -0.9761
    -0.9735  -0.9735  -0.9276  -0.9274  -0.8830  -0.8829  -0.8277  -0.8276
    -0.6496  -0.6494  -0.6408  -0.6407  -0.4027  -0.4022  -0.3304  -0.3304
    -0.3142  -0.3141  -0.1107  -0.1106  -0.0243  -0.0243   0.0451   0.0452
     0.0494   0.0494   0.1750   0.1775   0.1948   0.1949   0.2099   0.2100
     0.3025   0.3026   0.3383   0.3384   0.3525   0.3528   0.5229   0.5229
     0.6512   0.6518   0.6969   0.6969   0.7009   0.7010   0.7057   0.7059
     0.8009   0.8009   0.8326   0.8347   0.8357   0.8358   0.8591   0.8591
     0.8647   0.8647   0.8836   0.8858   0.9097   0.9097   0.9655   0.9656
     0.9778   0.9779   1.0132   1.0134   1.0638   1.0639   1.0996   1.0996
     1.1581   1.1601   1.2277   1.2295   1.2357   1.2359   1.2546   1.2565
     1.3306   1.3308   1.3394   1.3395   1.3721   1.3723   1.4078   1.4079
     1.4215   1.4217   1.4360   1.4361   1.5214   1.5223   1.5737   1.5754
     1.6841   1.6858   1.6902   1.6907   1.6994   1.6995   1.7044   1.7045
     1.7084   1.7095   1.7295   1.7296   1.7347   1.7348   1.7397   1.7397
     1.7564   1.7564   1.7662   1.7662   1.7960   1.7961   1.8018   1.8019
     1.8030   1.8039   1.8665   1.8666   1.8917   1.8917   1.9091   1.9092
     1.9180   1.9191   1.9304   1.9305   1.9419   1.9420   1.9566   1.9567
     1.9865   1.9865   2.0593   2.0603   2.0670   2.0681   2.0695   2.0695
     2.1009   2.1010   2.1178   2.1178   2.1673   2.1684   2.2095   2.2096
     2.2216   2.2216   2.2357   2.2357   2.2414   2.2414   2.2493   2.2493
     2.2559   2.2559   2.2912   2.2913   2.2984   2.2998   2.3016   2.3017
     2.3287   2.3288   2.3498   2.3498   2.3529   2.3529   2.3679   2.3679
     2.3793   2.3808   2.4068   2.4069   2.4695   2.4695   2.4764   2.4764
     2.4916   2.4931   2.4958   2.4971   2.5087   2.5102   2.5497   2.5497
     2.5584   2.5585   2.6049   2.6049   2.6053   2.6053   2.6070   2.6075
     2.6130   2.6130   2.6168   2.6168   2.6235   2.6236   2.6653   2.6653
     2.6672   2.6673   2.6734   2.6735   2.6781   2.6782   2.6923   2.6924
     2.6924   2.6938   2.6949   2.6949   2.7159   2.7160   2.7378   2.7378
     2.7498   2.7499   2.7735   2.7735   2.7942   2.7958   2.7996   2.7997
     2.8140   2.8141   2.8246   2.8247   2.8277   2.8287   2.8317   2.8318
     2.8690   2.8691   2.8800   2.8801   2.8981   2.8982   2.9030   2.9030
     2.9045   2.9065   2.9194   2.9205   2.9217   2.9218   2.9407   2.9422
     2.9555   2.9564   2.9564   2.9564   2.9751   2.9752   3.0092   3.0092
     3.0147   3.0147   3.0171   3.0172   3.0176   3.0176   3.0384   3.0385
     3.0408   3.0409   3.0554   3.0555   3.0782   3.0783   3.1021   3.1022
     3.1176   3.1176   3.1390   3.1390   3.1507   3.1507   3.1601   3.1601
     3.1723   3.1738   3.2197   3.2209   3.2216   3.2216   3.2271   3.2271
     3.2415   3.2416   3.2651   3.2661   3.2799   3.2799   3.2820   3.2821
     3.2876   3.2879   3.3129   3.3138   3.3250   3.3250   3.3473   3.3473
     3.3496   3.3496   3.3531   3.3532   3.3664   3.3664   3.3710   3.3710
     3.3773   3.3789   3.3884   3.3884   3.4001   3.4001   3.4323   3.4323
     3.4471   3.4471   3.4721   3.4721   3.4749   3.4749   3.4802   3.4883
     3.4897   3.4907   3.4945   3.4945   3.4957   3.4957   3.5066   3.5066
     3.5073   3.5073   3.5217   3.5218   3.5372   3.5372   3.5446   3.5447
     3.5464   3.5464   3.5649   3.5649   3.5877   3.5878   3.5986   3.5986
     3.6016   3.6017   3.6274   3.6279   3.6361   3.6361   3.6419   3.6422
     3.6550   3.6551   3.6571   3.6571   3.6735   3.6736   3.7077   3.7089
     3.7162   3.7163   3.7305   3.7320   3.7382   3.7384   3.7431   3.7431
     3.7475   3.7476   3.7561   3.7562   3.7596   3.7609   3.7610   3.7614
     3.7744   3.7744   3.7788   3.7803   3.7850   3.7854   3.8085   3.8091
     3.8126   3.8126   3.8422   3.8422   3.8536   3.8537   3.8604   3.8605
     3.8684   3.8685   3.8724   3.8725   3.8787   3.8787   3.8876   3.8876
     3.8917   3.8917   3.9024   3.9024   3.9139   3.9139   3.9159   3.9159
     3.9296   3.9305   3.9355   3.9355   3.9404   3.9405   3.9460   3.9471
     3.9694   3.9695   3.9759   3.9759   3.9919   3.9919   4.0059   4.0070
     4.0158   4.0158   4.0159   4.0160   4.0333   4.0333   4.0554   4.0554
     4.0791   4.0798   4.0800   4.0801   4.1125   4.1125   4.1275   4.1276
     4.1675   4.1684   4.1826   4.1827   4.1886   4.1887   4.2314   4.2314
     4.2429   4.2430   4.2519   4.2520   4.2580   4.2581   4.2597   4.2597
     4.2768   4.2769   4.2863   4.2864   4.2885   4.2885   4.2977   4.2977
     4.3117   4.3117   4.3320   4.3320   4.3433   4.3433   4.3578   4.3578
     4.3772   4.3772   4.3777   4.3789   4.4042   4.4042   4.4157   4.4160
     4.4168   4.4177   4.4328   4.4329   4.4355   4.4362   4.4389   4.4393
     4.4465   4.4465   4.4730   4.4731   4.4748   4.4748   4.4861   4.4861
     4.5505   4.5505   4.5515   4.5515   4.5538   4.5539   4.5595   4.5598
     4.5725   4.5725   4.5857   4.5858   4.6067   4.6086   4.6111   4.6116
     4.6141   4.6142   4.6151   4.6152   4.6178   4.6178   4.6247   4.6248
     4.6351   4.6351   4.6376   4.6376   4.6458   4.6458   4.6525   4.6529
     4.6874   4.6876   4.6930   4.6930   4.7010   4.7011   4.7039   4.7048
     4.7229   4.7232   4.7434   4.7434   4.7533   4.7546   4.7614   4.7629
     4.7629   4.7632   4.7848   4.7848   4.7868   4.7868   4.7907   4.7908
     4.7978   4.7978   4.8008   4.8014   4.8181   4.8186   4.8437   4.8444
     4.8490   4.8491   4.8604   4.8604   4.8858   4.8859   4.9039   4.9049
     4.9086   4.9095   4.9116   4.9117   4.9267   4.9267   4.9522   4.9548
     4.9549   4.9553   4.9607   4.9608   4.9680   4.9680   4.9697   4.9721
     4.9919   4.9936   5.0035   5.0040   5.0103   5.0103   5.0109   5.0109
     5.0112   5.0112   5.0181   5.0181   5.0233   5.0240   5.0388   5.0398
     5.0568   5.0569   5.0610   5.0611   5.0688   5.0706   5.0771   5.0772
     5.0809   5.0810   5.0812   5.0812   5.0899   5.0899   5.0979   5.0988
     5.1016   5.1017   5.1024   5.1024   5.1079   5.1079   5.1149   5.1156
     5.1218   5.1218   5.1272   5.1272   5.1284   5.1286   5.1407   5.1408
     5.1507   5.1523   5.1541   5.1541   5.1548   5.1550   5.1647   5.1671
     5.1812   5.1828   5.1963   5.1966   5.2083   5.2086   5.2099   5.2100
     5.2123   5.2124   5.2269   5.2270   5.2314   5.2327   5.2328   5.2333
     5.2616   5.2616   5.2689   5.2689   5.2803   5.2814   5.2814   5.2822
     5.2962   5.2964   5.3080   5.3112   5.3149   5.3152   5.3321   5.3321
     5.3530   5.3531   5.3579   5.3579   5.3604   5.3614   5.3614   5.3622
     5.3663   5.3668   5.3881   5.3881   5.4047   5.4048   5.4120   5.4122
     5.4130   5.4131   5.4277   5.4283   5.4283   5.4336   5.4391   5.4391
     5.4402   5.4437   5.4445   5.4445   5.4679   5.4680   5.4709   5.4709
     5.4850   5.4850   5.4868   5.4868   5.4891   5.4892   5.4900   5.4900
     5.4909   5.4913   5.5025   5.5026   5.5091   5.5105   5.5167   5.5179
     5.5279   5.5279   5.5351   5.5352   5.5364   5.5364   5.5473   5.5473
     5.5658   5.5660   5.5788   5.5808   5.5813   5.5813   5.6131   5.6132
     5.6133   5.6134   5.6139   5.6139   5.6196   5.6196   5.6357   5.6375
     5.6460   5.6472   5.6530   5.6531   5.6568   5.6568   5.6619   5.6619
     5.6884   5.6885   5.6949   5.6949   5.6950   5.6950   5.6972   5.6973
     5.7006   5.7006   5.7060   5.7060   5.7164   5.7176   5.7201   5.7201
     5.7335   5.7336   5.7390   5.7390   5.7460   5.7491   5.7620   5.7620
     5.7875   5.7875   5.8021   5.8021   5.8022   5.8022   5.8039   5.8040
     5.8068   5.8068   5.8205   5.8207   5.8216   5.8217   5.8323   5.8323
     5.8427   5.8428   5.8545   5.8545   5.8586   5.8586   5.8648   5.8648
     5.8674   5.8678   5.8816   5.8816   5.8867   5.8867   5.8970   5.8971
     5.9226   5.9226   5.9227   5.9228   5.9345   5.9346   5.9581   5.9587
     5.9694   5.9694   5.9734   5.9739   5.9887   5.9899   5.9911   5.9911
     5.9980   5.9994   6.0018   6.0018   6.0136   6.0136   6.0202   6.0202
     6.0207   6.0207   6.0320   6.0320   6.0337   6.0337   6.0434   6.0434
     6.0521   6.0521   6.0583   6.0583   6.0605   6.0607   6.0688   6.0689
     6.0715   6.0715   6.0782   6.0794   6.0806   6.0808   6.0863   6.0872
     6.1040   6.1040   6.1104   6.1106   6.1276   6.1277   6.1334   6.1335
     6.1389   6.1389   6.1538   6.1540   6.1649   6.1650   6.1748   6.1749
     6.1842   6.1843   6.1876   6.1877   6.1914   6.1914   6.2007   6.2008
     6.2143   6.2146   6.2189   6.2190   6.2194   6.2196   6.2394   6.2394
     6.2466   6.2466   6.2490   6.2491   6.2515   6.2518   6.2571   6.2573
     6.2654   6.2654   6.2665   6.2665   6.2701   6.2702   6.2847   6.2847
     6.2939   6.2940   6.3050   6.3050   6.3089   6.3089   6.3092   6.3093
     6.3128   6.3129   6.3290   6.3290   6.3358   6.3360   6.3452   6.3455
     6.3585   6.3585   6.3694   6.3717   6.3847   6.3848   6.3909   6.3909
     6.3954   6.3956   6.3997   6.4000   6.4148   6.4164   6.4185   6.4185
     6.4201   6.4202   6.4379   6.4379   6.4394   6.4413   6.4485   6.4486
     6.4486   6.4487   6.4576   6.4577   6.4599   6.4599   6.4770   6.4771
     6.4821   6.4821   6.4897   6.4905   6.4971   6.4972   6.5050   6.5051
     6.5057   6.5057   6.5176   6.5179   6.5348   6.5352   6.5377   6.5378
     6.5477   6.5491   6.5515   6.5517   6.5521   6.5527   6.5743   6.5744
     6.5753   6.5753   6.6006   6.6007   6.6121   6.6121   6.6157   6.6159
     6.6292   6.6292   6.6355   6.6355   6.6362   6.6364   6.6461   6.6462
     6.6699   6.6699   6.6737   6.6748   6.6829   6.6829   6.6899   6.6902
     6.6998   6.6998   6.7007   6.7008   6.7029   6.7029   6.7159   6.7160
     6.7310   6.7310   6.7390   6.7391   6.7391   6.7401   6.7437   6.7437
     6.7457   6.7457   6.7487   6.7487   6.7634   6.7634   6.7811   6.7815
     6.7902   6.7902   6.7905   6.7906   6.8060   6.8060   6.8074   6.8077
     6.8083   6.8084   6.8209   6.8209   6.8226   6.8227   6.8328   6.8329
     6.8367   6.8367   6.8435   6.8435   6.8486   6.8486   6.8568   6.8568
     6.8574   6.8574   6.8582   6.8583   6.8623   6.8624   6.8755   6.8755
     6.8798   6.8798   6.8907   6.8907   6.9065   6.9067   6.9092   6.9093
     6.9149   6.9149   6.9173   6.9188   6.9217   6.9218   6.9331   6.9331
     6.9345   6.9345   6.9412   6.9413   6.9459   6.9459   6.9496   6.9496
     6.9623   6.9634   6.9634   6.9639   6.9707   6.9708   6.9864   6.9864
     7.0301   7.0301   7.0381   7.0382   7.0442   7.0443   7.0460   7.0461
     7.0589   7.0589   7.0676   7.0677   7.0692   7.0693   7.0745   7.0745
     7.0842   7.0844   7.0854   7.0854   7.0876   7.0876   7.1098   7.1098
     7.1112   7.1114   7.1228   7.1228   7.1395   7.1395   7.1504   7.1509
     7.1530   7.1530   7.1613   7.1630   7.1630   7.1649   7.1676   7.1677
     7.1870   7.1870   7.1879   7.1962   7.1963   7.1963   7.1964   7.1964
     7.2035   7.2035   7.2037   7.2037   7.2160   7.2161   7.2201   7.2202
     7.2213   7.2233   7.2241   7.2263   7.2273   7.2273   7.2407   7.2408
     7.2415   7.2418   7.2442   7.2442   7.2794   7.2794   7.2970   7.2971
     7.3111   7.3112   7.3265   7.3266   7.3281   7.3281   7.3305   7.3311
     7.3334   7.3335   7.3371   7.3371   7.3415   7.3416   7.3478   7.3478
     7.3572   7.3572   7.3829   7.3829   7.3833   7.3833   7.3861   7.3861
     7.3881   7.3881   7.4045   7.4046   7.4134   7.4137   7.4219   7.4219
     7.4433   7.4433   7.4633   7.4633   7.4673   7.4673   7.4737   7.4765
     7.4765   7.4811   7.4811   7.4858   7.4859   7.4910   7.4932   7.4973
     7.5271   7.5273   7.5285   7.5285   7.5553   7.5553   7.5659   7.5659
     7.5673   7.5674   7.5681   7.5681   7.5708   7.5711   7.5792   7.5799
     7.5800   7.5800   7.5850   7.5851   7.5917   7.5917   7.5978   7.5984
     7.5989   7.5989   7.6050   7.6050   7.6069   7.6071   7.6144   7.6145
     7.6233   7.6240   7.6367   7.6367   7.6480   7.6482   7.6519   7.6519
     7.6550   7.6552   7.6556   7.6556   7.6585   7.6586   7.6712   7.6712
     7.6788   7.6788   7.6930   7.6931   7.6943   7.6945   7.6975   7.6975
     7.7049   7.7050   7.7051   7.7052   7.7271   7.7272   7.7381   7.7384
     7.7437   7.7437   7.7604   7.7605   7.7661   7.7663   7.7705   7.7705
     7.7734   7.7734   7.7740   7.7740   7.7794   7.7795   7.7872   7.7875
     7.7917   7.7918   7.7950   7.7950   7.8164   7.8165   7.8276   7.8276
     7.8281   7.8282   7.8293   7.8300   7.8313   7.8316   7.8418   7.8421
     7.8523   7.8530   7.8611   7.8611   7.8670   7.8670   7.8727   7.8727
     7.8770   7.8792   7.8820   7.8830   7.8911   7.8913   7.9246   7.9246
     7.9466   7.9467   7.9509   7.9509   7.9544   7.9544   7.9562   7.9563
     7.9679   7.9679   7.9694   7.9695   7.9807   7.9808   7.9840   7.9843
     7.9897   7.9897   7.9900   7.9901   8.0091   8.0091   8.0117   8.0117
     8.0180   8.0181   8.0210   8.0211   8.0300   8.0300   8.0357   8.0361
     8.0372   8.0372   8.0377   8.0378   8.0451   8.0453   8.0463   8.0464
     8.0538   8.0540   8.0645   8.0646   8.0942   8.0942   8.0987   8.0988
     8.1005   8.1010   8.1202   8.1202   8.1224   8.1225   8.1257   8.1263
     8.1263   8.1267   8.1286   8.1286   8.1318   8.1319   8.1422   8.1422
     8.1441   8.1441   8.1610   8.1610   8.1633   8.1634   8.1687   8.1688
     8.1761   8.1769   8.1865   8.1867   8.1970   8.1972   8.2040   8.2040
     8.2086   8.2087   8.2128   8.2128   8.2175   8.2175   8.2218   8.2224
     8.2358   8.2358   8.2431   8.2432   8.2455   8.2457   8.2516   8.2516
     8.2582   8.2585   8.2707   8.2708   8.2819   8.2819   8.2849   8.2849
     8.2862   8.2863   8.2890   8.2892   8.2990   8.2991   8.3012   8.3012
     8.3082   8.3083   8.3256   8.3265   8.3353   8.3364   8.3365   8.3365
     8.3446   8.3447   8.3518   8.3518   8.3640   8.3642   8.3669   8.3696
     8.3700   8.3701   8.3740   8.3741   8.3812   8.3812   8.3817   8.3818
     8.3903   8.3903   8.3956   8.3956   8.4140   8.4140   8.4159   8.4169
     8.4236   8.4237   8.4346   8.4346   8.4419   8.4420   8.4625   8.4626
     8.4753   8.4758   8.4760   8.4762   8.4762   8.4763   8.4807   8.4819
     8.4940   8.4940   8.4953   8.4954   8.5021   8.5021   8.5026   8.5030
     8.5086   8.5086   8.5176   8.5187   8.5229   8.5230   8.5409   8.5409
     8.5468   8.5468   8.5477   8.5477   8.5491   8.5491   8.5643   8.5643
     8.5748   8.5749   8.5830   8.5830   8.5962   8.5970   8.6048   8.6049
     8.6083   8.6083   8.6165   8.6166   8.6238   8.6239   8.6381   8.6381
     8.6471   8.6471   8.6534   8.6534   8.6614   8.6614   8.6632   8.6632
     8.6642   8.6642   8.6708   8.6708   8.6782   8.6782   8.6830   8.6831
     8.6863   8.6865   8.6982   8.6982   8.7017   8.7018   8.7041   8.7042
     8.7089   8.7090   8.7156   8.7158   8.7222   8.7222   8.7243   8.7246
     8.7337   8.7338   8.7414   8.7415   8.7429   8.7429   8.7464   8.7465
     8.7473   8.7475   8.7563   8.7563   8.7632   8.7633   8.7698   8.7698
     8.7810   8.7810   8.7956   8.7959   8.8066   8.8067   8.8131   8.8132
     8.8196   8.8198   8.8200   8.8202   8.8493   8.8493   8.8618   8.8634
     8.8757   8.8760   8.8837   8.8838   8.8874   8.8877   8.9017   8.9020
     8.9028   8.9030   8.9112   8.9113   8.9168   8.9168   8.9248   8.9250
     8.9500   8.9500   8.9545   8.9545   8.9567   8.9567   8.9705   8.9706
     8.9740   8.9746   8.9754   8.9754   8.9885   8.9886   8.9904   8.9904
     8.9910   8.9910   8.9945   8.9945   8.9994   8.9994   9.0090   9.0090
     9.0108   9.0108   9.0121   9.0121   9.0168   9.0169   9.0211   9.0213
     9.0214   9.0214   9.0281   9.0281   9.0319   9.0320   9.0391   9.0392
     9.0455   9.0455   9.0535   9.0535   9.0662   9.0681   9.0763   9.0776
     9.0801   9.0801   9.0865   9.0865   9.0895   9.0896   9.0913   9.0914
     9.0968   9.0969   9.0989   9.0991   9.1237   9.1238   9.1369   9.1369
     9.1384   9.1386   9.1487   9.1487   9.1498   9.1499   9.1519   9.1522
     9.1564   9.1574   9.1664   9.1664   9.1871   9.1871   9.1895   9.1896
     9.1930   9.1930   9.1952   9.1953   9.2053   9.2053   9.2163   9.2165
     9.2210   9.2220   9.2242   9.2243   9.2378   9.2378   9.2398   9.2399
     9.2423   9.2424   9.2431   9.2435   9.2446   9.2446   9.2657   9.2658
     9.2742   9.2743   9.2803   9.2803   9.2990   9.2990   9.3066   9.3068
     9.3199   9.3200   9.3220   9.3224   9.3477   9.3477   9.3550   9.3550
     9.3584   9.3588   9.3624   9.3630   9.3636   9.3637   9.3714   9.3719
     9.3735   9.3738   9.3759   9.3759   9.3820   9.3820   9.3977   9.3978
     9.4021   9.4022   9.4037   9.4038   9.4101   9.4104   9.4120   9.4121
     9.4159   9.4159   9.4328   9.4331   9.4358   9.4358   9.4434   9.4437
     9.4443   9.4445   9.4460   9.4464   9.4687   9.4688   9.4762   9.4763
     9.4781   9.4783   9.4837   9.4838   9.4871   9.4871   9.4908   9.4909
     9.4994   9.4996   9.5207   9.5210   9.5274   9.5276   9.5279   9.5286
     9.5293   9.5294   9.5299   9.5300   9.5484   9.5485   9.5508   9.5515
     9.5548   9.5549   9.5566   9.5567   9.5679   9.5680   9.5796   9.5796
     9.5842   9.5842   9.5843   9.5849   9.5962   9.5962   9.6084   9.6084
     9.6198   9.6198   9.6199   9.6199   9.6427   9.6427   9.6611   9.6612
     9.6677   9.6679   9.6685   9.6685   9.6878   9.6879   9.6917   9.6917
     9.7020   9.7020   9.7031   9.7032   9.7072   9.7073   9.7075   9.7075
     9.7131   9.7132   9.7242   9.7243   9.7395   9.7396   9.7411   9.7413
     9.7474   9.7477   9.7479   9.7481   9.7556   9.7557   9.7568   9.7570
     9.7621   9.7622   9.7658   9.7660   9.7671   9.7673   9.7705   9.7705
     9.7862   9.7862   9.7929   9.7929   9.7962   9.7962   9.8029   9.8032
     9.8191   9.8193   9.8287   9.8288   9.8317   9.8319   9.8373   9.8380
     9.8457   9.8460   9.8544   9.8544   9.8665   9.8667   9.8722   9.8723
     9.8748   9.8755   9.8799   9.8800   9.8858   9.8859   9.8937   9.8937
     9.8983   9.8986   9.9058   9.9070   9.9081   9.9081   9.9153   9.9153
     9.9483   9.9483   9.9517   9.9517   9.9551   9.9554   9.9559   9.9561
     9.9628   9.9630   9.9807   9.9807   9.9837   9.9838   9.9951   9.9953
     9.9954   9.9955  10.0067  10.0068  10.0087  10.0089  10.0113  10.0118
    10.0129  10.0130  10.0183  10.0185  10.0219  10.0220  10.0317  10.0317
    10.0342  10.0342  10.0392  10.0393  10.0545  10.0546  10.0554  10.0554
    10.0591  10.0592  10.0703  10.0704  10.0752  10.0753  10.0886  10.0887
    10.0989  10.0990  10.1005  10.1006  10.1148  10.1149  10.1201  10.1201
    10.1347  10.1349  10.1369  10.1370  10.1392  10.1392  10.1407  10.1407
    10.1493  10.1493  10.1543  10.1544  10.1744  10.1745  10.1775  10.1776
    10.1830  10.1830  10.1865  10.1866  10.2061  10.2062  10.2073  10.2073
    10.2091  10.2092  10.2148  10.2151  10.2225  10.2225  10.2250  10.2251
    10.2373  10.2377  10.2489  10.2490  10.2505  10.2506  10.2530  10.2531
    10.2561  10.2561  10.2599  10.2600  10.2628  10.2629  10.2631  10.2632
    10.2704  10.2714  10.2764  10.2764  10.2817  10.2818  10.2833  10.2834
    10.3009  10.3009  10.3065  10.3067  10.3086  10.3088  10.3208  10.3209
    10.3218  10.3219  10.3247  10.3256  10.3286  10.3288  10.3500  10.3504
    10.3546  10.3547  10.3649  10.3650  10.3768  10.3770  10.3799  10.3801
    10.3910  10.3911  10.3994  10.3994  10.3996  10.3997  10.4087  10.4091
    10.4142  10.4142  10.4296  10.4299  10.4330  10.4333  10.4358  10.4360
    10.4452  10.4453  10.4484  10.4485  10.4515  10.4517  10.4581  10.4581
    10.4646  10.4648  10.4664  10.4664  10.4762  10.4763  10.4775  10.4776
    10.4816  10.4818  10.4828  10.4831  10.4884  10.4885  10.4919  10.4920
    10.4940  10.4940  10.5147  10.5148  10.5272  10.5272  10.5288  10.5289
    10.5399  10.5400  10.5403  10.5413  10.5485  10.5485  10.5571  10.5572
    10.5579  10.5581  10.5585  10.5586  10.5626  10.5632  10.5689  10.5689
    10.5749  10.5756  10.5808  10.5809  10.5883  10.5884  10.5912  10.5912
    10.5980  10.5981  10.6067  10.6067  10.6104  10.6106  10.6118  10.6118
    10.6162  10.6163  10.6269  10.6270  10.6302  10.6303  10.6586  10.6586
    10.6723  10.6727  10.6805  10.6806  10.6833  10.6834  10.6904  10.6906
    10.6922  10.6922  10.6947  10.6948  10.7001  10.7003  10.7138  10.7146
    10.7182  10.7189  10.7287  10.7288  10.7289  10.7292  10.7363  10.7367
    10.7460  10.7461  10.7492  10.7494  10.7561  10.7565  10.7694  10.7696
    10.7748  10.7748  10.7803  10.7803  10.7847  10.7850  10.7864  10.7867
    10.8030  10.8031  10.8095  10.8102  10.8118  10.8122  10.8131  10.8132
    10.8195  10.8197  10.8243  10.8243  10.8257  10.8258  10.8379  10.8382
    10.8434  10.8435  10.8513  10.8519  10.8578  10.8579  10.8584  10.8586
    10.8618  10.8622  10.8785  10.8786  10.8869  10.8869  10.8961  10.8965
    10.8996  10.8997  10.9080  10.9081  10.9213  10.9213  10.9278  10.9280
    10.9391  10.9392  10.9401  10.9405  10.9442  10.9446  10.9451  10.9452
    10.9480  10.9480  10.9510  10.9512  10.9686  10.9690  10.9695  10.9698
    10.9806  10.9806  10.9825  10.9825  10.9863  10.9864  10.9974  10.9975
    11.0078  11.0078  11.0082  11.0088  11.0127  11.0129  11.0177  11.0178
    11.0317  11.0320  11.0329  11.0332  11.0382  11.0383  11.0415  11.0416
    11.0500  11.0501  11.0545  11.0556  11.0599  11.0601  11.0647  11.0647
    11.0697  11.0697  11.0733  11.0734  11.0861  11.0864  11.0883  11.0883
    11.0972  11.0972  11.0990  11.0991  11.1075  11.1082  11.1128  11.1129
    11.1196  11.1197  11.1257  11.1257  11.1315  11.1317  11.1412  11.1415
    11.1442  11.1443  11.1489  11.1490  11.1554  11.1556  11.1562  11.1564
    11.1711  11.1711  11.1713  11.1714  11.1773  11.1774  11.1775  11.1776
    11.1821  11.1823  11.1973  11.1974  11.2019  11.2022  11.2078  11.2079
    11.2260  11.2263  11.2363  11.2363  11.2407  11.2408  11.2489  11.2490
    11.2649  11.2649  11.2684  11.2685  11.2689  11.2690  11.2799  11.2799
    11.2856  11.2856  11.2898  11.2899  11.2911  11.2912  11.2956  11.2957
    11.3092  11.3098  11.3109  11.3109  11.3120  11.3120  11.3170  11.3171
    11.3230  11.3231  11.3270  11.3273  11.3315  11.3318  11.3353  11.3353
    11.3391  11.3394  11.3579  11.3580  11.3611  11.3612  11.3681  11.3682
    11.3733  11.3734  11.3812  11.3815  11.3863  11.3864  11.3998  11.3999
    11.4002  11.4002  11.4018  11.4019  11.4177  11.4177  11.4240  11.4242
    11.4265  11.4266  11.4280  11.4281  11.4366  11.4368  11.4392  11.4396
    11.4452  11.4452  11.4581  11.4581  11.4602  11.4606  11.4671  11.4673
    11.4706  11.4707  11.4778  11.4779  11.4813  11.4815  11.4848  11.4848
    11.4973  11.4973  11.5030  11.5035  11.5114  11.5114  11.5185  11.5185
    11.5223  11.5225  11.5305  11.5306  11.5321  11.5323  11.5377  11.5385
    11.5431  11.5432  11.5442  11.5443  11.5577  11.5578  11.5624  11.5625
    11.5723  11.5729  11.5842  11.5842  11.5866  11.5870  11.5964  11.5964
    11.6014  11.6014  11.6077  11.6078  11.6094  11.6095  11.6201  11.6203
    11.6232  11.6233  11.6264  11.6264  11.6326  11.6328  11.6344  11.6345
    11.6359  11.6360  11.6416  11.6417  11.6505  11.6507  11.6524  11.6526
    11.6572  11.6572  11.6638  11.6639  11.6716  11.6720  11.6820  11.6824
    11.6864  11.6865  11.6887  11.6888  11.6953  11.6955  11.6975  11.6977
    11.7043  11.7043  11.7046  11.7047  11.7066  11.7067  11.7170  11.7173
    11.7206  11.7209  11.7306  11.7307  11.7322  11.7324  11.7429  11.7436
    11.7454  11.7455  11.7474  11.7476  11.7513  11.7514  11.7607  11.7610
    11.7638  11.7639  11.7683  11.7684  11.7686  11.7690  11.7692  11.7699
    11.7707  11.7708  11.7771  11.7775  11.7828  11.7832  11.7834  11.7837
    11.7880  11.7880  11.8000  11.8001  11.8015  11.8016  11.8039  11.8040
    11.8126  11.8137  11.8189  11.8190  11.8287  11.8289  11.8305  11.8313
    11.8410  11.8411  11.8443  11.8444  11.8472  11.8479  11.8503  11.8505
    11.8629  11.8630  11.8690  11.8693  11.8723  11.8726  11.8737  11.8737
    11.8783  11.8784  11.8807  11.8808  11.8935  11.8937  11.8977  11.8979
    11.8996  11.8996  11.9026  11.9026  11.9058  11.9059  11.9099  11.9100
    11.9316  11.9317  11.9429  11.9429  11.9436  11.9444  11.9526  11.9527
    11.9528  11.9531  11.9602  11.9605  11.9661  11.9670  11.9796  11.9809
    11.9842  11.9843  11.9860  11.9861  11.9924  11.9935  11.9946  11.9947
    11.9981  11.9981  11.9987  12.0009  12.0047  12.0064  12.0100  12.0112
    12.0143  12.0146  12.0279  12.0285  12.0290  12.0291  12.0326  12.0328
    12.0343  12.0353  12.0385  12.0386  12.0398  12.0401  12.0479  12.0481
    12.0527  12.0528  12.0549  12.0552  12.0605  12.0611  12.0629  12.0630
    12.0704  12.0705  12.0744  12.0746  12.0788  12.0791  12.0807  12.0808
    12.0886  12.0889  12.0935  12.0937  12.0992  12.0993  12.1002  12.1003
    12.1056  12.1058  12.1075  12.1081  12.1094  12.1101  12.1180  12.1181
    12.1197  12.1200  12.1228  12.1229  12.1353  12.1354  12.1376  12.1376
    12.1498  12.1504  12.1554  12.1557  12.1569  12.1571  12.1624  12.1626
    12.1660  12.1661  12.1734  12.1735  12.1847  12.1849  12.1897  12.1900
    12.1955  12.1956  12.2103  12.2111  12.2120  12.2124  12.2159  12.2161
    12.2204  12.2209  12.2285  12.2286  12.2385  12.2386  12.2418  12.2420
    12.2471  12.2489  12.2494  12.2511  12.2519  12.2523  12.2533  12.2539
    12.2656  12.2661  12.2664  12.2673  12.2697  12.2698  12.2756  12.2793
    12.2804  12.2815  12.2840  12.2844  12.2910  12.2912  12.2994  12.2994
    12.3116  12.3117  12.3144  12.3145  12.3204  12.3205  12.3250  12.3251
    12.3412  12.3415  12.3484  12.3484  12.3529  12.3530  12.3618  12.3619
    12.3643  12.3644  12.3678  12.3680  12.3766  12.3766  12.3826  12.3831
    12.4038  12.4045  12.4138  12.4143  12.4259  12.4260  12.4290  12.4290
    12.4361  12.4361  12.4388  12.4390  12.4426  12.4432  12.4451  12.4452
    12.4501  12.4503  12.4606  12.4609  12.4635  12.4636  12.4716  12.4724
    12.4785  12.4787  12.4819  12.4820  12.4966  12.4966  12.4982  12.4984
    12.5037  12.5040  12.5085  12.5089  12.5171  12.5176  12.5258  12.5258
    12.5298  12.5300  12.5310  12.5311  12.5426  12.5427  12.5556  12.5557
    12.5581  12.5581  12.5658  12.5661  12.5727  12.5728  12.5756  12.5758
    12.5840  12.5840  12.5959  12.5960  12.6036  12.6036  12.6072  12.6073
    12.6082  12.6083  12.6136  12.6137  12.6185  12.6192  12.6301  12.6308
    12.6459  12.6462  12.6475  12.6482  12.6507  12.6507  12.6564  12.6569
    12.6594  12.6597  12.6631  12.6638  12.6673  12.6677  12.6815  12.6816
    12.6839  12.6839  12.6915  12.6916  12.6936  12.6937  12.7007  12.7007
    12.7024  12.7025  12.7053  12.7053  12.7095  12.7096  12.7257  12.7257
    12.7293  12.7294  12.7348  12.7349  12.7468  12.7469  12.7529  12.7529
    12.7560  12.7561  12.7567  12.7569  12.7653  12.7655  12.7673  12.7673
    12.7739  12.7741  12.7798  12.7800  12.7845  12.7847  12.8019  12.8020
    12.8054  12.8057  12.8087  12.8089  12.8101  12.8102  12.8171  12.8172
    12.8295  12.8295  12.8324  12.8328  12.8332  12.8336  12.8446  12.8448
    12.8528  12.8532  12.8603  12.8605  12.8637  12.8639  12.8679  12.8681
    12.8722  12.8722  12.8986  12.8986  12.9046  12.9048  12.9051  12.9052
    12.9068  12.9069  12.9124  12.9126  12.9173  12.9174  12.9184  12.9190
    12.9269  12.9274  12.9319  12.9321  12.9466  12.9473  12.9482  12.9486
    12.9536  12.9540  12.9592  12.9593  12.9685  12.9687  12.9736  12.9739
    12.9775  12.9776  12.9863  12.9863  12.9942  12.9943  12.9968  12.9969
    13.0077  13.0082  13.0136  13.0138  13.0213  13.0214  13.0215  13.0216
    13.0259  13.0260  13.0372  13.0372  13.0449  13.0452  13.0503  13.0507
    13.0516  13.0520  13.0526  13.0527  13.0645  13.0648  13.0683  13.0684
    13.0721  13.0722  13.0861  13.0862  13.0889  13.0890  13.0931  13.0932
    13.0995  13.0999  13.1040  13.1045  13.1060  13.1061  13.1171  13.1177
    13.1230  13.1232  13.1242  13.1244  13.1315  13.1315  13.1365  13.1366
    13.1380  13.1380  13.1427  13.1429  13.1443  13.1446  13.1512  13.1513
    13.1538  13.1539  13.1562  13.1563  13.1654  13.1657  13.1697  13.1699
    13.1728  13.1729  13.1775  13.1776  13.1847  13.1847  13.1958  13.1958
    13.1988  13.1990  13.1998  13.1998  13.2121  13.2123  13.2217  13.2221
    13.2261  13.2262  13.2299  13.2299  13.2321  13.2322  13.2381  13.2382
    13.2443  13.2445  13.2491  13.2493  13.2517  13.2518  13.2575  13.2590
    13.2614  13.2615  13.2712  13.2714  13.2722  13.2726  13.2843  13.2844
    13.2873  13.2876  13.2912  13.2915  13.2965  13.2967  13.3074  13.3074
    13.3098  13.3100  13.3167  13.3167  13.3304  13.3306  13.3330  13.3332
    13.3356  13.3361  13.3367  13.3369  13.3494  13.3495  13.3530  13.3543
    13.3558  13.3559  13.3677  13.3680  13.3712  13.3713  13.3763  13.3768
    13.3801  13.3806  13.3888  13.3888  13.3889  13.3889  13.3951  13.3953
    13.3999  13.3999  13.4050  13.4051  13.4092  13.4093  13.4135  13.4135
    13.4232  13.4233  13.4258  13.4260  13.4348  13.4348  13.4433  13.4434
    13.4493  13.4495  13.4515  13.4517  13.4551  13.4552  13.4581  13.4584
    13.4639  13.4645  13.4719  13.4732  13.4810  13.4811  13.4879  13.4879
    13.4924  13.4930  13.4962  13.4964  13.5071  13.5076  13.5121  13.5124
    13.5169  13.5172  13.5228  13.5234  13.5258  13.5261  13.5344  13.5344
    13.5417  13.5421  13.5436  13.5439  13.5565  13.5568  13.5617  13.5618
    13.5717  13.5719  13.5732  13.5737  13.5799  13.5800  13.5831  13.5833
    13.5862  13.5862  13.5902  13.5904  13.5913  13.5913  13.5970  13.5971
    13.5992  13.5993  13.6050  13.6051  13.6153  13.6156  13.6199  13.6203
    13.6244  13.6246  13.6268  13.6270  13.6359  13.6361  13.6377  13.6378
    13.6463  13.6468  13.6516  13.6518  13.6548  13.6550  13.6596  13.6597
    13.6680  13.6681  13.6777  13.6777  13.6875  13.6877  13.6896  13.6897
    13.7018  13.7022  13.7031  13.7036  13.7111  13.7113  13.7151  13.7154
    13.7206  13.7208  13.7242  13.7244  13.7268  13.7269  13.7304  13.7310
    13.7321  13.7325  13.7516  13.7520  13.7523  13.7527  13.7691  13.7693
    13.7755  13.7757  13.7796  13.7797  13.7833  13.7834  13.7900  13.7904
    13.7929  13.7930  13.8051  13.8056  13.8074  13.8075  13.8101  13.8104
    13.8111  13.8112  13.8165  13.8166  13.8234  13.8236  13.8263  13.8272
    13.8341  13.8343  13.8406  13.8409  13.8475  13.8477  13.8540  13.8541
    13.8564  13.8565  13.8763  13.8764  13.8852  13.8855  13.8872  13.8875
    13.8918  13.8919  13.8999  13.9000  13.9063  13.9064  13.9124  13.9129
    13.9145  13.9146  13.9264  13.9265  13.9299  13.9300  13.9352  13.9360
    13.9361  13.9366  13.9376  13.9380  13.9474  13.9476  13.9522  13.9524
    13.9559  13.9560  13.9628  13.9630  13.9644  13.9649  13.9652  13.9654
    13.9741  13.9743  13.9769  13.9769  13.9828  13.9829  13.9834  13.9836
    13.9929  13.9932  13.9984  13.9984  14.0008  14.0010  14.0101  14.0104
    14.0183  14.0186  14.0289  14.0290  14.0309  14.0310  14.0485  14.0487
    14.0537  14.0539  14.0544  14.0545  14.0583  14.0586  14.0720  14.0725
    14.0790  14.0791  14.0869  14.0870  14.0905  14.0906  14.0971  14.0972
    14.1014  14.1014  14.1025  14.1026  14.1066  14.1069  14.1088  14.1089
    14.1130  14.1133  14.1211  14.1213  14.1255  14.1256  14.1272  14.1273
    14.1424  14.1426  14.1442  14.1443  14.1496  14.1497  14.1500  14.1501
    14.1615  14.1616  14.1690  14.1695  14.1723  14.1724  14.1819  14.1821
    14.1848  14.1850  14.1878  14.1878  14.1885  14.1886  14.1943  14.1947
    14.2056  14.2057  14.2082  14.2085  14.2195  14.2195  14.2246  14.2247
    14.2272  14.2274  14.2286  14.2289  14.2392  14.2397  14.2402  14.2406
    14.2471  14.2473  14.2498  14.2501  14.2575  14.2582  14.2634  14.2635
    14.2645  14.2646  14.2742  14.2743  14.2767  14.2769  14.2804  14.2805
    14.2948  14.2949  14.2969  14.2970  14.3005  14.3007  14.3037  14.3038
    14.3154  14.3156  14.3195  14.3198  14.3242  14.3244  14.3306  14.3306
    14.3339  14.3340  14.3370  14.3375  14.3432  14.3437  14.3536  14.3540
    14.3571  14.3573  14.3673  14.3676  14.3706  14.3707  14.3746  14.3749
    14.3752  14.3757  14.3865  14.3868  14.3952  14.3953  14.4036  14.4037
    14.4059  14.4061  14.4067  14.4070  14.4147  14.4149  14.4194  14.4196
    14.4242  14.4245  14.4265  14.4268  14.4347  14.4349  14.4413  14.4418
    14.4472  14.4472  14.4548  14.4559  14.4632  14.4644  14.4715  14.4721
    14.4735  14.4737  14.4783  14.4784  14.4791  14.4793  14.4900  14.4901
    14.5019  14.5020  14.5136  14.5140  14.5212  14.5217  14.5295  14.5298
    14.5445  14.5454  14.5512  14.5514  14.5599  14.5604  14.5628  14.5633
    14.5668  14.5668  14.5712  14.5717  14.5798  14.5802  14.5804  14.5809
    14.5850  14.5853  14.5921  14.5924  14.5930  14.5937  14.6020  14.6022
    14.6075  14.6078  14.6080  14.6087  14.6125  14.6127  14.6190  14.6192
    14.6287  14.6288  14.6377  14.6382  14.6518  14.6524  14.6540  14.6553
    14.6629  14.6631  14.6715  14.6716  14.6735  14.6742  14.6770  14.6772
    14.6863  14.6865  14.6881  14.6884  14.6904  14.6906  14.7022  14.7026
    14.7041  14.7041  14.7105  14.7107  14.7234  14.7237  14.7250  14.7252
    14.7302  14.7305  14.7331  14.7333  14.7456  14.7460  14.7475  14.7476
    14.7495  14.7499  14.7601  14.7606  14.7686  14.7688  14.7769  14.7769
    14.7788  14.7794  14.7838  14.7840  14.7847  14.7848  14.7942  14.7952
    14.7965  14.7970  14.8054  14.8055  14.8085  14.8086  14.8182  14.8186
    14.8273  14.8274  14.8308  14.8310  14.8366  14.8366  14.8418  14.8419
    14.8514  14.8515  14.8533  14.8535  14.8612  14.8614  14.8662  14.8664
    14.8724  14.8729  14.8753  14.8754  14.8896  14.8901  14.8920  14.8926
    14.8976  14.8980  14.8997  14.9001  14.9081  14.9086  14.9189  14.9192
    14.9211  14.9219  14.9287  14.9297  14.9315  14.9323  14.9352  14.9356
    14.9403  14.9406  14.9451  14.9454  14.9542  14.9545  14.9554  14.9556
    14.9610  14.9617  14.9701  14.9703  14.9805  14.9806  14.9877  14.9881
    14.9895  14.9898  14.9910  14.9915  14.9958  14.9960  14.9998  14.9998
    15.0113  15.0116  15.0173  15.0174  15.0253  15.0254  15.0298  15.0302
    15.0326  15.0332  15.0430  15.0431  15.0473  15.0475  15.0516  15.0520
    15.0560  15.0566  15.0579  15.0583  15.0596  15.0598  15.0658  15.0663
    15.0733  15.0734  15.0755  15.0756  15.0769  15.0771  15.0796  15.0799
    15.0869  15.0871  15.0938  15.0942  15.0949  15.0956  15.1004  15.1005
    15.1025  15.1028  15.1075  15.1078  15.1130  15.1130  15.1168  15.1170
    15.1245  15.1250  15.1259  15.1265  15.1320  15.1322  15.1337  15.1338
    15.1367  15.1368  15.1406  15.1408  15.1495  15.1496  15.1523  15.1524
    15.1563  15.1564  15.1759  15.1761  15.1806  15.1807  15.1841  15.1841
    15.1892  15.1892  15.1993  15.1995  15.2016  15.2019  15.2080  15.2084
    15.2103  15.2108  15.2120  15.2121  15.2182  15.2184  15.2287  15.2288
    15.2339  15.2341  15.2430  15.2431  15.2446  15.2447  15.2541  15.2542
    15.2584  15.2586  15.2659  15.2661  15.2699  15.2699  15.2748  15.2750
    15.2837  15.2840  15.2946  15.2949  15.2967  15.2967  15.3005  15.3005
    15.3048  15.3054  15.3123  15.3124  15.3168  15.3169  15.3229  15.3231
    15.3244  15.3246  15.3336  15.3337  15.3370  15.3372  15.3386  15.3388
    15.3424  15.3425  15.3474  15.3477  15.3531  15.3534  15.3600  15.3601
    15.3698  15.3700  15.3714  15.3716  15.3741  15.3744  15.3865  15.3866
    15.3901  15.3902  15.3954  15.3957  15.3962  15.3968  15.4006  15.4008
    15.4154  15.4157  15.4186  15.4188  15.4275  15.4277  15.4334  15.4337
    15.4374  15.4381  15.4412  15.4416  15.4444  15.4449  15.4523  15.4524
    15.4576  15.4579  15.4698  15.4701  15.4735  15.4737  15.4777  15.4778
    15.4789  15.4789  15.4875  15.4880  15.4912  15.4921  15.4940  15.4941
    15.4987  15.4994  15.5044  15.5046  15.5065  15.5066  15.5147  15.5150
    15.5322  15.5324  15.5350  15.5354  15.5449  15.5450  15.5517  15.5518
    15.5549  15.5549  15.5594  15.5596  15.5659  15.5660  15.5695  15.5697
    15.5775  15.5776  15.5854  15.5862  15.5875  15.5879  15.5890  15.5891
    15.5941  15.5944  15.6052  15.6054  15.6066  15.6068  15.6113  15.6118
    15.6187  15.6189  15.6218  15.6219  15.6307  15.6310  15.6335  15.6343
    15.6435  15.6437  15.6468  15.6470  15.6492  15.6495  15.6521  15.6522
    15.6553  15.6554  15.6580  15.6585  15.6594  15.6596  15.6709  15.6714
    15.6747  15.6752  15.6774  15.6776  15.6819  15.6823  15.6853  15.6858
    15.6912  15.6914  15.6944  15.6951  15.6969  15.6971  15.7023  15.7026
    15.7039  15.7041  15.7138  15.7140  15.7194  15.7197  15.7263  15.7264
    15.7308  15.7310  15.7360  15.7361  15.7383  15.7384  15.7421  15.7428
    15.7460  15.7470  15.7474  15.7478  15.7551  15.7552  15.7591  15.7598
    15.7630  15.7631  15.7693  15.7694  15.7718  15.7720  15.7785  15.7786
    15.7803  15.7804  15.7885  15.7887  15.7903  15.7905  15.7986  15.7986
    15.8047  15.8051  15.8152  15.8156  15.8213  15.8214  15.8280  15.8282
    15.8318  15.8318  15.8339  15.8340  15.8349  15.8350  15.8470  15.8475
    15.8494  15.8494  15.8526  15.8527  15.8604  15.8607  15.8670  15.8673
    15.8695  15.8696  15.8759  15.8764  15.8854  15.8855  15.8900  15.8903
    15.8944  15.8945  15.8958  15.8961  15.9018  15.9021  15.9050  15.9055
    15.9076  15.9079  15.9137  15.9138  15.9189  15.9191  15.9245  15.9246
    15.9283  15.9285  15.9362  15.9366  15.9433  15.9434  15.9456  15.9462
    15.9516  15.9520  15.9543  15.9555  15.9617  15.9624  15.9625  15.9631
    15.9720  15.9722  15.9829  15.9838  15.9856  15.9859  15.9910  15.9919
    15.9957  15.9959  16.0015  16.0016  16.0066  16.0078  16.0102  16.0107
    16.0140  16.0141  16.0168  16.0172  16.0193  16.0201  16.0282  16.0283
    16.0355  16.0358  16.0377  16.0379  16.0432  16.0433  16.0479  16.0482
    16.0496  16.0499  16.0581  16.0592  16.0614  16.0616  16.0638  16.0639
    16.0708  16.0714  16.0755  16.0756  16.0841  16.0844  16.0906  16.0907
    16.0932  16.0937  16.0947  16.0955  16.1005  16.1013  16.1029  16.1032
    16.1079  16.1082  16.1157  16.1158  16.1247  16.1248  16.1286  16.1288
    16.1292  16.1301  16.1370  16.1372  16.1450  16.1453  16.1487  16.1488
    16.1511  16.1512  16.1586  16.1587  16.1644  16.1649  16.1657  16.1658
    16.1737  16.1739  16.1762  16.1762  16.1813  16.1822  16.1839  16.1845
    16.1876  16.1879  16.1901  16.1902  16.2024  16.2025  16.2051  16.2053
    16.2104  16.2105  16.2132  16.2139  16.2179  16.2181  16.2255  16.2256
    16.2319  16.2337  16.2352  16.2356  16.2362  16.2369  16.2391  16.2391
    16.2560  16.2562  16.2705  16.2719  16.2730  16.2733  16.2752  16.2754
    16.2768  16.2773  16.2785  16.2789  16.2824  16.2825  16.2905  16.2907
    16.2955  16.2956  16.3071  16.3075  16.3097  16.3098  16.3185  16.3186
    16.3233  16.3237  16.3246  16.3256  16.3263  16.3264  16.3326  16.3333
    16.3375  16.3376  16.3484  16.3485  16.3558  16.3563  16.3613  16.3617
    16.3765  16.3785  16.3797  16.3804  16.3842  16.3847  16.3892  16.3894
    16.3966  16.3970  16.4012  16.4036  16.4046  16.4054  16.4089  16.4097
    16.4206  16.4207  16.4230  16.4232  16.4300  16.4302  16.4344  16.4346
    16.4358  16.4359  16.4420  16.4421  16.4512  16.4518  16.4565  16.4566
    16.4589  16.4595  16.4653  16.4655  16.4683  16.4685  16.4702  16.4709
    16.4870  16.4874  16.4914  16.4915  16.4956  16.4958  16.5002  16.5003
    16.5051  16.5060  16.5182  16.5184  16.5238  16.5239  16.5262  16.5265
    16.5356  16.5357  16.5365  16.5372  16.5469  16.5469  16.5530  16.5531
    16.5557  16.5559  16.5560  16.5563  16.5584  16.5586  16.5649  16.5653
    16.5780  16.5783  16.5838  16.5846  16.5863  16.5864  16.5971  16.5974
    16.6107  16.6109  16.6141  16.6146  16.6212  16.6216  16.6232  16.6234
    16.6283  16.6284  16.6292  16.6295  16.6389  16.6390  16.6403  16.6406

     Writing all to output data dir ./CNT_PBE.save/

     init_run     :      7.60s CPU     11.87s WALL (       1 calls)
     electrons    :  12767.15s CPU  13581.23s WALL (       1 calls)

     Called by init_run:
     wfcinit      :      0.02s CPU      0.01s WALL (       1 calls)
     wfcinit:wfcr :    248.27s CPU    194.05s WALL (       1 calls)
     potinit      :      0.96s CPU      4.81s WALL (       1 calls)
     hinit0       :      1.77s CPU      2.11s WALL (       1 calls)

     Called by electrons:
     c_bands      :  12767.14s CPU  13581.10s WALL (       1 calls)
     v_of_rho     :      0.31s CPU      1.25s WALL (       1 calls)
     v_h          :      0.04s CPU      0.40s WALL (       1 calls)
     v_xc         :      0.28s CPU      0.85s WALL (       1 calls)

     Called by c_bands:
     init_us_2    :      0.00s CPU      0.01s WALL (       1 calls)
     init_us_2:cp :      0.00s CPU      0.01s WALL (       1 calls)
     cegterg      :  12518.57s CPU  13386.22s WALL (       3 calls)

     Called by sum_band:

     Called by *egterg:
     cdiaghg      :   1974.02s CPU   4218.76s WALL (      43 calls)
     cegterg:over :   2576.75s CPU   2748.34s WALL (      42 calls)
     cegterg:upda :   1992.60s CPU   2194.22s WALL (      42 calls)
     cegterg:last :   1389.91s CPU   1519.47s WALL (      10 calls)
     cdiaghg:chol :     29.80s CPU    162.10s WALL (      43 calls)
     cdiaghg:inve :      0.45s CPU      1.79s WALL (      43 calls)
     cdiaghg:para :    474.17s CPU   1576.93s WALL (      86 calls)
     h_psi        :   4700.45s CPU   2753.68s WALL (      46 calls)
     g_psi        :      2.15s CPU      0.57s WALL (      42 calls)

     Called by h_psi:
     h_psi:calbec :    843.18s CPU    869.34s WALL (      46 calls)
     vloc_psi     :   3025.44s CPU   1052.57s WALL (      46 calls)
     add_vuspsi   :    827.53s CPU    830.44s WALL (      46 calls)

     General routines
     calbec       :    843.18s CPU    869.34s WALL (      46 calls)
     fft          :      1.20s CPU      2.61s WALL (      10 calls)
     fftw         :   2992.69s CPU   1043.59s WALL (  262074 calls)
     davcio       :      0.00s CPU      0.27s WALL (       2 calls)

     Parallel routines
     fft_scatt_xy :     60.72s CPU     15.90s WALL (  262084 calls)
     fft_scatt_yz :   2615.15s CPU    944.09s WALL (  262084 calls)

     PWSCF        :      3h35m CPU      3h55m WALL


   This run was terminated on:   6:13:42   1Apr2024            

=------------------------------------------------------------------------------=
   JOB DONE.
=------------------------------------------------------------------------------=
Note: The following floating-point exceptions are signalling: IEEE_UNDERFLOW_FLAG IEEE_DENORMAL
Note: The following floating-point exceptions are signalling: IEEE_DENORMAL
Note: The following floating-point exceptions are signalling: IEEE_DENORMAL
Note: The following floating-point exceptions are signalling: IEEE_DENORMAL
Note: The following floating-point exceptions are signalling: IEEE_DENORMAL
Note: The following floating-point exceptions are signalling: IEEE_DENORMAL
Note: The following floating-point exceptions are signalling: IEEE_DENORMAL
Note: The following floating-point exceptions are signalling: IEEE_DENORMAL
Note: The following floating-point exceptions are signalling: IEEE_DENORMAL
Note: The following floating-point exceptions are signalling: IEEE_DENORMAL
Note: The following floating-point exceptions are signalling: IEEE_DENORMAL
Note: The following floating-point exceptions are signalling: IEEE_DENORMAL
Note: The following floating-point exceptions are signalling: IEEE_DENORMAL
Note: The following floating-point exceptions are signalling: IEEE_DENORMAL
Note: The following floating-point exceptions are signalling: IEEE_DENORMAL
Note: The following floating-point exceptions are signalling: IEEE_DENORMAL
Note: The following floating-point exceptions are signalling: IEEE_DENORMAL
Note: The following floating-point exceptions are signalling: IEEE_DENORMAL
Note: The following floating-point exceptions are signalling: IEEE_DENORMAL
Note: The following floating-point exceptions are signalling: IEEE_DENORMAL
Note: The following floating-point exceptions are signalling: IEEE_DENORMAL
Note: The following floating-point exceptions are signalling: IEEE_DENORMAL
Note: The following floating-point exceptions are signalling: IEEE_DENORMAL
Note: The following floating-point exceptions are signalling: IEEE_DENORMAL
Note: The following floating-point exceptions are signalling: IEEE_DENORMAL
Note: The following floating-point exceptions are signalling: IEEE_DENORMAL
Note: The following floating-point exceptions are signalling: IEEE_DENORMAL
Note: The following floating-point exceptions are signalling: IEEE_DENORMAL
Note: The following floating-point exceptions are signalling: IEEE_DENORMAL
Note: The following floating-point exceptions are signalling: IEEE_DENORMAL
Note: The following floating-point exceptions are signalling: IEEE_DENORMAL
Note: The following floating-point exceptions are signalling: IEEE_DENORMAL
Note: The following floating-point exceptions are signalling: IEEE_DENORMAL
Note: The following floating-point exceptions are signalling: IEEE_DENORMAL
Note: The following floating-point exceptions are signalling: IEEE_DENORMAL
Note: The following floating-point exceptions are signalling: IEEE_DENORMAL
Note: The following floating-point exceptions are signalling: IEEE_DENORMAL
Note: The following floating-point exceptions are signalling: IEEE_DENORMAL
Note: The following floating-point exceptions are signalling: IEEE_DENORMAL
Note: The following floating-point exceptions are signalling: IEEE_DENORMAL
Note: The following floating-point exceptions are signalling: IEEE_DENORMAL
Note: The following floating-point exceptions are signalling: IEEE_DENORMAL
Note: The following floating-point exceptions are signalling: IEEE_DENORMAL
Note: The following floating-point exceptions are signalling: IEEE_DENORMAL
Note: The following floating-point exceptions are signalling: IEEE_DENORMAL
Note: The following floating-point exceptions are signalling: IEEE_DENORMAL
Note: The following floating-point exceptions are signalling: IEEE_DENORMAL
Note: The following floating-point exceptions are signalling: IEEE_DENORMAL
Note: The following floating-point exceptions are signalling: IEEE_DENORMAL
Note: The following floating-point exceptions are signalling: IEEE_DENORMAL
Note: The following floating-point exceptions are signalling: IEEE_DENORMAL
Note: The following floating-point exceptions are signalling: IEEE_DENORMAL
Note: The following floating-point exceptions are signalling: IEEE_DENORMAL
Note: The following floating-point exceptions are signalling: IEEE_DENORMAL
Note: The following floating-point exceptions are signalling: IEEE_DENORMAL
Note: The following floating-point exceptions are signalling: IEEE_DENORMAL
Note: The following floating-point exceptions are signalling: IEEE_DENORMAL
Note: The following floating-point exceptions are signalling: IEEE_DENORMAL
Note: The following floating-point exceptions are signalling: IEEE_DENORMAL
Note: The following floating-point exceptions are signalling: IEEE_DENORMAL
Note: The following floating-point exceptions are signalling: IEEE_DENORMAL
Note: The following floating-point exceptions are signalling: IEEE_DENORMAL
Note: The following floating-point exceptions are signalling: IEEE_DENORMAL
Note: The following floating-point exceptions are signalling: IEEE_DENORMAL
Note: The following floating-point exceptions are signalling: IEEE_DENORMAL
Note: The following floating-point exceptions are signalling: IEEE_DENORMAL
Note: The following floating-point exceptions are signalling: IEEE_DENORMAL
Note: The following floating-point exceptions are signalling: IEEE_DENORMAL
Note: The following floating-point exceptions are signalling: IEEE_DENORMAL
Note: The following floating-point exceptions are signalling: IEEE_DENORMAL
Note: The following floating-point exceptions are signalling: IEEE_DENORMAL
Note: The following floating-point exceptions are signalling: IEEE_DENORMAL
Note: The following floating-point exceptions are signalling: IEEE_DENORMAL
Note: The following floating-point exceptions are signalling: IEEE_DENORMAL
Note: The following floating-point exceptions are signalling: IEEE_DENORMAL
Note: The following floating-point exceptions are signalling: IEEE_DENORMAL
Note: The following floating-point exceptions are signalling: IEEE_DENORMAL
Note: The following floating-point exceptions are signalling: IEEE_DENORMAL
Note: The following floating-point exceptions are signalling: IEEE_DENORMAL
Note: The following floating-point exceptions are signalling: IEEE_DENORMAL
Note: The following floating-point exceptions are signalling: IEEE_DENORMAL
Note: The following floating-point exceptions are signalling: IEEE_DENORMAL
Note: The following floating-point exceptions are signalling: IEEE_DENORMAL
Note: The following floating-point exceptions are signalling: IEEE_DENORMAL
Note: The following floating-point exceptions are signalling: IEEE_DENORMAL
Note: The following floating-point exceptions are signalling: IEEE_DENORMAL
Note: The following floating-point exceptions are signalling: IEEE_DENORMAL
Note: The following floating-point exceptions are signalling: IEEE_DENORMAL
Note: The following floating-point exceptions are signalling: IEEE_DENORMAL
Note: The following floating-point exceptions are signalling: IEEE_DENORMAL
Note: The following floating-point exceptions are signalling: IEEE_DENORMAL
Note: The following floating-point exceptions are signalling: IEEE_DENORMAL
Note: The following floating-point exceptions are signalling: IEEE_DENORMAL
Note: The following floating-point exceptions are signalling: IEEE_DENORMAL
Note: The following floating-point exceptions are signalling: IEEE_DENORMAL
Note: The following floating-point exceptions are signalling: IEEE_DENORMAL
Note: The following floating-point exceptions are signalling: IEEE_DENORMAL
Note: The following floating-point exceptions are signalling: IEEE_DENORMAL
Note: The following floating-point exceptions are signalling: IEEE_DENORMAL
Note: The following floating-point exceptions are signalling: IEEE_DENORMAL
Note: The following floating-point exceptions are signalling: IEEE_DENORMAL
Note: The following floating-point exceptions are signalling: IEEE_DENORMAL
Note: The following floating-point exceptions are signalling: IEEE_DENORMAL
Note: The following floating-point exceptions are signalling: IEEE_DENORMAL
Note: The following floating-point exceptions are signalling: IEEE_DENORMAL
Note: The following floating-point exceptions are signalling: IEEE_DENORMAL
Note: The following floating-point exceptions are signalling: IEEE_DENORMAL
Note: The following floating-point exceptions are signalling: IEEE_DENORMAL
Note: The following floating-point exceptions are signalling: IEEE_DENORMAL
Note: The following floating-point exceptions are signalling: IEEE_DENORMAL
Note: The following floating-point exceptions are signalling: IEEE_DENORMAL
Note: The following floating-point exceptions are signalling: IEEE_DENORMAL
Note: The following floating-point exceptions are signalling: IEEE_DENORMAL
Note: The following floating-point exceptions are signalling: IEEE_DENORMAL
Note: The following floating-point exceptions are signalling: IEEE_DENORMAL
Note: The following floating-point exceptions are signalling: IEEE_DENORMAL
Note: The following floating-point exceptions are signalling: IEEE_DENORMAL
Note: The following floating-point exceptions are signalling: IEEE_DENORMAL
Note: The following floating-point exceptions are signalling: IEEE_DENORMAL
Note: The following floating-point exceptions are signalling: IEEE_DENORMAL
Note: The following floating-point exceptions are signalling: IEEE_DENORMAL
Note: The following floating-point exceptions are signalling: IEEE_DENORMAL
Note: The following floating-point exceptions are signalling: IEEE_DENORMAL
Note: The following floating-point exceptions are signalling: IEEE_DENORMAL
Note: The following floating-point exceptions are signalling: IEEE_DENORMAL
Note: The following floating-point exceptions are signalling: IEEE_DENORMAL
Note: The following floating-point exceptions are signalling: IEEE_DENORMAL
Note: The following floating-point exceptions are signalling: IEEE_DENORMAL
Note: The following floating-point exceptions are signalling: IEEE_DENORMAL
Note: The following floating-point exceptions are signalling: IEEE_DENORMAL
Note: The following floating-point exceptions are signalling: IEEE_DENORMAL
Note: The following floating-point exceptions are signalling: IEEE_DENORMAL
Note: The following floating-point exceptions are signalling: IEEE_DENORMAL
Note: The following floating-point exceptions are signalling: IEEE_DENORMAL
Note: The following floating-point exceptions are signalling: IEEE_DENORMAL
Note: The following floating-point exceptions are signalling: IEEE_DENORMAL
Note: The following floating-point exceptions are signalling: IEEE_DENORMAL
Note: The following floating-point exceptions are signalling: IEEE_DENORMAL
Note: The following floating-point exceptions are signalling: IEEE_DENORMAL
Note: The following floating-point exceptions are signalling: IEEE_DENORMAL
Note: The following floating-point exceptions are signalling: IEEE_DENORMAL
Note: The following floating-point exceptions are signalling: IEEE_DENORMAL
Note: The following floating-point exceptions are signalling: IEEE_DENORMAL
Note: The following floating-point exceptions are signalling: IEEE_DENORMAL
Note: The following floating-point exceptions are signalling: IEEE_DENORMAL
Note: The following floating-point exceptions are signalling: IEEE_DENORMAL
Note: The following floating-point exceptions are signalling: IEEE_DENORMAL
Note: The following floating-point exceptions are signalling: IEEE_DENORMAL
Note: The following floating-point exceptions are signalling: IEEE_DENORMAL
Note: The following floating-point exceptions are signalling: IEEE_DENORMAL
Note: The following floating-point exceptions are signalling: IEEE_DENORMAL
Note: The following floating-point exceptions are signalling: IEEE_DENORMAL
Note: The following floating-point exceptions are signalling: IEEE_DENORMAL
Note: The following floating-point exceptions are signalling: IEEE_DENORMAL
Note: The following floating-point exceptions are signalling: IEEE_DENORMAL
Note: The following floating-point exceptions are signalling: IEEE_DENORMAL
Note: The following floating-point exceptions are signalling: IEEE_DENORMAL
Note: The following floating-point exceptions are signalling: IEEE_DENORMAL
Note: The following floating-point exceptions are signalling: IEEE_DENORMAL
Note: The following floating-point exceptions are signalling: IEEE_DENORMAL
Note: The following floating-point exceptions are signalling: IEEE_DENORMAL
Note: The following floating-point exceptions are signalling: IEEE_DENORMAL
Note: The following floating-point exceptions are signalling: IEEE_DENORMAL
Note: The following floating-point exceptions are signalling: IEEE_DENORMAL
Note: The following floating-point exceptions are signalling: IEEE_DENORMAL
Note: The following floating-point exceptions are signalling: IEEE_DENORMAL
Note: The following floating-point exceptions are signalling: IEEE_DENORMAL
Note: The following floating-point exceptions are signalling: IEEE_DENORMAL
Note: The following floating-point exceptions are signalling: IEEE_DENORMAL
Note: The following floating-point exceptions are signalling: IEEE_DENORMAL
Note: The following floating-point exceptions are signalling: IEEE_DENORMAL
Note: The following floating-point exceptions are signalling: IEEE_DENORMAL
Note: The following floating-point exceptions are signalling: IEEE_INVALID_FLAG IEEE_DENORMAL
Note: The following floating-point exceptions are signalling: IEEE_DENORMAL
Note: The following floating-point exceptions are signalling: IEEE_DENORMAL
Note: The following floating-point exceptions are signalling: IEEE_DENORMAL
Note: The following floating-point exceptions are signalling: IEEE_DENORMAL
Note: The following floating-point exceptions are signalling: IEEE_DENORMAL
Note: The following floating-point exceptions are signalling: IEEE_DENORMAL
Note: The following floating-point exceptions are signalling: IEEE_DENORMAL
Note: The following floating-point exceptions are signalling: IEEE_DENORMAL
Note: The following floating-point exceptions are signalling: IEEE_DENORMAL
Note: The following floating-point exceptions are signalling: IEEE_DENORMAL
Note: The following floating-point exceptions are signalling: IEEE_DENORMAL
Note: The following floating-point exceptions are signalling: IEEE_DENORMAL
Note: The following floating-point exceptions are signalling: IEEE_DENORMAL
Note: The following floating-point exceptions are signalling: IEEE_DENORMAL
Note: The following floating-point exceptions are signalling: IEEE_DENORMAL
Note: The following floating-point exceptions are signalling: IEEE_DENORMAL
Note: The following floating-point exceptions are signalling: IEEE_DENORMAL
Note: The following floating-point exceptions are signalling: IEEE_DENORMAL
Note: The following floating-point exceptions are signalling: IEEE_DENORMAL
Note: The following floating-point exceptions are signalling: IEEE_DENORMAL
Note: The following floating-point exceptions are signalling: IEEE_DENORMAL
Note: The following floating-point exceptions are signalling: IEEE_DENORMAL
Note: The following floating-point exceptions are signalling: IEEE_DENORMAL
Note: The following floating-point exceptions are signalling: IEEE_DENORMAL
Note: The following floating-point exceptions are signalling: IEEE_DENORMAL
Note: The following floating-point exceptions are signalling: IEEE_DENORMAL
Note: The following floating-point exceptions are signalling: IEEE_DENORMAL
Note: The following floating-point exceptions are signalling: IEEE_DENORMAL
Note: The following floating-point exceptions are signalling: IEEE_DENORMAL
Note: The following floating-point exceptions are signalling: IEEE_DENORMAL
Note: The following floating-point exceptions are signalling: IEEE_DENORMAL
Note: The following floating-point exceptions are signalling: IEEE_DENORMAL
Note: The following floating-point exceptions are signalling: IEEE_DENORMAL
Note: The following floating-point exceptions are signalling: IEEE_DENORMAL
Note: The following floating-point exceptions are signalling: IEEE_DENORMAL
Note: The following floating-point exceptions are signalling: IEEE_DENORMAL
Note: The following floating-point exceptions are signalling: IEEE_DENORMAL
Note: The following floating-point exceptions are signalling: IEEE_DENORMAL
Note: The following floating-point exceptions are signalling: IEEE_DENORMAL
Note: The following floating-point exceptions are signalling: IEEE_DENORMAL
Note: The following floating-point exceptions are signalling: IEEE_DENORMAL
Note: The following floating-point exceptions are signalling: IEEE_DENORMAL
Note: The following floating-point exceptions are signalling: IEEE_DENORMAL
Note: The following floating-point exceptions are signalling: IEEE_DENORMAL
Note: The following floating-point exceptions are signalling: IEEE_DENORMAL
Note: The following floating-point exceptions are signalling: IEEE_DENORMAL
Note: The following floating-point exceptions are signalling: IEEE_DENORMAL
Note: The following floating-point exceptions are signalling: IEEE_DENORMAL
Note: The following floating-point exceptions are signalling: IEEE_DENORMAL
Note: The following floating-point exceptions are signalling: IEEE_DENORMAL
Note: The following floating-point exceptions are signalling: IEEE_DENORMAL
Note: The following floating-point exceptions are signalling: IEEE_DENORMAL
Note: The following floating-point exceptions are signalling: IEEE_DENORMAL
Note: The following floating-point exceptions are signalling: IEEE_DENORMAL
Note: The following floating-point exceptions are signalling: IEEE_DENORMAL
Note: The following floating-point exceptions are signalling: IEEE_DENORMAL
Note: The following floating-point exceptions are signalling: IEEE_DENORMAL
Note: The following floating-point exceptions are signalling: IEEE_DENORMAL
Note: The following floating-point exceptions are signalling: IEEE_DENORMAL
Note: The following floating-point exceptions are signalling: IEEE_DENORMAL
Note: The following floating-point exceptions are signalling: IEEE_DENORMAL
Note: The following floating-point exceptions are signalling: IEEE_DENORMAL
Note: The following floating-point exceptions are signalling: IEEE_DENORMAL
Note: The following floating-point exceptions are signalling: IEEE_DENORMAL
Note: The following floating-point exceptions are signalling: IEEE_DENORMAL
Note: The following floating-point exceptions are signalling: IEEE_DENORMAL
Note: The following floating-point exceptions are signalling: IEEE_DENORMAL
Note: The following floating-point exceptions are signalling: IEEE_DENORMAL
Note: The following floating-point exceptions are signalling: IEEE_DENORMAL
Note: The following floating-point exceptions are signalling: IEEE_DENORMAL
Note: The following floating-point exceptions are signalling: IEEE_DENORMAL
Note: The following floating-point exceptions are signalling: IEEE_DENORMAL
Note: The following floating-point exceptions are signalling: IEEE_DENORMAL
Note: The following floating-point exceptions are signalling: IEEE_DENORMAL
Note: The following floating-point exceptions are signalling: IEEE_DENORMAL
Note: The following floating-point exceptions are signalling: IEEE_DENORMAL
Note: The following floating-point exceptions are signalling: IEEE_DENORMAL
Note: The following floating-point exceptions are signalling: IEEE_DENORMAL
Note: The following floating-point exceptions are signalling: IEEE_DENORMAL
Note: The following floating-point exceptions are signalling: IEEE_DENORMAL
Note: The following floating-point exceptions are signalling: IEEE_DENORMAL
Note: The following floating-point exceptions are signalling: IEEE_DENORMAL
Note: The following floating-point exceptions are signalling: IEEE_DENORMAL
Note: The following floating-point exceptions are signalling: IEEE_DENORMAL
Note: The following floating-point exceptions are signalling: IEEE_DENORMAL
Note: The following floating-point exceptions are signalling: IEEE_DENORMAL
Note: The following floating-point exceptions are signalling: IEEE_DENORMAL
Note: The following floating-point exceptions are signalling: IEEE_DENORMAL
Note: The following floating-point exceptions are signalling: IEEE_DENORMAL
Note: The following floating-point exceptions are signalling: IEEE_DENORMAL
Note: The following floating-point exceptions are signalling: IEEE_DENORMAL
Note: The following floating-point exceptions are signalling: IEEE_DENORMAL
Note: The following floating-point exceptions are signalling: IEEE_DENORMAL
Note: The following floating-point exceptions are signalling: IEEE_DENORMAL
Note: The following floating-point exceptions are signalling: IEEE_DENORMAL
Note: The following floating-point exceptions are signalling: IEEE_DENORMAL
Note: The following floating-point exceptions are signalling: IEEE_DENORMAL
Note: The following floating-point exceptions are signalling: IEEE_DENORMAL
Note: The following floating-point exceptions are signalling: IEEE_DENORMAL
Note: The following floating-point exceptions are signalling: IEEE_DENORMAL
Note: The following floating-point exceptions are signalling: IEEE_DENORMAL
Note: The following floating-point exceptions are signalling: IEEE_DENORMAL
Note: The following floating-point exceptions are signalling: IEEE_DENORMAL
Note: The following floating-point exceptions are signalling: IEEE_DENORMAL
Note: The following floating-point exceptions are signalling: IEEE_DENORMAL
Note: The following floating-point exceptions are signalling: IEEE_DENORMAL
Note: The following floating-point exceptions are signalling: IEEE_DENORMAL
Note: The following floating-point exceptions are signalling: IEEE_DENORMAL
Note: The following floating-point exceptions are signalling: IEEE_DENORMAL
Note: The following floating-point exceptions are signalling: IEEE_DENORMAL
Note: The following floating-point exceptions are signalling: IEEE_DENORMAL
Note: The following floating-point exceptions are signalling: IEEE_DENORMAL
Note: The following floating-point exceptions are signalling: IEEE_DENORMAL
Note: The following floating-point exceptions are signalling: IEEE_DENORMAL
Note: The following floating-point exceptions are signalling: IEEE_DENORMAL
Note: The following floating-point exceptions are signalling: IEEE_DENORMAL
Note: The following floating-point exceptions are signalling: IEEE_DENORMAL
Note: The following floating-point exceptions are signalling: IEEE_DENORMAL
Note: The following floating-point exceptions are signalling: IEEE_DENORMAL
Note: The following floating-point exceptions are signalling: IEEE_DENORMAL
Note: The following floating-point exceptions are signalling: IEEE_DENORMAL
Note: The following floating-point exceptions are signalling: IEEE_DENORMAL
Note: The following floating-point exceptions are signalling: IEEE_DENORMAL
Note: The following floating-point exceptions are signalling: IEEE_DENORMAL
Note: The following floating-point exceptions are signalling: IEEE_DENORMAL
Note: The following floating-point exceptions are signalling: IEEE_DENORMAL
Note: The following floating-point exceptions are signalling: IEEE_DENORMAL
Note: The following floating-point exceptions are signalling: IEEE_DENORMAL
Note: The following floating-point exceptions are signalling: IEEE_DENORMAL
Note: The following floating-point exceptions are signalling: IEEE_DENORMAL
Note: The following floating-point exceptions are signalling: IEEE_DENORMAL
Note: The following floating-point exceptions are signalling: IEEE_DENORMAL
Note: The following floating-point exceptions are signalling: IEEE_DENORMAL
Note: The following floating-point exceptions are signalling: IEEE_DENORMAL
Note: The following floating-point exceptions are signalling: IEEE_DENORMAL
Note: The following floating-point exceptions are signalling: IEEE_DENORMAL
Note: The following floating-point exceptions are signalling: IEEE_DENORMAL
Note: The following floating-point exceptions are signalling: IEEE_DENORMAL
Note: The following floating-point exceptions are signalling: IEEE_DENORMAL
Note: The following floating-point exceptions are signalling: IEEE_DENORMAL
Note: The following floating-point exceptions are signalling: IEEE_DENORMAL
Note: The following floating-point exceptions are signalling: IEEE_DENORMAL
Note: The following floating-point exceptions are signalling: IEEE_DENORMAL
Note: The following floating-point exceptions are signalling: IEEE_DENORMAL
Note: The following floating-point exceptions are signalling: IEEE_DENORMAL
Note: The following floating-point exceptions are signalling: IEEE_DENORMAL
Note: The following floating-point exceptions are signalling: IEEE_DENORMAL
Note: The following floating-point exceptions are signalling: IEEE_DENORMAL
Note: The following floating-point exceptions are signalling: IEEE_DENORMAL
Note: The following floating-point exceptions are signalling: IEEE_DENORMAL
Note: The following floating-point exceptions are signalling: IEEE_DENORMAL
Note: The following floating-point exceptions are signalling: IEEE_DENORMAL
Note: The following floating-point exceptions are signalling: IEEE_DENORMAL
Note: The following floating-point exceptions are signalling: IEEE_DENORMAL
Note: The following floating-point exceptions are signalling: IEEE_DENORMAL
Note: The following floating-point exceptions are signalling: IEEE_DENORMAL
Note: The following floating-point exceptions are signalling: IEEE_DENORMAL
Note: The following floating-point exceptions are signalling: IEEE_DENORMAL
Note: The following floating-point exceptions are signalling: IEEE_DENORMAL
Note: The following floating-point exceptions are signalling: IEEE_DENORMAL
Note: The following floating-point exceptions are signalling: IEEE_DENORMAL
Note: The following floating-point exceptions are signalling: IEEE_DENORMAL
Note: The following floating-point exceptions are signalling: IEEE_DENORMAL
Note: The following floating-point exceptions are signalling: IEEE_DENORMAL
Note: The following floating-point exceptions are signalling: IEEE_DENORMAL
Note: The following floating-point exceptions are signalling: IEEE_DENORMAL
Note: The following floating-point exceptions are signalling: IEEE_DENORMAL
Note: The following floating-point exceptions are signalling: IEEE_DENORMAL
Note: The following floating-point exceptions are signalling: IEEE_DENORMAL
Note: The following floating-point exceptions are signalling: IEEE_DENORMAL
Note: The following floating-point exceptions are signalling: IEEE_DENORMAL
Note: The following floating-point exceptions are signalling: IEEE_DENORMAL
Note: The following floating-point exceptions are signalling: IEEE_DENORMAL
Note: The following floating-point exceptions are signalling: IEEE_DENORMAL
Note: The following floating-point exceptions are signalling: IEEE_DENORMAL
Note: The following floating-point exceptions are signalling: IEEE_DENORMAL
Note: The following floating-point exceptions are signalling: IEEE_DENORMAL
Note: The following floating-point exceptions are signalling: IEEE_DENORMAL
Note: The following floating-point exceptions are signalling: IEEE_DENORMAL
Note: The following floating-point exceptions are signalling: IEEE_DENORMAL
Note: The following floating-point exceptions are signalling: IEEE_DENORMAL
Note: The following floating-point exceptions are signalling: IEEE_DENORMAL
Note: The following floating-point exceptions are signalling: IEEE_DENORMAL
Note: The following floating-point exceptions are signalling: IEEE_DENORMAL
Note: The following floating-point exceptions are signalling: IEEE_DENORMAL
Note: The following floating-point exceptions are signalling: IEEE_DENORMAL
Note: The following floating-point exceptions are signalling: IEEE_DENORMAL
Note: The following floating-point exceptions are signalling: IEEE_DENORMAL
Note: The following floating-point exceptions are signalling: IEEE_DENORMAL
Note: The following floating-point exceptions are signalling: IEEE_DENORMAL
Note: The following floating-point exceptions are signalling: IEEE_DENORMAL
Note: The following floating-point exceptions are signalling: IEEE_DENORMAL
Note: The following floating-point exceptions are signalling: IEEE_DENORMAL
Note: The following floating-point exceptions are signalling: IEEE_DENORMAL
Note: The following floating-point exceptions are signalling: IEEE_DENORMAL
Note: The following floating-point exceptions are signalling: IEEE_DENORMAL
Note: The following floating-point exceptions are signalling: IEEE_DENORMAL
Note: The following floating-point exceptions are signalling: IEEE_DENORMAL
Note: The following floating-point exceptions are signalling: IEEE_DENORMAL
Note: The following floating-point exceptions are signalling: IEEE_DENORMAL
Note: The following floating-point exceptions are signalling: IEEE_DENORMAL
Note: The following floating-point exceptions are signalling: IEEE_DENORMAL
Note: The following floating-point exceptions are signalling: IEEE_DENORMAL
Note: The following floating-point exceptions are signalling: IEEE_DENORMAL
Note: The following floating-point exceptions are signalling: IEEE_DENORMAL
Note: The following floating-point exceptions are signalling: IEEE_DENORMAL
Note: The following floating-point exceptions are signalling: IEEE_DENORMAL
Note: The following floating-point exceptions are signalling: IEEE_DENORMAL
Note: The following floating-point exceptions are signalling: IEEE_DENORMAL
Note: The following floating-point exceptions are signalling: IEEE_DENORMAL
Note: The following floating-point exceptions are signalling: IEEE_DENORMAL
Note: The following floating-point exceptions are signalling: IEEE_DENORMAL
Note: The following floating-point exceptions are signalling: IEEE_DENORMAL
Note: The following floating-point exceptions are signalling: IEEE_DENORMAL
Note: The following floating-point exceptions are signalling: IEEE_DENORMAL
Note: The following floating-point exceptions are signalling: IEEE_DENORMAL
Note: The following floating-point exceptions are signalling: IEEE_DENORMAL
Note: The following floating-point exceptions are signalling: IEEE_DENORMAL
Note: The following floating-point exceptions are signalling: IEEE_DENORMAL
Note: The following floating-point exceptions are signalling: IEEE_DENORMAL
Note: The following floating-point exceptions are signalling: IEEE_DENORMAL
Note: The following floating-point exceptions are signalling: IEEE_DENORMAL
Note: The following floating-point exceptions are signalling: IEEE_DENORMAL
Note: The following floating-point exceptions are signalling: IEEE_DENORMAL
Note: The following floating-point exceptions are signalling: IEEE_DENORMAL
Note: The following floating-point exceptions are signalling: IEEE_DENORMAL
Note: The following floating-point exceptions are signalling: IEEE_DENORMAL
Note: The following floating-point exceptions are signalling: IEEE_DENORMAL
Note: The following floating-point exceptions are signalling: IEEE_DENORMAL
Note: The following floating-point exceptions are signalling: IEEE_DENORMAL
Note: The following floating-point exceptions are signalling: IEEE_DENORMAL
Note: The following floating-point exceptions are signalling: IEEE_DENORMAL
Note: The following floating-point exceptions are signalling: IEEE_DENORMAL
Note: The following floating-point exceptions are signalling: IEEE_DENORMAL
Note: The following floating-point exceptions are signalling: IEEE_DENORMAL
Note: The following floating-point exceptions are signalling: IEEE_DENORMAL
Note: The following floating-point exceptions are signalling: IEEE_DENORMAL
Note: The following floating-point exceptions are signalling: IEEE_DENORMAL
Note: The following floating-point exceptions are signalling: IEEE_DENORMAL
Note: The following floating-point exceptions are signalling: IEEE_DENORMAL
Note: The following floating-point exceptions are signalling: IEEE_DENORMAL
Note: The following floating-point exceptions are signalling: IEEE_DENORMAL
Note: The following floating-point exceptions are signalling: IEEE_DENORMAL
Note: The following floating-point exceptions are signalling: IEEE_DENORMAL
Note: The following floating-point exceptions are signalling: IEEE_DENORMAL
Note: The following floating-point exceptions are signalling: IEEE_DENORMAL
Note: The following floating-point exceptions are signalling: IEEE_DENORMAL
Note: The following floating-point exceptions are signalling: IEEE_DENORMAL
Note: The following floating-point exceptions are signalling: IEEE_DENORMAL
Note: The following floating-point exceptions are signalling: IEEE_DENORMAL
Note: The following floating-point exceptions are signalling: IEEE_DENORMAL
Note: The following floating-point exceptions are signalling: IEEE_DENORMAL
Note: The following floating-point exceptions are signalling: IEEE_DENORMAL
Note: The following floating-point exceptions are signalling: IEEE_DENORMAL
Note: The following floating-point exceptions are signalling: IEEE_DENORMAL
Note: The following floating-point exceptions are signalling: IEEE_DENORMAL
Note: The following floating-point exceptions are signalling: IEEE_DENORMAL
Note: The following floating-point exceptions are signalling: IEEE_DENORMAL
Note: The following floating-point exceptions are signalling: IEEE_DENORMAL
Note: The following floating-point exceptions are signalling: IEEE_DENORMAL
Note: The following floating-point exceptions are signalling: IEEE_DENORMAL
Note: The following floating-point exceptions are signalling: IEEE_DENORMAL
Note: The following floating-point exceptions are signalling: IEEE_DENORMAL
Note: The following floating-point exceptions are signalling: IEEE_DENORMAL
Note: The following floating-point exceptions are signalling: IEEE_DENORMAL
Note: The following floating-point exceptions are signalling: IEEE_DENORMAL
Note: The following floating-point exceptions are signalling: IEEE_DENORMAL
Note: The following floating-point exceptions are signalling: IEEE_DENORMAL
Note: The following floating-point exceptions are signalling: IEEE_DENORMAL
Note: The following floating-point exceptions are signalling: IEEE_DENORMAL
Note: The following floating-point exceptions are signalling: IEEE_DENORMAL
Note: The following floating-point exceptions are signalling: IEEE_DENORMAL
Note: The following floating-point exceptions are signalling: IEEE_DENORMAL
Note: The following floating-point exceptions are signalling: IEEE_DENORMAL
Note: The following floating-point exceptions are signalling: IEEE_DENORMAL
Note: The following floating-point exceptions are signalling: IEEE_DENORMAL
Note: The following floating-point exceptions are signalling: IEEE_DENORMAL
Note: The following floating-point exceptions are signalling: IEEE_DENORMAL
Note: The following floating-point exceptions are signalling: IEEE_DENORMAL
Note: The following floating-point exceptions are signalling: IEEE_DENORMAL
Note: The following floating-point exceptions are signalling: IEEE_DENORMAL
Note: The following floating-point exceptions are signalling: IEEE_DENORMAL
Note: The following floating-point exceptions are signalling: IEEE_DENORMAL
Note: The following floating-point exceptions are signalling: IEEE_DENORMAL
Note: The following floating-point exceptions are signalling: IEEE_DENORMAL
Note: The following floating-point exceptions are signalling: IEEE_DENORMAL
Note: The following floating-point exceptions are signalling: IEEE_DENORMAL
Note: The following floating-point exceptions are signalling: IEEE_DENORMAL
Note: The following floating-point exceptions are signalling: IEEE_DENORMAL
Note: The following floating-point exceptions are signalling: IEEE_DENORMAL
Note: The following floating-point exceptions are signalling: IEEE_DENORMAL
Note: The following floating-point exceptions are signalling: IEEE_DENORMAL
Note: The following floating-point exceptions are signalling: IEEE_DENORMAL
Note: The following floating-point exceptions are signalling: IEEE_DENORMAL
Note: The following floating-point exceptions are signalling: IEEE_DENORMAL
Note: The following floating-point exceptions are signalling: IEEE_DENORMAL
Note: The following floating-point exceptions are signalling: IEEE_DENORMAL
Note: The following floating-point exceptions are signalling: IEEE_DENORMAL
Note: The following floating-point exceptions are signalling: IEEE_DENORMAL
Note: The following floating-point exceptions are signalling: IEEE_DENORMAL
Note: The following floating-point exceptions are signalling: IEEE_DENORMAL
Note: The following floating-point exceptions are signalling: IEEE_DENORMAL
Note: The following floating-point exceptions are signalling: IEEE_DENORMAL
Note: The following floating-point exceptions are signalling: IEEE_DENORMAL
Note: The following floating-point exceptions are signalling: IEEE_DENORMAL
Note: The following floating-point exceptions are signalling: IEEE_DENORMAL
Note: The following floating-point exceptions are signalling: IEEE_DENORMAL
Note: The following floating-point exceptions are signalling: IEEE_DENORMAL
Note: The following floating-point exceptions are signalling: IEEE_DENORMAL
Note: The following floating-point exceptions are signalling: IEEE_DENORMAL
Note: The following floating-point exceptions are signalling: IEEE_DENORMAL
Note: The following floating-point exceptions are signalling: IEEE_DENORMAL
Note: The following floating-point exceptions are signalling: IEEE_DENORMAL
Note: The following floating-point exceptions are signalling: IEEE_DENORMAL
Note: The following floating-point exceptions are signalling: IEEE_DENORMAL
Note: The following floating-point exceptions are signalling: IEEE_DENORMAL
Note: The following floating-point exceptions are signalling: IEEE_DENORMAL
Note: The following floating-point exceptions are signalling: IEEE_DENORMAL
Note: The following floating-point exceptions are signalling: IEEE_DENORMAL
Note: The following floating-point exceptions are signalling: IEEE_DENORMAL
Note: The following floating-point exceptions are signalling: IEEE_DENORMAL
Note: The following floating-point exceptions are signalling: IEEE_DENORMAL
Note: The following floating-point exceptions are signalling: IEEE_DENORMAL
Note: The following floating-point exceptions are signalling: IEEE_DENORMAL
Note: The following floating-point exceptions are signalling: IEEE_DENORMAL
Note: The following floating-point exceptions are signalling: IEEE_DENORMAL
Note: The following floating-point exceptions are signalling: IEEE_DENORMAL
Note: The following floating-point exceptions are signalling: IEEE_DENORMAL
Note: The following floating-point exceptions are signalling: IEEE_DENORMAL
Note: The following floating-point exceptions are signalling: IEEE_DENORMAL
Note: The following floating-point exceptions are signalling: IEEE_DENORMAL
Note: The following floating-point exceptions are signalling: IEEE_DENORMAL
Note: The following floating-point exceptions are signalling: IEEE_DENORMAL
Note: The following floating-point exceptions are signalling: IEEE_DENORMAL
Note: The following floating-point exceptions are signalling: IEEE_DENORMAL
Note: The following floating-point exceptions are signalling: IEEE_DENORMAL
Note: The following floating-point exceptions are signalling: IEEE_DENORMAL
Note: The following floating-point exceptions are signalling: IEEE_DENORMAL
Note: The following floating-point exceptions are signalling: IEEE_DENORMAL
Note: The following floating-point exceptions are signalling: IEEE_DENORMAL
Note: The following floating-point exceptions are signalling: IEEE_DENORMAL
Note: The following floating-point exceptions are signalling: IEEE_DENORMAL
Note: The following floating-point exceptions are signalling: IEEE_DENORMAL
Note: The following floating-point exceptions are signalling: IEEE_DENORMAL
Note: The following floating-point exceptions are signalling: IEEE_DENORMAL
Note: The following floating-point exceptions are signalling: IEEE_DENORMAL
Note: The following floating-point exceptions are signalling: IEEE_DENORMAL
Note: The following floating-point exceptions are signalling: IEEE_DENORMAL
Note: The following floating-point exceptions are signalling: IEEE_DENORMAL
Note: The following floating-point exceptions are signalling: IEEE_DENORMAL
Note: The following floating-point exceptions are signalling: IEEE_DENORMAL
Note: The following floating-point exceptions are signalling: IEEE_DENORMAL
Note: The following floating-point exceptions are signalling: IEEE_DENORMAL
Note: The following floating-point exceptions are signalling: IEEE_DENORMAL
Note: The following floating-point exceptions are signalling: IEEE_DENORMAL
Note: The following floating-point exceptions are signalling: IEEE_DENORMAL
Note: The following floating-point exceptions are signalling: IEEE_DENORMAL
Note: The following floating-point exceptions are signalling: IEEE_DENORMAL
Note: The following floating-point exceptions are signalling: IEEE_DENORMAL
Note: The following floating-point exceptions are signalling: IEEE_DENORMAL
Note: The following floating-point exceptions are signalling: IEEE_DENORMAL
Note: The following floating-point exceptions are signalling: IEEE_DENORMAL
Note: The following floating-point exceptions are signalling: IEEE_DENORMAL
Note: The following floating-point exceptions are signalling: IEEE_DENORMAL
Note: The following floating-point exceptions are signalling: IEEE_DENORMAL
Note: The following floating-point exceptions are signalling: IEEE_DENORMAL
Note: The following floating-point exceptions are signalling: IEEE_DENORMAL
Note: The following floating-point exceptions are signalling: IEEE_DENORMAL
Note: The following floating-point exceptions are signalling: IEEE_DENORMAL
Note: The following floating-point exceptions are signalling: IEEE_DENORMAL
Note: The following floating-point exceptions are signalling: IEEE_DENORMAL
Note: The following floating-point exceptions are signalling: IEEE_DENORMAL
Note: The following floating-point exceptions are signalling: IEEE_DENORMAL
Note: The following floating-point exceptions are signalling: IEEE_DENORMAL
Note: The following floating-point exceptions are signalling: IEEE_DENORMAL
Note: The following floating-point exceptions are signalling: IEEE_DENORMAL
Note: The following floating-point exceptions are signalling: IEEE_DENORMAL
Note: The following floating-point exceptions are signalling: IEEE_DENORMAL
Note: The following floating-point exceptions are signalling: IEEE_DENORMAL
Note: The following floating-point exceptions are signalling: IEEE_DENORMAL
Note: The following floating-point exceptions are signalling: IEEE_DENORMAL
Note: The following floating-point exceptions are signalling: IEEE_DENORMAL
Note: The following floating-point exceptions are signalling: IEEE_DENORMAL
Note: The following floating-point exceptions are signalling: IEEE_DENORMAL
Note: The following floating-point exceptions are signalling: IEEE_DENORMAL
Note: The following floating-point exceptions are signalling: IEEE_DENORMAL
Note: The following floating-point exceptions are signalling: IEEE_DENORMAL
Note: The following floating-point exceptions are signalling: IEEE_DENORMAL
Note: The following floating-point exceptions are signalling: IEEE_DENORMAL
Note: The following floating-point exceptions are signalling: IEEE_DENORMAL
Note: The following floating-point exceptions are signalling: IEEE_DENORMAL
Note: The following floating-point exceptions are signalling: IEEE_DENORMAL
Note: The following floating-point exceptions are signalling: IEEE_DENORMAL
Note: The following floating-point exceptions are signalling: IEEE_DENORMAL
Note: The following floating-point exceptions are signalling: IEEE_DENORMAL
Note: The following floating-point exceptions are signalling: IEEE_DENORMAL
Note: The following floating-point exceptions are signalling: IEEE_DENORMAL
Note: The following floating-point exceptions are signalling: IEEE_DENORMAL
Note: The following floating-point exceptions are signalling: IEEE_DENORMAL
Note: The following floating-point exceptions are signalling: IEEE_DENORMAL
Note: The following floating-point exceptions are signalling: IEEE_DENORMAL
Note: The following floating-point exceptions are signalling: IEEE_DENORMAL
Note: The following floating-point exceptions are signalling: IEEE_DENORMAL
Note: The following floating-point exceptions are signalling: IEEE_DENORMAL
Note: The following floating-point exceptions are signalling: IEEE_DENORMAL
Note: The following floating-point exceptions are signalling: IEEE_DENORMAL
Note: The following floating-point exceptions are signalling: IEEE_DENORMAL
Note: The following floating-point exceptions are signalling: IEEE_DENORMAL
Note: The following floating-point exceptions are signalling: IEEE_DENORMAL
Note: The following floating-point exceptions are signalling: IEEE_DENORMAL
Note: The following floating-point exceptions are signalling: IEEE_DENORMAL
Note: The following floating-point exceptions are signalling: IEEE_DENORMAL
Note: The following floating-point exceptions are signalling: IEEE_DENORMAL
Note: The following floating-point exceptions are signalling: IEEE_DENORMAL
Note: The following floating-point exceptions are signalling: IEEE_DENORMAL
Note: The following floating-point exceptions are signalling: IEEE_DENORMAL
Note: The following floating-point exceptions are signalling: IEEE_DENORMAL
Note: The following floating-point exceptions are signalling: IEEE_DENORMAL
Note: The following floating-point exceptions are signalling: IEEE_DENORMAL
Note: The following floating-point exceptions are signalling: IEEE_DENORMAL
Note: The following floating-point exceptions are signalling: IEEE_DENORMAL
Note: The following floating-point exceptions are signalling: IEEE_DENORMAL
Note: The following floating-point exceptions are signalling: IEEE_DENORMAL
Note: The following floating-point exceptions are signalling: IEEE_DENORMAL
Note: The following floating-point exceptions are signalling: IEEE_DENORMAL
Note: The following floating-point exceptions are signalling: IEEE_DENORMAL
Note: The following floating-point exceptions are signalling: IEEE_DENORMAL
Note: The following floating-point exceptions are signalling: IEEE_DENORMAL
Note: The following floating-point exceptions are signalling: IEEE_DENORMAL
Note: The following floating-point exceptions are signalling: IEEE_DENORMAL
Note: The following floating-point exceptions are signalling: IEEE_DENORMAL
Note: The following floating-point exceptions are signalling: IEEE_DENORMAL
Note: The following floating-point exceptions are signalling: IEEE_DENORMAL
Note: The following floating-point exceptions are signalling: IEEE_DENORMAL
Note: The following floating-point exceptions are signalling: IEEE_DENORMAL
Note: The following floating-point exceptions are signalling: IEEE_DENORMAL
Note: The following floating-point exceptions are signalling: IEEE_DENORMAL
Note: The following floating-point exceptions are signalling: IEEE_DENORMAL
Note: The following floating-point exceptions are signalling: IEEE_DENORMAL
Note: The following floating-point exceptions are signalling: IEEE_DENORMAL
Note: The following floating-point exceptions are signalling: IEEE_DENORMAL
Note: The following floating-point exceptions are signalling: IEEE_DENORMAL
Note: The following floating-point exceptions are signalling: IEEE_DENORMAL
Note: The following floating-point exceptions are signalling: IEEE_DENORMAL
Note: The following floating-point exceptions are signalling: IEEE_DENORMAL
Note: The following floating-point exceptions are signalling: IEEE_DENORMAL
Note: The following floating-point exceptions are signalling: IEEE_DENORMAL
Note: The following floating-point exceptions are signalling: IEEE_DENORMAL
Note: The following floating-point exceptions are signalling: IEEE_DENORMAL
Note: The following floating-point exceptions are signalling: IEEE_DENORMAL
Note: The following floating-point exceptions are signalling: IEEE_DENORMAL
Note: The following floating-point exceptions are signalling: IEEE_DENORMAL
Note: The following floating-point exceptions are signalling: IEEE_DENORMAL
Note: The following floating-point exceptions are signalling: IEEE_DENORMAL
Note: The following floating-point exceptions are signalling: IEEE_DENORMAL
Note: The following floating-point exceptions are signalling: IEEE_DENORMAL
Note: The following floating-point exceptions are signalling: IEEE_DENORMAL
Note: The following floating-point exceptions are signalling: IEEE_DENORMAL
Note: The following floating-point exceptions are signalling: IEEE_DENORMAL
Note: The following floating-point exceptions are signalling: IEEE_DENORMAL
Note: The following floating-point exceptions are signalling: IEEE_DENORMAL
Note: The following floating-point exceptions are signalling: IEEE_DENORMAL
Note: The following floating-point exceptions are signalling: IEEE_DENORMAL
Note: The following floating-point exceptions are signalling: IEEE_DENORMAL
Note: The following floating-point exceptions are signalling: IEEE_DENORMAL
Note: The following floating-point exceptions are signalling: IEEE_DENORMAL
Note: The following floating-point exceptions are signalling: IEEE_DENORMAL
Note: The following floating-point exceptions are signalling: IEEE_DENORMAL
Note: The following floating-point exceptions are signalling: IEEE_DENORMAL
Note: The following floating-point exceptions are signalling: IEEE_DENORMAL
Note: The following floating-point exceptions are signalling: IEEE_DENORMAL
Note: The following floating-point exceptions are signalling: IEEE_DENORMAL
Note: The following floating-point exceptions are signalling: IEEE_DENORMAL
Note: The following floating-point exceptions are signalling: IEEE_DENORMAL
Note: The following floating-point exceptions are signalling: IEEE_DENORMAL
Note: The following floating-point exceptions are signalling: IEEE_DENORMAL
Note: The following floating-point exceptions are signalling: IEEE_DENORMAL
Note: The following floating-point exceptions are signalling: IEEE_DENORMAL
Note: The following floating-point exceptions are signalling: IEEE_DENORMAL
Note: The following floating-point exceptions are signalling: IEEE_DENORMAL
Note: The following floating-point exceptions are signalling: IEEE_DENORMAL
Note: The following floating-point exceptions are signalling: IEEE_DENORMAL
Note: The following floating-point exceptions are signalling: IEEE_DENORMAL
Note: The following floating-point exceptions are signalling: IEEE_DENORMAL
Note: The following floating-point exceptions are signalling: IEEE_DENORMAL
Note: The following floating-point exceptions are signalling: IEEE_DENORMAL
Note: The following floating-point exceptions are signalling: IEEE_DENORMAL
Note: The following floating-point exceptions are signalling: IEEE_DENORMAL
Note: The following floating-point exceptions are signalling: IEEE_DENORMAL
Note: The following floating-point exceptions are signalling: IEEE_DENORMAL
Note: The following floating-point exceptions are signalling: IEEE_DENORMAL
Note: The following floating-point exceptions are signalling: IEEE_DENORMAL
Note: The following floating-point exceptions are signalling: IEEE_DENORMAL
Note: The following floating-point exceptions are signalling: IEEE_DENORMAL
Note: The following floating-point exceptions are signalling: IEEE_DENORMAL
Note: The following floating-point exceptions are signalling: IEEE_DENORMAL
Note: The following floating-point exceptions are signalling: IEEE_DENORMAL
Note: The following floating-point exceptions are signalling: IEEE_DENORMAL
Note: The following floating-point exceptions are signalling: IEEE_DENORMAL
Note: The following floating-point exceptions are signalling: IEEE_DENORMAL
Note: The following floating-point exceptions are signalling: IEEE_DENORMAL
Note: The following floating-point exceptions are signalling: IEEE_DENORMAL
Note: The following floating-point exceptions are signalling: IEEE_DENORMAL
Note: The following floating-point exceptions are signalling: IEEE_DENORMAL
Note: The following floating-point exceptions are signalling: IEEE_DENORMAL
Note: The following floating-point exceptions are signalling: IEEE_DENORMAL
Note: The following floating-point exceptions are signalling: IEEE_DENORMAL
Note: The following floating-point exceptions are signalling: IEEE_DENORMAL
Note: The following floating-point exceptions are signalling: IEEE_DENORMAL
Note: The following floating-point exceptions are signalling: IEEE_DENORMAL
Note: The following floating-point exceptions are signalling: IEEE_DENORMAL
Note: The following floating-point exceptions are signalling: IEEE_DENORMAL
Note: The following floating-point exceptions are signalling: IEEE_DENORMAL
Note: The following floating-point exceptions are signalling: IEEE_DENORMAL
Note: The following floating-point exceptions are signalling: IEEE_DENORMAL
Note: The following floating-point exceptions are signalling: IEEE_DENORMAL
Note: The following floating-point exceptions are signalling: IEEE_DENORMAL
Note: The following floating-point exceptions are signalling: IEEE_DENORMAL
Note: The following floating-point exceptions are signalling: IEEE_DENORMAL
Note: The following floating-point exceptions are signalling: IEEE_DENORMAL
Note: The following floating-point exceptions are signalling: IEEE_DENORMAL
Note: The following floating-point exceptions are signalling: IEEE_DENORMAL
Note: The following floating-point exceptions are signalling: IEEE_DENORMAL
Note: The following floating-point exceptions are signalling: IEEE_DENORMAL
Note: The following floating-point exceptions are signalling: IEEE_DENORMAL
Note: The following floating-point exceptions are signalling: IEEE_DENORMAL
Note: The following floating-point exceptions are signalling: IEEE_DENORMAL
Note: The following floating-point exceptions are signalling: IEEE_DENORMAL
Note: The following floating-point exceptions are signalling: IEEE_DENORMAL
Note: The following floating-point exceptions are signalling: IEEE_DENORMAL
Note: The following floating-point exceptions are signalling: IEEE_DENORMAL
Note: The following floating-point exceptions are signalling: IEEE_DENORMAL
Note: The following floating-point exceptions are signalling: IEEE_DENORMAL
