Ge Se                                   
    1.000000000000000     
    12.4176118636252735    0.0000059553883417   -0.0000024896483797
     0.0000059961489691   12.5025932733485057   -0.0000025160201653
    -0.0000028526525919   -0.0000028632723534   11.0529725174202120
   Ge   Se
    36    36
Direct
  0.0782275809420980  0.0489074181713320  0.1386234781109863
  0.2223579729138763  0.8524272868227385  0.3759538025058191
  0.5637604589645875  0.2043629722495908  0.3646936200800539
  0.5912643608085020  0.5623170178239860  0.3820857243173421
  0.5468900069684608  0.8659478143929249  0.3672985160259969
  0.8903274723194201  0.1960016161086173  0.3794657191684152
  0.9024590460634982  0.5434078655971817  0.3700279461914135
  0.9186643128205816  0.8828129887064620  0.3664350130429241
  0.0925809464589449  0.1701738951881850  0.6367569462296387
  0.0643092016738578  0.4647400367411336  0.6412383219159281
  0.0781990474697665  0.8094659209643353  0.6209956374720278
  0.3990004947582761  0.1453582457737284  0.6269128003841971
  0.4367436663001101  0.5033208405300655  0.6307073287333651
  0.3964568541704239  0.8177624477689065  0.6299652870426300
  0.7412474707622536  0.1421537015173584  0.6227477548884153
  0.7501124054451012  0.4831644476873649  0.6190974436830246
  0.2285680982893652  0.5171459429917533  0.3839722742960134
  0.2293132975081846  0.2167679545646877  0.3564755807338926
  0.7632731205525332  0.8367389363572428  0.6161725678920362
  0.9043089450443276  0.6492402317854911  0.8690005891593842
  0.9489794434197876  0.0108833337674810  0.8727235330388012
  0.0714405290851730  0.3890040715623471  0.0911565996487269
  0.0645518869067629  0.7155193543455667  0.1287122410366095
  0.3863213318221810  0.0290652892634569  0.1319632515241622
  0.4327224398791572  0.3649601810043137  0.1430571382663004
  0.7482466863965271  0.0299543077250490  0.1307041148684718
  0.7252243032624861  0.3810412774054797  0.1225471360008399
  0.4000002582179008  0.6893947673067018  0.1101897749488572
  0.2607636011568033  0.3330647405473073  0.8723898588214638
  0.2344500089113666  0.6382183458918149  0.8529834976490420
  0.2388228099732643  0.0031654940809815  0.8878148228785889
  0.5738315009126111  0.3257069619888497  0.8786625222977946
  0.5929104789859849  0.6712647322226104  0.8543894373748202
  0.5729831317805036  0.9627429556909988  0.8816251772504131
  0.8857727927660477  0.3118030620182353  0.8821710231385822
  0.7327222125893513  0.7231339677712754  0.1322774348674542
  0.8908321646341548  0.0008458002771405  0.6498003192872517
  0.2265030996462798  0.3290878077172863  0.6429691675234253
  0.2319468258162871  0.6723762617882869  0.6365020271342416
  0.5764575815594171  0.0091947695224235  0.6585676295425742
  0.5866538553093577  0.3562391505662461  0.6469500995674338
  0.5565170208276129  0.6642749967947523  0.6366134384501052
  0.9080657985878062  0.3335491365336765  0.6512685644339413
  0.7437669771526743  0.9979771275611284  0.3588229135007950
  0.0808080260201365  0.0140615371743493  0.3577372511705121
  0.0694041470686528  0.3566408162684525  0.3330714235305763
  0.0554481533194746  0.6630052834485056  0.3477782385428938
  0.3889423629752997  0.0076806436859869  0.3654338105527017
  0.3918493200929518  0.3406358740286564  0.3802158289202637
  0.4252503453601690  0.6877406014291054  0.3452484569182488
  0.2448007474110980  0.0219493080150812  0.6521275287866644
  0.8970008915463055  0.6788951711480564  0.6356190585780936
  0.9061135813504961  0.8502996596648984  0.1264797788590784
  0.2518712838742090  0.1800841085699787  0.1309248344613039
  0.9034545556357401  0.1851234596070128  0.1441441892700368
  0.7356103228468669  0.3396301899936844  0.3571752056839088
  0.0598263417274154  0.1784118881253107  0.8708962439499572
  0.0653858611223939  0.5045890177720196  0.8538476717225478
  0.0850519878639062  0.8613844971796851  0.8410631639086148
  0.4138480413354912  0.1840799628302250  0.8547410301576477
  0.3904076481174741  0.5066843621303789  0.8510731895446213
  0.3959563162389301  0.8337892028685658  0.8612679782448041
  0.7337835927547403  0.1836191698732677  0.8550502121475105
  0.7500500314263974  0.5220476758864478  0.8522204737094654
  0.7318829032268468  0.8411761757230423  0.8521721410881540
  0.2537799385783543  0.5090587240750963  0.1437208902693570
  0.2340369164405232  0.8376342617226982  0.1460780315741417
  0.5586724512747949  0.1688310982880594  0.1343109234532989
  0.5783566931723811  0.5285321242792236  0.1334520553763383
  0.5797735370397206  0.8638390494039214  0.1417947147448189
  0.8895176201879380  0.5118225767726372  0.1461021848685036
  0.7388283535525986  0.6974181899734049  0.3614296107248833
 
  0.00000000E+00  0.00000000E+00  0.00000000E+00
  0.00000000E+00  0.00000000E+00  0.00000000E+00
  0.00000000E+00  0.00000000E+00  0.00000000E+00
  0.00000000E+00  0.00000000E+00  0.00000000E+00
  0.00000000E+00  0.00000000E+00  0.00000000E+00
  0.00000000E+00  0.00000000E+00  0.00000000E+00
  0.00000000E+00  0.00000000E+00  0.00000000E+00
  0.00000000E+00  0.00000000E+00  0.00000000E+00
  0.00000000E+00  0.00000000E+00  0.00000000E+00
  0.00000000E+00  0.00000000E+00  0.00000000E+00
  0.00000000E+00  0.00000000E+00  0.00000000E+00
  0.00000000E+00  0.00000000E+00  0.00000000E+00
  0.00000000E+00  0.00000000E+00  0.00000000E+00
  0.00000000E+00  0.00000000E+00  0.00000000E+00
  0.00000000E+00  0.00000000E+00  0.00000000E+00
  0.00000000E+00  0.00000000E+00  0.00000000E+00
  0.00000000E+00  0.00000000E+00  0.00000000E+00
  0.00000000E+00  0.00000000E+00  0.00000000E+00
  0.00000000E+00  0.00000000E+00  0.00000000E+00
  0.00000000E+00  0.00000000E+00  0.00000000E+00
  0.00000000E+00  0.00000000E+00  0.00000000E+00
  0.00000000E+00  0.00000000E+00  0.00000000E+00
  0.00000000E+00  0.00000000E+00  0.00000000E+00
  0.00000000E+00  0.00000000E+00  0.00000000E+00
  0.00000000E+00  0.00000000E+00  0.00000000E+00
  0.00000000E+00  0.00000000E+00  0.00000000E+00
  0.00000000E+00  0.00000000E+00  0.00000000E+00
  0.00000000E+00  0.00000000E+00  0.00000000E+00
  0.00000000E+00  0.00000000E+00  0.00000000E+00
  0.00000000E+00  0.00000000E+00  0.00000000E+00
  0.00000000E+00  0.00000000E+00  0.00000000E+00
  0.00000000E+00  0.00000000E+00  0.00000000E+00
  0.00000000E+00  0.00000000E+00  0.00000000E+00
  0.00000000E+00  0.00000000E+00  0.00000000E+00
  0.00000000E+00  0.00000000E+00  0.00000000E+00
  0.00000000E+00  0.00000000E+00  0.00000000E+00
  0.00000000E+00  0.00000000E+00  0.00000000E+00
  0.00000000E+00  0.00000000E+00  0.00000000E+00
  0.00000000E+00  0.00000000E+00  0.00000000E+00
  0.00000000E+00  0.00000000E+00  0.00000000E+00
  0.00000000E+00  0.00000000E+00  0.00000000E+00
  0.00000000E+00  0.00000000E+00  0.00000000E+00
  0.00000000E+00  0.00000000E+00  0.00000000E+00
  0.00000000E+00  0.00000000E+00  0.00000000E+00
  0.00000000E+00  0.00000000E+00  0.00000000E+00
  0.00000000E+00  0.00000000E+00  0.00000000E+00
  0.00000000E+00  0.00000000E+00  0.00000000E+00
  0.00000000E+00  0.00000000E+00  0.00000000E+00
  0.00000000E+00  0.00000000E+00  0.00000000E+00
  0.00000000E+00  0.00000000E+00  0.00000000E+00
  0.00000000E+00  0.00000000E+00  0.00000000E+00
  0.00000000E+00  0.00000000E+00  0.00000000E+00
  0.00000000E+00  0.00000000E+00  0.00000000E+00
  0.00000000E+00  0.00000000E+00  0.00000000E+00
  0.00000000E+00  0.00000000E+00  0.00000000E+00
  0.00000000E+00  0.00000000E+00  0.00000000E+00
  0.00000000E+00  0.00000000E+00  0.00000000E+00
  0.00000000E+00  0.00000000E+00  0.00000000E+00
  0.00000000E+00  0.00000000E+00  0.00000000E+00
  0.00000000E+00  0.00000000E+00  0.00000000E+00
  0.00000000E+00  0.00000000E+00  0.00000000E+00
  0.00000000E+00  0.00000000E+00  0.00000000E+00
  0.00000000E+00  0.00000000E+00  0.00000000E+00
  0.00000000E+00  0.00000000E+00  0.00000000E+00
  0.00000000E+00  0.00000000E+00  0.00000000E+00
  0.00000000E+00  0.00000000E+00  0.00000000E+00
  0.00000000E+00  0.00000000E+00  0.00000000E+00
  0.00000000E+00  0.00000000E+00  0.00000000E+00
  0.00000000E+00  0.00000000E+00  0.00000000E+00
  0.00000000E+00  0.00000000E+00  0.00000000E+00
  0.00000000E+00  0.00000000E+00  0.00000000E+00
  0.00000000E+00  0.00000000E+00  0.00000000E+00
