Ge Se
 1.0000000000000000
     4.5999999999999996    0.0000000000000000    0.0000000000000000
     0.0000000000000000    4.5000000000000000    0.0000000000000000
     0.0000000000000000    0.0000000000000000   11.1422209999999993
 Ge  Se 
   4   4
Selective dynamics
Cartesian
  0.4819912727936347  1.1250000000000000  1.5014338698210787   T   T   T
  2.7819912727936358  3.3750000000000000  4.0696766301789200   T   T   T
  4.1180087272063641  3.3750000000000000  9.6407871301789179   T   T   T
  1.8180087272063639  1.1250000000000000  7.0725443698210793   T   T   T
 -0.2218931815610735  1.1250000000000000  3.9315576458765609   T   T   T
  2.0781068184389255  3.3750000000000000  1.6395528541234385   T   T   T
  4.8218931815610713  3.3750000000000000  7.2106633541234366   T   T   T
  2.5218931815610750  1.1250000000000000  9.5026681458765569   T   T   T
