Ge Se                                   
    1.000000000000000     
    12.4601081133104277   -0.0000066825705145    0.0000000871085691
    -0.0000066825705145   12.4601046199401466   -0.0000037882947662
     0.0000000988315799   -0.0000042981208486   10.9821315807991997
   Ge   Se
    36    36
Direct
  0.0489294330247318  0.0553586118512044  0.1214267586941062
  0.2328351306373051  0.8741553362689203  0.3675686541260603
  0.5588704343376421  0.2221133645495073  0.3711456117442324
  0.5621275796619685  0.5435689303983651  0.3588776074985915
  0.5676491618014978  0.8755517189523303  0.3383975625915951
  0.9294742384073302  0.2067724943021858  0.3589799994683744
  0.9078514235748543  0.5137132860131786  0.3639626202720621
  0.9079461673778226  0.8763325630767724  0.3723697547774520
  0.0632627683790616  0.1400769567339779  0.6280466962832563
  0.0728299458388051  0.4617458200964819  0.6338693041362333
  0.0751695322484238  0.8027261267163013  0.6183552132314603
  0.4056057970676648  0.1646578601799078  0.6485944926030456
  0.3903728303353873  0.4706259081024626  0.6185457816553992
  0.4098370634756563  0.8100661970878633  0.6345659702917814
  0.7570165357257821  0.1493553294719803  0.6359387063131763
  0.7423918618616767  0.4667590536597217  0.6255676259191461
  0.2360278949551642  0.5213753936565553  0.3672358594386154
  0.2302890825452266  0.2127015328380324  0.3447691988950794
  0.7328855890917225  0.8039977958730020  0.6557280554306431
  0.9171266965873102  0.6372040394129712  0.8677320442124596
  0.8856873164119321  0.9910520352212799  0.8619585626345270
  0.0680595793712655  0.3785111565590213  0.1294977609290910
  0.0958700833029553  0.7200290003920458  0.0951614532999585
  0.4236885960333723  0.0486946725287751  0.1311524322722804
  0.3743547131236937  0.3870377381233752  0.1196702763833528
  0.7310201999029005  0.0179245879050853  0.1464001960230163
  0.7437552830324279  0.3753143705112478  0.1186122088370354
  0.4190137158261820  0.7212776051222320  0.1438310640053260
  0.2352911301481484  0.3384554421823509  0.8794968538569989
  0.2621751603376055  0.6297460249407578  0.8941300004163537
  0.2297370694047913  0.0028246114853161  0.8936148779094424
  0.5703174494642340  0.3147804137627119  0.8934152661806323
  0.5569768201521583  0.6112375259570726  0.8861214945754270
  0.6047273885100068  0.9488521631966762  0.8750619458683460
  0.8841081181001798  0.3079663684742542  0.8530322310181475
  0.7227929923740959  0.6856636731848198  0.1073185964397751
  0.9207159823871365  0.0117729932976403  0.6206143155636923
  0.2274899659322784  0.3331173206145337  0.6566305307696467
  0.2062246838096016  0.6660130499262209  0.6699332630212993
  0.5322019018132096  0.0072642494600004  0.6291744330288722
  0.5425350232337109  0.3450557138811590  0.6246905744350215
  0.5266466112615831  0.6684594491082549  0.6162326275991887
  0.9066376374307907  0.3754733272980744  0.6172765716298869
  0.7288016182328008  0.0137441952145991  0.3604423078699597
  0.0723576761225431  0.9904469583063218  0.3606819734397888
  0.0508311432795594  0.3354040268920855  0.3752796585337563
  0.0579195589606201  0.6908267970651067  0.3526205355682350
  0.4055178679061839  0.0169741659349611  0.3702776396740859
  0.4146423678089377  0.3360167125066980  0.3888849022181304
  0.4126465657834544  0.6965944417231498  0.3768809458182361
  0.2401907998982793  0.0022687664730796  0.5964381100962370
  0.8871574754662532  0.6765246580336068  0.6415920597508205
  0.9136595552131013  0.8369450038927795  0.1368188527941143
  0.2327530195519287  0.1933781682789117  0.1271901464439651
  0.9109799126298910  0.2026983107629903  0.1542688290600580
  0.7410646623911035  0.3753770351064460  0.3927746869025555
  0.0784184601985842  0.1346413630997390  0.8434955448932584
  0.0677273913548717  0.5109707704743371  0.8432836210395251
  0.0639884554751902  0.8380083320662166  0.8496977104338086
  0.4127074429672675  0.1768331574973985  0.8479289291081145
  0.3978463870597864  0.5109358379683826  0.8382566784499943
  0.3937639042684751  0.8540728361301930  0.8765017929837100
  0.6982390024078740  0.2172034313589961  0.8472206401353617
  0.7492162016105581  0.4895717039483714  0.8716461556237718
  0.7370216441388067  0.8437380770868330  0.8535988344499401
  0.2327189666759111  0.5085480559434217  0.1111533721092499
  0.2383135645990251  0.8475945442687021  0.1321730561144108
  0.5481880324457649  0.1759429016695719  0.1379634851187106
  0.5699819783782871  0.5157114536332443  0.1190853548689006
  0.5865491771566553  0.8609526431583561  0.1553165101572915
  0.9215939494731700  0.5201383959322143  0.1435932291076583
  0.7920172604886204  0.7110104212628841  0.3897763688399962
 
  0.00000000E+00  0.00000000E+00  0.00000000E+00
  0.00000000E+00  0.00000000E+00  0.00000000E+00
  0.00000000E+00  0.00000000E+00  0.00000000E+00
  0.00000000E+00  0.00000000E+00  0.00000000E+00
  0.00000000E+00  0.00000000E+00  0.00000000E+00
  0.00000000E+00  0.00000000E+00  0.00000000E+00
  0.00000000E+00  0.00000000E+00  0.00000000E+00
  0.00000000E+00  0.00000000E+00  0.00000000E+00
  0.00000000E+00  0.00000000E+00  0.00000000E+00
  0.00000000E+00  0.00000000E+00  0.00000000E+00
  0.00000000E+00  0.00000000E+00  0.00000000E+00
  0.00000000E+00  0.00000000E+00  0.00000000E+00
  0.00000000E+00  0.00000000E+00  0.00000000E+00
  0.00000000E+00  0.00000000E+00  0.00000000E+00
  0.00000000E+00  0.00000000E+00  0.00000000E+00
  0.00000000E+00  0.00000000E+00  0.00000000E+00
  0.00000000E+00  0.00000000E+00  0.00000000E+00
  0.00000000E+00  0.00000000E+00  0.00000000E+00
  0.00000000E+00  0.00000000E+00  0.00000000E+00
  0.00000000E+00  0.00000000E+00  0.00000000E+00
  0.00000000E+00  0.00000000E+00  0.00000000E+00
  0.00000000E+00  0.00000000E+00  0.00000000E+00
  0.00000000E+00  0.00000000E+00  0.00000000E+00
  0.00000000E+00  0.00000000E+00  0.00000000E+00
  0.00000000E+00  0.00000000E+00  0.00000000E+00
  0.00000000E+00  0.00000000E+00  0.00000000E+00
  0.00000000E+00  0.00000000E+00  0.00000000E+00
  0.00000000E+00  0.00000000E+00  0.00000000E+00
  0.00000000E+00  0.00000000E+00  0.00000000E+00
  0.00000000E+00  0.00000000E+00  0.00000000E+00
  0.00000000E+00  0.00000000E+00  0.00000000E+00
  0.00000000E+00  0.00000000E+00  0.00000000E+00
  0.00000000E+00  0.00000000E+00  0.00000000E+00
  0.00000000E+00  0.00000000E+00  0.00000000E+00
  0.00000000E+00  0.00000000E+00  0.00000000E+00
  0.00000000E+00  0.00000000E+00  0.00000000E+00
  0.00000000E+00  0.00000000E+00  0.00000000E+00
  0.00000000E+00  0.00000000E+00  0.00000000E+00
  0.00000000E+00  0.00000000E+00  0.00000000E+00
  0.00000000E+00  0.00000000E+00  0.00000000E+00
  0.00000000E+00  0.00000000E+00  0.00000000E+00
  0.00000000E+00  0.00000000E+00  0.00000000E+00
  0.00000000E+00  0.00000000E+00  0.00000000E+00
  0.00000000E+00  0.00000000E+00  0.00000000E+00
  0.00000000E+00  0.00000000E+00  0.00000000E+00
  0.00000000E+00  0.00000000E+00  0.00000000E+00
  0.00000000E+00  0.00000000E+00  0.00000000E+00
  0.00000000E+00  0.00000000E+00  0.00000000E+00
  0.00000000E+00  0.00000000E+00  0.00000000E+00
  0.00000000E+00  0.00000000E+00  0.00000000E+00
  0.00000000E+00  0.00000000E+00  0.00000000E+00
  0.00000000E+00  0.00000000E+00  0.00000000E+00
  0.00000000E+00  0.00000000E+00  0.00000000E+00
  0.00000000E+00  0.00000000E+00  0.00000000E+00
  0.00000000E+00  0.00000000E+00  0.00000000E+00
  0.00000000E+00  0.00000000E+00  0.00000000E+00
  0.00000000E+00  0.00000000E+00  0.00000000E+00
  0.00000000E+00  0.00000000E+00  0.00000000E+00
  0.00000000E+00  0.00000000E+00  0.00000000E+00
  0.00000000E+00  0.00000000E+00  0.00000000E+00
  0.00000000E+00  0.00000000E+00  0.00000000E+00
  0.00000000E+00  0.00000000E+00  0.00000000E+00
  0.00000000E+00  0.00000000E+00  0.00000000E+00
  0.00000000E+00  0.00000000E+00  0.00000000E+00
  0.00000000E+00  0.00000000E+00  0.00000000E+00
  0.00000000E+00  0.00000000E+00  0.00000000E+00
  0.00000000E+00  0.00000000E+00  0.00000000E+00
  0.00000000E+00  0.00000000E+00  0.00000000E+00
  0.00000000E+00  0.00000000E+00  0.00000000E+00
  0.00000000E+00  0.00000000E+00  0.00000000E+00
  0.00000000E+00  0.00000000E+00  0.00000000E+00
  0.00000000E+00  0.00000000E+00  0.00000000E+00
