Ge Se 
 1.0000000000000000
    12.4260136771773393   -0.0000023798324750    0.0000009829911127
    -0.0000023983140612   12.5225131736918840   -0.0000002817528356
     0.0000011292552659   -0.0000003211819730   11.0893145702999369
 Ge  Se 
  36  36
Cartesian
  1.2701073201588753  0.0569332878293843  1.4881763704307980
  3.1876086844397817 10.6562500865634373  3.9953750709716607
  7.1426723421279723  2.5751653126376768  4.0648668728304163
  7.4143226783911942  6.6030996034821055  4.3912595521598048
  7.1180561023371212 10.9128210762966891  4.1131124681558395
 11.5429013586558007  2.5015085357779023  3.9399758462407513
 11.3288825171886369  6.7304503878122599  4.0587090133618053
 11.0917938926300117 11.1939750944475396  4.1259919328177839
  0.8946745880057922  1.9314769937239722  6.9925130544193648
  1.1423186425770702  6.1077761153903083  7.1213168533844859
  0.4931026574354266 10.5653470195004058  7.0287484210187960
  4.9159678071658863  1.8120606736319891  6.9517391853562405
  4.8447549955561113  6.0718066231898868  7.1095402497790952
  4.9802022431447073 10.1909493877335819  6.9015306383771167
  9.0611762590784792  2.0348234667268290  7.0728126723808380
  9.2615932621366124  5.9132426410373897  6.9525818016786474
  2.6832271734539281  6.9442545133897609  4.2479330920715226
  3.0602285945504306  2.6414242157421102  4.0192474852123956
  9.0243326293578043 10.2137063524310996  6.8887826630371345
 11.0143953508328476  8.1728301167351916  9.6727086526933039
 11.1348335663275257 12.0602201405449936  9.9182724880861031
  0.9324756444646747  4.7457395482198077  1.5223769412224952
  0.6859491637089820  8.9151327946019947  1.3669892203008680
  5.0901301138454338  0.4950231349207136  1.3075202631593534
  4.7662839610833077  4.8069105006290327  1.3596451993999337
  8.9887722777912096  0.5227204422863848  1.6159608411448452
  9.2832535445036708  4.5095492314448187  1.1783959105494464
  5.2441516374855626  8.3359453559814956  1.5642122194649624
  3.0472963994984621  3.6858510005547584  9.8130035320517219
  2.8943994150954273  8.1874140970771805  9.5173511415903125
  2.7245473662350208 12.2301515777665273  9.6169662409359304
  7.1674945679055373  3.8450504581821994  9.8005686526000471
  7.0236976326848994  7.9307683651826837  9.7107046355911475
  6.9457803589711622 12.2744684605354539  9.6653920391597072
 11.2725879206783919  4.1086021892016014  9.5061345815941021
  9.0808566093713790  9.0239282442042121  1.5524789173705809
 11.2225432180370710  0.2737252306605950  7.0823890733587129
  3.0602697215498633  4.1840645447784359  7.1217975868483316
  2.8254698777638527  8.5954228441655331  7.0572783713869587
  7.1370873313596253  0.1222673132755675  7.1668115378483614
  7.0176285767928901  4.4510073347129815  7.2641623645645543
  7.1191593882347819  8.6063152577550888  7.2677908204063053
 11.3745853895992308  4.4361717672518699  6.9863096968842706
  9.0414999264358578  0.3276696236056704  4.0831865871310722
  0.6972561009990750  0.1973959383255245  3.9258435323582419
  0.9957294466143027  4.3007432363401596  3.9513173688163890
  0.7266772077257763  8.6577502843551013  3.9946388701714222
  4.9983741668624999 -0.0916978131124084  3.9429089147107206
  5.1000843042776509  4.4052970836829957  3.9030548134738843
  4.8227285557380677  8.4803295057701362  4.0619032344707255
  3.0380236171084309  0.1815501751182549  7.0982508027606892
 11.1295728274889569  8.6529794699135216  7.0115021974013585
 11.1921468079338151 10.7243207399807332  1.3942335672066131
  2.9439712751441474  2.1667324306902782  1.5121042345527909
 10.9541483713964940  2.3783716351543527  1.5132828621227279
  9.0498635955562001  4.4138862083523653  3.7756398238078224
  0.8581104517502367  2.1879651729428038  9.4985999824559464
  0.7867732939743761  6.4890811713122707  9.6215890039476086
  0.8501697342507257 10.4918392291047784  9.4754367235781274
  5.1697431063645416  2.2295882565208913  9.6297927372210452
  4.9950262095465927  6.3583233144636990  9.6298144771983143
  5.0271070773992159 10.5682077436145221  9.3519104202176848
  9.2637752095440664  2.1582830539982809  9.5857235003377390
  9.2950886207074550  6.5077389481247572  9.3832321938680234
  9.0232385603254581 10.5316838550232710  9.4173796034659123
  2.7000722039176108  6.5122868790360195  1.6526841927913198
  2.9278626811331590 10.6691431512010553  1.4906540186756199
  7.0276322951467574  2.2736699677343228  1.5288082466243640
  6.9025547513922305  6.4510160832323367  1.6767416251928433
  6.9611640349816906 10.5177113847502692  1.6439586897712533
 11.1771369028614220  6.4627814523972109  1.5033612040094986
  9.2663015424623989  8.4361844156442007  3.8926491495127462
