Ge Se 
 1.0000000000000000
    12.4036645119801996   -0.0000016436573954   -0.0000033982534364
    -0.0000016587833904   12.5178098649066403    0.0000014036563521
    -0.0000039076296395    0.0000015993372253   11.0799526014894969
 Ge  Se 
  36  36
Cartesian
  0.7856737614312475  0.8378245528046389  1.1383923385050927
  2.8693007842563922 10.9368267361110103  4.0802792078375072
  6.9157847205831020  2.4787359744954309  4.1298864558293138
  7.1209539179858847  6.7741639575768602  4.1966356574988151
  7.2190024081947985 11.0266629869224069  4.1684534999984288
 11.3606084928514761  2.6560631541506403  3.9331787308320498
 11.0961053690093561  6.7314457854172192  4.0528745036346443
 11.2734054821072824 10.9872003364771480  4.1074270298877344
  1.0036815603556513  1.7127107267033279  6.9652152519655468
  1.4517534595072643  6.0905205475798967  6.7431190777312322
  0.8443568841545653  9.9762982603995205  6.8252538297056962
  4.9588578700457191  1.8163224292089906  6.9968519298253229
  5.0483671039658260  6.1061762507712167  7.0618686986975794
  5.2355431126816168 10.4714625717367298  7.0420254203938697
  9.4381036546539399  2.0905582822673772  7.0483665603792058
  9.1857196254166791  5.9700112457292969  6.9860645394382619
  2.9929543231262445  6.9303796411189582  4.1520329798872320
  2.9345941079227229  2.5897799165855213  4.2621067814261702
  9.2177759822177290 10.0991605602439058  6.8700489744531605
 11.2040742129328841  7.8241265944170619  9.6704574325898953
 11.1406285147887818 12.3082972068095060  9.6015238769734523
  0.9125772638400554  4.7452423696876886  1.3257464838664055
  0.7530985774643292  8.8949476370311000  1.4795602097000446
  4.9501700732030756  0.6003507097903347  1.4478329258098965
  5.0067545005294836  4.9538864626990566  1.2461164585477478
  9.1622453947012747  0.7268080810535208  1.7255387676274085
  8.8863984292701819  4.6600040005825960  1.6663805457438281
  5.0259560742230835  8.9188474940826410  1.5863805765925787
  3.1867033990539970  4.1857807588569118  9.5085760265599362
  3.0435466591986131  8.5911263449410118  9.6802461557489092
  2.8472171827169754 12.2298186643922957  9.8136438338762808
  7.1566058798918908  3.8990940647721875  9.6897765279095580
  7.4234369765886106  8.1065594673216914  9.5267770382115042
  7.4965207924617134 12.6142019589904617  9.6701287185737019
 11.4576443262159238  4.1276340284162716  9.7290245806681774
  8.9684998759395516  8.9279112648077668  1.3215059802597626
 11.2902215389321423  0.1964513376319007  7.1414259350310623
  3.1941488560709921  4.2999890508387866  7.1352492416927324
  2.8432094868718831  8.4346856534783381  7.1291057816983372
  6.9035738061962455 -0.1892771108903759  7.1603503468143010
  6.8434387959358789  4.2308980501062390  7.1601301766192567
  7.2466979692202331  8.5223762853345502  7.0089990889538312
 10.9144117693758016  4.2631622410535730  7.1178579564545839
  9.1647668586433166  0.3073095826645426  4.1621552565219933
  0.8310019369300871  0.1984569450095148  3.6983448481871397
  0.9780204476413279  4.3793796346676688  3.9261522187736997
  0.6753627873176368  8.5591369503869288  3.9588268414690426
  4.9300168214035267  0.1869701490537838  4.0228401507875340
  4.8647346191213039  4.2821800097512961  3.8901377601246883
  4.9937976572009113  8.5950299643059420  4.0844678690011218
  2.9397906587269218  0.1058783692303874  7.3581033317216162
 11.1389391308029264  8.3738324136813471  7.0940733290770606
 11.1295434264998292 10.5361452572761163  1.5943194975860013
  2.9159761154129704  2.2294725745994461  1.6696360445373961
 11.1462934086980905  2.5053458769754466  1.4404648837348175
  8.8819058880637538  4.3046221395082469  4.1542699142156616
  0.9159067827915215  2.4330450205157357  9.4095598673911685
  0.6918171152765508  6.1175556934249435  9.3104622843537683
  0.8314209368418076 10.4867207057832026  9.6023088918488853
  4.9752168300204032  2.3426112394454481  9.5345065508553706
  5.3746674819718354  6.5593660653622115  9.5008284977238535
  4.7040775638381049 10.4934013313737164  9.5303544401551576
  9.2121053451518975  2.0369645223141450  9.6013971358975958
  9.1946395185411607  6.3039037707489154  9.4348738497665678
  9.1787423799839321 10.6671864150015150  9.3703192909942636
  2.8786410992800433  6.5432565365245008  1.6882035762156495
  2.9308302072456560 10.6832392251492916  1.6159217343245629
  6.9202820134148686  2.2892193731197263  1.5255857611578694
  7.0939133934274210  6.4392932011018429  1.6359240754218818
  7.0257317090971814 10.7534234523193426  1.6471057913788816
 10.9992252890398827  6.4229004407739412  1.3968820577748562
  9.1871410601707151  8.5812024936168410  3.8336256045690762
