Ge Se                                   
    1.000000000000000     
    12.4490957470601842   -0.0000007626396069   -0.0000008180154115
    -0.0000007662788499   12.5084970102302773    0.0000021546700729
    -0.0000009369603555    0.0000024562525954   11.0771426232346712
   Ge   Se
    36    36
Direct
  0.0778799234372372  0.0257046316839862  0.1235240224987564
  0.2494651824553671  0.8502690644682573  0.3552675075828304
  0.5769500017547173  0.1979168040859349  0.3519812947113721
  0.5715110703412378  0.5300375608870240  0.3597606497313848
  0.5641891013120102  0.8619145459944804  0.3741684331074282
  0.9161420259911495  0.1695282796724342  0.3718330269735333
  0.9167188512565403  0.5442719861174226  0.3528494468562755
  0.8930319608129409  0.8624128206960009  0.3704476141146529
  0.0686966436447847  0.1530222727154396  0.6258676797440827
  0.0725892432937911  0.5048298034819467  0.6271349673155555
  0.1071215822957967  0.8430968967394890  0.6234640833754526
  0.4234598755930392  0.1566210005785749  0.6234538067711526
  0.3938656428751059  0.4545744146160047  0.6215193594748953
  0.4146161589700128  0.8140368947859145  0.6382107373747345
  0.7312301367350784  0.1580730780267743  0.6281156139035389
  0.7481474877964303  0.5127711257168102  0.6423211715858201
  0.2467780047445984  0.5381117673216593  0.3557950057810260
  0.2118622960356333  0.2132025671012983  0.3799363033532615
  0.7343531157894390  0.8174898673271969  0.6373852925400314
  0.9338172365749386  0.6712607142607467  0.8420191866571827
  0.9178961085410293  0.9985544280991405  0.8497233904552530
  0.0686224647674507  0.3646228396793560  0.1166228354253462
  0.0414090812870214  0.7175877531657591  0.1323060260233930
  0.3912293370697029  0.0401429574886336  0.1181862915963521
  0.3953430924611254  0.3732969603750860  0.1339951056584354
  0.7280005206621709  0.0453779296099128  0.1324161687006935
  0.7455907413313483  0.3489616224833654  0.1336744349413479
  0.4232679736084393  0.6900736620867249  0.1126382824338918
  0.2338823655452416  0.3073224218010893  0.8830005646206800
  0.2521178959222752  0.6612901990421562  0.8751166744001395
  0.2540910095921944  0.9924812986452096  0.8727696018124291
  0.6115411922148581  0.3392187383981451  0.8712659517636823
  0.5653139617040921  0.6415630738134936  0.8393823838573695
  0.5734477570490029  0.9936696302727839  0.8792847570716873
  0.9291829904789282  0.3294391923995974  0.8678540865295403
  0.7462004408616139  0.7028385163372519  0.1330873334037364
  0.8894452098798453  0.0199903359291156  0.6348192594423452
  0.2158563438305166  0.3427484928338771  0.6567296104987221
  0.2539743181382121  0.6857952672047531  0.6460370006043306
  0.5730262358990359  0.0179217377383196  0.6391769747456664
  0.5547790732899855  0.3302786904628690  0.6435396038930890
  0.5770070576266022  0.6831132134197659  0.6172224624037455
  0.9117769794284669  0.3723519944593008  0.6365448915593035
  0.7198610200829592  0.0118759429561592  0.3646734039709258
  0.0511288049536134  0.0148819664730411  0.3491297616193876
  0.0577037019213549  0.3462092035786526  0.3428270474784298
  0.0550710122206155  0.6827199034128029  0.3574122960154327
  0.3899595923399630  0.0128723948520033  0.3498619858191319
  0.3867304061422985  0.3524672696516973  0.3690672427504111
  0.3799570417247438  0.6784846442509149  0.3492120820383278
  0.2341772652019571  0.0191197485931838  0.6417295580142977
  0.8864477349461453  0.6717979211171468  0.6317338642077885
  0.8835185924942976  0.8642736943375837  0.1408088248919341
  0.2293247997545222  0.1767872592726150  0.1446549915684798
  0.8861806841157218  0.1807329946707270  0.1432537094026998
  0.7153305009128914  0.3545186216035319  0.3584807663619145
  0.0609336071675912  0.1727845498708191  0.8590782878924657
  0.0857346096507783  0.5421554939781288  0.8653524098382164
  0.0569158718559848  0.8442897027826461  0.8416456248091961
  0.3820829348918906  0.1745920924507516  0.8484481535090751
  0.3972613058622372  0.5084949573267750  0.8506806486449534
  0.4086954648799974  0.8629570211803994  0.8604811859347521
  0.7527050014725774  0.1904590077543418  0.8545022610397481
  0.7325774577469417  0.5118542269735968  0.8673019759964404
  0.7294887812791160  0.8431979220667358  0.8649186263128641
  0.2213783665500273  0.5040886605846921  0.1273211240444923
  0.2120388580138552  0.8405763986268440  0.1328716901578488
  0.5400461483744508  0.2055836440428607  0.1335490398336248
  0.5445293568680256  0.5147671390188364  0.1332998102534333
  0.5768436419096261  0.8199331760097976  0.1462217224484661
  0.8988327204360687  0.4973309828919881  0.1260680155020850
  0.7396530091383440  0.6765562679391834  0.3685533571035080
 
  0.00000000E+00  0.00000000E+00  0.00000000E+00
  0.00000000E+00  0.00000000E+00  0.00000000E+00
  0.00000000E+00  0.00000000E+00  0.00000000E+00
  0.00000000E+00  0.00000000E+00  0.00000000E+00
  0.00000000E+00  0.00000000E+00  0.00000000E+00
  0.00000000E+00  0.00000000E+00  0.00000000E+00
  0.00000000E+00  0.00000000E+00  0.00000000E+00
  0.00000000E+00  0.00000000E+00  0.00000000E+00
  0.00000000E+00  0.00000000E+00  0.00000000E+00
  0.00000000E+00  0.00000000E+00  0.00000000E+00
  0.00000000E+00  0.00000000E+00  0.00000000E+00
  0.00000000E+00  0.00000000E+00  0.00000000E+00
  0.00000000E+00  0.00000000E+00  0.00000000E+00
  0.00000000E+00  0.00000000E+00  0.00000000E+00
  0.00000000E+00  0.00000000E+00  0.00000000E+00
  0.00000000E+00  0.00000000E+00  0.00000000E+00
  0.00000000E+00  0.00000000E+00  0.00000000E+00
  0.00000000E+00  0.00000000E+00  0.00000000E+00
  0.00000000E+00  0.00000000E+00  0.00000000E+00
  0.00000000E+00  0.00000000E+00  0.00000000E+00
  0.00000000E+00  0.00000000E+00  0.00000000E+00
  0.00000000E+00  0.00000000E+00  0.00000000E+00
  0.00000000E+00  0.00000000E+00  0.00000000E+00
  0.00000000E+00  0.00000000E+00  0.00000000E+00
  0.00000000E+00  0.00000000E+00  0.00000000E+00
  0.00000000E+00  0.00000000E+00  0.00000000E+00
  0.00000000E+00  0.00000000E+00  0.00000000E+00
  0.00000000E+00  0.00000000E+00  0.00000000E+00
  0.00000000E+00  0.00000000E+00  0.00000000E+00
  0.00000000E+00  0.00000000E+00  0.00000000E+00
  0.00000000E+00  0.00000000E+00  0.00000000E+00
  0.00000000E+00  0.00000000E+00  0.00000000E+00
  0.00000000E+00  0.00000000E+00  0.00000000E+00
  0.00000000E+00  0.00000000E+00  0.00000000E+00
  0.00000000E+00  0.00000000E+00  0.00000000E+00
  0.00000000E+00  0.00000000E+00  0.00000000E+00
  0.00000000E+00  0.00000000E+00  0.00000000E+00
  0.00000000E+00  0.00000000E+00  0.00000000E+00
  0.00000000E+00  0.00000000E+00  0.00000000E+00
  0.00000000E+00  0.00000000E+00  0.00000000E+00
  0.00000000E+00  0.00000000E+00  0.00000000E+00
  0.00000000E+00  0.00000000E+00  0.00000000E+00
  0.00000000E+00  0.00000000E+00  0.00000000E+00
  0.00000000E+00  0.00000000E+00  0.00000000E+00
  0.00000000E+00  0.00000000E+00  0.00000000E+00
  0.00000000E+00  0.00000000E+00  0.00000000E+00
  0.00000000E+00  0.00000000E+00  0.00000000E+00
  0.00000000E+00  0.00000000E+00  0.00000000E+00
  0.00000000E+00  0.00000000E+00  0.00000000E+00
  0.00000000E+00  0.00000000E+00  0.00000000E+00
  0.00000000E+00  0.00000000E+00  0.00000000E+00
  0.00000000E+00  0.00000000E+00  0.00000000E+00
  0.00000000E+00  0.00000000E+00  0.00000000E+00
  0.00000000E+00  0.00000000E+00  0.00000000E+00
  0.00000000E+00  0.00000000E+00  0.00000000E+00
  0.00000000E+00  0.00000000E+00  0.00000000E+00
  0.00000000E+00  0.00000000E+00  0.00000000E+00
  0.00000000E+00  0.00000000E+00  0.00000000E+00
  0.00000000E+00  0.00000000E+00  0.00000000E+00
  0.00000000E+00  0.00000000E+00  0.00000000E+00
  0.00000000E+00  0.00000000E+00  0.00000000E+00
  0.00000000E+00  0.00000000E+00  0.00000000E+00
  0.00000000E+00  0.00000000E+00  0.00000000E+00
  0.00000000E+00  0.00000000E+00  0.00000000E+00
  0.00000000E+00  0.00000000E+00  0.00000000E+00
  0.00000000E+00  0.00000000E+00  0.00000000E+00
  0.00000000E+00  0.00000000E+00  0.00000000E+00
  0.00000000E+00  0.00000000E+00  0.00000000E+00
  0.00000000E+00  0.00000000E+00  0.00000000E+00
  0.00000000E+00  0.00000000E+00  0.00000000E+00
  0.00000000E+00  0.00000000E+00  0.00000000E+00
  0.00000000E+00  0.00000000E+00  0.00000000E+00
