INCAR created by Atomic Simulation Environment
 ENCUT = 520.000000
 SIGMA = 0.050000
 EDIFF = 1.00e-06
 ALGO = Normal
 GGA = PE
 PREC = Normal
 SYSTEM = ./
 ICHARG = 2
 ISMEAR = 0
 ISPIN = 1
 ISTART = 0
 ISYM = 0
 KPAR = 2
 LMAXMIX = 4
 NELM = 100
 NPAR = 16
 LASPH = .TRUE.
 LCHARG = .FALSE.
 LWAVE = .FALSE.
