INCAR created by Atomic Simulation Environment
 SIGMA = 0.010000
 EDIFF = 1.00e-06
 ALGO = N
 GGA = PE
 PREC = Accurate
 SYSTEM = 03_BS
 ICHARG = 11
 ISMEAR = 0
 ISPIN = 2
 ISTART = 1
 KPAR = 16
 LORBIT = 11
 NBANDS = 896
 NELMIN = 5
 IVDW = 11
 NCORE = 1
 LCHARG = .TRUE.
 LWAVE = .TRUE.
 LREAL = .FALSE.
 MAGMOM = 242*0.0000 1*1.0000 125*0.0000 
