 C  S  O  H 
 1.0000000000000000
    32.3722991942999982    0.0000000000000000    0.0000000000000000
     0.0000000000000000   19.9214134216000005    0.0000000000000000
     0.0000000000000000    0.0000000000000000   40.4480476378999967
 C   S   O   H  
 364   1   2   1
Selective dynamics
Cartesian
 11.9997570871108934 10.7280007900104852  0.0988555068412364   F   F   F
 11.9282764857696524 10.8379355165385789  2.5435456528270559   F   F   F
 10.9340122303056884 11.8579063151794717  2.4706211361447141   F   F   F
 10.3659738310932230 12.1846917739663017  1.2101621672327159   F   F   F
  8.9841410365437486 12.5300755515678262  1.1366181876150445   F   F   F
 11.8527620483970555 10.9458516963461552  4.9878703706774727   F   F   F
 10.8240011450759184 11.9312442967843850  4.9153043407170323   F   F   F
 10.2453353742459541 12.2381249191371158  3.6549728497885559   F   F   F
  8.8522917263579632 12.5356247071459705  3.5812568957039925   F   F   F
  8.1985275770635671 12.4916576014860148  2.3209151385039144   F   F   F
  6.8573263815877530 12.0123379107652699  2.2473949646445277   F   F   F
  6.3237664598307290 11.6312677402230928  0.9870672225829614   F   F   F
  5.4333676547349183 10.5195479212394627  0.9136065883284821   F   F   F
 11.7732699461045804 11.0513388895323832  7.4321214602711141   F   F   F
 10.7114335977124622 12.0010749458502008  7.3602183177199993   F   F   F
 10.1224573405736358 12.2875020198056042  6.0998794663863638   F   F   F
  8.7202304959774199 12.5366907530259741  6.0262821172019487   F   F   F
  8.0685272853468550 12.4701675151704876  4.7656540580344373   F   F   F
  6.7449690683221268 11.9441151965434837  4.6920493558882539   F   F   F
  6.2250366204079359 11.5450818495901206  3.4316458519752047   F   F   F
  5.3738027949393166 10.4029255004263206  3.3577262625517945   F   F   F
  5.1397954399794825  9.7903468182722779  2.0978322618166736   F   F   F
  5.0126719409706926  8.3715854873389031  2.0241594408781212   F   F   F
  5.1345406277870591  7.7268927959558562  0.7642732291168722   F   F   F
  5.7698915316391197  6.4521343975270984  0.6912068346660720   F   F   F
 11.6917447099173728 11.1543416453794535  9.8759030582624163   F   F   F
 10.5977262494316715 12.0656543858425600  9.8051637638917839   F   F   F
  9.9985534796287929 12.3323128995340969  8.5451746162769489   F   F   F
  8.5880553792879901 12.5316122542288042  8.4716447905289627   F   F   F
  7.9392988792201535 12.4436698918152153  7.2110841392881087   F   F   F
  6.6344960789200478 11.8713484417348436  7.1369868779032366   F   F   F
  6.1290798417521026 11.4549210318197670  5.8764962071730258   F   F   F
  5.3177877885990350 10.2840666209136167  5.8019642176310091   F   F   F
  5.1056766514711311  9.6637585181279348  4.5418474177977215   F   F   F
  5.0273349684888604  8.2416607842026224  4.4682224338404026   F   F   F
  5.1713505830687669  7.6016464366214311  3.2081859787556279   F   F   F
  5.8499185527040858  6.3492934948243853  3.1350475652075351   F   F   F
  6.3083137176083177  5.8797092716703991  1.8754056061547664   F   F   F
  7.5433334585038274  5.1699000674569699  1.8019738021343585   F   F   F
  8.1803692216434154  5.0112913905168517  0.5422241678597134   F   F   F
  9.6039892833649052  5.0566465166521981  0.4693771714550425   F   F   F
 12.0113530341549684 10.7301486609140309 13.5769172754897554   F   F   F
 11.6144776528867819 11.2562542476944412 12.3204589740956401   F   F   F
 10.4833071189627365 12.1240958757602488 12.2501761663239819   F   F   F
  9.8745379609580457 12.3699217448738832 10.9923037829798833   F   F   F
  8.4562255685154195 12.5175774576669774 10.9179513747775392   F   F   F
  7.8110926066669517 12.4089381660128186  9.6572256885341456   F   F   F
  6.5265079231612759 11.7931463999053854  9.5821810646905874   F   F   F
  6.0359071392344310 11.3603746003910526  8.3209999148523153   F   F   F
  5.2651820655001345 10.1628137179357498  8.2459154007806195   F   F   F
  5.0748179217474796  9.5359096328809123  6.9856578494374215   F   F   F
  5.0454522156289698  8.1117475466374618  6.9121488326638030   F   F   F
  5.2116809499020738  7.4773308181304960  5.6523264917291618   F   F   F
  5.9327048519534182  6.2487631923900917  5.5791474875615341   F   F   F
  6.4075259512508218  5.7955882550811273  4.3195122799826189   F   F   F
  7.6660262408703357  5.1286805608254147  4.2464153569541088   F   F   F
  8.3084098542547427  4.9922036067366564  2.9865093680958039   F   F   F
  9.7296417838304077  5.0869872083123573  2.9137699958091501   F   F   F
 10.3480305492206597  5.3080770260502392  1.6540255373549062   F   F   F
 11.5077424799736470  6.1353046377964295  1.5805443021394798   F   F   F
 11.9183573418306175  6.6475645599687905  0.3206102163570818   F   F   F
 12.4726951640958799  7.9597360006460134  0.2477243949633419   F   F   F
 11.9709373173201108 10.8463435834151998 16.0194335661193747   F   F   F
 11.5408609915692910 11.3501876498677490 14.7726090498125853   F   F   F
 10.3632725741054070 12.1641921598889393 14.6982407893641494   F   F   F
  9.7475698798824411 12.3910603081617552 13.4402538001920782   F   F   F
  8.3257629654566205 12.4912492174881002 13.3643696989156382   F   F   F
  7.6844658394200076 12.3650547277014020 12.1023033848188390   F   F   F
  6.4200448911820613 11.7096758475372535 12.0265456442541119   F   F   F
  5.9440676929726344 11.2625489053106485 10.7652560070666485   F   F   F
  5.2131774964766899 10.0395507525982897 10.6898303618252282   F   F   F
  5.0460928466281576  9.4067234882090904  9.4296661193140690   F   F   F
  5.0658268875552057  7.9823553037640256  9.3562610264165897   F   F   F
  5.2554840973637855  7.3542358130471026  8.0965215537747000   F   F   F
  6.0185502045349466  6.1516620138642093  8.0235348251754264   F   F   F
  6.5087746064924703  5.7148620205613607  6.7637667149429808   F   F   F
  7.7895760070813296  5.0917787691191441  6.6911596293317741   F   F   F
  8.4363418486736848  4.9771537780171151  5.4312987605521874   F   F   F
  9.8536057322333441  5.1211625559918375  5.3584449387616830   F   F   F
 10.4642771137596604  5.3636758001480960  4.0987866253428198   F   F   F
 11.5945064864941898  6.2305712202495638  4.0252578506866046   F   F   F
 11.9875124537003312  6.7568790422039751  2.7653696185826049   F   F   F
 12.4960851964209212  8.0873678507489828  2.6925549670924989   F   F   F
 12.5557974077019274  8.7409393787129606  1.4324952525509682   F   F   F
 12.2916571851490293 10.1407217310046693  1.3590295732508628   F   F   F
 11.8734126321699449 10.9512570214909069 18.4702935105862807   F   F   F
 11.4290218597858466 11.4094039800751617 17.2222946304969895   F   F   F
 10.2284111892341762 12.1783435709551373 17.1421137916591704   F   F   F
  9.6122999044208672 12.3966674807846822 15.8814430292461743   F   F   F
  8.1902137179725845 12.4628457767545875 15.8066325611526910   F   F   F
  7.5548626044213822 12.3187336872580939 14.5457292654652353   F   F   F
  6.3096165163466837 11.6249874967563667 14.4702337703830501   F   F   F
  5.8518566475645022 11.1609712050616068 13.2094385715216003   F   F   F
  5.1619038947041789  9.9147529844319706 13.1342535642070981   F   F   F
  5.0186951385030900  9.2762941870223177 11.8735152675157654   F   F   F
  5.0883765809396238  7.8539647764058307 11.8003336330641559   F   F   F
  5.3010812914431638  7.2327182350657209 10.5406123102501503   F   F   F
  6.1068625176721136  6.0580293485784820 10.4679044440020785   F   F   F
  6.6125366511627650  5.6382351945368105  9.2086041232145153   F   F   F
  7.9145280154818565  5.0599916552203519  9.1364797163753160   F   F   F
  8.5647754677875536  4.9674617836109736  7.8765942316693414   F   F   F
  9.9759529307075336  5.1604264459879561  7.8034865502832451   F   F   F
 10.5777621695418809  5.4236503463784693  6.5434317109620102   F   F   F
 11.6769971892286293  6.3294095250556381  6.4696433956379895   F   F   F
 12.0520790246188607  6.8685843060255491  5.2099139046212022   F   F   F
 12.5140524814110368  8.2161284458357731  5.1367857706760800   F   F   F
 12.5516109073659283  8.8712666032862888  3.8771431529645044   F   F   F
 12.2399093907858383 10.2612112235671091  3.8036776834999313   F   F   F
 11.8123574877029736 11.0542852431865928 20.9217607136098387   F   F   F
 11.3325294335597366 11.4921087965871251 19.6447108305309541   F   F   F
 10.1069776908209956 12.2236122108986915 19.5770777591019112   F   F   F
  9.4792896580209867 12.4117197860446602 18.3222114386215011   F   F   F
  8.0521529030955286 12.4423554449340141 18.2488373834055686   F   F   F
  7.4231282947731732 12.2721911149948379 16.9898467196911440   F   F   F
  6.2018963643746616 11.5391831922768091 16.9150442113102280   F   F   F
  5.7601780869628127 11.0585297622544712 15.6534662800074518   F   F   F
  5.1144955940226886  9.7894336592703244 15.5791996832947710   F   F   F
  4.9928300055568089  9.1462100382758500 14.3182088523930844   F   F   F
  5.1131582921527210  7.7265322913961381 14.2449998916561125   F   F   F
  5.3486940812511037  7.1132441167336484 12.9855919808230293   F   F   F
  6.1967291669876383  5.9683071184407179 12.9128966917898946   F   F   F
  6.7184446632872348  5.5669761912501290 11.6538651904480002   F   F   F
  8.0402006183485408  5.0362514939154090 11.5822691625424170   F   F   F
  8.6934609258703475  4.9648574139332835 10.3220808359613567   F   F   F
 10.0968996871509447  5.2069112639324375 10.2484864959188027   F   F   F
 10.6893669659033179  5.4883837836972509  8.9883015836702800   F   F   F
 11.7570358323148945  6.4317705830193210  8.9138370402470191   F   F   F
 12.1124392318019307  6.9833041532910611  7.6541451496151325   F   F   F
 12.5278838215357364  8.3457249204372630  7.5802901344518689   F   F   F
 12.5422719545721790  9.0017427714852332  6.3209025077354468   F   F   F
 12.1833428698541102 10.3799926080331844  6.2477879178009763   F   F   F
 11.7059348096345754 11.1584591246867824 23.3648580343809940   F   F   F
 11.2520560581929452 11.6156833155653612 22.0943645368687989   F   F   F
  9.9984206372369133 12.3043284757461286 22.0210496429971201   F   F   F
  9.3553083886724142 12.4423782902033011 20.7630288182385421   F   F   F
  7.9320685173106593 12.4145188800943291 20.6916051017288432   F   F   F
  7.3005253811516511 12.2246566940925412 19.4325724605665506   F   F   F
  6.1051345674452495 11.4495076735764130 19.3594404203075214   F   F   F
  5.6744619041388216 10.9559804894084802 18.0993304627462948   F   F   F
  5.0738956309107941  9.6627605066726847 18.0257008979807800   F   F   F
  4.9734996725127480  9.0156309092276690 16.7649125075861747   F   F   F
  5.1430922244039650  7.6010352576730025 16.6912844964000087   F   F   F
  5.4001386955604627  6.9962482065935561 15.4310021409177658   F   F   F
  6.2888968728849957  5.8834876604648922 15.3580135211695268   F   F   F
  6.8257734028769281  5.5012382024400450 14.0988107108921596   F   F   F
  8.1670754297996400  5.0215562982248292 14.0272745548806856   F   F   F
  8.8223292102815964  4.9711538667256558 12.7678686395879666   F   F   F
 10.2169466709428143  5.2622508010505591 12.6939192439709974   F   F   F
 10.7992414820243390  5.5609327160275965 11.4335637697473640   F   F   F
 11.8349618532203440  6.5384735418911122 11.3579540145054843   F   F   F
 12.1704670365324183  7.1009411278097927 10.0973475296450736   F   F   F
 12.5392836055505175  8.4762228814618243 10.0223067474157830   F   F   F
 12.5304517970433107  9.1320371852789428  8.7636489973279303   F   F   F
 12.1239466915060063 10.4974891724410853  8.6912975226296485   F   F   F
 11.6107172256702942 11.2552589903042772 25.8071450377685920   F   F   F
 11.1396444425347632 11.7086592526894577 24.5453186236201901   F   F   F
  9.8757263468613381 12.3667610185896049 24.4688403421379697   F   F   F
  9.2344508101707472 12.4876635609804154 23.2045415131488859   F   F   F
  7.8119375261879451 12.3932305865675172 23.1341756751620835   F   F   F
  7.1883280181634417 12.1742080326825945 21.8773608695496442   F   F   F
  6.0209712755512337 11.3562964244724469 21.8051502406979587   F   F   F
  5.6046044201243514 10.8461006024546869 20.5459495674833619   F   F   F
  5.0481886779916287  9.5352482561569580 20.4731263601024942   F   F   F
  4.9656602725421539  8.8847906264649854 19.2115314697664772   F   F   F
  5.1849189153363406  7.4775158811912110 19.1378125227983098   F   F   F
  5.4574718456953644  6.8818404100863120 17.8767305622599970   F   F   F
  6.3859237961294610  5.8013776344681967 17.8030068965117678   F   F   F
  6.9347971948085085  5.4396904075336483 16.5440707449584785   F   F   F
  8.2943928260802124  5.0143652475284748 16.4716829618269287   F   F   F
  8.9514311634700494  4.9901447305715250 15.2135220762299426   F   F   F
 10.3324335748290697  5.3362951189539878 15.1403032480998601   F   F   F
 10.9055343079938982  5.6462900411531187 13.8778664956230813   F   F   F
 11.9096863883725916  6.6533100075199387 13.8004847530889574   F   F   F
 12.2287118358460827  7.2214704953120341 12.5400391594822729   F   F   F
 12.5514307422696785  8.6093659611416928 12.4629624755773278   F   F   F
 12.5172541813045903  9.2634380230804751 11.2054654219845418   F   F   F
 12.0649765475026456 10.6140642454612912 11.1348737688327954   F   F   F
 11.5204876657316131 11.3501466636216364 28.2508904206783882   F   F   F
 11.0310160057521180 11.7871939815867890 26.9903594880526363   F   F   F
  9.7497817094587873 12.4083066099270347 26.9146535896761812   F   F   F
  9.1045573567307976 12.5184930612055876 25.6519835638857714   F   F   F
  7.6863619735565587 12.3705920739700055 25.5801481454966009   F   F   F
  7.0764788438466377 12.1239214507279609 24.3211262287084828   F   F   F
  5.9421133818757168 11.2621012052068608 24.2498203877861229   F   F   F
  5.5428574076582757 10.7369768069951572 22.9909780625082192   F   F   F
  5.0316172698392760  9.4074373014570618 22.9188189959958812   F   F   F
  4.9683499029386535  8.7541509637745900 21.6586710340408679   F   F   F
  5.2352470329906318  7.3547450603920161 21.5847509822101991   F   F   F
  5.5272210235756694  6.7691770011877708 20.3237544293380381   F   F   F
  6.4909494049256242  5.7215339244543042 20.2501400667174494   F   F   F
  7.0503893468601566  5.3819208834685686 18.9886330044261911   F   F   F
  8.4222139817260739  5.0095920334001898 18.9150219865564289   F   F   F
  9.0797646261216229  5.0179640010829543 17.6561558189600021   F   F   F
 10.4419233054610530  5.4253820503309500 17.5826794476708876   F   F   F
 11.0021734812828225  5.7556462044626588 16.3229431900284823   F   F   F
 11.9718960586025087  6.7963709967904657 16.2459263459086678   F   F   F
 12.2817963181674479  7.3542128849827222 14.9827044630682860   F   F   F
 12.5699894563824799  8.7446794634902894 14.9019531164828134   F   F   F
 12.5065251497666594  9.3971611518262161 13.6439648450979689   F   F   F
 11.4305545963501185 11.4429450311693692 30.6947601739132132   F   F   F
 10.9256873218602610 11.8630999794896770 29.4346285593174635   F   F   F
  9.6239173560190547 12.4414560743694107 29.3603114107072578   F   F   F
  8.9740035244585847 12.5324713540763995 28.0994018561044214   F   F   F
  7.5627671089867610 12.3373998833897502 28.0264303324117101   F   F   F
  6.9620496066140642 12.0711586141529850 26.7659517833683935   F   F   F
  5.8619196450499071 11.1659032103616163 26.6945011935400558   F   F   F
  5.4844332771261870 10.6265305989404926 25.4356757385975101   F   F   F
  5.0198076262886797  9.2796566584839244 25.3637820715626638   F   F   F
  4.9798769538015666  8.6239136238881535 24.1042044952051420   F   F   F
  5.2935759177410917  7.2348651473979810 24.0300971142500366   F   F   F
  5.6039455742513189  6.6589048821089047 22.7689058336765875   F   F   F
  6.6027297641464200  5.6435838778869947 22.6946038515767938   F   F   F
  7.1708336624401987  5.3217836525744326 21.4331720178918133   F   F   F
  8.5559474775116655  4.9899531313387939 21.3584729874208143   F   F   F
  9.2104346267832966  5.0292633980222998 20.0984046794870501   F   F   F
 10.5579940986976872  5.4810478743985529 20.0249670722344959   F   F   F
 11.1031129801702750  5.8648047625407260 18.7666867758860150   F   F   F
 12.0423715485736178  6.9256538171215292 18.6944383499055675   F   F   F
 12.3315527535333871  7.5183798826400254 17.4251912418802277   F   F   F
 12.6540435706701828  8.8840729986355118 17.3324522331801028   F   F   F
 12.5411255337941601  9.5291599868798418 16.0849335366600243   F   F   F
 11.3384378673773050 11.5327041584326651 33.1390106082422449   F   F   F
 10.8189961665466079 11.9352897620027285 31.8791930407139148   F   F   F
  9.4980910038873425 12.4682277362510536 31.8057685848007949   F   F   F
  8.8448602888636234 12.5378154605694618 30.5453719225456304   F   F   F
  7.4413992856523397 12.2950092110851639 30.4720105753415389   F   F   F
  6.8496694994197123 12.0105086782147730 29.2116515682119022   F   F   F
  5.7825259440276131 11.0662668013584042 29.1396858454005354   F   F   F
  5.4265354775351664 10.5136270641134022 27.8802827692826440   F   F   F
  5.0101193052892050  9.1515408961652156 27.8080605892274875   F   F   F
  4.9936974613426708  8.4949181939743283 26.5483853891132711   F   F   F
  5.3542131435547153  7.1170204127059717 26.4743632122477948   F   F   F
  5.6845037685887849  6.5514994804454973 25.2138863154272101   F   F   F
  6.7158868299524306  5.5689092088188517 25.1395473161304785   F   F   F
  7.2950706206752924  5.2655551065230739 23.8782880072832278   F   F   F
  8.6890057856028537  4.9741198466569143 23.8032902271963991   F   F   F
  9.3418517732985329  5.0281836869274699 22.5419744326243219   F   F   F
 10.6796372517277618  5.5156849252161440 22.4688273459909489   F   F   F
 11.2055734972744876  5.9145809492422403 21.2100250137306041   F   F   F
 12.0979621359235026  7.0215914514850510 21.1409674872882114   F   F   F
 12.3713311388196168  7.6393799602432058 19.8855032473365974   F   F   F
 12.6757828374176338  9.0192859850839984 19.8335344354092733   F   F   F
 12.8244302561633425  9.7603379677081747 18.5387668660571450   F   F   F
 11.2433933174867491 11.6192210393039890 35.5837891923548852   F   F   F
 10.7104397303586492 12.0034687454751676 34.3238069364611178   F   F   F
  9.3717436282421591 12.4899848259809847 34.2507658006531059   F   F   F
  8.7164497524519486 12.5373686349742854 32.9907231234833418   F   F   F
  7.3219816527581818 12.2464671955203332 32.9171698270086566   F   F   F
  6.7399501909896609 11.9424497290875742 31.6571535462029026   F   F   F
  5.7061057744687442 10.9624747476245812 31.5846890172347159   F   F   F
  5.3701291303576726 10.3984068372641048 30.3246628074527926   F   F   F
  5.0019180099655935  9.0224055898455120 30.2519788014231317   F   F   F
  5.0094045643056768  8.3660101575300487 28.9924517635969927   F   F   F
  5.4164533550633394  7.0009304573065432 28.9187431416445513   F   F   F
  5.7668377178193326  6.4469917469699007 27.6584295924411627   F   F   F
  6.8298088667055046  5.4991069294358645 27.5843097557809607   F   F   F
  7.4189153185095753  5.2138707100646444 26.3232112886432965   F   F   F
  8.8216129614053891  4.9671749915572461 26.2484091310118970   F   F   F
  9.4729737149851623  5.0377370112674233 24.9876546706137717   F   F   F
 10.7962432847728262  5.5649599285731615 24.9154535396214563   F   F   F
 11.3152804509562745  5.9708538609522988 23.6561523414077115   F   F   F
 12.1727713342566055  7.1068520889294788 23.5881372525297124   F   F   F
 12.4104035999834554  7.7259565706953808 22.3309751958421145   F   F   F
 12.5523275987929832  9.1407126907645075 22.2649959046832144   F   F   F
 12.4772683943199958  9.7899636112167023 21.0058320831227654   F   F   F
 11.1441645917093570 11.7020275430223677 38.0287459168092994   F   F   F
 10.5987941274476096 12.0675945703998693 36.7685778343602792   F   F   F
  9.2439751713659390 12.5074481509259332 36.6955108915271708   F   F   F
  8.5877327976655025 12.5320357341880584 35.4355765654901802   F   F   F
  7.2042828891030553 12.1933498383845063 35.3619299863797281   F   F   F
  6.6330789592939547 11.8696859581665528 34.1019328321494015   F   F   F
  5.6331190395761048 10.8553039439803189 34.0291906264166713   F   F   F
  5.3165255383291612 10.2804057767424926 32.7692191291839876   F   F   F
  4.9959255799020248  8.8924030615447087 32.6960393942392358   F   F   F
  5.0272034906447995  8.2368874711871154 31.4363823159080589   F   F   F
  5.4807213393995875  6.8867162907435509 31.3630141322431513   F   F   F
  5.8502844902243618  6.3450718235208976 30.1027198524357829   F   F   F
  6.9447062188946695  5.4334852131318092 30.0288509730667776   F   F   F
  7.5434689761229494  5.1676358668873181 28.7683233584897415   F   F   F
  8.9537890119582411  4.9680555559473358 28.6939619862192963   F   F   F
  9.6028159014590049  5.0588772654688707 27.4332509552045529   F   F   F
 10.9071701469662923  5.6306019261160358 27.3609731806865035   F   F   F
 11.4129490098310011  6.0496926665023096 26.1009600993953761   F   F   F
 12.2257095674143255  7.2195301565001584 26.0306350325507871   F   F   F
 12.4424012477465720  7.8417180250853082 24.7731137786299378   F   F   F
 12.5207449699613136  9.2642987179726948 24.7031382907624923   F   F   F
 12.3826193909558100  9.9084853358572005 23.4461888289460809   F   F   F
 11.0409705386338199 11.7815262088472892  0.0257324916959400   F   F   F
 10.4839572972583550 12.1279725802214493 39.2134347010072801   F   F   F
  9.1148311079555278 12.5208244596101199 39.1401227918739849   F   F   F
  8.4585924603700011 12.5225942547388627 37.8800731964224440   F   F   F
  7.0875820521654473 12.1365815608658387 37.8064149154384310   F   F   F
  6.5281375356165485 11.7934806864063653 36.5464047024047858   F   F   F
  5.5633187837873868 10.7455360531866990 36.4734808796467433   F   F   F
  5.2668566113116784 10.1601611250503048 35.2136272660506222   F   F   F
  4.9939202826305831  8.7622372414739296 35.1401039322353057   F   F   F
  5.0479198399065659  8.1082416211677817 33.8803008357462829   F   F   F
  5.5479273271169358  6.7745678917751855 33.8071815921222552   F   F   F
  5.9361738605275152  6.2459228754398595 32.5471412781260057   F   F   F
  7.0615918509772468  5.3727162428090525 32.4734681339335509   F   F   F
  7.6692223726115758  5.1272792796505824 31.2131385663296967   F   F   F
  9.0854286290670281  4.9760702336214830 31.1391691312254792   F   F   F
  9.7310025313613107  5.0878121275386077 29.8784444749711717   F   F   F
 11.0148593886803514  5.7045376454971697 29.8056906576664602   F   F   F
 11.5057322971775662  6.1395123765315267 28.5458271159566586   F   F   F
 12.2753329784051584  7.3382068420721733 28.4738127336213402   F   F   F
 12.4667666212288868  7.9668374602854204 27.2151523733609437   F   F   F
 12.4957749683701529  9.3906903157325221 27.1435401404430579   F   F   F
 12.3317958389513844 10.0271221218114164 25.8846517256492206   F   F   F
  8.3289060166217173 12.5091523613201367 40.3244744387192995   F   F   F
  6.9719168278943124 12.0761687122105847 40.2508826460939204   F   F   F
  6.4250855305029413 11.7139085340625417 38.9907785692446112   F   F   F
  5.4967792466219150 10.6335977674492153 38.9176236342882689   F   F   F
  5.2207826930479166 10.0383452725524656 37.6577727074345532   F   F   F
  4.9960878871673211  8.6319106405387380 37.5841216951556376   F   F   F
  5.0727835464568862  7.9803333202115256 36.3243036919669819   F   F   F
  5.6187617372897138  6.6647572406540849 36.2513477410878906   F   F   F
  6.0253651599560136  6.1500732175863062 34.9914174301557210   F   F   F
  7.1802361451557832  5.3164382225146571 34.9177642826965098   F   F   F
  7.7962222336666134  5.0920709230467756 33.6576014254577061   F   F   F
  9.2168422044086267  4.9898194434452936 33.5839747140355840   F   F   F
  9.8582703932917504  5.1230686144315474 32.3234514099741830   F   F   F
 11.1202485496261705  5.7835133675135966 32.2503302822749802   F   F   F
 11.5953900542944766  6.2349324434917133 30.9901947410808773   F   F   F
 12.3230007937852228  7.4593729332300454 30.9172646593080103   F   F   F
 12.4913898786303630  8.0937221576691254 29.6577614844455333   F   F   F
 12.4712399276975070  9.5180323827219393 29.5854333811732921   F   F   F
 12.2837703440453154 10.1475151061312232 28.3263540421928752   F   F   F
  5.1784141167316760  9.9150732760826319 40.1017822669429336   F   F   F
  5.0023401313022076  8.5016091806077192 40.0280929488168269   F   F   F
  5.1016438973298683  7.8530345573759481 38.7683061221265461   F   F   F
  5.6926880326497269  6.5570818804325386 38.6953478116124145   F   F   F
  6.1171966180691992  6.0568980228523586 37.4355017425343419   F   F   F
  7.3003389978778470  5.2638258847434507 37.3618366969330680   F   F   F
  7.9239727057379223  5.0610578602759126 36.1018747591344820   F   F   F
  9.3473255808080982  5.0081155259229719 36.0285679786303987   F   F   F
  9.9840033116592259  5.1634510350279577 34.7681967276631312   F   F   F
 11.2227566839527206  5.8665807884869396 34.6948211351217850   F   F   F
 11.6822950046276848  6.3338296022005416 33.4345430636370011   F   F   F
 12.3678137207981127  7.5824698083236290 33.3612288098744330   F   F   F
 12.5139173170624858  8.2220039445258273 32.1013423266422748   F   F   F
 12.4445456498759945  9.6447635644691623 32.0286246545166193   F   F   F
 12.2344553418574460 10.2672285594521799 30.7691762202786840   F   F   F
  6.2116608559730579  5.9669048670144456 39.8794852144930232   F   F   F
  7.4215114416569721  5.2151596904019355 39.8058731641728727   F   F   F
  8.0520956397109060  5.0341426850664890 38.5460603437804181   F   F   F
  9.4765240239443838  5.0303680817039336 38.4730584909703595   F   F   F
 10.1077625941527565  5.2080427148036206 37.2128702930350173   F   F   F
 11.3216465623107680  5.9532680109335372 37.1393447622626240   F   F   F
 11.7653973335109860  6.4358817778476576 35.8791032280122195   F   F   F
 12.4079181963930427  7.7071413241205420 35.8057958345992020   F   F   F
 12.5323138268759386  8.3512390907745662 34.5455501866572092   F   F   F
 12.4140601014665712  9.7707666513471096 34.4726343564248481   F   F   F
 12.1826133770920304 10.3852810041070782 33.2128282624526605   F   F   F
 10.2294314799318595  5.2559828161565827 39.6574722863903659   F   F   F
 11.4169192458831699  6.0426893449717829 39.5839475249861081   F   F   F
 11.8441578959307581  6.5405044659308045 38.3238136639288101   F   F   F
 12.4430870906304492  7.8329049549791252 38.2507193587174186   F   F   F
 12.5458911647005227  8.4809001894663076 36.9903659279104957   F   F   F
 12.3791253563157522  9.8956374898138648 36.9172422202727191   F   F   F
 12.1269053264912081 10.5018465593306107 35.6572733741142898   F   F   F
 12.5539022685818846  8.6108523408283002 39.4354585696798310   F   F   F
 12.3383007025400993 10.0188892228663242 39.3621505434260754   F   F   F
 12.0661248899471953 10.6160743873634367 38.1020189728937311   F   F   F
 15.5482217465360897  8.5764992288740398 20.2119531174653453   T   T   T
 15.7780600447896582  7.5109750246091531 19.2443614591643630   T   T   T
 15.7935184899805954  9.9492478860093509 19.7752447333795054   T   T   T
 13.8649586754004428 10.1725050383656868 18.5102295774771193   T   T   T
