 C Se 
 1.0000000000000000
    32.3722991942999982    0.0000000000000000    0.0000000000000000
     0.0000000000000000   19.9214134216000005    0.0000000000000000
     0.0000000000000000    0.0000000000000000   40.4480476378999967
 C   Se 
 364   1
Cartesian
 12.0085793362534954 10.7242977123670808  0.0995150805985082
 11.9383784051599182 10.8340276574933281  2.5439005998111544
 10.9437122537811344 11.8536681610737382  2.4712037694798692
 10.3750617698881591 12.1807739155301213  1.2111154365883954
  8.9933344597711091 12.5268563949089131  1.1378326587974115
 11.8641206858646786 10.9411486433562892  4.9881753038246419
 10.8349831569633785 11.9262295258700668  4.9156520136365840
 10.2554949386267680 12.2334358693921992  3.6557127152979421
  8.8625476511352996 12.5315059351321256  3.5822612926279183
  8.2080923869730640 12.4886316253636203  2.3221865781292634
  6.8661992174002568 12.0110940162433373  2.2489607429700920
  6.3316442704661400 11.6311957308634408  0.9886668502810750
  5.4395485268520103 10.5206663299056178  0.9152821381484970
 11.7850453172568024 11.0453091686479095  7.4325274945959823
 10.7232139894196852 11.9950532349769343  7.3602544458872377
 10.1338432753538967 12.2820360483379201  6.1001378714050984
  8.7316961807359412 12.5320686244496464  6.0267113720399177
  8.0791969973886619 12.4664975007846195  4.7666301326104072
  6.7545823467371049 11.9426499015342440  4.6935496445868701
  6.2334997965750638 11.5445315715459760  3.4333357742247776
  5.3802961823953801 10.4038974032920581  3.3597656113564311
  5.1453217025882676  9.7917083276935504  2.0995427542799217
  5.0170940769841277  8.3731238442812685  2.0258609975270505
  5.1385945826551431  7.7285288235228498  0.7656613205214832
  5.7739144342113438  6.4536713038967299  0.6923421587502273
 11.7021153168838961 11.1467480884265964  9.8761919726340626
 10.6095934427548286 12.0600351793879064  9.8045893227392575
 10.0107003892678836 12.3271982773595106  8.5446927269376580
  8.6004376694830604 12.5289178756238062  8.4713623747766462
  7.9508679999300211 12.4405068266461871  7.2113568330436069
  6.6450764914246969 11.8707646250232344  7.1382469073129569
  6.1382628687631078 11.4546269007993917  5.8779650529005476
  5.3250376249566340 10.2852020834923081  5.8042202464609725
  5.1114274455021986  9.6651890300962027  4.5440183063013455
  5.0321031172830173  8.2429537949630394  4.4705458195615666
  5.1757455420200555  7.6030995091608551  3.2101213274758171
  5.8544166636698582  6.3508908953256187  3.1365823759528850
  6.3125812188469759  5.8813950250749301  1.8765233659832781
  7.5475118948573927  5.1716173780747807  1.8026788761304382
  8.1841712206452915  5.0124836478452464  0.5427829299807949
  9.6078852599813214  5.0567224171095662  0.4697566795797695
 12.0109301367764978 10.7184682751259839 13.5775125198229354
 11.6203528117807000 11.2475858509590569 12.3199196329488458
 10.4952645512752465 12.1228978628823398 12.2489949133374676
  9.8869522951913940 12.3683177328750027 10.9904515592653258
  8.4695451283459864 12.5204182649090150 10.9168825292628568
  7.8235176346423518 12.4096008176685544  9.6563366267596198
  6.5384128506246686 11.7952392254034351  9.5829076723670976
  6.0462834174125986 11.3617080589651369  8.3225251271733569
  5.2743180743337774 10.1645404669318182  8.2486946407669954
  5.0823299163062181  9.5374573416702262  6.9885745866758660
  5.0522984659830739  8.1133110279647358  6.9153239895608847
  5.2172525019363416  7.4788319619738317  5.6547411804013334
  5.9385224540463115  6.2506265730523918  5.5809359423470921
  6.4125636111811053  5.7974460871587814  4.3208375487795303
  7.6712281291631479  5.1307342788657779  4.2470042801798309
  8.3130146266002232  4.9938905698332077  2.9869378552443493
  9.7342499875271784  5.0873686893472314  2.9137957641920793
 10.3525576057470534  5.3074878020660545  1.6540124015339590
 11.5135168542553039  6.1328303221049278  1.5805026142526661
 11.9245864158954173  6.6444342618534060  0.3207599693161569
 12.4804889745418439  7.9559223927515639  0.2480381817874445
 11.9640727342656081 10.8377119511289735 16.0185950443517555
 11.5437222842674938 11.3465155376445885 14.7685850915515164
 10.3784288483348011 12.1740876145821435 14.6958876101077038
  9.7617940472435940 12.3996049506807555 13.4366706233361821
  8.3408322985428462 12.5026584491688268 13.3625506636271112
  7.6981277984030445 12.3729033170261786 12.1012186290864729
  6.4341176651175793 11.7157837240145639 12.0274353357723474
  5.9572068221780521 11.2660341177676706 10.7672191973304319
  5.2272540999084791 10.0424665813144003 10.6933113630344891
  5.0576994207766202  9.4089398824315289  9.4330429776329439
  5.0774377481566439  7.9847329975680772  9.3599224169120205
  5.2639815933286176  7.3562244256590219  8.0995924078886254
  6.0270036344585138  6.1533366039240445  8.0257312791691859
  6.5157529104397458  5.7167738091620093  6.7652227450337286
  7.7962212131630793  5.0935060136019086  6.6914569365595398
  8.4421953733795974  4.9789404393392482  5.4311863388166586
  9.8593875968373581  5.1212717717261773  5.3577751147801127
 10.4698765327843279  5.3630244988727966  4.0981966458495291
 11.6017062675106430  6.2278513415892220  4.0246781082129930
 11.9949347989301476  6.7536792689636602  2.7649604481859482
 12.5053992655465844  8.0834073328732146  2.6923632618687461
 12.5648146183674001  8.7371093828438262  1.4325386600852898
 12.3011565438036854 10.1369494036494388  1.3593309221076626
 11.9026597842305009 10.9476302825183911 18.4711216486615974
 11.4489627352860150 11.4180847862238117 17.2170570770338216
 10.2547164284075460 12.1944074658811044 17.1412256086768409
  9.6337917565225446 12.4137920583520653 15.8801167732647670
  8.2107547847005495 12.4783301400345756 15.8065306900544780
  7.5729389363722950 12.3311465067018826 14.5461540707646844
  6.3300494966944427 11.6330002599226123 14.4720183048094313
  5.8706708579304836 11.1665162750342866 13.2114659681232496
  5.1839828775175656  9.9187069170461299 13.1376140427461880
  5.0368830914125162  9.2797525548897415 11.8773316812035219
  5.1065548422373075  7.8569019427263616 11.8043798551582508
  5.3154006979864654  7.2352934265038691 10.5442578462155154
  6.1193913916056877  6.0595091499065967 10.4705221622656115
  6.6224128237960445  5.6394543612158374  9.2097261054298389
  7.9231301957034317  5.0594941381794651  9.1361341376323129
  8.5721820735433596  4.9673489395878736  7.8758173717314790
  9.9836570489948091  5.1582356840207799  7.8020818951543749
 10.5850196690694016  5.4218946056776538  6.5422038307622312
 11.6859732108385099  6.3253768051680481  6.4686588151824251
 12.0612370598680183  6.8647153793820577  5.2090910008086437
 12.5252664871620674  8.2114723043177076  5.1364072275031063
 12.5624987628586364  8.8670369635339767  3.8769457306721868
 12.2509686873967176 10.2570616314455787  3.8037480668563513
 11.7870833294809447 10.9962119697761089 20.9246811539069810
 11.3478626120844570 11.4796082798519521 19.6450936179323250
 10.1330770303991038 12.2301566575764618 19.5785798176393975
  9.5053734943256352 12.4260514691712913 18.3230102921745477
  8.0781632501978375 12.4543872956409700 18.2500937833828978
  7.4470913136696320 12.2836711669132672 16.9900834789687707
  6.2290135278167584 11.5461906548514843 16.9161088612568911
  5.7855265301014072 11.0648050973268592 15.6552645234299970
  5.1424976861180927  9.7934867582369112 15.5820219433191820
  5.0190937563197862  9.1498288310036653 14.3218639723063923
  5.1384044363729862  7.7302247274192784 14.2489282367732866
  5.3699977669906254  7.1163007384212040 12.9886157381957901
  6.2138814511956575  5.9690022344715592 12.9150191252778459
  6.7313871363094764  5.5660578828576170 11.6548282060042396
  8.0514838402330522  5.0302541889068531 11.5818597091768130
  8.7032387363116062  4.9602901704728968 10.3207912661355774
 10.1067949471160663  5.1992759903747219 10.2466001921116252
 10.6986690734168040  5.4830745668814060  8.9864011684597358
 11.7674589492829593  6.4248477264814872  8.9126141307020834
 12.1231461395069147  6.9775042306290986  7.6533229654455015
 12.5397983919676008  8.3397176176915107  7.5802413182218427
 12.5544213432720841  8.9964930892646127  6.3209175097316823
 12.1952640603460871 10.3747737366904733  6.2479784178583229
 11.7065486074399310 11.1376615126696539 23.3660678554709094
 11.2453857657857696 11.5868594078564175 22.1034721461471939
 10.0139137722569238 12.2979248478013687 22.0266129897184442
  9.3777912322339052 12.4454580944880373 20.7631064789111512
  7.9562395247904991 12.4223569740524287 20.6922403578396583
  7.3260754712009355 12.2341011150653749 19.4324108331216507
  6.1308708351336314 11.4566673090780355 19.3599525768864993
  5.7034146819781890 10.9608340967103004 18.1002778972853555
  5.1053268291025100  9.6670907003266500 18.0274137867260933
  5.0049720144605683  9.0192825170536555 16.7664923966894364
  5.1731094717652013  7.6052064040349547 16.6933770168437228
  5.4253961960985428  6.9991504263453139 15.4332890671929892
  6.3086049359476162  5.8809788395891456 15.3600572624895175
  6.8422112938575168  5.4973423726029251 14.1000914738450636
  8.1800845355671186  5.0087231146306150 14.0277590162889432
  8.8342240836014199  4.9588855738238227 12.7661948051320344
 10.2291435886658775  5.2457023141821688 12.6918950203614926
 10.8106766229695808  5.5484977403341107 11.4317061538635123
 11.8456515938904818  6.5273509569698156 11.3571159049026047
 12.1809163658670023  7.0923769982845188 10.0970606233559526
 12.5489799245887319  8.4679765239467315 10.0229680134154648
 12.5415693557151524  9.1250487400533551  8.7642552613046938
 12.1352412967410892 10.4905704729963567  8.6918530362989586
 11.6216537972936216 11.2457780379533947 25.8097718244962202
 11.1473729446935224 11.6964623810079367 24.5493275171868461
  9.8910350924025199 12.3622556098694663 24.4724341870018840
  9.2511426809657138 12.4932133943677997 23.2089382229726908
  7.8284648853105550 12.4054063532464856 23.1370998637027654
  7.2090857707950429 12.1839616066984178 21.8783271456644073
  6.0450374573004382 11.3638411046046102 21.8054538364982733
  5.6314713435565666 10.8525110498041233 20.5449643959075701
  5.0773147751842034  9.5405212394763002 20.4723627040814300
  4.9955444933631163  8.8899938976196520 19.2118336164032613
  5.2115737086043881  7.4804123563777472 19.1389201310395833
  5.4846567503574706  6.8842163433829455 17.8785581144344157
  6.4050091862355494  5.7972232567302413 17.8056767990608940
  6.9517893976098737  5.4319841206566011 16.5449054597289553
  8.3068386746249416  4.9944694624303425 16.4724536322287882
  8.9637347568793153  4.9672355598394731 15.2133255556830722
 10.3479286674618329  5.3076129934582985 15.1405241179885888
 10.9191219735158533  5.6245955137169421 13.8770079883253832
 11.9185474167415535  6.6360646865020403 13.8005331672733327
 12.2361413312194500  7.2092362297240955 12.5404104817164317
 12.5550096770674582  8.5978945606682959 12.4642469772355149
 12.5238759073955244  9.2536833597192825 11.2068433775353782
 12.0720231015660797 10.6046490822078443 11.1356632376732456
 11.5331718681048709 11.3429652165912316 28.2530601974156532
 11.0446822523078652 11.7806611940017127 26.9927159218833488
  9.7644981049200013 12.4053002395010044 26.9178160598445970
  9.1193075419193903 12.5189233046917430 25.6573471259597810
  7.7023805088165069 12.3762099653635520 25.5838098906346829
  7.0927197482065472 12.1332630928581615 24.3225842560754870
  5.9602296519201001 11.2693691405792009 24.2499775161098512
  5.5647706059218898 10.7439878306487380 22.9902623560133428
  5.0550195198858825  9.4134650442092465 22.9177355588718505
  4.9953950178013393  8.7595461852516685 21.6576028070532267
  5.2585540990983004  7.3600507446910903 21.5842207683742267
  5.5483805609108865  6.7718686888136110 20.3234798042437532
  6.5057762413657141  5.7158701545013937 20.2508061446894487
  7.0616335996928097  5.3695898957640589 18.9909396895013955
  8.4339245622396923  4.9827160750457731 18.9189272117248706
  9.0912262235746510  4.9894799714706410 17.6587789992585051
 10.4551238387994410  5.3909737205224806 17.5871250272596988
 11.0176207118472043  5.7214585538978699 16.3230974573504461
 11.9797927223662413  6.7684660451572984 16.2466405454675957
 12.2848922632520345  7.3357563149038212 14.9841471404603670
 12.5590612074207453  8.7303598642156715 14.9038608880950285
 12.5031611500970037  9.3841796125134476 13.6456521534977053
 11.4430731904967598 11.4374951285186999 30.6968044125708559
 10.9388294443310183 11.8575126752400042 29.4372241019003660
  9.6375401747461567 12.4369741516497267 29.3634367472147950
  8.9881424879584735 12.5295459966997846 28.1028752817368179
  7.5773207342266176 12.3380170989070788 28.0290576189635843
  6.9762981111558320 12.0758170161916532 26.7682419537062053
  5.8755206298542841 11.1713844751687397 26.6952370816481341
  5.5010545851728336 10.6323678444412160 25.4351760135627138
  5.0373379362065513  9.2858037633575350 25.3624740608804835
  4.9997359160677366  8.6304108888554829 24.1022179962735628
  5.3108425053540191  7.2402329615264867 24.0288137475247119
  5.6213231852248313  6.6628220255146617 22.7688283186824911
  6.6150786725125936  5.6418379684608180 22.6961461331607204
  7.1820768032730413  5.3144694375391301 21.4351864369135932
  8.5645015351616411  4.9733402477830246 21.3614892110010288
  9.2176690242014576  4.9972542709482397 20.1013340395101103
 10.5715468557508245  5.4493576221302842 20.0279426406622321
 11.1120247658862450  5.8224083561732316 18.7716593127738740
 12.0472744023524729  6.9014471650838880 18.7054860416632494
 12.3204193500063877  7.4938644360112443 17.4255449798312299
 12.6017584971825922  8.8661494219836872 17.3318876049602757
 12.5057789928943617  9.5150669141737403 16.0827450254974984
 11.3494394449326634 11.5278712802336507 33.1411075978792340
 10.8306138972029515 11.9299696496661216 31.8812558397380670
  9.5100870995113471 12.4633345087556897 31.8080497074147814
  8.8577313494231333 12.5341125611862552 30.5477915594993625
  7.4537346638406161 12.2939214459009758 30.4740435246490371
  6.8621554208780378 12.0113468190150119 29.2139110802264099
  5.7936632635437846 11.0696679310621935 29.1405522940461879
  5.4385197409943391 10.5184251203074979 27.8798063419429738
  5.0213973184369367  9.1565357107018563 27.8068345923131055
  5.0073505550729385  8.5006331511168369 26.5468309814314232
  5.3666178244968030  7.1221885672329410 26.4733274105721783
  5.6980860181134778  6.5561775164755556 25.2131897068222948
  6.7265823534233373  5.5708211771454526 25.1400735526513657
  7.3044859387650343  5.2627216065946616 23.8795680381513407
  8.6990132031479828  4.9672590265426804 23.8053392463921938
  9.3516108978461112  5.0160191511659873 22.5450615725854355
 10.6907403732636190  5.5016321867904328 22.4713849856388208
 11.2179282091104806  5.8947943625592227 21.2095691582163504
 12.1268144786767014  6.9914780642064214 21.1338492231911665
 12.4187962085313810  7.5751713747166249 19.8792349887269637
 12.8098339406262181  8.9951346823637213 19.8251865004160521
 12.6994280108980142  9.7090295552794341 18.5241629174165325
 11.2528074083518739 11.6149032129185716 35.5854837932481516
 10.7206163434430941 11.9989136895706832 34.3254942467062492
  9.3820506307627554 12.4859238317513928 34.2525076661335532
  8.7275200877315129 12.5336011107953400 32.9926219814498864
  7.3327070291379259 12.2449254077151561 32.9188387948148673
  6.7508077098725199 11.9420725688666813 31.6586648104989443
  5.7149962423016119 10.9645903071585504 31.5853635956386292
  5.3788552822797833 10.4018074357450221 30.3248158454733101
  5.0089907924446591  9.0261961708953748 30.2514387685460520
  5.0181753596901650  8.3704680669330465 28.9912961792423864
  5.4248926400075064  7.0054577305747738 28.9177586466067602
  5.7763698080968515  6.4515917259721771 27.6574922956587628
  6.8387575245665824  5.5023172328356047 27.5843323749021359
  7.4283240671353399  5.2153127008999824 26.3242733026683275
  8.8307862534577950  4.9654028703766908 26.2500989389202672
  9.4830088186850254  5.0330214174877712 24.9890208209187747
 10.8086158490564124  5.5549662538487805 24.9151260672671668
 11.3304474819584478  5.9529077844265910 23.6555118599530481
 12.1970790631614925  7.0895049343943972 23.5826352928696039
 12.4467247554939409  7.6994449848088040 22.3321317504081946
 12.5696921258834635  9.1236233046688966 22.2674818990779642
 12.4665920777328587  9.7709844507520209 21.0178083944683145
 11.1528339815746786 11.6982426936323201 38.0300108870399427
 10.6077231312414852 12.0636716627031664 36.7700143519361760
  9.2531379502110962 12.5041389037247246 36.6970053803907206
  8.5973816018952771 12.5289163030802762 35.4370260585930339
  7.2135223795449708 12.1921813543763502 35.3632784294610545
  6.6422825192920838 11.8694946500460148 34.1031755894252768
  5.6403605612245613 10.8569903359392601 34.0300051496692575
  5.3233674713718555 10.2828150922135535 32.7698168029037689
  5.0012134943720330  8.8953819196801351 32.6960733216539978
  5.0328804512082028  8.2403919232442373 31.4357314966839780
  5.4865373934219210  6.8901099220589801 31.3624083697972189
  5.8571666617655973  6.3489707582761161 30.1021448151990505
  6.9515215856847457  5.4370428728716860 30.0289645994355823
  7.5511843400992440  5.1706555415918363 28.7687583524378958
  8.9610565556676658  4.9682909554630967 28.6948191737607843
  9.6110665265963906  5.0551769359138836 27.4345243772774339
 10.9184940595412083  5.6232850412324673 27.3615196615167555
 11.4263934436071093  6.0381003001200124 26.1028371747267016
 12.2401474632077214  7.2085084323435593 26.0314508900075019
 12.4561257302710722  7.8289766780851382 24.7736133434822605
 12.5276320989341201  9.2494701067517813 24.7051787187192566
 12.3859506221036373  9.8891594978122743 23.4462192041475461
 11.0497456391573419 11.7777410302233267  0.0266463654506575
 10.4925661524478837 12.1243373545845632 39.2145647652735860
  9.1236488670734879 12.5178611045624457 39.1414250927895893
  8.4674788967489789 12.5202241453437662 37.8814276707532827
  7.0959232747331260 12.1358884198487953 37.8077925671659543
  6.5362602378499206 11.7935060927865027 36.5477195194181377
  5.5699408214584079 10.7470214176887513 36.4745781110979266
  5.2729143583955862 10.1621823846344821 35.2144368219477286
  4.9985670642159992  8.7645820413791196 35.1405634410422394
  5.0523452950061376  8.1108961786126947 33.8803783675547621
  5.5523766625048232  6.7771400387278113 33.8071801925609137
  5.9413479637288900  6.2490694186375917 32.5468704506958133
  7.0667920375380522  5.3759469810867193 32.4735452546113521
  7.6748127318844492  5.1301679812892687 31.2133754840191209
  9.0912348482880212  4.9770668450685456 31.1398847995386063
  9.7377528154447539  5.0867693032297785 29.8799400765839884
 11.0233396433330544  5.7006190907117915 29.8073447510101985
 11.5158369580253748  6.1336245003521537 28.5474767698401521
 12.2864377030109555  7.3310406924714435 28.4752238465414003
 12.4787617963032034  7.9577623949610903 27.2156372484571634
 12.5068106761507387  9.3820570297390393 27.1443524514583459
 12.3413647632161556 10.0161054260281990 25.8862986284091114
  8.3377566156499796 12.5067088046367623 40.3258591390593324
  6.9802382627353357 12.0753787961628358 40.2524322556093210
  6.4328182181494427 11.7140125967096012 38.9921890510428710
  5.5030666352157080 10.6349320785405386 38.9189630717508308
  5.2263934180038127 10.0401647318611982 37.6588970744775935
  5.0004915370855043  8.6338570442153895 37.5850332008429788
  5.0769642543129141  7.9824522488051022 36.3249295417075473
  5.6227263261734368  6.6668509432287504 36.2517937031055837
  6.0295048958697901  6.1525091298454404 34.9915076556922244
  7.1844907618838532  5.3188254614107793 34.9179938236779677
  7.8007323096283727  5.0945350025892822 33.6579731135233047
  9.2213828669789386  4.9908425452969958 33.5847787620418003
  9.8635972040970117  5.1232468556335338 32.3245668042860075
 11.1268417371095811  5.7810162402587322 32.2517875591960248
 11.6038585679729227  6.2306708609364225 30.9917519028304618
 12.3337705304463299  7.4540377270434632 30.9188025261056190
 12.5032568328036664  8.0872659410220429 29.6594159717635613
 12.4837109477545152  9.5118002186151660 29.5871722394357377
 12.2953100933847281 10.1401356546400176 28.3279544680741964
  5.1839060484703356  9.9166264806532869 40.1032482616305828
  5.0067106239250192  8.5033356157491546 40.0294257295103719
  5.1057768225573366  7.8548688962013893 38.7692904603125470
  5.6965875727762407  6.5588463940035027 38.6961407329875513
  6.1209835283427285  6.0587832822283794 37.4360275941846368
  7.3040936351351426  5.2655027504967915 37.3623384210895253
  7.9278207707587187  5.0628295913367358 36.1023116543213760
  9.3511170715925314  5.0086009979592916 36.0292404975849578
  9.9883556569095759  5.1631595838644353 34.7690678296916786
 11.2284418786553601  5.8641801762735053 34.6959976263710388
 11.6894412476703415  6.3304324725201440 33.4361341030005619
 12.3771536367081811  7.5779460410074568 33.3629987243626687
 12.5246934934214202  8.2169565264364106 32.1031100752946230
 12.4564089990996667  9.6396517871635243 32.0305045005142190
 12.2472519007930334 10.2616330520421499 30.7708675550680333
  6.2155651139198707  5.9685529912815340 39.8803797292761217
  7.4252512142582550  5.2165903935489757 39.8065701039329056
  8.0556678043834733  5.0353442162802509 38.5465774043766558
  9.4801228325888580  5.0303892434029871 38.4736198280062496
 10.1116725773937457  5.2073321556843162 37.2135954631032249
 11.3267125335686210  5.9507776209150407 37.1402835007048111
 11.7715270237871774  6.4327122926865936 35.8803295723385318
 12.4158629805947136  7.7029840544391543 35.8072361859844221
 12.5417731187373409  8.3467258883642756 34.5471895781886644
 12.4243141096074279  9.7663922181788489 34.4744018369346747
 12.1938554444031055 10.3806268866989146 33.2147336182292108
 10.2334091354669656  5.2551800879025672 39.6579051086471353
 11.4220257406326660  6.0401601601806005 39.5844473620557125
 11.8500335236434626  6.5373074672259968 38.3245413786103128
 12.4505896248475434  7.8289588087569344 38.2516229100131255
 12.5541722635977511  8.4768240834680491 36.9916307571731338
 12.3879852018404275  9.8915863764951713 36.9186601783687323
 12.1363292251895540 10.4976613709484479 35.6588393252032958
 12.5619463516500627  8.6070054991427725 39.4360756934505190
 12.3468573208195469 10.0150737179489564 39.3629660735072804
 12.0747214098887810 10.6122389149034841 38.1031190062973337
 14.6835566154937691  9.6457267211521920 19.1719478670717827
