Ge Se
 1.0000000000000000
     3.8581001758999998    0.0000000000000000    0.0000000000000000
     0.0000000000000000    4.5265750884999987    0.0000000000000000
     0.0000000000000000    0.0000000000000000   11.0851764678999984
 Ge  Se 
   4   4
Cartesian
  1.5795844923068840  3.3267202652823014  1.3632845376242730
  3.5086345802568841  1.0634327210323014  4.1793036963257251
  2.8935751319250000  4.0100003729888849  9.7218919302757278
  0.9645250439749999  1.7467128287388884  6.9058727715742734
  1.5795844923068840  2.7798622597611082  3.9062145503529235
  3.5086345802568841  0.5165747155111089  1.6363736835970737
  2.8935751319250000  0.0302832900100802  7.1789619175470731
  0.9645250439749999  2.2935708342600818  9.4488027843029201
