Ge Se                                   
    1.000000000000000     
    12.4597166367914163   -0.0000048086738891    0.0000014517542160
    -0.0000048197270000   12.4883549021532616   -0.0000017503593808
     0.0000016580360195   -0.0000019944859322   11.0545055550776183
   Ge   Se
    36    36
Direct
  0.0629185359019502  0.0234791335041535  0.1309952030500412
  0.2198020664320453  0.8496097951888615  0.3747075142618428
  0.5398684425939280  0.1818207518980870  0.3806643315169680
  0.5574562504944751  0.5493391725104217  0.3841831349057543
  0.5628218782405128  0.8598865476897828  0.3663133370003209
  0.8827687924976217  0.1928157706513787  0.3795339169351379
  0.8852879719808371  0.4884378961016154  0.3624926670538855
  0.9012798646455309  0.8541380212148155  0.3733565851652045
  0.0535797995255578  0.1865751381353178  0.6421428125704622
  0.0524993420840829  0.4910333790652288  0.6210086902039151
  0.0867477167379249  0.8157274639373995  0.6277457689482304
  0.3866925342101268  0.1643342079366761  0.6194203489528789
  0.3922329812336756  0.4806034365172849  0.6237269949707738
  0.3750768095406727  0.8350946817866642  0.6101687087752055
  0.7282526432106806  0.1326969103540705  0.6334989687736012
  0.7123799961667103  0.5256150699428517  0.6212244346234144
  0.2251010572806535  0.5219522960526675  0.3833084783698339
  0.2270562792208608  0.2003319178569072  0.3630486189104190
  0.7413202400507757  0.8360036139324336  0.6216227500958382
  0.8932818231561228  0.6611570867676377  0.8454153710103327
  0.9035195957289943  0.9657008001429048  0.8917568867943544
  0.0647603406588644  0.3463693994822989  0.1342820706262060
  0.0452235993887555  0.6723229314903492  0.1227601827713514
  0.3832299060628159  0.0089436605052740  0.1291651781660548
  0.4131562048169997  0.3715454359688906  0.1177523959552431
  0.7286903941817471  0.0298881165123461  0.1211057836765974
  0.7108965391724098  0.3577339291674875  0.1249385710693929
  0.3796549845654553  0.6914252705209307  0.1292646323543849
  0.2021068506333918  0.3382099354874413  0.8852368898380334
  0.2503833698178255  0.6441848562027772  0.8664320769978744
  0.2175708158926710  0.9947130417837045  0.8819456468263027
  0.5772639277697067  0.3229199412087453  0.8705341476134691
  0.5485016519095964  0.6951786863356659  0.8679736714606534
  0.5513253215459102  0.0039018805354090  0.8661185139460841
  0.8680033951991888  0.3464357558171969  0.8713345444515923
  0.7259945351277395  0.6841170848761422  0.1437216590715025
  0.9085615811372847  0.0242473860399244  0.6514468273712311
  0.2570116264001996  0.3191013875938040  0.6375580016438605
  0.2435831043793186  0.6838671234629956  0.6388622518253513
  0.5969010892809763  0.9934762921374514  0.6293773326707566
  0.5711201927147656  0.3658161046153765  0.6295251429668198
  0.5872686159856286  0.6776204492658309  0.6416878043333227
  0.9031393708599467  0.3387229189735166  0.6330870206930115
  0.7605621299300864  0.0082414220552209  0.3544097421928001
  0.0758174623818064  0.9941303970730715  0.3616064071459135
  0.0878796516571754  0.3600289347847507  0.3611276036920259
  0.0877669710292892  0.6777773965674498  0.3554162928166562
  0.4195490455295570  0.0125665713455163  0.3710993264717075
  0.3859898779850042  0.3337138312817771  0.3422619799509974
  0.4205977821528535  0.7032850082786695  0.3665418968272363
  0.2437147459252245  0.0092236414456650  0.6491173233582330
  0.9325715983397558  0.6811800735262565  0.6277821379242283
  0.8973268845155644  0.8170274575273666  0.1464629031699971
  0.2361936773669271  0.1611711385211478  0.1372892786915330
  0.9273631774080613  0.1824411174374845  0.1602082518066084
  0.7430529984216605  0.3333123533037536  0.3552631865491875
  0.0661931574866799  0.1727855697055318  0.8718032302723842
  0.0843439472608836  0.5050533787360010  0.8462823450113177
  0.0742766708320559  0.8395240611760215  0.8601570125884095
  0.4299873329049220  0.1571054704868544  0.8442237535953510
  0.4157152763940530  0.5385532931138499  0.8521406607450643
  0.4045249644640876  0.8568879048745970  0.8459893346410823
  0.7355974601549491  0.1901570532179520  0.8682210197381295
  0.7437826337257931  0.5111295908459326  0.8514787949283757
  0.7574225009292732  0.8281188725792603  0.8583462687854109
  0.2548677998231312  0.5321707452796218  0.1590906049652645
  0.2442947165432656  0.8480987885516384  0.1455871545986369
  0.5820040551181478  0.1791226196099416  0.1607490978538095
  0.5718661342338081  0.5000480143855910  0.1456828222304054
  0.5853719990862416  0.8464853977254521  0.1421741666384122
  0.9116934941746990  0.5005556241926570  0.1265853047472518
  0.7483779789037612  0.6501589117681590  0.3614406451324683
 
  0.00000000E+00  0.00000000E+00  0.00000000E+00
  0.00000000E+00  0.00000000E+00  0.00000000E+00
  0.00000000E+00  0.00000000E+00  0.00000000E+00
  0.00000000E+00  0.00000000E+00  0.00000000E+00
  0.00000000E+00  0.00000000E+00  0.00000000E+00
  0.00000000E+00  0.00000000E+00  0.00000000E+00
  0.00000000E+00  0.00000000E+00  0.00000000E+00
  0.00000000E+00  0.00000000E+00  0.00000000E+00
  0.00000000E+00  0.00000000E+00  0.00000000E+00
  0.00000000E+00  0.00000000E+00  0.00000000E+00
  0.00000000E+00  0.00000000E+00  0.00000000E+00
  0.00000000E+00  0.00000000E+00  0.00000000E+00
  0.00000000E+00  0.00000000E+00  0.00000000E+00
  0.00000000E+00  0.00000000E+00  0.00000000E+00
  0.00000000E+00  0.00000000E+00  0.00000000E+00
  0.00000000E+00  0.00000000E+00  0.00000000E+00
  0.00000000E+00  0.00000000E+00  0.00000000E+00
  0.00000000E+00  0.00000000E+00  0.00000000E+00
  0.00000000E+00  0.00000000E+00  0.00000000E+00
  0.00000000E+00  0.00000000E+00  0.00000000E+00
  0.00000000E+00  0.00000000E+00  0.00000000E+00
  0.00000000E+00  0.00000000E+00  0.00000000E+00
  0.00000000E+00  0.00000000E+00  0.00000000E+00
  0.00000000E+00  0.00000000E+00  0.00000000E+00
  0.00000000E+00  0.00000000E+00  0.00000000E+00
  0.00000000E+00  0.00000000E+00  0.00000000E+00
  0.00000000E+00  0.00000000E+00  0.00000000E+00
  0.00000000E+00  0.00000000E+00  0.00000000E+00
  0.00000000E+00  0.00000000E+00  0.00000000E+00
  0.00000000E+00  0.00000000E+00  0.00000000E+00
  0.00000000E+00  0.00000000E+00  0.00000000E+00
  0.00000000E+00  0.00000000E+00  0.00000000E+00
  0.00000000E+00  0.00000000E+00  0.00000000E+00
  0.00000000E+00  0.00000000E+00  0.00000000E+00
  0.00000000E+00  0.00000000E+00  0.00000000E+00
  0.00000000E+00  0.00000000E+00  0.00000000E+00
  0.00000000E+00  0.00000000E+00  0.00000000E+00
  0.00000000E+00  0.00000000E+00  0.00000000E+00
  0.00000000E+00  0.00000000E+00  0.00000000E+00
  0.00000000E+00  0.00000000E+00  0.00000000E+00
  0.00000000E+00  0.00000000E+00  0.00000000E+00
  0.00000000E+00  0.00000000E+00  0.00000000E+00
  0.00000000E+00  0.00000000E+00  0.00000000E+00
  0.00000000E+00  0.00000000E+00  0.00000000E+00
  0.00000000E+00  0.00000000E+00  0.00000000E+00
  0.00000000E+00  0.00000000E+00  0.00000000E+00
  0.00000000E+00  0.00000000E+00  0.00000000E+00
  0.00000000E+00  0.00000000E+00  0.00000000E+00
  0.00000000E+00  0.00000000E+00  0.00000000E+00
  0.00000000E+00  0.00000000E+00  0.00000000E+00
  0.00000000E+00  0.00000000E+00  0.00000000E+00
  0.00000000E+00  0.00000000E+00  0.00000000E+00
  0.00000000E+00  0.00000000E+00  0.00000000E+00
  0.00000000E+00  0.00000000E+00  0.00000000E+00
  0.00000000E+00  0.00000000E+00  0.00000000E+00
  0.00000000E+00  0.00000000E+00  0.00000000E+00
  0.00000000E+00  0.00000000E+00  0.00000000E+00
  0.00000000E+00  0.00000000E+00  0.00000000E+00
  0.00000000E+00  0.00000000E+00  0.00000000E+00
  0.00000000E+00  0.00000000E+00  0.00000000E+00
  0.00000000E+00  0.00000000E+00  0.00000000E+00
  0.00000000E+00  0.00000000E+00  0.00000000E+00
  0.00000000E+00  0.00000000E+00  0.00000000E+00
  0.00000000E+00  0.00000000E+00  0.00000000E+00
  0.00000000E+00  0.00000000E+00  0.00000000E+00
  0.00000000E+00  0.00000000E+00  0.00000000E+00
  0.00000000E+00  0.00000000E+00  0.00000000E+00
  0.00000000E+00  0.00000000E+00  0.00000000E+00
  0.00000000E+00  0.00000000E+00  0.00000000E+00
  0.00000000E+00  0.00000000E+00  0.00000000E+00
  0.00000000E+00  0.00000000E+00  0.00000000E+00
  0.00000000E+00  0.00000000E+00  0.00000000E+00
