Ge Se 
 1.0000000000000000
    12.4597166367914163   -0.0000048086738891    0.0000014517542160
    -0.0000048197270000   12.4883549021532616   -0.0000017503593808
     0.0000016580360195   -0.0000019944859322   11.0545055550776183
 Ge  Se 
  36  36
Cartesian
  0.7839472325718519  0.2932151881721347  1.4480872500505566
  2.7386679903157316 10.6102268463589553  4.1422051299129725
  6.7266075706950552  2.2706387229987253  4.2080564328788306
  6.9457449078940394  6.8603391010921628  4.2469544467313201
  7.0125975828057721 10.7385649461036525  4.0494121307376005
 10.9990487102844003  2.4079467727043196  4.1955607371662564
 11.0304355197295667  6.0997808141303498  4.0071776319008006
 11.2296882262555950 10.6667736657381305  4.1272722581219066
  0.6675892849991840  2.3300150025595712  7.0985710399244644
  0.6541255889936032  6.1321976155248201  6.8649432323419193
  1.0808490786846394 10.1870924039121071  6.9394177881348282
  4.8180796367962246  2.0522608163740390  6.8473859621663307
  4.8871105195599691  6.0019431522870894  6.8949932589534324
  4.6733477506618764 10.4289557424576032  6.7451124634935864
  9.0738219852006985  1.6571613454866294  7.0030186944203097
  8.8760513866471076  6.5640628707399200  6.8673290776798659
  2.8046935082307569  6.5183236681585566  4.2372851166349710
  2.8290565360986761  2.5018142724911128  4.0133229534855195
  9.2366371295145751 10.4403050256858343  6.8717317570050653
 11.1300366084542066  8.2567583639579460  9.3456490547449054
 11.2575949627224681 12.0600081981502836  9.8579310802118467
  0.8068940471501304  4.3255834087455520  1.4844213834299220
  0.5634701968074985  8.3962069149985314  1.3570520112350337
  4.7749362073414030  0.1116895060684376  1.4278577202602651
  5.1478076432421016  4.6399890450657999  1.3016944646741524
  9.0792758842015964  0.3732496607848184  1.3387655639693992
  8.8575679191366774  4.4675046003274801  1.3811345338142109
  4.7303904092753513  8.6347620831291856  1.4289559373596044
  2.5181939269214886  4.2236829683430557  9.7858558176947330
  3.1197041702754613  8.0448061747542567  9.5779774442105428
  2.7108673825105392 12.4223266863400070  9.7494716268719657
  7.1925448516427952  4.0327343186551508  9.6233248434972545
  6.8341732461656930  8.6816337866456426  9.5950193522999587
  6.8693538786726922 12.5370785924604036  9.5745109669723441
 10.8150761189330407  4.3264067576311218  9.6321732157116546
  9.0456831285888182  8.5434931728379837  1.5887717351057447
 11.3204208113022844  0.3028042940381717  7.2014238485793900
  3.2022915564199028  3.9850488705553992  7.0478882854318110
  3.0349742212800690  8.5403728982070906  7.0623054683423359
  7.4372195076058558 -0.0814745046524198  6.9574560982213232
  7.1159950474173188  4.5684373414502399  6.9590893788042667
  7.3171983428575222  8.4623605555676651  7.0935410641186438
 11.2528600615740757  4.2300864200487061  6.9984647053479749
  9.4763891715061117  0.1029174393635568  3.9178255535677873
  0.9446647252441985 -0.0733027702865755  3.9973801568884282
  1.0949544213097602  4.4961679697876322  3.9920865985049776
  1.0935489116854280  8.4643235420762526  3.9289503243688286
  5.2274627772631623  0.1569330452391040  4.1023201530531068
  4.8093234634359590  4.1675342220679443  3.7835369349034931
  5.2405264017854423  8.7828700271676219  4.0519388142484809
  3.0366177062404245  0.1151856412635456  7.1756713946299371
 11.6195756166164035  8.5068127739354011  6.9398212926167053
 11.1804350166302306 10.2033242473351535  1.6190748493119740
  2.9429057422233456  2.0127609682362739  1.5176651547358904
 11.5546817962136785  2.2783846443845661  1.7710240365313328
  9.2582287890167443  4.1625186796622113  3.9272593645364666
  0.8247485982804278  2.1578054593527969  9.6373534456400503
  1.0509006518462540  6.3072837447060000  9.3552321225134616
  0.9254636511861842 10.4842723521198202  9.5086091122601761
  5.3575209679529676  1.9619851210483779  9.3324765230932023
  5.1796933626554207  6.7256409595073574  9.4199933287684274
  5.0402637024456531 10.7011166348940598  9.3519928867353315
  9.1653364353107989  2.3747434988305267  9.5977548207938739
  9.2673198038671956  6.3831624566057918  9.4126772536956498
  9.4372671677707363 10.3418370277835017  9.4885932465541440
  3.1755782644989434  6.6459355927152073  1.7586674148645496
  3.0438390977784811 10.5913571984139612  1.6093928794367873
  7.2516050114413542  2.2369437254127922  1.7770023265965662
  7.1252878181829828  6.2447740312841713  1.6104515225707456
  7.2935653916280243 10.5712069678583429  1.5716644830554447
 11.3594403943645492  6.2511116466774004  1.3993384019223170
  9.3245750200486768  8.1194109133645984  3.9955475678968568
