Ge Se
 1.0000000000000000
     4.6499999999999995    0.0000000000000000    0.0000000000000000
     0.0000000000000000    4.6499999999999995    0.0000000000000000
     0.0000000000000000    0.0000000000000000   11.1422209999999993
 Ge  Se 
   4   4
Selective dynamics
Cartesian
  0.0000000000000000  1.1624999999999999  1.6583688139214872   T   T   T
  2.3249999999999997  3.4874999999999998  3.9127416860785087   T   T   T
  4.6499999999999995  3.4874999999999998  9.4838521860785097   T   T   T
  2.3249999999999997  1.1624999999999999  7.2294793139214883   T   T   T
  0.0000000000000000  1.1624999999999999  4.0688361906292139   T   T   T
  2.3249999999999997  3.4874999999999998  1.5022743093707822   T   T   T
  4.6499999999999995  3.4874999999999998  7.0733848093707818   T   T   T
  2.3249999999999997  1.1624999999999999  9.6399466906292144   T   T   T
