Ge Se                                   
    1.000000000000000     
     3.8581001759000002    0.0000000000000000    0.0000000000000000
     0.0000000000000000    4.5265750884999996    0.0000000000000000
     0.0000000000000000    0.0000000000000000   10.5851764679000002
   Ge   Se
     4     4
Direct
  0.9166663755782736  0.2206453982658090  0.1162932343646688
  0.4166664236100104  0.7206454236800113  0.3837066632165786
  0.7499995288418759  0.8808035479327430  0.8837066983297674
  0.2499989129793434  0.3808035900050939  0.6162933008206437
  0.9166664474319930  0.0963904855090547  0.3545217537523442
  0.4166663262079311  0.5963905862024461  0.1454782560698860
  0.7499991188041832  0.0050583627741787  0.6454782049300576
  0.2499994226354758  0.5050584457094658  0.8545217376194714
 
  0.00000000E+00  0.00000000E+00  0.00000000E+00
  0.00000000E+00  0.00000000E+00  0.00000000E+00
  0.00000000E+00  0.00000000E+00  0.00000000E+00
  0.00000000E+00  0.00000000E+00  0.00000000E+00
  0.00000000E+00  0.00000000E+00  0.00000000E+00
  0.00000000E+00  0.00000000E+00  0.00000000E+00
  0.00000000E+00  0.00000000E+00  0.00000000E+00
  0.00000000E+00  0.00000000E+00  0.00000000E+00
