KPOINTS created by Atomic Simulation Environment
30 
Reciprocal
0.000000 0.000000 0.000000 1.0 
0.000000 0.000000 -0.017241 1.0 
0.000000 0.000000 -0.034483 1.0 
0.000000 0.000000 -0.051724 1.0 
0.000000 0.000000 -0.068966 1.0 
0.000000 0.000000 -0.086207 1.0 
0.000000 0.000000 -0.103448 1.0 
0.000000 0.000000 -0.120690 1.0 
0.000000 0.000000 -0.137931 1.0 
0.000000 0.000000 -0.155172 1.0 
0.000000 0.000000 -0.172414 1.0 
0.000000 0.000000 -0.189655 1.0 
0.000000 0.000000 -0.206897 1.0 
0.000000 0.000000 -0.224138 1.0 
0.000000 0.000000 -0.241379 1.0 
0.000000 0.000000 -0.258621 1.0 
0.000000 0.000000 -0.275862 1.0 
0.000000 0.000000 -0.293103 1.0 
0.000000 0.000000 -0.310345 1.0 
0.000000 0.000000 -0.327586 1.0 
0.000000 0.000000 -0.344828 1.0 
0.000000 0.000000 -0.362069 1.0 
0.000000 0.000000 -0.379310 1.0 
0.000000 0.000000 -0.396552 1.0 
0.000000 0.000000 -0.413793 1.0 
0.000000 0.000000 -0.431034 1.0 
0.000000 0.000000 -0.448276 1.0 
0.000000 0.000000 -0.465517 1.0 
0.000000 0.000000 -0.482759 1.0 
0.000000 0.000000 -0.500000 1.0 
