Ge Se 
 1.0000000000000000
    12.4702743441533048    0.0000048240994394   -0.0000015886564811
     0.0000048331925741   12.4937814912233431    0.0000022486086347
    -0.0000018141832301    0.0000025629915546   11.0626095873922559
 Ge  Se 
  36  36
Cartesian
  1.0903246587474706  0.2451761362279635  1.2866013753407326
  3.1360103098751702 10.6650870588406139  4.1558014451557357
  7.1572201673691005  2.4258127106366163  3.9558751384968338
  7.5385411804351881  6.1791275041497311  3.9525605973388966
  7.0407114019868562 10.8930665407515885  3.9477140119634129
 11.4700120992030712  2.4856524924087697  3.9846727884127047
 11.4239618507954646  6.8425095946912622  4.1028773944065877
 11.2921751101835959 10.8678691903835354  4.0783101397440689
  0.9582878020012926  1.9775974879238098  7.0619861646572488
  1.1653444413685845  6.3478499979596847  6.8560059639787978
  0.7763439739766137 10.2774363973141618  6.9348583763845797
  4.9615666787351591  2.0779336391045540  7.0309356334288218
  5.0677010511471421  5.8699398027779663  6.8980953090874548
  5.2314202203123621 10.4046316792298708  7.0800874786150407
  9.3653854252820921  2.2081793494126454  6.9284566098435496
  9.2615404983190484  6.0518490602006247  7.0834099466597253
  3.1805984814376336  6.2903476354719396  4.1611380494605452
  2.8807865365540857  2.6483376635954805  3.9937187040863438
  9.3835011692200521 10.1333297641723856  6.8935502283729235
 11.1433177130197496  8.0796299128154274  9.6486258951741490
 11.0911636209899296 12.3986804069638765  9.5721000548542658
  0.9493625674956863  4.7308149405218982  1.3749658384267991
  0.9301456500748799  8.8010578522174150  1.4514334165340097
  4.8826481144225049  0.3395554106482009  1.2956045216768646
  5.3372683305568831  4.4969598710690031  1.4068652938951394
  9.2722323133741771  0.3336334436046347  1.5119689808301024
  9.4916424250425688  4.4332682364838218  1.2551783859944896
  5.2613260281918102  8.5470329091589239  1.3722821765044377
  3.0898744993893068  3.9182199670983029  9.7604766506445344
  3.0293328744747510  8.5036936031922554  9.6438867038993674
  3.0524895275165620 12.3253034790153659  9.6378382720798630
  6.8986741409876799  3.9077903037076567  9.6650177527451415
  6.9162423640294666  7.9977056010521501  9.6348474368504942
  7.3744235390591930 12.5634493379451602  9.7506524239099974
 11.4975257018654240  4.1343531474996000  9.7382748833856443
  9.1079558415937925  8.8978643564393547  1.2428917112410920
 11.2405536659322465  0.2146158416289863  7.1028272370929377
  2.9204764215002657  4.4339729415368794  7.1681345182835150
  2.6686341014467092  8.4157478522156541  7.0113675410643417
  6.8057699119373076  0.2499978639716053  7.2066351642310256
  7.0776765861428927  4.2418133368359587  7.1070789145866398
  7.1259750705831859  8.6248048936587196  7.0946822491277324
 11.0675035110914646  4.0994463079445040  7.1047550324970494
  8.8305017251350417  0.2844019218839738  4.0791130404274751
  0.6529141915203247  0.3531027951115497  3.7330279620707896
  0.7997989656449499  4.3624673531884115  3.9862306079672907
  0.5511379810914409  8.8946952947581828  3.9989901428966816
  4.9755218864703306  0.0165219210541162  3.9185687165702654
  4.9384509945003527  4.2140749790183500  3.8091292998364459
  4.8324512097641170  8.5004723519245964  3.8940650668291790
  2.8729676716814003  0.1143379925639541  7.1372018114917104
 11.1657448558761736  8.3302318257239385  7.1584711694366669
 10.8419046725763248 10.6659204775885534  1.5069594204686736
  2.9957008223645816  2.2103955130053965  1.3479336507826249
 11.0960818217369805  2.3362483735400579  1.4408535620648517
  9.0829234623343158  4.0204608597621254  3.7647211752004046
  0.9648015868734036  2.3950142248969666  9.5573868100660704
  0.5345852831473462  6.3943317949681964  9.4517483523784005
  0.7883946859030306 10.6991504771546833  9.4870594182805910
  4.9975972717335688  2.1204651539350872  9.6378909345514483
  4.8176194879846994  6.5630589338066123  9.5910034710096799
  4.7781362022578815 10.4331148774548659  9.4852526829355757
  8.9783131712767492  2.2346390906625975  9.4711681496241571
  9.0498217736065918  6.2862491842000630  9.6005241246254212
  9.2336429472476294 10.7917497072503483  9.5869852899630850
  2.6072819142021326  6.6394890269827984  1.7091517330163917
  2.8061285796085187 10.5527378485373902  1.5784616816166965
  6.8857682760555603  2.3170917964053799  1.4957375156664678
  6.8246242111299926  6.4601625398237319  1.5351308650842932
  6.9758645488269186 10.4200893889444259  1.4034211408283384
 11.2676485372746633  6.2830508576332944  1.5703846041662026
  9.0720593657349884  8.2530246164306700  3.8706830743586313
