Ge Se                                   
    1.000000000000000     
     4.1500000000000004    0.0000000000000000    0.0000000000000000
     0.0000000000000000    4.4500000000000002    0.0000000000000000
     0.0000000000000000    0.0000000000000000   11.1422209999999993
   Ge   Se
     4     4
Selective dynamics
Direct
  0.2500000000000000  0.1064470832729469  0.1291668372641652   T   T   T
  0.7500000000000000  0.6064470832729469  0.3708331627358348   T   T   T
  0.7500000000000000  0.8935529167270531  0.8708331627358348   T   T   T
  0.2500000000000000  0.3935529167270531  0.6291668372641652   T   T   T
  0.2500000000000000  0.9803319620925706  0.3538693808149347   T   T   T
  0.7500000000000000  0.4803319620925706  0.1461306191850724   T   T   T
  0.7500000000000000  0.0196680379074294  0.6461306191850724   T   T   T
  0.2500000000000000  0.5196680379074294  0.8538693808149276   T   T   T
 
  0.00000000E+00  0.00000000E+00  0.00000000E+00
  0.00000000E+00  0.00000000E+00  0.00000000E+00
  0.00000000E+00  0.00000000E+00  0.00000000E+00
  0.00000000E+00  0.00000000E+00  0.00000000E+00
  0.00000000E+00  0.00000000E+00  0.00000000E+00
  0.00000000E+00  0.00000000E+00  0.00000000E+00
  0.00000000E+00  0.00000000E+00  0.00000000E+00
  0.00000000E+00  0.00000000E+00  0.00000000E+00
