Ge Se                                   
    1.000000000000000     
    12.4623087638598040    0.0000048210179714   -0.0000015876417022
     0.0000048282181763   12.4809226947425849    0.0000022462943313
    -0.0000018091090940    0.0000025558230571   11.0316682878814305
   Ge   Se
    36    36
Direct
  0.0844793136382762  0.0177233866792079  0.1373763005493629
  0.2529936248173357  0.8509667366057201  0.3652564190856680
  0.5769113801520263  0.1921255531283848  0.3566995352903319
  0.5933631386564713  0.5018682962070926  0.3584084414683630
  0.5593557497158770  0.8679390128930962  0.3640550679920551
  0.9184585859997725  0.1871241956767591  0.3671278626114258
  0.9062774979712600  0.5441603951037166  0.3882871010824687
  0.9144625133176092  0.8726151649647136  0.3749482596387423
  0.0872320984206851  0.1536245453401790  0.6172007330067188
  0.0659043379192141  0.4953253493102352  0.6142530801643318
  0.0572060926220956  0.8192891873884633  0.6265589927325337
  0.4140509470929814  0.1572229941612164  0.6388901869941890
  0.4039753186979382  0.4832101426480975  0.6256515862449561
  0.4059981076648853  0.8253262679941145  0.6452139019906795
  0.7237795772642031  0.1631025567357725  0.6235987444231839
  0.7374257758133780  0.5114709115208171  0.6402804513465981
  0.2567687662561795  0.5265234110354129  0.4043956475615076
  0.2490192669675437  0.2128063632826311  0.3667203202381586
  0.7614428597583895  0.8112406101682410  0.6404807869794382
  0.8987789486251430  0.6547576202369711  0.8757176409002483
  0.9075514408929379  0.9756371707897529  0.8550170265458803
  0.0909314070669680  0.3894610796182008  0.1366041575975530
  0.0760964552509975  0.7041013921074040  0.1331283670940309
  0.3922016877783676  0.0270824660905120  0.1286062271283512
  0.3983361764790487  0.3747429911989713  0.1179346012728359
  0.7287437388726303  0.0282691182678860  0.1385484724640591
  0.7586057932526415  0.3513649578146030  0.1096253903603639
  0.4157104201471071  0.6694357922213783  0.1247820515033382
  0.2441480418341442  0.3246640811260662  0.8821333351762348
  0.2481503972985593  0.6777620494892247  0.8532721851613587
  0.2177431062566768  0.9806747981804804  0.8636355314152908
  0.5687798925391974  0.3183162618616890  0.8547292375692948
  0.5705903435248487  0.6586437692748888  0.8740565211109868
  0.5874539399882934  0.9985430286396095  0.8596367489686969
  0.9290636755693740  0.3563019650833681  0.8791694368661354
  0.7318121067761467  0.7054288797360186  0.1358829787371860
  0.8929850852553756  0.0113562917730832  0.6280126918706159
  0.2233804542211857  0.3450903692466625  0.6505765591188108
  0.2247050688540639  0.6920789690267952  0.6113941599624297
  0.5527895071404174  0.9971795032341291  0.6355067291553027
  0.5655876789418954  0.3416313277718075  0.6312452068105543
  0.5632834136219813  0.6786714963109048  0.6463998271256486
  0.8944761527041507  0.3637234588002016  0.6408738516278873
  0.7092579799505145  0.0196952203838379  0.3641080555532241
  0.0649946767451652  0.0242657322397477  0.3569097998553943
  0.0616410247365948  0.3433250913912929  0.3520025224786920
  0.0512998662000683  0.6907213520730551  0.3594366542513470
  0.4006799317345795  0.9949612090955355  0.3483127362046332
  0.3904556671140469  0.3529769369364644  0.3552517196344098
  0.3947386981595287  0.6853138030203709  0.3595108641901561
  0.2368508868032038  0.0134207352534688  0.6424754018978973
  0.9017215490478776  0.6756545557643108  0.6435775039600884
  0.8759172560493411  0.8524606700147217  0.1433414851413772
  0.2415363473506105  0.1615387005786602  0.1277182421148879
  0.8804700291881389  0.1742816669512735  0.1430553481585974
  0.7272029447497204  0.3449670060913661  0.3363681793554534
  0.0627690737057094  0.1933795672965104  0.8566112533535843
  0.0626495440102843  0.5148685948542635  0.8600154339145547
  0.0572081808671854  0.8416797646041871  0.8715362768751334
  0.3998207148653847  0.1849702208474042  0.8542101373650368
  0.3945248516803730  0.5169521908328676  0.8484894887751437
  0.3864465351932438  0.8415223320734313  0.8704785583058268
  0.7191564548752680  0.1654179571669161  0.8531987323025518
  0.7282110138992195  0.5130149301085964  0.8646357384099019
  0.7301658396336705  0.8464482906402253  0.8525844104841838
  0.2207111505758732  0.5325187294683289  0.1622749780188144
  0.2238686968236578  0.8516692084871238  0.1385185550285897
  0.5466316419704853  0.1745860500288998  0.1161702370657025
  0.5459091233382622  0.5076474852995503  0.1293095615195199
  0.5590333394581748  0.8240961722913482  0.1436627033134101
  0.9137696042801053  0.5038184463186326  0.1546560255677605
  0.7272076836871122  0.6731510355229418  0.3558905207619034
 
  0.00000000E+00  0.00000000E+00  0.00000000E+00
  0.00000000E+00  0.00000000E+00  0.00000000E+00
  0.00000000E+00  0.00000000E+00  0.00000000E+00
  0.00000000E+00  0.00000000E+00  0.00000000E+00
  0.00000000E+00  0.00000000E+00  0.00000000E+00
  0.00000000E+00  0.00000000E+00  0.00000000E+00
  0.00000000E+00  0.00000000E+00  0.00000000E+00
  0.00000000E+00  0.00000000E+00  0.00000000E+00
  0.00000000E+00  0.00000000E+00  0.00000000E+00
  0.00000000E+00  0.00000000E+00  0.00000000E+00
  0.00000000E+00  0.00000000E+00  0.00000000E+00
  0.00000000E+00  0.00000000E+00  0.00000000E+00
  0.00000000E+00  0.00000000E+00  0.00000000E+00
  0.00000000E+00  0.00000000E+00  0.00000000E+00
  0.00000000E+00  0.00000000E+00  0.00000000E+00
  0.00000000E+00  0.00000000E+00  0.00000000E+00
  0.00000000E+00  0.00000000E+00  0.00000000E+00
  0.00000000E+00  0.00000000E+00  0.00000000E+00
  0.00000000E+00  0.00000000E+00  0.00000000E+00
  0.00000000E+00  0.00000000E+00  0.00000000E+00
  0.00000000E+00  0.00000000E+00  0.00000000E+00
  0.00000000E+00  0.00000000E+00  0.00000000E+00
  0.00000000E+00  0.00000000E+00  0.00000000E+00
  0.00000000E+00  0.00000000E+00  0.00000000E+00
  0.00000000E+00  0.00000000E+00  0.00000000E+00
  0.00000000E+00  0.00000000E+00  0.00000000E+00
  0.00000000E+00  0.00000000E+00  0.00000000E+00
  0.00000000E+00  0.00000000E+00  0.00000000E+00
  0.00000000E+00  0.00000000E+00  0.00000000E+00
  0.00000000E+00  0.00000000E+00  0.00000000E+00
  0.00000000E+00  0.00000000E+00  0.00000000E+00
  0.00000000E+00  0.00000000E+00  0.00000000E+00
  0.00000000E+00  0.00000000E+00  0.00000000E+00
  0.00000000E+00  0.00000000E+00  0.00000000E+00
  0.00000000E+00  0.00000000E+00  0.00000000E+00
  0.00000000E+00  0.00000000E+00  0.00000000E+00
  0.00000000E+00  0.00000000E+00  0.00000000E+00
  0.00000000E+00  0.00000000E+00  0.00000000E+00
  0.00000000E+00  0.00000000E+00  0.00000000E+00
  0.00000000E+00  0.00000000E+00  0.00000000E+00
  0.00000000E+00  0.00000000E+00  0.00000000E+00
  0.00000000E+00  0.00000000E+00  0.00000000E+00
  0.00000000E+00  0.00000000E+00  0.00000000E+00
  0.00000000E+00  0.00000000E+00  0.00000000E+00
  0.00000000E+00  0.00000000E+00  0.00000000E+00
  0.00000000E+00  0.00000000E+00  0.00000000E+00
  0.00000000E+00  0.00000000E+00  0.00000000E+00
  0.00000000E+00  0.00000000E+00  0.00000000E+00
  0.00000000E+00  0.00000000E+00  0.00000000E+00
  0.00000000E+00  0.00000000E+00  0.00000000E+00
  0.00000000E+00  0.00000000E+00  0.00000000E+00
  0.00000000E+00  0.00000000E+00  0.00000000E+00
  0.00000000E+00  0.00000000E+00  0.00000000E+00
  0.00000000E+00  0.00000000E+00  0.00000000E+00
  0.00000000E+00  0.00000000E+00  0.00000000E+00
  0.00000000E+00  0.00000000E+00  0.00000000E+00
  0.00000000E+00  0.00000000E+00  0.00000000E+00
  0.00000000E+00  0.00000000E+00  0.00000000E+00
  0.00000000E+00  0.00000000E+00  0.00000000E+00
  0.00000000E+00  0.00000000E+00  0.00000000E+00
  0.00000000E+00  0.00000000E+00  0.00000000E+00
  0.00000000E+00  0.00000000E+00  0.00000000E+00
  0.00000000E+00  0.00000000E+00  0.00000000E+00
  0.00000000E+00  0.00000000E+00  0.00000000E+00
  0.00000000E+00  0.00000000E+00  0.00000000E+00
  0.00000000E+00  0.00000000E+00  0.00000000E+00
  0.00000000E+00  0.00000000E+00  0.00000000E+00
  0.00000000E+00  0.00000000E+00  0.00000000E+00
  0.00000000E+00  0.00000000E+00  0.00000000E+00
  0.00000000E+00  0.00000000E+00  0.00000000E+00
  0.00000000E+00  0.00000000E+00  0.00000000E+00
  0.00000000E+00  0.00000000E+00  0.00000000E+00
