Ge Se                                   
    1.000000000000000     
     4.5999999999999996    0.0000000000000000    0.0000000000000000
     0.0000000000000000    3.8999999999999995    0.0000000000000000
     0.0000000000000000    0.0000000000000000   11.1422209999999993
   Ge   Se
     4     4
Selective dynamics
Direct
  0.1128141048489724  0.2500000000000000  0.1247889680692751   T   T   T
  0.6128141048489724  0.7500000000000000  0.3752110319307249   T   T   T
  0.8871858951510276  0.7500000000000000  0.8752110319307320   T   T   T
  0.3871858951510276  0.2500000000000000  0.6247889680692751   T   T   T
  0.9839805206081920  0.2500000000000000  0.3514236003594178   T   T   T
  0.4839805206081920  0.7500000000000000  0.1485763996405822   T   T   T
  0.0160194793918009  0.7500000000000000  0.6485763996405822   T   T   T
  0.5160194793918080  0.2500000000000000  0.8514236003594178   T   T   T
 
  0.00000000E+00  0.00000000E+00  0.00000000E+00
  0.00000000E+00  0.00000000E+00  0.00000000E+00
  0.00000000E+00  0.00000000E+00  0.00000000E+00
  0.00000000E+00  0.00000000E+00  0.00000000E+00
  0.00000000E+00  0.00000000E+00  0.00000000E+00
  0.00000000E+00  0.00000000E+00  0.00000000E+00
  0.00000000E+00  0.00000000E+00  0.00000000E+00
  0.00000000E+00  0.00000000E+00  0.00000000E+00
