Ge Se
 1.0000000000000000
     4.5999999999999996    0.0000000000000000    0.0000000000000000
     0.0000000000000000    3.8999999999999995    0.0000000000000000
     0.0000000000000000    0.0000000000000000   11.1422209999999993
 Ge  Se 
   4   4
Selective dynamics
Cartesian
  0.5189448823052579  0.9750000000000001  1.3904262605897744   T   T   T
  2.8189448823052574  2.9249999999999998  4.1806842394102262   T   T   T
  4.0810551176947421  2.9249999999999998  9.7517947394102311   T   T   T
  1.7810551176947418  0.9750000000000001  6.9615367605897767   T   T   T
 -0.0736896052023008  0.9750000000000001  3.9156394198202804   T   T   T
  2.2263103947976988  2.9249999999999998  1.6554710801797219   T   T   T
  4.6736896052022994  2.9249999999999998  7.2265815801797206   T   T   T
  2.3736896052023009  0.9750000000000001  9.4867499198202800   T   T   T
