Ge Se                                   
    1.000000000000000     
     4.0000000000000000    0.0000000000000000    0.0000000000000000
     0.0000000000000000    4.1500000000000004    0.0000000000000000
     0.0000000000000000    0.0000000000000000   11.1422209999999993
   Ge   Se
     4     4
Selective dynamics
Direct
  0.2500000000000000  0.0977644065549299  0.1285278777178576   T   T   T
  0.7500000000000000  0.5977644065549299  0.3714721222821424   T   T   T
  0.7500000000000000  0.9022355934450701  0.8714721222821424   T   T   T
  0.2500000000000000  0.4022355934450701  0.6285278777178576   T   T   T
  0.2500000000000000  0.0077924301367531  0.3575851699640893   T   T   T
  0.7500000000000000  0.5077924301367531  0.1424148300359107   T   T   T
  0.7500000000000000  0.9922075698632469  0.6424148300359107   T   T   T
  0.2500000000000000  0.4922075698632469  0.8575851699640893   T   T   T
 
  0.00000000E+00  0.00000000E+00  0.00000000E+00
  0.00000000E+00  0.00000000E+00  0.00000000E+00
  0.00000000E+00  0.00000000E+00  0.00000000E+00
  0.00000000E+00  0.00000000E+00  0.00000000E+00
  0.00000000E+00  0.00000000E+00  0.00000000E+00
  0.00000000E+00  0.00000000E+00  0.00000000E+00
  0.00000000E+00  0.00000000E+00  0.00000000E+00
  0.00000000E+00  0.00000000E+00  0.00000000E+00
