Ge Se
 1.0000000000000000
     3.8000000000000003    0.0000000000000000    0.0000000000000000
     0.0000000000000000    4.0499999999999998    0.0000000000000000
     0.0000000000000000    0.0000000000000000   11.1422210000000010
 Ge  Se 
   4   4
Selective dynamics
Cartesian
  0.9500000000000001  0.3885196777705842  1.3768239384809950   T   T   T
  2.8500000000000001  2.4135196777705836  4.1942865615190064   T   T   T
  2.8500000000000001  3.6614803222294161  9.7653970615190069   T   T   T
  0.9500000000000001  1.6364803222294155  6.9479344384809965   T   T   T
  0.9500000000000001  0.1023321291401996  3.9716301186077256   T   T   T
  2.8500000000000001  2.1273321291401994  1.5994803813922767   T   T   T
  2.8500000000000001  3.9476678708598012  7.1705908813922781   T   T   T
  0.9500000000000001  1.9226678708597993  9.5427406186077270   T   T   T
