Ge Se 
 1.0000000000000000
    12.4651283918756111    0.0000029951104644    0.0000012506573298
     0.0000030047218803   12.5051289523292279    0.0000083627081109
     0.0000014296294420    0.0000095288535947   11.0691004883302746
 Ge  Se 
  36  36
Cartesian
  0.8278505376457439  0.4988207808026009  1.3671836746549941
  2.7546504377736647 11.1254296200522838  4.1466007672799083
  7.2713727424621339  2.4706583427206219  4.0030067788917192
  7.0241840145305128  6.6935493026218378  4.2920711837833361
  7.3960228733735880 10.6208109881049371  3.9705474276242279
 11.2050378481539799  2.4987543460341475  3.9516761386499910
 11.6459517587790806  6.6220835524959076  4.1630561360828251
 11.4001084868486124 10.8001070053679751  4.0206096550978536
  0.9958955834178244  2.0234335422188865  6.8542544981659503
  0.6786480543482769  5.8764853831753712  7.1234048335761946
  0.9229568157886824 10.3849442529595795  7.0077387924781744
  5.2013664320281308  2.0578209507042207  7.0171473519362122
  5.2075872448893570  5.8572773657493693  6.8253404908390882
  4.9197306549073980 10.1730013196037099  6.9528652663851842
  9.0803913739323576  1.8147865312179814  6.8961500962669806
  9.3983314419690132  6.4859123400053864  7.0146429707098372
  3.0840575760199269  6.8535330325814598  4.1330226819544356
  3.2699852931378035  2.5450470037683677  4.1001504457527318
  9.3693660433616781 10.3824937558697670  6.8154059508137843
 11.2849582346600723  8.2966455851101681  9.4992473727375035
 11.5441074003245596 12.3039912461314280  9.6519881893066213
  1.2479956885295389  4.4629451282360550  1.3497238789542600
  1.0862807569345552  8.8029135968034744  1.5526352311566836
  5.3421560225720652  0.2684189743807602  1.3961682101762933
  5.0032356602144201  4.7004205349761801  1.6467022936456586
  9.3956005021982172  0.4430364909488801  1.2673369170188451
  9.1013330396329355  4.7643724501251308  1.4619974529730488
  4.9037113165446167  8.9885839886623202  1.3694836666760386
  2.9181931565821593  4.2704795022015825  9.6035039203495955
  2.8145750419090314  8.1260840643895023  9.6948908404959226
  3.2227684071096969 12.4347487503311722  9.4896317140322868
  7.0780264018251575  4.0914522988454012  9.7105668945554733
  7.1911787439503252  8.1641341040694630  9.7375600875922377
  6.9626184894802243 12.2697972658390082  9.5486701957597830
 11.2925474371829946  3.7906205478643784  9.5321121388976735
  9.4268860154893819  8.7636545548359894  1.3012897498100107
 11.0827419515160344 -0.0857837224671457  7.0556200789071735
  2.7083133026461041  3.9879699251689873  6.9899372075806649
  2.7885962598937333  8.5399194786609769  7.1721191996788765
  7.0876015325293453  0.0253030358021404  6.9715112819591223
  7.2932363474783317  4.4676561327443531  7.1211307794183449
  6.7306549839569021  8.3046428712871769  7.1783161920619953
 11.0418666060376776  4.3823972469588375  6.9628849066017846
  9.1853601984553190 -0.0679563584516216  3.8945642041251305
  0.6749513294017971  0.2821953507472712  3.9047466034763758
  0.5826479401796640  4.4711995953137809  3.7854856963441614
  1.0100804577489151  8.2916589092303301  4.0798919091360588
  4.8028687704230792  0.4264337105450897  3.9325858156208429
  5.0540009946695106  4.2592797591153957  4.0812581697785753
  5.0553099888158251  8.3963530061900968  3.9427937713154066
  2.9551089137189619  0.1859548607978502  6.9701254695345689
 11.2719122697042256  8.4801813679785898  7.0651678832414300
 11.4245158960974003 10.4522891872946637  1.4045974755215984
  2.9464787346400962  2.3680838417227528  1.3700105504109488
 11.3314335711321004  2.2152713650652376  1.4020624359644820
  9.0484503557926601  4.2230131113133069  3.9268847273750911
  0.6276363303063981  1.9056469441795012  9.3827262491036585
  0.7451496562751033  6.4802623987579855  9.5240804472425431
  0.9014138601644912 10.6806989437672311  9.5532692069659575
  5.0116373084182202  2.3021694830861459  9.5344593412533154
  4.6741796341127868  6.2928271551044057  9.5451780094141334
  4.8733076240231084 10.4996517234081015  9.4110867245334298
  8.9944484422652167  2.2723192259287530  9.4354912163873141
  9.3440076029218186  6.4594538006165942  9.5452199047750241
  8.7453155266296463 10.3610319582505301  9.3587402481328699
  3.0240459673604012  6.3437006386834733  1.6292394753965311
  2.8942369954091620 10.6423089480940511  1.6481848908327961
  7.1871043301152389  2.0816363705017524  1.4888544528932359
  6.9169001605665112  6.4855465761427862  1.6476145466432861
  6.9667228555792864 10.5172428774230085  1.3955474279474280
 10.9858846231808460  6.4632317879058130  1.5139143481624318
  9.1185835289350781  8.5684638630090895  3.8920742548853640
