 C  S 
 1.0000000000000000
    32.3722991942999982    0.0000000000000000    0.0000000000000000
     0.0000000000000000   19.9214134216000005    0.0000000000000000
     0.0000000000000000    0.0000000000000000   40.4480476378999967
 C   S  
 364   1
Cartesian
 12.0089082791120205 10.7238937401536081  0.1000117532135037
 11.9383058632883863 10.8334604570445290  2.5446631054581750
 10.9436949220289748 11.8531792777314582  2.4718742947745298
 10.3753051805797334 12.1803718248076915  1.2116468709313570
  8.9935872017229475 12.5264925701364209  1.1383232765971880
 11.8630540259020396 10.9404461064023959  4.9890671423537354
 10.8341725983681787 11.9257735118723662  4.9163612649188355
 10.2551804233089889 12.2329988992733405  3.6562912754549419
  8.8622855629445887 12.5311758549399670  3.5827171546049534
  8.2081335771709298 12.4882965032409725  2.3225655174691071
  6.8662284366644242 12.0108598087622056  2.2493176331160640
  6.3318119113715330 11.6310534952146458  0.9890219951126485
  5.4395689813196144 10.5206714639504391  0.9156480076948230
 11.7826487377933375 11.0448058739360508  7.4332636085475254
 10.7214326385654495 11.9951690606392720  7.3608829788440859
 10.1326546331381113 12.2819878233923561  6.1006398993196251
  8.7305995733636887 12.5322620759448693  6.0271113472221751
  8.0785453573033106 12.4663881312448517  4.7669363736740280
  6.7539752170545686 11.9425501627569481  4.6938094764231613
  6.2332242037397210 11.5443656382953783  3.4335869313082910
  5.3799449543743201 10.4038201465592728  3.3599961610268507
  5.1451002243156294  9.7917096247470727  2.0997959866821940
  5.0167052814895525  8.3731760337292016  2.0261007105951800
  5.1382421689582589  7.7286278614061956  0.7659575702881115
  5.7734658927437588  6.4537533337875423  0.6926124994556084
 11.6989924853528571 11.1471353128206854  9.8765399166874062
 10.6072947499680534 12.0613095622907718  9.8050971711880308
 10.0087536854908876 12.3281597533381291  8.5451249633307604
  8.5985190520764139 12.5300945407550834  8.4718091888743654
  7.9494111772369926 12.4411023618269585  7.2116808286660765
  6.6437993344414439 11.8710033365647902  7.1385311233924726
  6.1374007625332805 11.4545999709178972  5.8781897309667777
  5.3243149731656283 10.2850977356635838  5.8044192674910464
  5.1108488475114342  9.6651204815506695  4.5442129668859552
  5.0314361996538297  8.2428934710783395  4.4707035297144282
  5.1751607476165962  7.6030890263631221  3.2103098425171273
  5.8537724339803123  6.3508752479034163  3.1367326457348015
  6.3120452976453869  5.8814277162878401  1.8767435728748891
  7.5469534056197869  5.1716578594280467  1.8028993683376222
  8.1836911603600342  5.0125709592772756  0.5430466892316577
  9.6073948540252374  5.0567481317509806  0.4700375464534620
 12.0101066647016541 10.7211439360319680 13.5770692188284485
 11.6182980371622016 11.2495240938662260 12.3199715271603747
 10.4933135604895487 12.1251047205212856 12.2494723424271026
  9.8848414644592086 12.3702174287969964 10.9910918307648959
  8.4672830249014535 12.5219239486401097 10.9175958676897835
  7.8215055379978562 12.4108003686492836  9.6568600074792581
  6.5367707918434261 11.7956625287037049  9.5833343509446518
  6.0450225992719648 11.3618609057393378  8.3228240569695657
  5.2735100431155733 10.1643854920687939  8.2489351629389809
  5.0816125004850976  9.5373178291037384  6.9887770741111703
  5.0516174136257455  8.1131588266261225  6.9154974466160040
  5.2164922691717752  7.4787396014280629  5.6548802068646351
  5.9376670083344179  6.2504628562063109  5.5810523876968068
  6.4117705007805910  5.7973384852362111  4.3209788634590964
  7.6703764029351786  5.1305061628728810  4.2472106568876145
  8.3123117866181726  4.9937997396623315  2.9871935910960929
  9.7335526456711374  5.0871254626737636  2.9141658781918327
 10.3520055940288440  5.3073474643183527  1.6543937191729294
 11.5130993358028473  6.1325146437925442  1.5809768978569885
 11.9243062280138101  6.6441320337691856  0.3211697796009073
 12.4804627852016150  7.9555166747906751  0.2484730165998383
 11.9675316455549208 10.8427124639125161 16.0178205254679042
 11.5444835899617591 11.3496724940333298 14.7689803345387087
 10.3769744787976119 12.1748380221375392 14.6966421999753738
  9.7599450303605018 12.4005886661194715 13.4377123584861700
  8.3388012827649245 12.5025879960312647 13.3635967306523522
  7.6960591566027947 12.3735213255237593 12.1020494890067365
  6.4323515449822048 11.7157770956949552 12.0280109528189385
  5.9558078256330287 11.2660403181132143 10.7676341348459079
  5.2265337892673909 10.0420416177489944 10.6935526861018868
  5.0571571753973492  9.4086121366515609  9.4332201189892633
  5.0769404698371803  7.9844130133865763  9.3600233017281784
  5.2632726201670179  7.3559819675309965  8.0996738644345356
  6.0258535750666571  6.1528089850868843  8.0258206834105792
  6.5146412309145427  5.7163171467732949  6.7653241692405741
  7.7948665608360370  5.0925691131156201  6.6916689520422032
  8.4410776774423901  4.9782700447536721  5.4314630807007545
  9.8583005808260449  5.1203266865417785  5.3582564336141365
 10.4690181571662873  5.3624114112923573  4.0987487684010944
 11.6009392466119863  6.2271396267004393  4.0254104692737291
 11.9944310839042529  6.7531200097876107  2.7656620795503000
 12.5050712266860380  8.0828147242083705  2.6931506438760153
 12.5647960099133034  8.7365740923954576  1.4331944400615364
 12.3012912584567697 10.1364773900872862  1.3599885388072352
 11.9131390258947274 10.9569068385641106 18.4721143871844760
 11.4514738865021659 11.4192984033331459 17.2186324212706374
 10.2530170393118976 12.1895828612380299 17.1423632583088867
  9.6319653159812226 12.4103117113926089 15.8812841646766909
  8.2089205825673908 12.4750288072275861 15.8075753899805669
  7.5709848250892211 12.3298248949301517 14.5471109565335084
  6.3278614256860983 11.6320051070999373 14.4726354628736296
  5.8689321202366385 11.1658851007566930 13.2118653133025550
  5.1827914466855081  9.9177738715383459 13.1377682103656994
  5.0362068998164338  9.2790201826293970 11.8773908447256957
  5.1055970877321366  7.8561630634009623 11.8043416612435568
  5.3144924778657021  7.2346846483324301 10.5442344361208651
  6.1174699537405477  6.0582522407279855 10.4705772025372514
  6.6206491701021797  5.6382205300889998  9.2098107454246740
  7.9209954522681860  5.0573838069714991  9.1364601035625146
  8.5704433252401149  4.9655888230422009  7.8762514731045670
  9.9819844896542094  5.1562742117677933  7.8027823859706249
 10.5836333977957970  5.4204457935360555  6.5430005211545197
 11.6844140077350911  6.3241672882703162  6.4696314310514840
 12.0600622263166795  6.8637799095768850  5.2101291969735248
 12.5239390981918053  8.2106334255588980  5.1374622818106603
 12.5618043688382599  8.8662940277846705  3.8779425251501598
 12.2503760831077795 10.2563680116635858  3.8046787771880566
 11.7857173127000845 10.9932647486316277 20.9268610358039240
 11.3515700983334646 11.4796239409398293 19.6444699859172651
 10.1317255851969019 12.2246888435007133 19.5789050350977973
  9.5036411661755054 12.4198061649594393 18.3238848279383433
  8.0759747527862142 12.4497294320283789 18.2507307138618131
  7.4450028812286213 12.2801489707212692 16.9907983310200343
  6.2260475073353083 11.5442613183513263 16.9165678995041588
  5.7828738676117606 11.0634002790866788 15.6554901244656417
  5.1398645610366671  9.7920468674122247 15.5821129151219750
  5.0172538464716512  9.1486101052369548 14.3217994411879577
  5.1357427449616830  7.7289131439731680 14.2488223056883232
  5.3677501508034577  7.1150873630816580 12.9884937749783553
  6.2103527037934079  5.9668699019508731 12.9150994516120221
  6.7283560243901013  5.5637895469068113 11.6550462858400845
  8.0482436239031987  5.0272651545966651 11.5825657279686620
  8.7005997174261402  4.9575615659128509 10.3216016067632452
 10.1040812474862669  5.1970666628524436 10.2477148459620757
 10.6963667632658108  5.4810611871823678  8.9876063062957599
 11.7644809319704287  6.4236905363357639  8.9138368120264619
 12.1206088334260151  6.9764228678934996  7.6546328119304636
 12.5366342748295647  8.3388337260969188  7.5813503118929653
 12.5521984058651697  8.9956131221922586  6.3220661294123008
 12.1933072225178343 10.3739405729189897  6.2489572895000407
 11.7003565826735247 11.1363475790088344 23.3679254453248895
 11.2407225777783726 11.5846976237922821 22.1051635357797771
 10.0100489603443634 12.2956807652694344 22.0272857211853861
  9.3751940827807445 12.4402831019237201 20.7626140804613541
  7.9537704453967102 12.4188108411607381 20.6919383160926209
  7.3233510631246590 12.2309063147054040 19.4323148090566029
  6.1270033221493483 11.4550817279865118 19.3600582620435766
  5.6996174030323932 10.9592476590513641 18.1004566165141441
  5.1013362947341419  9.6654752673480591 18.0276890697224630
  5.0013987180912034  9.0177806948166168 16.7664991576207854
  5.1681270888955808  7.6034922078366591 16.6934377555626661
  5.4207050067252442  6.9973253739352606 15.4332679932694106
  6.3028675104996390  5.8782227669928826 15.3603368803627447
  6.8374701697385962  5.4945908766036142 14.1005963532713849
  8.1756934790065134  5.0066988949096594 14.0289434453861830
  8.8304262484293812  4.9566367724918114 12.7674145671769814
 10.2249311400829317  5.2453312698718690 12.6934542772636405
 10.8068422464289888  5.5476101627989394 11.4332950111061944
 11.8407838893645891  6.5275184169768545 11.3584236991766847
 12.1765749223421267  7.0919810876934184 10.0983143752528743
 12.5441708463833042  8.4676307841943057 10.0237142263076251
 12.5374963830987376  9.1244085817100888  8.7651319751755228
 12.1318832873107159 10.4900902841297867  8.6925918454249569
 11.6154132322307273 11.2456150784496227 25.8109328433933349
 11.1413157373147484 11.6964811776940607 24.5507243903728174
  9.8861945610144204 12.3636424275502925 24.4729549687774295
  9.2469733517154253 12.4937649583192396 23.2089050578778462
  7.8242079403219131 12.4066009844145899 23.1369869173101392
  7.2055946617882976 12.1833198151159046 21.8781183312201684
  6.0413380132752161 11.3634561496850193 21.8055645634967519
  5.6276871385378859 10.8514192953256217 20.5451552991118866
  5.0736252211048480  9.5393372558684693 20.4728610854405240
  4.9911222345857720  8.8886533742873333 19.2122105502874234
  5.2054180428325045  7.4786855935377927 19.1394851397071903
  5.4778801023042760  6.8821206739061589 17.8789241741526084
  6.3975765118640711  5.7945623774645556 17.8062763375709778
  6.9453811438445543  5.4297132636418883 16.5456393520239367
  8.3015931386929385  4.9957448836108203 16.4737486245213596
  8.9588866589966791  4.9682539758029227 15.2149103980876408
 10.3423052403889262  5.3118294023958033 15.1425608205487343
 10.9135388347433633  5.6271505574311895 13.8786488251821414
 11.9121298703690570  6.6387769117590505 13.8015220874763394
 12.2304531726067278  7.2105637159813014 12.5412398961633880
 12.5503661863050482  8.5989580480156409 12.4642210459024447
 12.5192749695506027  9.2540674376173211 11.2069625721052404
 12.0686622284660707 10.6053826793676489 11.1358905996828845
 11.5280495889742873 11.3429381654046502 28.2535239489217247
 11.0393563821430742 11.7813634560034881 26.9935505150738635
  9.7600258531279209 12.4077369763694900 26.9183153708721257
  9.1146024125081180 12.5218370565082360 25.6579061612083485
  7.6976606716769407 12.3794373732441940 25.5841910044218004
  7.0882720096245029 12.1355475413417668 24.3226916415644467
  5.9567278436715512 11.2703139237526120 24.2503228565241251
  5.5615382101506308 10.7440167580011021 22.9907136169764748
  5.0527032016694777  9.4130279458537309 22.9184560214703623
  4.9921599036172228  8.7587344651229397 21.6584105528500821
  5.2535533203190576  7.3589072924379870 21.5851724254018329
  5.5414566948191979  6.7699894433695036 20.3242016391261195
  6.4981785140818369  5.7132868173687115 20.2515227619874949
  7.0542312361865331  5.3676691903097149 18.9916745614489599
  8.4280232973959492  4.9857198881188260 18.9198336570898036
  9.0858335668897787  4.9954735889576414 17.6602100417554659
 10.4482677266710446  5.4012746688376945 17.5891415716614077
 11.0107157985142745  5.7292364678091561 16.3244116062466347
 11.9734436766309766  6.7748391113331756 16.2473738951052837
 12.2788429946112547  7.3398092481521200 14.9845588720340785
 12.5565051426214538  8.7331387837016887 14.9026497646751608
 12.5006700811204094  9.3864166026271150 13.6446933470589862
 11.4397696901770356 11.4373850309392022 30.6968565654021681
 10.9349692314923566 11.8581087872227968 29.4377396551847390
  9.6342048413639034 12.4388127407667390 29.3639741628038635
  8.9842193440531872 12.5322677373622575 28.1036746235715249
  7.5734295683625534 12.3407683365484804 28.0297388093479896
  6.9720918975919712 12.0786033247512332 26.7688664837586714
  5.8725022687239479 11.1726711027605479 26.6958970674856531
  5.4986193520825930 10.6329664542285371 25.4358363534424967
  5.0362533993954424  9.2859413054800317 25.3632584445754325
  4.9981183492395491  8.6302600457237393 24.1031250954781662
  5.3078512200275432  7.2397634187572697 24.0298259780405985
  5.6163440185756919  6.6615038427667237 22.7697769114252466
  6.6090926209735290  5.6395270968581563 22.6969634483759712
  7.1755227829396198  5.3126312268200824 21.4356236898097023
  8.5588708469212165  4.9751870911822236 21.3615260473726494
  9.2117073531578946  5.0025504568287147 20.1015258973111344
 10.5648227656109803  5.4587009759427225 20.0280851293985158
 11.1058213102774701  5.8328458000042342 18.7729697056882578
 12.0483457662753803  6.9075992932090307 18.7082722850117591
 12.3179283075640971  7.5013778706431058 17.4259490153439742
 12.6017545855295072  8.8695525466608345 17.3284214765209867
 12.5077366765798370  9.5185623658932901 16.0811014219558253
 11.3478792101704773 11.5276212374264500 33.1411064743760093
 10.8283770253153229 11.9301272915540544 31.8815784578620871
  9.5080825826442972 12.4640367417258098 31.8085838864174164
  8.8550644817668527 12.5356368873324886 30.5486299333637064
  7.4510756991343552 12.2953977239587982 30.4748987134217977
  6.8590102815443812 12.0131383134406740 29.2148430914289392
  5.7913318509948439 11.0705664769339318 29.1414054354642715
  5.4365374276774636 10.5190831959936322 27.8805455928040793
  5.0205450822464455  9.1568688646848084 27.8076052809729539
  5.0065524410104798  8.5008720252017085 26.5476718661498268
  5.3648923743284982  7.1221502270801462 26.4742475850202830
  5.6950890898481479  6.5554871987203960 25.2141294037793209
  6.7223479726024822  5.5687942067523677 25.1408244475673399
  7.2993298933361190  5.2603487248096776 23.8799608727304538
  8.6942214436310135  4.9661070858388445 23.8052971256963595
  9.3461998151460346  5.0181223901977399 22.5448242622429014
 10.6845751297009919  5.5059129329619880 22.4711286376069950
 11.2110240692217964  5.9020426935881369 21.2097821721792137
 12.1252235758334539  6.9946418095096501 21.1341633779651410
 12.4285870454691398  7.5735676153309841 19.8808730598943626
 12.8476002816476509  8.9973734218658983 19.8329535168375344
 12.7373411360680056  9.7227143950265909 18.5200398257164167
 11.2524403600023550 11.6145844534284546 35.5855712326932974
 10.7197532206637582 11.9987226914546117 34.3257194232712308
  9.3812294900137125 12.4858636967299876 34.2529900847999116
  8.7261058459458347 12.5339657756562595 32.9933392881571734
  7.3312914987863884 12.2453224747776801 32.9196829010078886
  6.7488640221987648 11.9428008824327900 31.6596112955285740
  5.7133495547753981 10.9650196538907796 31.5862416818375742
  5.3771845215225360 10.4022640190379150 30.3256150880533362
  5.0078530565614976  9.0264822484112770 30.2521891198491311
  5.0173092665963264  8.3707866001972793 28.9920217256218145
  5.4235430505522952  7.0056300219533325 28.9185672081444167
  5.7743314023416792  6.4513245404842134 27.6583405210169211
  6.8357112180592736  5.5008202729973137 27.5850549181144800
  7.4244876862131406  5.2129863787655850 26.3247843195915898
  8.8269074754875074  4.9625818948669398 26.2502587946751476
  9.4786150708002079  5.0312533972929518 24.9887746925591223
 10.8040788465991255  5.5537952646218436 24.9149677967281278
 11.3254213434057931  5.9532194469783226 23.6557840406831268
 12.1936246183447157  7.0891431673290173 23.5836673426011103
 12.4460900185456023  7.6989298483133943 22.3349520764557674
 12.5671566344950705  9.1239818090944826 22.2716126741434088
 12.4635274869105750  9.7714474565077083 21.0242786450965831
 11.1530690976350080 11.6979274148894135 38.0302693076961518
 10.6077237792510708 12.0633662457330111 36.7703066939079193
  9.2531187969700639 12.5038309514815769 36.6974385374856453
  8.5969726142339074 12.5287272669825640 35.4376180183280596
  7.2131039494254736 12.1920933863373104 35.3639765533968955
  6.6413798198293073 11.8696025409781907 34.1040092161405255
  5.6394035952696759 10.8571687238619461 34.0308145877295090
  5.3221256055241950 10.2830734674060711 32.7706442531370357
  4.9999966756908982  8.8956254675474664 32.6968022809186110
  5.0316773072514431  8.2406817952335931 31.4364021524579655
  5.4851567313877707  6.8903282735198328 31.3631135997124666
  5.8554784464817029  6.3489694488227997 30.1028903941681172
  6.9491956525819738  5.4362554123222360 30.0297025606807608
  7.5482333389972496  5.1689394612848103 28.7694037247736034
  8.9580052425711916  4.9655405661687251 28.6952244782374137
  9.6075369210559707  5.0520111894688187 27.4345940793278729
 10.9148488200660410  5.6206525741820332 27.3615965088426130
 11.4220404459347211  6.0360376530087603 26.1030396434318135
 12.2346445617149975  7.2073356005770677 26.0323487536058451
 12.4510621704001387  7.8282786452630102 24.7753933291082582
 12.5213674665047581  9.2486962869993299 24.7078419675607641
 12.3799838700130636  9.8887320884430565 23.4497755957265532
 11.0500849886734791 11.7773783634868145  0.0271331496414258
 10.4929212951619615 12.1240168824877443 39.2149859909540766
  9.1239870991257117 12.5175426470394378 39.1418707593358306
  8.4676729881848836 12.5199438242344669 37.8819525394142715
  7.0960879673708765 12.1357266078324031 37.8083540484226575
  6.5361064582055892 11.7934228489868911 36.5484097708893501
  5.5696231053928358 10.7471247884655430 36.4752395324370937
  5.2722054510831402 10.1623539949591901 35.2151917126537697
  4.9976880769884913  8.7648176601618761 35.1412481861555577
  5.0511989166525977  8.1111570917493978 33.8810737359490730
  5.5511553315426339  6.7773593755904988 33.8078371370174011
  5.9398975822016711  6.2492177310108019 32.5475336160511901
  7.0650602690731965  5.3757550480805580 32.4741979216811671
  7.6726048143253109  5.1293077700551040 31.2140231710576437
  9.0889383269353132  4.9754603919021880 31.1403990482935455
  9.7350434557949654  5.0842884327723770 29.8803003175386124
 11.0204962440736711  5.6985025910779843 29.8075110457947474
 11.5121370446086146  6.1315613147005941 28.5475066785322831
 12.2813362484297190  7.3298648185343387 28.4755002606752150
 12.4725607145167139  7.9568693542171101 27.2162607363784375
 12.4998732969807715  9.3811573190997599 27.1454597563002231
 12.3343240009842710 10.0154966065997026 25.8881066794011723
  8.3380992839007835 12.5064158549736053 40.3263164244079846
  6.9805485563698166 12.0751917290739375 40.2529009321246889
  6.4330405363995586 11.7139237169311450 38.9927226203442459
  5.5031304104739878 10.6350087349238667 38.9194801319113708
  5.2261877678179438 10.0403037148933656 37.6594857047555323
  5.0000662247651766  8.6340664948668326 37.5855804934766482
  5.0762475897198778  7.9826713693783038 36.3255330579198485
  5.6219036282667041  6.6670670197903368 36.2523705174705313
  6.0284212854777701  6.1527154727245676 34.9921083701624767
  7.1833342479535673  5.3189458966526724 34.9185311243832217
  7.7992320036518681  5.0943778056227913 33.6585158978803634
  9.2198152210595818  4.9903684827743975 33.5852102570670681
  9.8616825556807495  5.1221268037597456 32.3249022301671403
 11.1248821354277538  5.7799044690509467 32.2519004046219280
 11.6012066223433035  6.2292847344794042 30.9916950192721252
 12.3303558280463008  7.4531329531517114 30.9186160522729203
 12.4984481172499038  8.0864141499144733 29.6593451156531671
 12.4784180713841266  9.5109612586375647 29.5872510723667972
 12.2891276323818133 10.1395032048856759 28.3285799795030755
  5.1838911965610572  9.9167261141135867 40.1036532564772514
  5.0064774690020286  8.5034900501869899 40.0298278987552862
  5.1054060852784726  7.8550488717425564 38.7697104898162408
  5.6961061298277862  6.5590075240561552 38.6965504263545554
  6.1203313200006768  6.0589723730373493 37.4364644003575151
  7.3034066970449096  5.2656875980563145 37.3627592157552399
  7.9268959934152763  5.0629771739315554 36.1027303131601442
  9.3501770574393195  5.0086209719494867 36.0295612499377782
  9.9871369695318375  5.1629160322414958 34.7693005643276649
 11.2272978393284326  5.8637663505976896 34.6960483435912010
 11.6878765186532352  6.3297407845502738 33.4360151668096393
 12.3754427940790173  7.5773509045356802 33.3627179786631274
 12.5219628105985574  8.2162913686273793 32.1027785448248437
 12.4534942447479740  9.6389945497859646 32.0301861962552010
 12.2432442590707833 10.2610290302513647 30.7708403267934791
  6.2151261277954726  5.9686729707677353 39.8806791818771345
  7.4247858394715607  5.2167148059391888 39.8068617454100817
  8.0551208178788372  5.0355038838422130 38.5468873243593251
  9.4795659951760243  5.0304855398326547 38.4738999559596166
 10.1109684472890606  5.2073499111168768 37.2138303076940602
 11.3261211202924041  5.9506180628003644 37.1403968131786328
 11.7707555523004128  6.4323917113242386 35.8802927867569323
 12.4152719381130687  7.7025935208638625 35.8070722566556370
 12.5407059110892973  8.3462398722097202 34.5468748598320445
 12.4232998447605745  9.7659432725827386 34.4741313557794626
 12.1920744307838937 10.3801625796348507 33.2145291859038991
 10.2329342770738112  5.2552029727342724 39.6581899969938760
 11.4216586662981268  6.0400107862422301 39.5847086038563845
 11.8496695606676425  6.5370813027248005 38.3247178377516065
 12.4504875315243524  7.8286223124342307 38.2517321413426217
 12.5539892810293416  8.4764265569508446 36.9915885069055790
 12.3879458792274821  9.8912430732100507 36.9186230990820476
 12.1359534443054802 10.4972879594845576 35.6587522626548079
 12.5620401765322018  8.6066005524786338 39.4363896218844019
 12.3471352178938876 10.0147130325056892 39.3632606288972511
 12.0749567652443375 10.6118970264421808 38.1033129792586109
 14.4958131839033779  9.6202753774822156 19.1774108843945434
