 C  S 
 1.0000000000000000
    32.3722991942999982    0.0000000000000000    0.0000000000000000
     0.0000000000000000   19.9214134216000005    0.0000000000000000
     0.0000000000000000    0.0000000000000000   40.4480476378999967
 C   S  
 364   1
Cartesian
 12.0081034562879232 10.7260968376811281  0.0994427594447296
 11.9382386769960416 10.8365834478128580  2.5439900210598512
 10.9433294283562716 11.8559103649144895  2.4712511714144219
 10.3744211393293906 12.1822758520213394  1.2109130482193031
  8.9926323691880263 12.5275854039125374  1.1375571401847688
 11.8652835845679991 10.9449546785521115  4.9886422501968832
 10.8357373781596014 11.9293406863802041  4.9163281449734466
 10.2554873492424043 12.2356880741508398  3.6560388406426161
  8.8624618933549240 12.5326898740319184  3.5825687146025573
  8.2077344370308385 12.4890022120839070  2.3222773084997472
  6.8663196402776290 12.0100423822182467  2.2490934965662324
  6.3320530371719217 11.6294481876755764  0.9885856898808877
  5.4410302851397043 10.5180073631805868  0.9155350173354790
 11.7891464976802052 11.0502818295127803  7.4337273113626301
 10.7257173200400153 11.9979612361839028  7.3618992560311085
 10.1353474589228902 12.2846539344576797  6.1015165845675430
  8.7328372625885624 12.5332152766141913  6.0279136082888956
  8.0798407371382446 12.4670770857751592  4.7675380671697685
  6.7558454259643899 11.9418591558470837  4.6942338901742300
  6.2346290722228668 11.5429243267420478  3.4339061948918101
  5.3827116907593640 10.4013359007869290  3.3605913942703238
  5.1478217363349872  9.7888127806684082  2.1003676465922472
  5.0207364707034259  8.3699705507761077  2.0273636847049028
  5.1420896316445104  7.7255758349513783  0.7667825159985459
  5.7779564183353571  6.4508866251671488  0.6940234068094924
 11.7104913993047592 11.1512993145745494  9.8792912410028606
 10.6130862088506106 12.0595894853598331  9.8080548653196775
 10.0133426157079928 12.3273426644998025  8.5476276703780734
  8.6030515683527433 12.5275448391502806  8.4736646839972156
  7.9529181111037275 12.4402136476911949  7.2129050347167354
  6.6476596334800675 11.8700120884562690  7.1391017993274017
  6.1405306310991357 11.4534604092043875  5.8788551686556492
  5.3285530281908695 10.2831040715588351  5.8051440430430610
  5.1152423880354201  9.6624041763761941  4.5452753518561728
  5.0373407973978361  8.2400397795757243  4.4726453576739553
  5.1806000330055353  7.6001397001868032  3.2122068149743099
  5.8598614697567895  6.3480768950173054  3.1395943670194542
  6.3172456411907083  5.8788509323685343  1.8789315517325063
  7.5524951502729953  5.1695613294414962  1.8055141988265941
  8.1883978842802936  5.0108387051623806  0.5447072306756271
  9.6120168346629491  5.0562155338634778  0.4715742982909831
 12.0238081764737519 10.7158520940677739 13.5837807156446484
 11.6281879497207434 11.2452290160280057 12.3257167933687963
 10.4961646354226481 12.1105789130923753 12.2547092429316677
  9.8887721755456823 12.3608455118733946 10.9942505008380049
  8.4724607932296720 12.5137719077303853 10.9196925842118162
  7.8263129092006114 12.4069579958518634  9.6582918935747113
  6.5404983808126458 11.7942881034135141  9.5835955913190372
  6.0487716669030824 11.3608739029420835  8.3232145367200268
  5.2774288541860681 10.1634600884449551  8.2490351711759704
  5.0866974619696297  9.5353554559178235  6.9894994892077777
  5.0583951074355964  8.1112105616921930  6.9172755610393546
  5.2238137672199851  7.4763250078278993  5.6573781740580911
  5.9460706906527596  6.2484928992637760  5.5851110519534934
  6.4191912551541375  5.7952622549170600  4.3245315370149875
  7.6782453961474566  5.1291684667899498  4.2515209877693794
  8.3186886476959145  4.9924306462276640  2.9903765559114821
  9.7398692344800253  5.0872480401307740  2.9170200846897871
 10.3567915730811375  5.3077835056230471  1.6562437982476124
 11.5166211335721034  6.1345339193528785  1.5821852210478642
 11.9265982823039458  6.6461709350595850  0.3218096022939272
 12.4811630536286806  7.9580952065390296  0.2486851028314886
 11.9472802872392467 10.7962562147226855 16.0299401151574088
 11.5338644211588264 11.3174688194160762 14.7738924858345975
 10.3712972967864694 12.1422313647801161 14.7013950641281212
  9.7597732507955506 12.3808032034816584 13.4404895239808617
  8.3395641201783572 12.4926258112165360 13.3652680579930170
  7.6986636828445807 12.3674763276273563 12.1032747884606611
  6.4324464016496163 11.7150287108333764 12.0277377534502534
  5.9570752850518973 11.2658226229383747 10.7670054203902303
  5.2264762169814221 10.0431820430709244 10.6924670278349172
  5.0597321041349428  9.4083640919567113  9.4330622909424200
  5.0817919634799011  7.9841611927536489  9.3611839674498398
  5.2711054625101834  7.3549792968600007  8.1020978970335804
  6.0363189748365844  6.1534533839441430  8.0304921081721030
  6.5246790592904063  5.7161412187293479  6.7702198455228233
  7.8060616336769035  5.0939756154013880  6.6979637421666753
  8.4503055067030974  4.9788171157664483  5.4365093033790846
  9.8673271618032494  5.1228438978886812  5.3627608479505007
 10.4758664107155184  5.3643031158601095  4.1016435973487333
 11.6062719805357428  6.2307995563182033  4.0271604019974738
 11.9978221220120496  6.7562532378362796  2.7665571483977662
 12.5067390520305111  8.0865235437864555  2.6932844581256554
 12.5651404890398553  8.7396432479979982  1.4330851833054534
 12.3008506952381236 10.1392241092533979  1.3595479195540066
 11.8773877149583225 10.8948770968018191 18.4641199776532652
 11.4137415500346542 11.3698329128609963 17.2118883552791608
 10.2364224518302933 12.1609209568132410 17.1416644978604218
  9.6229137901571153 12.3902608059952257 15.8828147874951444
  8.2017474029105095 12.4680338948787544 15.8087766705471999
  7.5666411713776354 12.3248972914654935 14.5470851883830523
  6.3217348676572884 11.6331469580482629 14.4715893414722476
  5.8640485047659174 11.1680201524617893 13.2102988946357591
  5.1751016329779373  9.9216953697484502 13.1358071012733735
  5.0325888153336917  9.2813387049581824 11.8762133870690221
  5.1052177596282391  7.8588516320370720 11.8044910477198943
  5.3197660985274595  7.2364024318853817 10.5461423954315627
  6.1288060646072466  6.0639310376745454 10.4753046267708925
  6.6334751384693824  5.6430846141632145  9.2159446513352616
  7.9360680434761086  5.0663251351321810  9.1447299614056536
  8.5833614620247154  4.9716269087802010  7.8831093230752707
  9.9946149972127358  5.1641483320477084  7.8089663824465561
 10.5937116073377702  5.4256588432149000  6.5471982336530381
 11.6935663875944975  6.3305572665217573  6.4721832506533152
 12.0661176279925044  6.8690124652437605  5.2112907004025093
 12.5284562438227418  8.2161375728725119  5.1376208440013960
 12.5638294362503533  8.8707672654876291  3.8775050665547988
 12.2514878093711435 10.2604016469097736  3.8040630738570127
 11.8021160726493761 10.9886700464557165 20.9189026719125657
 11.3508305121532729 11.4605904941964027 19.6565102051649063
 10.1262525455194758 12.1976400006866594 19.5837205254396416
  9.4938915039647434 12.3941487316959051 18.3283232723364833
  8.0708618051704892 12.4341947431464757 18.2537001146074438
  7.4378922121732085 12.2747719749561472 16.9920350643144644
  6.2145232582353520 11.5465249340542009 16.9164642257158349
  5.7714014550337964 11.0679752231743986 15.6545951643717505
  5.1243982385937050  9.7989957350773373 15.5803828613622510
  5.0051754512732654  9.1543316519919919 14.3200164920940676
  5.1274281108639066  7.7353130356765076 14.2479210776854011
  5.3676869575574182  7.1207960575414404 12.9898879225146402
  6.2211794617334943  5.9800927912479054 12.9194411612964757
  6.7437248263507747  5.5776832226576474 11.6614400756613517
  8.0669334190402040  5.0493595741858908 11.5914281492268731
  8.7173821043715396  4.9737302703904414 10.3301206307222628
 10.1215707840332705  5.2130218310871639 10.2556715253772115
 10.7110028801287882  5.4923321654362640  8.9930900265056870
 11.7801125862643818  6.4334201247534804  8.9173024802072280
 12.1323859437117267  6.9842348454665766  7.6559111149963570
 12.5478815605483582  8.3465312839944072  7.5817029621104703
 12.5589608271435598  9.0020248141424908  6.3216831657110140
 12.1984176225100267 10.3799009305965200  6.2486705241069238
 11.7140247243400459 11.0933514197340468 23.3544110956827140
 11.2249474825236391 11.5282561712674312 22.0965545944334352
  9.9971267561415420 12.2400181828085799 22.0230201389828935
  9.3674358410350660 12.4103042921765905 20.7638299021233301
  7.9434437789182368 12.4050496476370817 20.6929066720203494
  7.3121888586699324 12.2234236277120782 19.4353552147394311
  6.1114569220366217 11.4570330699958483 19.3613273543356144
  5.6833241259076832 10.9635584918551050 18.1001056202334283
  5.0797477089993075  9.6737462424861107 18.0263687969842010
  4.9812237972791298  9.0259618886672808 16.7650686784236598
  5.1524111603516429  7.6119826636192078 16.6924391225773725
  5.4138965324912052  7.0070007860978576 15.4336738145317138
  6.3104541775961378  5.9000441397972869 15.3627728932120036
  6.8531568349318883  5.5197001987686010 14.1062111476314325
  8.1974166949726310  5.0473054005063620 14.0369889046227634
  8.8507490656247807  4.9892818172904185 12.7769381616168616
 10.2469043273967380  5.2728095644419861 12.7027874191489598
 10.8277332923133649  5.5658632426617141 11.4393945241081330
 11.8673071953452691  6.5394322377267393 11.3626674486028101
 12.1989812413837448  7.1013709916280279 10.1004437548727868
 12.5675791674092707  8.4770710176648905 10.0255446310998444
 12.5528375773373195  9.1328473695001904  8.7657392541612555
 12.1432044926167535 10.4970980774285891  8.6935044520263851
 11.6358494460152926 11.2289131962102395 25.8005570547220984
 11.1517307071873422 11.6543458019836095 24.5350965528712273
  9.8890458398675172 12.3156349029895331 24.4629795239119296
  9.2416519397901382 12.4468284176238342 23.2070179779376033
  7.8197240650305169 12.3834625333705919 23.1364651544475706
  7.1958508950981859 12.1716219157709755 21.8782524217708527
  6.0236309096928835 11.3634108540344378 21.8062215437304481
  5.6059672056095833 10.8562666263612613 20.5461580443560443
  5.0465963723954239  9.5461580957556720 20.4732599172344436
  4.9657244942276311  8.8964168399328969 19.2119398667131058
  5.1862196158892750  7.4890376283386351 19.1386547696087312
  5.4670387209856877  6.8948907084879929 17.8787563667827918
  6.4057875693565833  5.8243514651613921 17.8071556516463332
  6.9590358548336191  5.4660746699175053 16.5490448366421177
  8.3223498391833779  5.0572074229107669 16.4784404841003322
  8.9822817537709501  5.0258582196098631 15.2228074265754856
 10.3681493990369926  5.3588248833018488 15.1506202639742806
 10.9416157353252892  5.6522453124695442 13.8851141228814576
 11.9552365293807927  6.6507102756318988 13.8084418404214073
 12.2678892359654164  7.2205127453399500 12.5450606222150522
 12.5895983537770491  8.6074285491001330 12.4694171983345257
 12.5473038030380319  9.2629951768269638 11.2098671383075743
 12.0861135128716999 10.6106790325873188 11.1387166323722546
 11.5460267531675509 11.3388155983875389 28.2464927367554814
 11.0547651677216958 11.7657765499925713 26.9831468483536838
  9.7702330030557132 12.3819400697557693 26.9093432648607305
  9.1227658050321594 12.4858876188490449 25.6489574150206181
  7.7037647926133115 12.3567656246568198 25.5794733809189552
  7.0846300995967120 12.1212144495630643 24.3227754128992579
  5.9441459536862666 11.2676113383794227 24.2515946494494017
  5.5425462984287659 10.7454046500232145 22.9925736260121525
  5.0292836432369148  9.4168104954869154 22.9200940505189941
  4.9659404606672624  8.7647701274211531 21.6588871437041703
  5.2346415255653520  7.3662466765896708 21.5846447862034516
  5.5289558200140414  6.7827970610801520 20.3235417866296437
  6.5058321988801184  5.7461423797684414 20.2499732500485123
  7.0735313804435966  5.4155077982051001 18.9924830496980306
  8.4530100024523502  5.0625465317463743 18.9212554018568504
  9.1053418929265710  5.0738040401142390 17.6623044246041836
 10.4696841841595116  5.4642595797366820 17.5888362582940516
 11.0505125479348720  5.7659201426992679 16.3310511584415430
 12.0608475778598461  6.7733146584768118 16.2611699519455009
 12.3428796703415866  7.3426608554713049 14.9900160193039813
 12.6172322384740649  8.7349037320214578 14.9136728303302064
 12.5419933599361055  9.3903575775723258 13.6546519088326246
 11.4511128815769467 11.4373341033884994 30.6927456599101767
 10.9476228113739644 11.8530086687354839 29.4303936988328694
  9.6446350383304544 12.4285561712304613 29.3564166504991775
  8.9954917326472454 12.5149297806014808 28.0949185071958780
  7.5832203075059876 12.3267575549126711 28.0244196639460306
  6.9782008718828186 12.0648308020890447 26.7662513577622505
  5.8711859133975599 11.1681305208904984 26.6957554413728531
  5.4877808663016747 10.6316454496082216 25.4373477959627508
  5.0209469465384009  9.2860887741248455 25.3650605459817911
  4.9784390517976549  8.6320961163874923 24.1047199585956307
  5.2947984916060413  7.2433545863178548 24.0300071708743879
  5.6071111538018608  6.6708867460122594 22.7681527952701579
  6.6152988035739151  5.6655966850051973 22.6929602218563176
  7.1901274347537516  5.3562618894904261 21.4313994323031416
  8.5796434836052242  5.0471638592567594 21.3563286895211739
  9.2408727029049214  5.0834888383097363 20.1011243520150238
 10.6082484621259319  5.4992581412703707 20.0286615312583045
 11.1612839858239159  5.8464350271516574 18.7663016203887238
 12.2772404979739758  6.7363095887505864 18.6905694329716994
 12.5106738073539798  7.4360845887438805 17.4474596326134730
 12.7389932966245603  8.8623569362198218 17.3717216013604059
 12.5491915286059594  9.5030706249067229 16.1077645602661548
 11.3537784667566974 11.5293360003961638 33.1385773816942333
 10.8366961652366793 11.9301056886917838 31.8769818769115290
  9.5154818426492191 12.4621955446163053 31.8032994021514916
  8.8644368804691727 12.5293767718119042 30.5418390723366322
  7.4602451330387440 12.2892120021950983 30.4700793299152082
  6.8679959881021020 12.0053833647008137 29.2105260090071646
  5.7964301847790534 11.0668513345914441 29.1398059382394869
  5.4356770264194365 10.5166527272283741 27.8810624768437165
  5.0162719591167289  9.1555246333624751 27.8087944800944946
  4.9974358035952084  8.5001513827024464 26.5491083470982581
  5.3605806647273901  7.1232332114255001 26.4741975330978505
  5.6904121520017137  6.5605431802810408 25.2128163531891616
  6.7281652481763174  5.5851383273460184 25.1374976651131057
  7.3088353774897223  5.2912184078592892 23.8759508497180022
  8.7057652332320501  5.0188411308641889 23.8014409349897491
  9.3567060677194931  5.0917144476349296 22.5427657193678677
 10.6915918024339689  5.5711955302095859 22.4730602016070833
 11.2573547192273864  5.9187104435315900 21.2209411483592056
 12.3389747483875354  6.8461913646012231 21.1564771004490026
 12.9185696903538396  7.1026524060811012 19.8947530947348419
 13.1979586666833963  9.3399199589702100 19.7901254900322456
 12.6988895853401527  9.7306718380566029 18.5283263961651734
 11.2546022694076484 11.6167121901138621 35.5840792162642501
 10.7237456805874825 12.0004233802525011 34.3230818393925148
  9.3851025294200472 12.4869722601856559 34.2496389513876949
  8.7320841169423797 12.5333266479362209 32.9884712129029296
  7.3374241409388663 12.2436685720437968 32.9156839272865369
  6.7564792065594599 11.9399188665968001 31.6554309392409188
  5.7201022595221938 10.9625871179804957 31.5840215205949235
  5.3824073657571772 10.3997239201865543 30.3245812074253713
  5.0115672288698683  9.0245201193123528 30.2519452500969201
  5.0177112788815013  8.3689255971137868 28.9922709987531313
  5.4268985909340781  7.0047147575931659 28.9175003410148186
  5.7778269139355283  6.4533268985458259 27.6565250835915997
  6.8456380640590115  5.5105968207139968 27.5808680186135859
  7.4364117220829149  5.2327577107057390 26.3190432370176310
  8.8407416443543845  4.9934308432202927 26.2434145009343034
  9.4921520090703524  5.0758467346374578 24.9826689984361572
 10.8210044858237726  5.5914710785848492 24.9107367911508781
 11.3493569251910849  5.9963863481065101 23.6548987862163358
 12.2497659919606381  7.1027342937492692 23.5768692899972052
 12.5910210368006847  7.6777601821529302 22.3131565997514230
 12.7202954445891550  9.1164709591821502 22.2377298989743650
 12.6661085453399380  9.8524526059385522 20.9944851376738697
 11.1530092075859670 11.6997537659289748 38.0293031841330560
 10.6087252544099151 12.0651654007044336 36.7686581806533610
  9.2541224547457084 12.5052149559509687 36.6953250783199181
  8.5996064820044147 12.5297331143066426 35.4344637005260239
  7.2159631095333285 12.1917323331777698 35.3611406629233258
  6.6462487409889706 11.8684408282679996 34.1005756950532941
  5.6449948129262078 10.8551725712423028 34.0284939084704874
  5.3284945300269166 10.2808861161171645 32.7685032759215886
  5.0064388412711001  8.8933443027631949 32.6954216740722430
  5.0373656453376094  8.2383000739144965 31.4355703247635709
  5.4919674858400080  6.8884540456210681 31.3613749229357559
  5.8628542162268467  6.3486647036227053 30.1005945364648717
  6.9593353067821742  5.4396094492568317 30.0255016031209117
  7.5599460258951190  5.1784691528018207 28.7642191120949420
  8.9705220081920150  4.9797631907885274 28.6894016525899112
  9.6209759717058265  5.0746273452729254 27.4290613948855544
 10.9301791084624274  5.6368958196945398 27.3585626032585019
 11.4435968935784018  6.0540474539018687 26.1008686000223804
 12.2705677810872729  7.2124469411030621 26.0298507171425655
 12.5042001752161802  7.8302016313546403 24.7711381322433688
 12.5802684165426673  9.2472864102757413 24.6954827390373346
 12.4466366127008836  9.8690267691010547 23.4242836160515751
 11.0491851845534352 11.7792639278068147  0.0263095351379792
 10.4923313264163518 12.1256197505644838 39.2138785745214378
  9.1232925448317754 12.5185524949825506 39.1405496028406077
  8.4678626064421074 12.5205720316071414 37.8800014892944361
  7.0966731116731152 12.1350845904242615 37.8065330352295135
  6.5382798163910119 11.7923667749323009 36.5458771446184087
  5.5729000266706423 10.7449449066289056 36.4733326447328352
  5.2770880036949386 10.1600946915097623 35.2129988987868856
  5.0033705202384340  8.7622415781049501 35.1396152579940662
  5.0578453935461321  8.1086105261033605 33.8795145233760522
  5.5580105913259352  6.7749498073679755 33.8059226391603147
  5.9474881769379966  6.2473306140222373 32.5453006824417699
  7.0735490009695257  5.3749348528022427 32.4709128314058617
  7.6826167155055893  5.1317851744702789 31.2100790327571964
  9.0990552865370109  4.9804161935177369 31.1361513752480192
  9.7463147415680975  5.0939091667303398 29.8757044071898861
 11.0325283405506323  5.7062283289761124 29.8047652893343162
 11.5292628711055158  6.1393821833431952 28.5457742612315890
 12.3063970750510858  7.3331869560290341 28.4746037428498937
 12.5083087319353012  7.9591862390491297 27.2153949394327661
 12.5368553989631941  9.3826723711210605 27.1405966292905774
 12.3739713333675230 10.0125367614666043 25.8773643145777044
  8.3372486102043446 12.5067732494884964 40.3252115335877122
  6.9801648765249276 12.0742544737161008 40.2518735684091951
  6.4334934663739523 11.7125122632208765 38.9912365019702136
  5.5046921353145590 10.6324846347211608 38.9184166653362524
  5.2291218782055422 10.0377013394877412 37.6579872022303235
  5.0039664195164333  8.6311697538089867 37.5845587904924301
  5.0812988543647810  7.9799723560630555 36.3241656805257165
  5.6271782208029952  6.6643104847726944 36.2510590623405378
  6.0346051940338095  6.1501498065903926 34.9905000915465507
  7.1897154711175792  5.3166653300529472 34.9165737562845422
  7.8067162505855743  5.0932219078518148 33.6559681675366491
  9.2273842656504446  4.9905807710617358 33.5826181265870858
  9.8702138089164020  5.1246547244368870 32.3220749535910343
 11.1332955286678636  5.7831337867211854 32.2503250691113053
 11.6121168461679858  6.2337069930084796 30.9908644816892753
 12.3434143485634458  7.4561470952958508 30.9188413395286332
 12.5186809368931478  8.0891691995696462 29.6593559382588978
 12.4992485235600626  9.5133278313263343 29.5852814290318840
 12.3153836460685842 10.1402845032200748 28.3234140529104259
  5.1859003578990670  9.9138542837140751 40.1031973619432378
  5.0095806720888625  8.5003285665209649 40.0298953737054291
  5.1090472445548478  7.8521262164708681 38.7693566302781392
  5.7002702524913929  6.5561657363436217 38.6965079290562244
  6.1249426927099915  6.0563017322458306 37.4359257447779754
  7.3082180705290201  5.2632653179296920 37.3621965911253398
  7.9322970167112450  5.0608179129352360 36.1016583407088589
  9.3556574066305345  5.0074772355547754 36.0285867925123071
  9.9932639173608067  5.1628182412603483 34.7680606000491395
 11.2325453985745067  5.8651426278438095 34.6955383383963607
 11.6941418413795404  6.3321310044853023 33.4357095413718497
 12.3811168574741490  7.5798816974791503 33.3630936705519687
 12.5313483800743004  8.2188870095487285 32.1032834371562146
 12.4632649573050713  9.6415655027346538 32.0296190175145554
 12.2571249155413255 10.2629707749508103 30.7686983427182561
  6.2192941097357375  5.9660636768011388 39.8814592549677087
  7.4292659141612143  5.2144483375615760 39.8078384910142589
  8.0595082025723102  5.0335073122102862 38.5472161029194211
  9.4839134326462950  5.0295485661623021 38.4742481320941110
 10.1153626213292487  5.2069017650150391 37.2137055781738866
 11.3294969866030453  5.9516461549254913 37.1405272390937711
 11.7742436131669983  6.4339531584690093 35.8804151639577285
 12.4174708002057876  7.7047768002891344 35.8074878690356684
 12.5440326889503293  8.3486344318888186 34.5474564305682250
 12.4266847875329383  9.7681209281891039 34.4740347153733850
 12.1980393993935046 10.3822863216678165 33.2135556850482914
 10.2368445036004623  5.2550452368652607 39.6590399201120434
 11.4246136162208334  6.0412625142461724 39.5853739396746533
 11.8519632930641734  6.5386775294096537 38.3251227270422774
 12.4513472901321549  7.8307547268791824 38.2520767516170821
 12.5548244108628957  8.4785901443026681 36.9918947152177466
 12.3884444283823196  9.8931916048991688 36.9185017691444699
 12.1377934467917630 10.4992785759428102 35.6582845426862534
 12.5622022033632099  8.6088948898791742 39.4364680933263116
 12.3466340779318315 10.0168419395153290 39.3630067236899706
 12.0747446134973728 10.6137946236236456 38.1029113334341361
 14.4027004824473419  8.0534528870679072 19.8424126526203075
