Ge Se                                   
    1.000000000000000     
     4.0499999999999998    0.0000000000000000    0.0000000000000000
     0.0000000000000000    4.1500000000000004    0.0000000000000000
     0.0000000000000000    0.0000000000000000   11.1422210000000010
   Ge   Se
     4     4
Selective dynamics
Direct
  0.2500000000000000  0.0976235230863765  0.1299301613597379   T   T   T
  0.7500000000000000  0.5976235230863765  0.3700698386402621   T   T   T
  0.7500000000000000  0.9023764769136235  0.8700698386402621   T   T   T
  0.2500000000000000  0.4023764769136235  0.6299301613597379   T   T   T
  0.2500000000000000  0.0067110981495446  0.3583138834012587   T   T   T
  0.7500000000000000  0.5067110981495446  0.1416861165987413   T   T   T
  0.7500000000000000  0.9932889018504554  0.6416861165987413   T   T   T
  0.2500000000000000  0.4932889018504554  0.8583138834012587   T   T   T
 
  0.00000000E+00  0.00000000E+00  0.00000000E+00
  0.00000000E+00  0.00000000E+00  0.00000000E+00
  0.00000000E+00  0.00000000E+00  0.00000000E+00
  0.00000000E+00  0.00000000E+00  0.00000000E+00
  0.00000000E+00  0.00000000E+00  0.00000000E+00
  0.00000000E+00  0.00000000E+00  0.00000000E+00
  0.00000000E+00  0.00000000E+00  0.00000000E+00
  0.00000000E+00  0.00000000E+00  0.00000000E+00
