INCAR created by Atomic Simulation Environment
 ENCUT = 400.000000
 SIGMA = 0.010000
 EDIFF = 1.00e-06
 ALGO = N
 GGA = PE
 PREC = Accurate
 SYSTEM = 02_SCF
 ICHARG = 0
 ISMEAR = 0
 ISPIN = 2
 ISTART = 1
 KPAR = 2
 LORBIT = 11
 NBANDS = 896
 NELMIN = 5
 NPAR = 32
 IVDW = 11
 LCHARG = .TRUE.
 LWAVE = .TRUE.
 LREAL = .FALSE.
