 S 
 1.0000000000000000
    32.3722991942999982    0.0000000000000000    0.0000000000000000
     0.0000000000000000   19.9214134216000005    0.0000000000000000
     0.0000000000000000    0.0000000000000000   40.4480476378999967
 S  
   1
Cartesian
 14.0700368879999829  9.2935981749999392 19.1168804170001216
