Ge Se
 1.0000000000000000
     4.5000000000000000    0.0000000000000000    0.0000000000000000
     0.0000000000000000    4.5000000000000000    0.0000000000000000
     0.0000000000000000    0.0000000000000000   11.1422209999999993
 Ge  Se 
   4   4
Selective dynamics
Cartesian
  0.0000000000000000  1.1250000000000000  1.6133292571516344   T   T   T
  2.2500000000000000  3.3750000000000000  3.9577812428483656   T   T   T
  4.5000000000000000  3.3750000000000000  9.5288917428483639   T   T   T
  2.2500000000000000  1.1250000000000000  7.1844397571516332   T   T   T
  0.0000000000000000  1.1250000000000000  4.0561529068425450   T   T   T
  2.2500000000000000  3.3750000000000000  1.5149575931574542   T   T   T
  4.5000000000000000  3.3750000000000000  7.0860680931574542   T   T   T
  2.2500000000000000  1.1250000000000000  9.6272634068425464   T   T   T
