 C  S  O                                
    1.000000000000000     
    32.3722991942999982    0.0000000000000000    0.0000000000000000
     0.0000000000000000   19.9214134216000005    0.0000000000000000
     0.0000000000000000    0.0000000000000000   40.4480476378999967
   C    S    O 
   364     1     1
Selective dynamics
Direct
  0.3708597335875670  0.5381546767237547  0.0023689054886061   T   T   T
  0.3686609459298150  0.5436875755840278  0.0627972185856294   T   T   T
  0.3379829430532101  0.5949482035899312  0.0609863081683983   T   T   T
  0.3204453176386559  0.6113888007849617  0.0298268223773811   T   T   T
  0.2777797709699073  0.6288543108409933  0.0280059872699103   T   T   T
  0.3663391304609256  0.5490974489445773  0.1232203892827981   T   T   T
  0.3346064918985905  0.5986321828025284  0.1214178219947222   T   T   T
  0.3167287517100275  0.6140829313157568  0.0902599096630192   T   T   T
  0.2737187268674358  0.6291480149600096  0.0884396624565432   T   T   T
  0.2535116184679275  0.6270107030043981  0.0572819367987602   T   T   T
  0.2120482955411201  0.6030831291015827  0.0554694340694938   T   T   T
  0.1955465729023837  0.5839888838325770  0.0243095161964176   T   T   T
  0.1679842682260277  0.5282513496296637  0.0225015452617522   T   T   T
  0.3639023331765215  0.5543708240748504  0.1836337538314836   T   T   T
  0.3311586499374594  0.6021221710576710  0.1818440612534592   T   T   T
  0.3129666355494261  0.6165812784536108  0.1506927758493941   T   T   T
  0.2696606712654374  0.6292402615455028  0.1488797654416512   T   T   T
  0.2495089772734620  0.6259557392195010  0.1177232076211844   T   T   T
  0.2085833759168800  0.5997056141671268  0.1159178114573633   T   T   T
  0.1924931098164630  0.5796993821422494  0.0847548517004237   T   T   T
  0.1661387318712674  0.5224466323824847  0.0829413107423848   T   T   T
  0.1588829461523819  0.4916924809917261  0.0517883822143502   T   T   T
  0.1549075208233033  0.4204785824493390  0.0499753269872858   T   T   T
  0.1586534934156623  0.3880940479463622  0.0188232891397146   T   T   T
  0.1782388323943710  0.3240657831235120  0.0170230749838376   T   T   T
  0.3614167408538469  0.5595190792670351  0.2440408356729212   T   T   T
  0.3276798532035025  0.6054298855360386  0.2422723002281114   T   T   T
  0.3091664898498354  0.6188583282039529  0.2111320868195154   T   T   T
  0.2656211476734852  0.6290787250371580  0.2093322339446336   T   T   T
  0.2455412780382792  0.6246765715158672  0.1781695148473695   T   T   T
  0.2052062171004085  0.5961249841299449  0.1763695049090070   T   T   T
  0.1895400509531666  0.5752439281023348  0.1452076502651626   T   T   T
  0.1644221646481321  0.5165313597934381  0.1433858965672392   T   T   T
  0.1578296288664072  0.4853896524027905  0.1122311213411869   T   T   T
  0.1553638480993849  0.4139985109529315  0.1104172836285198   T   T   T
  0.1597852518466416  0.3818464926754597  0.0792597628629878   T   T   T
  0.1807013784797640  0.3189398377795174  0.0774535954690527   T   T   T
  0.1948440267066142  0.2953211204078968  0.0463070607498521   T   T   T
  0.2329603632036876  0.2595968082763467  0.0444926918136019   T   T   T
  0.2526338916400589  0.2515552794025054  0.0133474164873519   T   T   T
  0.2966127957687985  0.2536986847329363  0.0115488910615504   T   T   T
  0.3709768742319753  0.5379624879547410  0.3355537266477601   T   T   T
  0.3588981415506338  0.5645345307518159  0.3044505004264225   T   T   T
  0.3241959665845983  0.6084842008008124  0.3027162375418161   T   T   T
  0.3053643227241549  0.6208683035451759  0.2715723123548569   T   T   T
  0.2616348881188545  0.6285841885565967  0.2697919170831702   T   T   T
  0.2416354806573004  0.6231266902320219  0.2386333135222037   T   T   T
  0.2019256907048726  0.5923087585338616  0.2368301736317043   T   T   T
  0.1867115865816082  0.5705762730772606  0.2056686031565315   T   T   T
  0.1628605660737468  0.5104881644331536  0.2038342705265936   T   T   T
  0.1569244205746812  0.4790124010214101  0.1726724990635391   T   T   T
  0.1559645888951466  0.4075312658429744  0.1708560883601665   T   T   T
  0.1610475939825352  0.3756529686968507  0.1397002271913068   T   T   T
  0.1832712269461584  0.3139317066125962  0.1378873208252935   T   T   T
  0.1979062257467720  0.2911311282068517  0.1067369822268734   T   T   T
  0.2367500102210509  0.2575497082207274  0.1049244601915819   T   T   T
  0.2565832145610638  0.2506209298454508  0.0737759664095015   T   T   T
  0.3004929170348128  0.2552294379748746  0.0719765674747383   T   T   T
  0.3196101555303419  0.2662605853836258  0.0408331646148955   T   T   T
  0.3554806939516983  0.3076705590553148  0.0390165909638971   T   T   T
  0.3681941660411848  0.3333445321484949  0.0078689473453230   T   T   T
  0.3853747050833525  0.3991668483818969  0.0060644101464014   T   T   T
  0.3690518914637747  0.5433131321055163  0.3959624070229928   T   T   T
  0.3563531609782789  0.5693227978979521  0.3648381742061541   T   T   T
  0.3207142248466147  0.6110783427874328  0.3631575762659108   T   T   T
  0.3016001113674984  0.6225595269633624  0.3320407725545229   T   T   T
  0.2577053913134300  0.6277051881991378  0.3302702892627410   T   T   T
  0.2378208053676703  0.6211887951769500  0.2991219913841298   T   T   T
  0.1987862626246368  0.5881682140085451  0.2973011749243551   T   T   T
  0.1840114911245521  0.5656799762546648  0.2661259906142203   T   T   T
  0.1614252311176171  0.5043284045076910  0.2642780873702096   T   T   T
  0.1561410559678881  0.4725699594669414  0.2331137187563806   T   T   T
  0.1566756264837448  0.4010672244252401  0.2312924966011680   T   T   T
  0.1624478915771787  0.3695097127589605  0.2001399656169920   T   T   T
  0.1859479508051822  0.3090562599834009  0.1983220009383005   T   T   T
  0.2010459589018282  0.2870835926084809  0.1671679290792628   T   T   T
  0.2405716109666213  0.2556662493250979  0.1653624382477485   T   T   T
  0.2605412271827021  0.2498687331167927  0.1342116353230936   T   T   T
  0.3043268818764926  0.2569404916783973  0.1324075978135471   T   T   T
  0.3232055943366517  0.2690509849639284  0.1012629044462064   T   T   T
  0.3581706226947643  0.3124518679794383  0.0994445904284732   T   T   T
  0.3703393658737129  0.3388346182083785  0.0682990960708161   T   T   T
  0.3861117810871985  0.4055841022354707  0.0664961785084277   T   T   T
  0.3879726559055957  0.4383886423855108  0.0353461715341372   T   T   T
  0.3798604128584828  0.5086638968281686  0.0335235782458543   T   T   T
  0.3672887474979890  0.5474967237471928  0.4563900935509237   T   T   T
  0.3538192033748021  0.5732586274567464  0.4253588385897288   T   T   T
  0.3171577874789030  0.6127735082286698  0.4236574034532800   T   T   T
  0.2978448667866800  0.6234868535240587  0.3925862032684626   T   T   T
  0.2538524384834571  0.6261698661450703  0.3907748074344178   T   T   T
  0.2340949124883677  0.6187667046313127  0.3595972547093398   T   T   T
  0.1957595164823328  0.5837175204913024  0.3577526386457313   T   T   T
  0.1814299397488790  0.5605335232737110  0.3265749876898789   T   T   T
  0.1600699090071365  0.4980125543467897  0.3247191907941961   T   T   T
  0.1554666555804377  0.4660244652263745  0.2935530999713752   T   T   T
  0.1574649546547317  0.3945930177060795  0.2917261718046140   T   T   T
  0.1639294841723890  0.3633998385311044  0.2605681162263773   T   T   T
  0.1886954577287391  0.3043048650919574  0.2587482934416755   T   T   T
  0.2042644155266843  0.2831894880330012  0.2276064865991186   T   T   T
  0.2444407927232463  0.2539833544152975  0.2258132971514798   T   T   T
  0.2645150631718255  0.2493169949976259  0.1946523798066223   T   T   T
  0.3081183458188762  0.2588528922017770  0.1928416460630459   T   T   T
  0.3267255984938837  0.2720217249078455  0.1616938983152577   T   T   T
  0.3607445871362160  0.3173748554832929  0.1598711840266121   T   T   T
  0.3723487944210274  0.3444327662779211  0.1287279990178051   T   T   T
  0.3866817522376378  0.4120326842414681  0.1269188719761880   T   T   T
  0.3878583519463014  0.4449307899016442  0.0957729784386945   T   T   T
  0.3782721015336639  0.5147098417328403  0.0939490099042834   T   T   T
  0.3656102417706116  0.5549427064942144  0.5171159354151121   T   T   T
  0.3511196736049405  0.5770772670256004  0.4862273772014672   T   T   T
  0.3133620266866905  0.6137239671470962  0.4842092840764330   T   T   T
  0.2938884547715553  0.6232791405363325  0.4530402135426044   T   T   T
  0.2500045152097617  0.6240825358717518  0.4511982058536916   T   T   T
  0.2303895277946694  0.6159593820661189  0.4200296068142201   T   T   T
  0.1926797036040243  0.5791074294367111  0.4181786415204007   T   T   T
  0.1788809151179530  0.5551829109034521  0.3870186776647094   T   T   T
  0.1587546655767667  0.4915927453915235  0.3851647243697429   T   T   T
  0.1548533535494907  0.4593860886911588  0.3539826639882406   T   T   T
  0.1583179290303268  0.3881252298110502  0.3521530586460548   T   T   T
  0.1654501774537946  0.3573235850946056  0.3210003275885223   T   T   T
  0.1914908755619669  0.2996600587547253  0.3191838046787313   T   T   T
  0.2075464103756386  0.2794933679250612  0.2880492529378715   T   T   T
  0.2483298105528700  0.2526230775179681  0.2862682179240851   T   T   T
  0.2684918257040890  0.2490163250334537  0.2551024990242431   T   T   T
  0.3118753131738125  0.2610113324079741  0.2532870136980312   T   T   T
  0.3301818854271775  0.2751986320308807  0.2221332385602913   T   T   T
  0.3632060237861089  0.3224551234973702  0.2203000389446476   T   T   T
  0.3742214771173299  0.3501457761521987  0.1891484963457493   T   T   T
  0.3871065531220089  0.4185010681485611  0.1873247651392003   T   T   T
  0.3875892294589222  0.4514522359042377  0.1561873246266342   T   T   T
  0.3765446416538614  0.5206629670234489  0.1543666017024649   T   T   T
  0.3624062679962381  0.5597926041690079  0.5776946857958412   T   T   T
  0.3479895680991290  0.5819554294389374  0.5462291659960231   T   T   T
  0.3094548844628395  0.6166063936421975  0.5444430315682935   T   T   T
  0.2898762755801146  0.6244413965939986  0.5133882540178882   T   T   T
  0.2457913739717436  0.6230743166065262  0.5115624853086851   T   T   T
  0.2265356039708344  0.6132220307785536  0.4804725193700565   T   T   T
  0.1895837995701787  0.5744891986999647  0.4786144729127106   T   T   T
  0.1763454446974718  0.5497167948062810  0.4474340007028075   T   T   T
  0.1575630685640007  0.4851373195213455  0.4455977565335285   T   T   T
  0.1542953809330873  0.4527252220076874  0.4144249268299310   T   T   T
  0.1592595386587502  0.3816562210198809  0.4125987141853694   T   T   T
  0.1670688233370272  0.3513011515264369  0.3814477799367870   T   T   T
  0.1943409329362911  0.2951728778055173  0.3796317528795172   T   T   T
  0.2108652680120104  0.2759827997797104  0.3484837444759012   T   T   T
  0.2522269082451583  0.2515993941633058  0.3467030860839869   T   T   T
  0.2724646521336916  0.2490775086123037  0.3155694074827812   T   T   T
  0.3156011554148856  0.2634999822988099  0.3137621483236179   T   T   T
  0.3335731448900118  0.2786552790543265  0.2825702774081649   T   T   T
  0.3655650685144712  0.3277056654725223  0.2807170588348203   T   T   T
  0.3759941516761170  0.3559645881408851  0.2495610522153766   T   T   T
  0.3874483454786198  0.4250006683096577  0.2477140375576613   T   T   T
  0.3872049135296003  0.4579553155427459  0.2165865282747809   T   T   T
  0.3747198880202427  0.5265145481281853  0.2147754524802189   T   T   T
  0.3592790414949854  0.5644490787105937  0.6380374828881912   T   T   T
  0.3448630916620330  0.5872725696077571  0.6067468764873469   T   T   T
  0.3056771740416794  0.6202414903981460  0.6048972034447428   T   T   T
  0.2858390377575752  0.6261788952728721  0.5737492537654953   T   T   T
  0.2419443245483034  0.6217648551690583  0.5719477330272862   T   T   T
  0.2227664016847468  0.6108695672553407  0.5408189775706278   T   T   T
  0.1866807815827382  0.5699107329200709  0.5390045264280275   T   T   T
  0.1738576533061648  0.5444281552057618  0.5078875406297259   T   T   T
  0.1564497202904278  0.4786606063873434  0.5060647466551428   T   T   T
  0.1539332300850430  0.4460609993352589  0.4749113812644888   T   T   T
  0.1604249934464267  0.3753383480533271  0.4730776310575544   T   T   T
  0.1688450349950173  0.3454086118846611  0.4418981301999921   T   T   T
  0.1973028800560488  0.2908996553079719  0.4400759811229176   T   T   T
  0.2141820396997740  0.2726004344981403  0.4089330057039529   T   T   T
  0.2561158043636723  0.2507437091085428  0.4071382203603313   T   T   T
  0.2764334021052768  0.2495991078754548  0.3760294437455616   T   T   T
  0.3192063100873707  0.2665302057959960  0.3742304092937728   T   T   T
  0.3369125801024085  0.2823580312361240  0.3430074949608685   T   T   T
  0.3679545487220984  0.3330783707434534  0.3411421139798319   T   T   T
  0.3776981185536019  0.3619039397212763  0.3099740413587947   T   T   T
  0.3877138183324849  0.4315139558713606  0.3080851832167382   T   T   T
  0.3867459151570253  0.4644525812978376  0.2769549435491531   T   T   T
  0.3728460325844197  0.5322681007154266  0.2751662262624971   T   T   T
  0.3563757035061870  0.5691976259841495  0.6984175379040458   T   T   T
  0.3413487161147573  0.5912147678754150  0.6672543501293839   T   T   T
  0.3017458500556744  0.6224127666233547  0.6653774484975032   T   T   T
  0.2818403637399569  0.6278268069994335  0.6341397080321545   T   T   T
  0.2380400120977255  0.6205240604178781  0.6323479860826917   T   T   T
  0.2191569684744527  0.6083561682832094  0.6012429379312991   T   T   T
  0.1840126440240258  0.5652343971812352  0.5994448568201655   T   T   T
  0.1717494856986902  0.5388873322769765  0.5683239964650634   T   T   T
  0.1558021042224713  0.4722762719463751  0.5665236751701941   T   T   T
  0.1538216858470052  0.4394870422168934  0.5353584132358733   T   T   T
  0.1618668052295124  0.3691687776821389  0.5335256354506035   T   T   T
  0.1707805502704523  0.3396830077701948  0.5023782844958236   T   T   T
  0.2004694444976211  0.2867752742582579  0.5005513336728711   T   T   T
  0.2176968499007182  0.2695490901583201  0.4694045084422565   T   T   T
  0.2600666179024974  0.2502463591304447  0.4675921588233503   T   T   T
  0.2803381751792285  0.2503265465752501  0.4364320147623389   T   T   T
  0.3225929656955593  0.2701088006149339  0.4346019645950017   T   T   T
  0.3400899515010312  0.2866001752374471  0.4034893798876878   T   T   T
  0.3703905461515516  0.3387722972296932  0.4016668692417694   T   T   T
  0.3794532963777148  0.3679476016135442  0.3703478713139989   T   T   T
  0.3879471145011629  0.4379697178550275  0.3683850817242589   T   T   T
  0.3862705147767747  0.4708983286123911  0.3372987811593943   T   T   T
  0.3535125200707908  0.5738858370575930  0.7588342361865533   T   T   T
  0.3379568022870785  0.5949695222052569  0.7276736455424648   T   T   T
  0.2977795104811487  0.6240578352784019  0.7258158662506762   T   T   T
  0.2777565001110967  0.6286731886048429  0.6946147613193878   T   T   T
  0.2341257958932490  0.6189704075077417  0.6928040418073887   T   T   T
  0.2155870226105666  0.6056177735053726  0.6616633089899764   T   T   T
  0.1815029182281984  0.5604037486078429  0.6598750920490158   T   T   T
  0.1697976367392015  0.5333939692181985  0.6287422238781031   T   T   T
  0.1553006213541544  0.4658653395923200  0.6269593217277332   T   T   T
  0.1540243364795129  0.4329642500029590  0.5958298291655345   T   T   T
  0.1635939692028742  0.3631594557166847  0.5940067881088483   T   T   T
  0.1731779548619536  0.3342082793121282  0.5628420598599583   T   T   T
  0.2039479692638864  0.2831849874683883  0.5610128101781697   T   T   T
  0.2214193988513130  0.2668020388993791  0.5298238621005906   T   T   T
  0.2641907602259544  0.2500346241573470  0.5279635384331083   T   T   T
  0.2843127290062527  0.2511171125659398  0.4968563522450560   T   T   T
  0.3261705363095441  0.2737070835681664  0.4950151863841991   T   T   T
  0.3428802904110411  0.2918736745009557  0.4639089346211421   T   T   T
  0.3720708875818038  0.3453480904777305  0.4621359948011437   T   T   T
  0.3814706004157388  0.3740018465620945  0.4307071474889587   T   T   T
  0.3887689746387154  0.4447209963304419  0.4286757178427675   T   T   T
  0.3857671667139911  0.4773116202368023  0.3976093152152018   T   T   T
  0.3505888972084908  0.5784397937933589  0.8192498399706167   T   T   T
  0.3345944444845598  0.5986496247713411  0.7880907879157132   T   T   T
  0.2938110995283294  0.6254883037548461  0.7862560927510160   T   T   T
  0.2736744505350775  0.6290026619952294  0.7550892872855134   T   T   T
  0.2303009970470975  0.6169497266071033  0.7532634106911904   T   T   T
  0.2120452506683263  0.6026743057136402  0.7220926307179011   T   T   T
  0.1789925857895754  0.5554513163726641  0.7203072372139658   T   T   T
  0.1679444245830984  0.5277674737900826  0.6891791809301372   T   T   T
  0.1549445631704682  0.4594393830034356  0.6873966219283149   T   T   T
  0.1544160262845856  0.4264745962522014  0.6562615226699867   T   T   T
  0.1654856584575007  0.3572934108534388  0.6544389222967611   T   T   T
  0.1756503504977733  0.3288670098624431  0.6232758156122260   T   T   T
  0.2075174986237930  0.2795404476660980  0.6214428945004552   T   T   T
  0.2253694875748622  0.2642653531019286  0.5902788752324561   T   T   T
  0.2684495559967315  0.2497368104616521  0.5884173440313446   T   T   T
  0.2885774578490922  0.2525018605625357  0.5572280732731368   T   T   T
  0.3298300570347460  0.2768973960133940  0.5553551617906480   T   T   T
  0.3462044762916922  0.2962586454374719  0.5241803115348476   T   T   T
  0.3743134446377655  0.3514327486087797  0.5221870358728857   T   T   T
  0.3831851506438647  0.3799551332055982  0.4912990778772675   T   T   T
  0.3950996046987116  0.4510465641913896  0.4890824767509248   T   T   T
  0.3862172093450733  0.4840100821840381  0.4576647962257475   T   T   T
  0.3475914982403112  0.5828531079788399  0.8796771312466305   T   T   T
  0.3311731617389251  0.6021452709193961  0.8485218368016733   T   T   T
  0.2898427992452144  0.6266685213017144  0.8466989900490336   T   T   T
  0.2696330072062137  0.6290579430439314  0.8155367339128587   T   T   T
  0.2265440111089917  0.6146070983068957  0.8137064198701428   T   T   T
  0.2085745199968433  0.5993865766608703  0.7825448741208376   T   T   T
  0.1765567044688544  0.5503090667091255  0.7807535994691843   T   T   T
  0.1661655926821534  0.5220058169094366  0.7496100018428117   T   T   T
  0.1546886086403457  0.4529847370670735  0.7478191646800890   T   T   T
  0.1548835195968082  0.4200232194123012  0.7166789445467309   T   T   T
  0.1674249950306364  0.3514802388885980  0.7148628007145018   T   T   T
  0.1782339304538301  0.3236571670453193  0.6837136671687563   T   T   T
  0.2110840864250895  0.2760774182545822  0.6818850056887392   T   T   T
  0.2292891251190921  0.2617880518425251  0.6507080065770164   T   T   T
  0.2726011651288095  0.2493489044616098  0.6488455904839203   T   T   T
  0.2927043471226736  0.2528778968441434  0.6176607760833244   T   T   T
  0.3336503304318703  0.2791624835720443  0.6158258758337957   T   T   T
  0.3496396134029441  0.2995747898694846  0.5847295011645232   T   T   T
  0.3761440080718082  0.3566043323000188  0.5830123710371319   T   T   T
  0.3835420212678822  0.3880622186970003  0.5519870919346100   T   T   T
  0.3883294838096997  0.4581476755835915  0.5506351539046801   T   T   T
  0.3901076315327198  0.4932730808787104  0.5193273485314720   T   T   T
  0.3444892762764964  0.5870676384787114  0.9401133923965129   T   T   T
  0.3276722372532020  0.6054297215739094  0.9089541755344613   T   T   T
  0.2858472146992893  0.6276192473501536  0.9071346943892550   T   T   T
  0.2656007010916802  0.6288866148432366  0.8759765098188743   T   T   T
  0.2228418414617721  0.6120246628835159  0.8741470129782140   T   T   T
  0.2052040768391727  0.5958082961723343  0.8429924063531246   T   T   T
  0.1742509835668486  0.5449858548584822  0.8411943901418271   T   T   T
  0.1644606537586170  0.5161344314803759  0.8100409674911073   T   T   T
  0.1544881868235956  0.4464868685052273  0.8082403894993270   T   T   T
  0.1554285659627796  0.4135654384752570  0.7771033592435681   T   T   T
  0.1694071353066559  0.3457624587014395  0.7752961746720591   T   T   T
  0.1808298703261228  0.3185637068516120  0.7441419220892516   T   T   T
  0.2146195986589102  0.2727825985812206  0.7423197077263013   T   T   T
  0.2331176592567274  0.2594175312933142  0.7111533680475449   T   T   T
  0.2766791258876048  0.2492777037741024  0.7093117115512473   T   T   T
  0.2967373128544565  0.2537674980461749  0.6781578604565076   T   T   T
  0.3370943525564236  0.2822665415046886  0.6763712684411924   T   T   T
  0.3527410086034362  0.3033017641590879  0.6452236797300395   T   T   T
  0.3779164191401159  0.3618196139498452  0.6435107906712183   T   T   T
  0.3845501666472104  0.3931064754086072  0.6123789095464315   T   T   T
  0.3870898812039747  0.4643559105584766  0.6107265461433906   T   T   T
  0.3831922960790007  0.4967055625720034  0.5796745869565312   T   T   T
  0.3412835251800057  0.5910904954770145  0.0005511475916025   T   T   T
  0.3241009491951791  0.6085150346948517  0.9693898342728198   T   T   T
  0.2818276737773828  0.6283521974466932  0.9675696720892368   T   T   T
  0.2615693696777572  0.6284821328219805  0.9364142405280307   T   T   T
  0.2191943790607557  0.6092357659628589  0.9345873898278824   T   T   T
  0.2019124644840191  0.5920397959135517  0.9034310544382651   T   T   T
  0.1720567335265368  0.5395178223603012  0.9016296638217847   T   T   T
  0.1628864842586120  0.5101430417399385  0.8704787335608418   T   T   T
  0.1543998927740685  0.4399796443212573  0.8686696868708347   T   T   T
  0.1560592090533048  0.4071324487715220  0.8375277625098256   T   T   T
  0.1714634231727721  0.3401615384896446  0.8357266186037594   T   T   T
  0.1834539846471323  0.3135957887732005  0.8045748009749424   T   T   T
  0.2181945692722527  0.2697060459497022  0.8027598597195453   T   T   T
  0.2369701109432206  0.2573508407431429  0.7716080837699735   T   T   T
  0.2807152951686344  0.2496381751166664  0.7697864359634718   T   T   T
  0.3006814160628414  0.2552030818693412  0.7386226269238221   T   T   T
  0.3403807800506862  0.2859719170585807  0.7368371457679782   T   T   T
  0.3556057616116691  0.3077248443957937  0.7056772780982530   T   T   T
  0.3794873594630307  0.3677719959857708  0.7039141121152256   T   T   T
  0.3854737761827682  0.3992724963858040  0.6727975344874799   T   T   T
  0.3864351039326350  0.4707711418542755  0.6710609364430596   T   T   T
  0.3813671282576349  0.5027376993908768  0.6399600581379796   T   T   T
  0.2575401647516005  0.6278497869466930  0.9968473928592617   T   T   T
  0.2155988633533069  0.6062460556572506  0.9950267395402156   T   T   T
  0.1986953678020167  0.5880968701050883  0.9638689264930347   T   T   T
  0.1699659135199911  0.5339370540893790  0.9620649930434523   T   T   T
  0.1614289692401497  0.5040608818295994  0.9309156355382204   T   T   T
  0.1544369230149293  0.4334709795091258  0.9291018339189882   T   T   T
  0.1567993640145615  0.4007440619236068  0.8979549199196959   T   T   T
  0.1736202405976706  0.3346741342902499  0.8961586324235348   T   T   T
  0.1861750384496878  0.3088002201428331  0.8650125809554281   T   T   T
  0.2218206938505460  0.2668788134975696  0.8632004065760704   T   T   T
  0.2408588636376653  0.2555736593221190  0.8320498294071553   T   T   T
  0.2847333979296185  0.2503151693254698  0.8302392904372480   T   T   T
  0.3045756041345265  0.2569332394709390  0.7990761433629577   T   T   T
  0.3436082537406359  0.2899298653864646  0.7972816610289089   T   T   T
  0.3583454502376380  0.3125084329345837  0.7661326441158931   T   T   T
  0.3809158443534298  0.3738905951372440  0.7643420395761892   T   T   T
  0.3861810928021780  0.4056988242145904  0.7332035432209165   T   T   T
  0.3856339962332431  0.4771774604645576  0.7314301414301274   T   T   T
  0.3798987578554365  0.5087753453116425  0.7002897561850644   T   T   T
  0.1600933333201780  0.4979086708559724  0.9913498601777099   T   T   T
  0.1546027366580967  0.4269667766867496  0.9895353067495609   T   T   T
  0.1576594418023129  0.3943887359567756  0.9583872014899366   T   T   T
  0.1758745989232738  0.3292994695263871  0.9565915993650417   T   T   T
  0.1889810089341746  0.3041483411893161  0.9254459721234898   T   T   T
  0.2254945126668722  0.2642539349689925  0.9236328011975915   T   T   T
  0.2447641459707719  0.2540129718895326  0.8924848663572644   T   T   T
  0.2887299903072543  0.2512261633611904  0.8906808405250216   T   T   T
  0.3084242214647480  0.2589493870703981  0.8595266910900651   T   T   T
  0.3467368418191886  0.2941153829547374  0.8577234382197937   T   T   T
  0.3609830710970756  0.3175099402089473  0.8265704406526364   T   T   T
  0.3822320188170071  0.3801123226495320  0.8247660459623972   T   T   T
  0.3868187488736319  0.4121752400987194  0.7936149988712001   T   T   T
  0.3847430129613683  0.4835987249028583  0.7918215944874410   T   T   T
  0.3783231534462118  0.5148322959685542  0.7606835201892663   T   T   T
  0.1918723480395563  0.2996614081899888  0.9858771016443847   T   T   T
  0.2292106272756833  0.2618320618826074  0.9840625454835826   T   T   T
  0.2486907007654018  0.2526749811532346  0.9529183067742851   T   T   T
  0.2926920024951841  0.2523555760191781  0.9511192242062223   T   T   T
  0.3122158176568470  0.2612022515718643  0.9199676123886743   T   T   T
  0.3497543315276108  0.2984952328151408  0.9181568418679708   T   T   T
  0.3635104173131216  0.3226586353351630  0.8870039927575357   T   T   T
  0.3834239340203213  0.3864168842227301  0.8851948821868010   T   T   T
  0.3873243803028267  0.4187135928850536  0.8540420846613586   T   T   T
  0.3837227976888354  0.4899761083873619  0.8522371161135085   T   T   T
  0.3766265364533462  0.5208102939894782  0.8210879581504118   T   T   T
  0.3159531003204526  0.2636251308595724  0.9804018263305104   T   T   T
  0.3526800292092592  0.3030066405464228  0.9785869513362758   T   T   T
  0.3659149850319272  0.3279456474444220  0.9474380650344860   T   T   T
  0.3844766747339070  0.3927717178324760  0.9456303138534184   T   T   T
  0.3876936272459096  0.4252764279809901  0.9144735348920511   T   T   T
  0.3825899376262522  0.4962934157823338  0.9126603382385048   T   T   T
  0.3748442093670214  0.5267154833277794  0.8815077254827027   T   T   T
  0.3879175451405562  0.4318364853312850  0.9749088755907125   T   T   T
  0.3813048787240725  0.5025274115736402  0.9730902471337517   T   T   T
  0.3729270784761725  0.5325016552484348  0.9419378531095185   T   T   T
  0.4517389379274518  0.4790509270469078  0.5038576275684927   T   T   T
  0.4705610297638381  0.4270380989101621  0.5255484922001680   T   T   T
 
  0.00000000E+00  0.00000000E+00  0.00000000E+00
  0.00000000E+00  0.00000000E+00  0.00000000E+00
  0.00000000E+00  0.00000000E+00  0.00000000E+00
  0.00000000E+00  0.00000000E+00  0.00000000E+00
  0.00000000E+00  0.00000000E+00  0.00000000E+00
  0.00000000E+00  0.00000000E+00  0.00000000E+00
  0.00000000E+00  0.00000000E+00  0.00000000E+00
  0.00000000E+00  0.00000000E+00  0.00000000E+00
  0.00000000E+00  0.00000000E+00  0.00000000E+00
  0.00000000E+00  0.00000000E+00  0.00000000E+00
  0.00000000E+00  0.00000000E+00  0.00000000E+00
  0.00000000E+00  0.00000000E+00  0.00000000E+00
  0.00000000E+00  0.00000000E+00  0.00000000E+00
  0.00000000E+00  0.00000000E+00  0.00000000E+00
  0.00000000E+00  0.00000000E+00  0.00000000E+00
  0.00000000E+00  0.00000000E+00  0.00000000E+00
  0.00000000E+00  0.00000000E+00  0.00000000E+00
  0.00000000E+00  0.00000000E+00  0.00000000E+00
  0.00000000E+00  0.00000000E+00  0.00000000E+00
  0.00000000E+00  0.00000000E+00  0.00000000E+00
  0.00000000E+00  0.00000000E+00  0.00000000E+00
  0.00000000E+00  0.00000000E+00  0.00000000E+00
  0.00000000E+00  0.00000000E+00  0.00000000E+00
  0.00000000E+00  0.00000000E+00  0.00000000E+00
  0.00000000E+00  0.00000000E+00  0.00000000E+00
  0.00000000E+00  0.00000000E+00  0.00000000E+00
  0.00000000E+00  0.00000000E+00  0.00000000E+00
  0.00000000E+00  0.00000000E+00  0.00000000E+00
  0.00000000E+00  0.00000000E+00  0.00000000E+00
  0.00000000E+00  0.00000000E+00  0.00000000E+00
  0.00000000E+00  0.00000000E+00  0.00000000E+00
  0.00000000E+00  0.00000000E+00  0.00000000E+00
  0.00000000E+00  0.00000000E+00  0.00000000E+00
  0.00000000E+00  0.00000000E+00  0.00000000E+00
  0.00000000E+00  0.00000000E+00  0.00000000E+00
  0.00000000E+00  0.00000000E+00  0.00000000E+00
  0.00000000E+00  0.00000000E+00  0.00000000E+00
  0.00000000E+00  0.00000000E+00  0.00000000E+00
  0.00000000E+00  0.00000000E+00  0.00000000E+00
  0.00000000E+00  0.00000000E+00  0.00000000E+00
  0.00000000E+00  0.00000000E+00  0.00000000E+00
  0.00000000E+00  0.00000000E+00  0.00000000E+00
  0.00000000E+00  0.00000000E+00  0.00000000E+00
  0.00000000E+00  0.00000000E+00  0.00000000E+00
  0.00000000E+00  0.00000000E+00  0.00000000E+00
  0.00000000E+00  0.00000000E+00  0.00000000E+00
  0.00000000E+00  0.00000000E+00  0.00000000E+00
  0.00000000E+00  0.00000000E+00  0.00000000E+00
  0.00000000E+00  0.00000000E+00  0.00000000E+00
  0.00000000E+00  0.00000000E+00  0.00000000E+00
  0.00000000E+00  0.00000000E+00  0.00000000E+00
  0.00000000E+00  0.00000000E+00  0.00000000E+00
  0.00000000E+00  0.00000000E+00  0.00000000E+00
  0.00000000E+00  0.00000000E+00  0.00000000E+00
  0.00000000E+00  0.00000000E+00  0.00000000E+00
  0.00000000E+00  0.00000000E+00  0.00000000E+00
  0.00000000E+00  0.00000000E+00  0.00000000E+00
  0.00000000E+00  0.00000000E+00  0.00000000E+00
  0.00000000E+00  0.00000000E+00  0.00000000E+00
  0.00000000E+00  0.00000000E+00  0.00000000E+00