 C  S  O                                
    1.000000000000000     
    32.3722991942999982    0.0000000000000000    0.0000000000000000
     0.0000000000000000   19.9214134216000005    0.0000000000000000
     0.0000000000000000    0.0000000000000000   40.4480476378999967
   C    S    O 
   364     1     1
Selective dynamics
Direct
  0.3708258701683277  0.5381178943921247  0.0023652875293554   T   T   T
  0.3686367767514964  0.5436493707870943  0.0627905563774265   T   T   T
  0.3379690438969727  0.5949270594733016  0.0609818553347297   T   T   T
  0.3204299447894859  0.6113793156060533  0.0298258853110991   T   T   T
  0.2777670183051787  0.6288612496297973  0.0280064430960281   T   T   T
  0.3663311771157082  0.5490592932135908  0.1232113203945918   T   T   T
  0.3346046321822075  0.5986046390541657  0.1214132426977066   T   T   T
  0.3167229292133580  0.6140670520377562  0.0902590406384804   T   T   T
  0.2737139096683098  0.6291450505667350  0.0884409737479981   T   T   T
  0.2535023634054266  0.6270174100688606  0.0572849914539493   T   T   T
  0.2120388840395014  0.6030903852389570  0.0554722406385573   T   T   T
  0.1955342891421148  0.5839974714958369  0.0243127462754915   T   T   T
  0.1679749421701680  0.5282566359354141  0.0225039666338925   T   T   T
  0.3639155442528590  0.5543309278954106  0.1836236362643810   T   T   T
  0.3311704512434304  0.6020817052954825  0.1818401603937732   T   T   T
  0.3129723471455499  0.6165511093605145  0.1506917601477742   T   T   T
  0.2696667237972440  0.6292166810675509  0.1488827527711633   T   T   T
  0.2495091610831261  0.6259469592782114  0.1177278494066165   T   T   T
  0.2085827442385394  0.5997000366578403  0.1159226565599848   T   T   T
  0.1924881745479368  0.5797007737367522  0.0847599694700010   T   T   T
  0.1661340232266671  0.5224468434531108  0.0829445961043993   T   T   T
  0.1588758987098388  0.4916955657753451  0.0517916119777409   T   T   T
  0.1548957717627614  0.4204828694516116  0.0499776208843073   T   T   T
  0.1586356751185732  0.3880982360264980  0.0188253195821225   T   T   T
  0.1782082471859465  0.3240600168147738  0.0170247153173064   T   T   T
  0.3614514798851381  0.5594759128759883  0.2440312206662768   T   T   T
  0.3277047032590745  0.6053687901256779  0.2422694837212626   T   T   T
  0.3091839381772961  0.6188046268984523  0.2111320319457090   T   T   T
  0.2656382369194892  0.6290240892124411  0.2093368262351749   T   T   T
  0.2455527641767151  0.6246424762649263  0.1781747690630141   T   T   T
  0.2052144451776093  0.5961011089793360  0.1763749875982324   T   T   T
  0.1895425175423983  0.5752327460813352  0.1452126918029660   T   T   T
  0.1644204878791851  0.5165255434564883  0.1433893238860774   T   T   T
  0.1578251651499921  0.4853877085428490  0.1122350812920138   T   T   T
  0.1553533301527981  0.4139974435021926  0.1104202963659043   T   T   T
  0.1597697191640310  0.3818467700885940  0.0792630657827110   T   T   T
  0.1806752699528313  0.3189304017569429  0.0774562288580028   T   T   T
  0.1948099928235616  0.2953052728268587  0.0463091647221516   T   T   T
  0.2329185891221752  0.2595614331283975  0.0444936021592076   T   T   T
  0.2525869685233090  0.2515105446850798  0.0133469324451611   T   T   T
  0.2965658469807280  0.2536444065741102  0.0115464207950856   T   T   T
  0.3710502192712330  0.5379291489348188  0.3355453631211170   T   T   T
  0.3589503945753205  0.5644863369894062  0.3044428857049470   T   T   T
  0.3242292185690135  0.6083962614908931  0.3027145720539494   T   T   T
  0.3053911051473830  0.6207825036344927  0.2715730227277403   T   T   T
  0.2616606793508993  0.6284922798606727  0.2697963081840546   T   T   T
  0.2416569105403188  0.6230598576771246  0.2386382458380887   T   T   T
  0.2019403870875293  0.5922654592694301  0.2368349889838822   T   T   T
  0.1867187128396324  0.5705513033924945  0.2056727391881242   T   T   T
  0.1628558739149615  0.5104762391411460  0.2038371543393604   T   T   T
  0.1569179020843920  0.4790051263554452  0.1726751170683814   T   T   T
  0.1559515227947956  0.4075240249983136  0.1708587875473221   T   T   T
  0.1610333900680698  0.3756471834326738  0.1397037893383704   T   T   T
  0.1832507944224989  0.3139208412433895  0.1378916715031621   T   T   T
  0.1978790309795028  0.2911145050636289  0.1067416889925369   T   T   T
  0.2367180191218169  0.2575191472493378  0.1049279099470040   T   T   T
  0.2565440716150535  0.2505792248854012  0.0737777847115503   T   T   T
  0.3004539252430032  0.2551796432095097  0.0719745658719538   T   T   T
  0.3195665079042346  0.2662068728636878  0.0408300531092012   T   T   T
  0.3554345896125404  0.3076207907042547  0.0390101531712812   T   T   T
  0.3681426078144341  0.3332970890708167  0.0078633141203948   T   T   T
  0.3853220276745137  0.3991208023270963  0.0060579872119787   T   T   T
  0.3691351447293258  0.5432818023105185  0.3959586863460944   T   T   T
  0.3564151228950557  0.5692667123185438  0.3648344152359754   T   T   T
  0.3207497818548620  0.6109637331218900  0.3631567802215473   T   T   T
  0.3016311520100021  0.6224383218033124  0.3320415672748823   T   T   T
  0.2577360100367364  0.6275771323942528  0.3302730778382392   T   T   T
  0.2378482336829201  0.6210893900925305  0.2991253930701259   T   T   T
  0.1988008645423933  0.5881099130208268  0.2973040759748541   T   T   T
  0.1840175840669142  0.5656447067171695  0.2661280043853393   T   T   T
  0.1614101481679763  0.5043138520329751  0.2642790385035259   T   T   T
  0.1561255277573949  0.4725587827778978  0.2331143433672788   T   T   T
  0.1566552928128168  0.4010564336636044  0.2312947170279561   T   T   T
  0.1624316613123349  0.3694995830363531  0.2001432735572685   T   T   T
  0.1859342653525161  0.3090487235313110  0.1983282785603544   T   T   T
  0.2010280686044743  0.2870725709577672  0.1671740965394508   T   T   T
  0.2405527498051992  0.2556518615540720  0.1653687085130156   T   T   T
  0.2605144675355141  0.2498403861639333  0.1342158167078936   T   T   T
  0.3042997368438771  0.2569056240773260  0.1324076931211718   T   T   T
  0.3231720653892888  0.2690054584747689  0.1012606826584836   T   T   T
  0.3581366553983636  0.3124065471944610  0.0994367298640760   T   T   T
  0.3702978378836072  0.3387870073731278  0.0682910614943252   T   T   T
  0.3860702492868371  0.4055364265193155  0.0664853296570133   T   T   T
  0.3879267466851035  0.4383415854076313  0.0353384307322683   T   T   T
  0.3798244418821861  0.5086199496018213  0.0335164451197702   T   T   T
  0.3673679796842654  0.5474684939906038  0.4563912666688679   T   T   T
  0.3538808647763995  0.5731975374390731  0.4253588088266721   T   T   T
  0.3171891808673594  0.6126423107805232  0.4236564363791824   T   T   T
  0.2978746908234065  0.6233403850165218  0.3925866747064494   T   T   T
  0.2538824234920833  0.6260235237164707  0.3907750279864514   T   T   T
  0.2341233656134402  0.6186455038228552  0.3595984417601421   T   T   T
  0.1957681056299238  0.5836530096123218  0.3577526568685068   T   T   T
  0.1814284211674055  0.5604944042010527  0.3265745511679572   T   T   T
  0.1600388930164786  0.4980003161117240  0.3247177281204494   T   T   T
  0.1554357550122805  0.4660134601268215  0.2935519705831106   T   T   T
  0.1574340723768239  0.3945820955837105  0.2917273889323166   T   T   T
  0.1639087589230852  0.3633906511966013  0.2605707167304460   T   T   T
  0.1886892247334889  0.3043104149861668  0.2587552944284232   T   T   T
  0.2042578197440707  0.2831945546286966  0.2276135647990702   T   T   T
  0.2444373076707626  0.2540000230800453  0.2258223987966340   T   T   T
  0.2645030054902848  0.2493158122995332  0.1946585420157202   T   T   T
  0.3081067566125578  0.2588437660420186  0.1928441188217560   T   T   T
  0.3267062853919043  0.2719933710091808  0.1616915391534194   T   T   T
  0.3607289126426581  0.3173384227759702  0.1598628090857485   T   T   T
  0.3723242274852789  0.3443898777347554  0.1287174650947199   T   T   T
  0.3866603847127587  0.4119869559611093  0.1269052432694743   T   T   T
  0.3878283668259324  0.4448839547050229  0.0957614510522460   T   T   T
  0.3782505647947465  0.5146667435468532  0.0939382630061442   T   T   T
  0.3656580889387953  0.5549383840330150  0.5171195314886287   T   T   T
  0.3511606990374695  0.5770095146681200  0.4862314703244072   T   T   T
  0.3133788611550807  0.6135977205262302  0.4842080879862836   T   T   T
  0.2939104989689009  0.6231273828381696  0.4530383470466377   T   T   T
  0.2500263531407184  0.6239390249758652  0.4511947541718496   T   T   T
  0.2304123574258408  0.6158344960729685  0.4200273531621705   T   T   T
  0.1926790997155609  0.5790480141498021  0.4181756150027596   T   T   T
  0.1788673032068325  0.5551471362541986  0.3870165410995825   T   T   T
  0.1587065315640188  0.4915860549324784  0.3851618808238453   T   T   T
  0.1548047953500371  0.4593796043990095  0.3539804940842709   T   T   T
  0.1582760635491257  0.3881186430464997  0.3521523465070360   T   T   T
  0.1654244677402039  0.3573204325891917  0.3210021088865195   T   T   T
  0.1914926819389711  0.2996894244635889  0.3191900824616568   T   T   T
  0.2075524912751465  0.2795265203177514  0.2880573967435735   T   T   T
  0.2483429611364134  0.2526834525250665  0.2862787881804221   T   T   T
  0.2684961469773133  0.2490557649670438  0.2551101240734722   T   T   T
  0.3118811031186289  0.2610367629834672  0.2532910147617290   T   T   T
  0.3301808990851730  0.2751955514749321  0.2221313113284761   T   T   T
  0.3632152011250758  0.3224307438592900  0.2202919738776176   T   T   T
  0.3742219265630661  0.3501093623490442  0.1891362643846388   T   T   T
  0.3871152045099814  0.4184601485743941  0.1873096092706219   T   T   T
  0.3875846747233733  0.4514085275782627  0.1561721693057502   T   T   T
  0.3765450707327846  0.5206216497694687  0.1543537874887763   T   T   T
  0.3624664537227240  0.5598019338701345  0.5777025260738342   T   T   T
  0.3480201128814172  0.5819039038685422  0.5462295340613392   T   T   T
  0.3094669907097478  0.6164975032824691  0.5444408285453385   T   T   T
  0.2898905690039730  0.6243090862467821  0.5133833363160430   T   T   T
  0.2458047526187150  0.6229545891626237  0.5115570219886970   T   T   T
  0.2265499149604402  0.6131135625731220  0.4804689311493968   T   T   T
  0.1895734709766047  0.5744416378076995  0.4786107532675497   T   T   T
  0.1763211004006218  0.5496892031884506  0.4474309659466855   T   T   T
  0.1575037210215176  0.4851354648087612  0.4455942599627843   T   T   T
  0.1542325476262935  0.4527238778005435  0.4144222637003345   T   T   T
  0.1592088881359239  0.3816579682532957  0.4125966133503385   T   T   T
  0.1670383664614952  0.3513086840109361  0.3814490257404706   T   T   T
  0.1943501052628313  0.2952307708950502  0.3796358559994626   T   T   T
  0.2108837249757035  0.2760537041932358  0.3484912680440823   T   T   T
  0.2522553349833425  0.2517112572716574  0.3467124341410672   T   T   T
  0.2724858875283793  0.2491666269222463  0.3155777939292601   T   T   T
  0.3156246112688544  0.2635628720536775  0.3137669076890504   T   T   T
  0.3335930985430204  0.2786810025179516  0.2825698739540413   T   T   T
  0.3656049826183525  0.3276949275172775  0.2807097982973651   T   T   T
  0.3760270367288613  0.3559375039126030  0.2495484022385555   T   T   T
  0.3874941697434690  0.4249669934911728  0.2476985111419314   T   T   T
  0.3872338373379274  0.4579179656456432  0.2165701122585053   T   T   T
  0.3747468875624309  0.5264758266287836  0.2147625469904349   T   T   T
  0.3593154179403024  0.5644620191113179  0.6380462049458296   T   T   T
  0.3448982950863847  0.5872571556947815  0.6067475901779198   T   T   T
  0.3056924623541373  0.6201723300257774  0.6048936605560348   T   T   T
  0.2858508156360254  0.6260763686322420  0.5737454868785891   T   T   T
  0.2419563731853608  0.6216693876791280  0.5719424590625306   T   T   T
  0.2227757543916901  0.6107812612278862  0.5408137744313032   T   T   T
  0.1866684442537637  0.5698724496014019  0.5390005515803481   T   T   T
  0.1738277320551709  0.5444086992269657  0.5078843936930374   T   T   T
  0.1563891328040108  0.4786619771874143  0.5060620495789416   T   T   T
  0.1538649875963023  0.4460636941609144  0.4749092873751793   T   T   T
  0.1603720397128393  0.3753447045701913  0.4730749067941230   T   T   T
  0.1688113722032534  0.3454270594810132  0.4418971916143906   T   T   T
  0.1973149848180201  0.2909801476742347  0.4400759620024248   T   T   T
  0.2142102460511094  0.2727076341430324  0.4089375237770188   T   T   T
  0.2561550499423785  0.2509089429213288  0.4071448055188829   T   T   T
  0.2764680207462186  0.2497412002863895  0.3760374053466177   T   T   T
  0.3192471250649353  0.2666313404992226  0.3742360778542488   T   T   T
  0.3369535381520125  0.2824123933036200  0.3430083433547863   T   T   T
  0.3680257412578489  0.3330834854159694  0.3411371927914403   T   T   T
  0.3777677475394475  0.3618880530180639  0.3099632584654982   T   T   T
  0.3877986505023813  0.4314908638045999  0.3080721413448200   T   T   T
  0.3868117680782485  0.4644237733091760  0.2769398680689310   T   T   T
  0.3728991350245137  0.5322325119886310  0.2751545216216798   T   T   T
  0.3563897759116161  0.5692055607583477  0.6984254627816845   T   T   T
  0.3413673203515111  0.5912141422034025  0.6672586339312757   T   T   T
  0.3017553199381190  0.6223797500115861  0.6653756557192372   T   T   T
  0.2818527363379301  0.6277610157381477  0.6341343061860120   T   T   T
  0.2380517330005318  0.6204550267192912  0.6323414985056013   T   T   T
  0.2191659056079555  0.6082875939892928  0.6012371468442489   T   T   T
  0.1840046780593234  0.5652020704308313  0.5994409424155386   T   T   T
  0.1717244829787810  0.5388694150043597  0.5683211607431978   T   T   T
  0.1557515526318986  0.4722743158445810  0.5665218784848546   T   T   T
  0.1537596249182817  0.4394885628533970  0.5353557517233994   T   T   T
  0.1618183891296449  0.3691740328292794  0.5335220356273024   T   T   T
  0.1707468147072148  0.3397034199247014  0.5023743731755207   T   T   T
  0.2004778127485636  0.2868590264130794  0.5005466457897394   T   T   T
  0.2177240732583841  0.2696743105405409  0.4694035246489747   T   T   T
  0.2601064802425875  0.2504397347069250  0.4675929640518612   T   T   T
  0.2803798386918786  0.2505188251280214  0.4364374013725591   T   T   T
  0.3226442549052521  0.2702544967841818  0.4346080158825958   T   T   T
  0.3401495740058157  0.2866855500866248  0.4034920476054278   T   T   T
  0.3704895824325849  0.3387910883374410  0.4016646266758048   T   T   T
  0.3795553366821288  0.3679448003347396  0.3703413421788053   T   T   T
  0.3880653341311336  0.4379608148339547  0.3683761787521736   T   T   T
  0.3863695623806465  0.4708802267317351  0.3372871247233473   T   T   T
  0.3535089235400704  0.5738864775147314  0.7588416171526682   T   T   T
  0.3379602074660975  0.5949705956454573  0.7276789278578395   T   T   T
  0.2977794713015738  0.6240467768479103  0.7258147984812146   T   T   T
  0.2777614547000065  0.6286426881652758  0.6946104203412937   T   T   T
  0.2341314451483027  0.6189308299932111  0.6927976543956693   T   T   T
  0.2155946308343320  0.6055697080085967  0.6616573598496567   T   T   T
  0.1814999475676509  0.5603771032948494  0.6598705788580750   T   T   T
  0.1697819320301903  0.5333761524165572  0.6287386949433830   T   T   T
  0.1552646623907906  0.4658580752136137  0.6269569595032209   T   T   T
  0.1539758283332153  0.4329600057083910  0.5958264975085034   T   T   T
  0.1635533886421812  0.3631586823067302  0.5940019839073365   T   T   T
  0.1731470053165905  0.3342231167042256  0.5628356087013014   T   T   T
  0.2039491236174985  0.2832506934794083  0.5610046439293489   T   T   T
  0.2214380766954449  0.2669160899023774  0.5298166640025220   T   T   T
  0.2642196274681091  0.2502126769286727  0.5279577969981752   T   T   T
  0.2843500462283028  0.2513204869248934  0.4968556982265814   T   T   T
  0.3262151466152323  0.2738730704926900  0.4950178687222127   T   T   T
  0.3429492930853671  0.2919947193000809  0.4639147556720583   T   T   T
  0.3722007094285281  0.3453871319131462  0.4621415026600088   T   T   T
  0.3816021662674192  0.3740110174357716  0.4307060116601091   T   T   T
  0.3889081414526017  0.4447244649173650  0.4286717157057378   T   T   T
  0.3858898384993361  0.4773072093448706  0.3976033012552184   T   T   T
  0.3505724792841388  0.5784333137647215  0.8192549717919101   T   T   T
  0.3345851315194296  0.5986490750877596  0.7880953440984485   T   T   T
  0.2938025302969641  0.6254882313395091  0.7862553933040834   T   T   T
  0.2736701912611308  0.6289933756698233  0.7550867807230980   T   T   T
  0.2302979597952416  0.6169326250088391  0.7532580633753201   T   T   T
  0.2120469284190600  0.6026476037751126  0.7220868148566222   T   T   T
  0.1789895077408306  0.5554322797061721  0.7203015381774240   T   T   T
  0.1679352264714372  0.5277513715563394  0.6891748357396382   T   T   T
  0.1549209651867788  0.4594310758948941  0.6873924904928302   T   T   T
  0.1543818244496269  0.4264662676696702  0.6562578287836762   T   T   T
  0.1654521098504463  0.3572857803287668  0.6544328746341388   T   T   T
  0.1756217683651136  0.3288704224925776  0.6232677384766010   T   T   T
  0.2075091734291979  0.2795770664113841  0.6214323338796003   T   T   T
  0.2253756476092124  0.2643447134243483  0.5902675186978558   T   T   T
  0.2684620354693248  0.2498640572391492  0.5884076046497612   T   T   T
  0.2885984555179824  0.2526683384193769  0.5572224262778271   T   T   T
  0.3298561689871246  0.2770438037008939  0.5553551891473031   T   T   T
  0.3462573529402908  0.2963916383243351  0.5241852244814219   T   T   T
  0.3744219206845194  0.3514947058531504  0.5221964237558482   T   T   T
  0.3833534229454886  0.3799891288847926  0.4913069573398117   T   T   T
  0.3952311993722740  0.4510806939219892  0.4890865039227590   T   T   T
  0.3863430105195432  0.4840143012346969  0.4576676706908852   T   T   T
  0.3475680148418249  0.5828404923983336  0.8796801786029107   T   T   T
  0.3311551526824235  0.6021418228342263  0.8485245416465425   T   T   T
  0.2898274055339159  0.6266739473691292  0.8466990473803322   T   T   T
  0.2696210044997991  0.6290605928585220  0.8155351156360287   T   T   T
  0.2265325482227443  0.6146050507690610  0.8137020419696476   T   T   T
  0.2085678966281279  0.5993760823477809  0.7825397303343884   T   T   T
  0.1765499992288901  0.5502993863300161  0.7807478535664023   T   T   T
  0.1661576767467084  0.5219945375575361  0.7496057298964667   T   T   T
  0.1546711517580069  0.4529781487275105  0.7478143040423225   T   T   T
  0.1548586574278687  0.4200149410794489  0.7166747391038119   T   T   T
  0.1673953851344754  0.3514695681350176  0.7148555684753833   T   T   T
  0.1782059200815309  0.3236498858845078  0.6837053887945425   T   T   T
  0.2110649406459151  0.2760871233517005  0.6818737791656696   T   T   T
  0.2292805875523423  0.2618270469348955  0.6506962580491203   T   T   T
  0.2725966767487906  0.2494168978185033  0.6488349998540154   T   T   T
  0.2927079684454891  0.2529818377950396  0.6176531528779228   T   T   T
  0.3336573938844989  0.2792555532266390  0.6158249465748542   T   T   T
  0.3496639390517103  0.2996779894142937  0.5847336478912077   T   T   T
  0.3761973570583999  0.3566701994324848  0.5830240756603756   T   T   T
  0.3836375825408406  0.3881291361447903  0.5519985254568693   T   T   T
  0.3884743149339546  0.4581953419593909  0.5506534445649489   T   T   T
  0.3903088967876989  0.4933803258947005  0.5193320918613085   T   T   T
  0.3444639327431060  0.5870511583239485  0.9401144466703877   T   T   T
  0.3276507564830825  0.6054238050428555  0.9089547557831418   T   T   T
  0.2858284288795814  0.6276278261820877  0.9071352009308482   T   T   T
  0.2655833692000811  0.6288958428771007  0.8759747320646474   T   T   T
  0.2228249525673248  0.6120320933957277  0.8741447522024516   T   T   T
  0.2051905460907939  0.5958090654137770  0.8429885421717290   T   T   T
  0.1742392659900172  0.5449837939747811  0.8411907087058275   T   T   T
  0.1644503965553185  0.5161300520961293  0.8100366557983851   T   T   T
  0.1544717300058406  0.4464842133644281  0.8082358434955458   T   T   T
  0.1554072247593751  0.4135597921076787  0.7770988625184831   T   T   T
  0.1693771320101773  0.3457527112888081  0.7752895315049385   T   T   T
  0.1807994545742405  0.3185516231302977  0.7441348724309551   T   T   T
  0.2145904293400726  0.2727728106028049  0.7423095362613215   T   T   T
  0.2330954982524400  0.2594242313033544  0.7111427918018904   T   T   T
  0.2766590418195519  0.2493005695411531  0.7093018240620022   T   T   T
  0.2967247385833489  0.2538171945978341  0.6781504098670552   T   T   T
  0.3370830529604789  0.2823130031699387  0.6763699657893777   T   T   T
  0.3527452274447795  0.3033601309488094  0.6452277619150656   T   T   T
  0.3779415778020419  0.3618538306162415  0.6435227844817426   T   T   T
  0.3846057153526392  0.3931471342451390  0.6123936179142099   T   T   T
  0.3871654787350699  0.4643930649385944  0.6107428124404896   T   T   T
  0.3832982563624254  0.4967469202768078  0.5796873346543351   T   T   T
  0.3412613319329562  0.5910722529203173  0.0005490728165682   T   T   T
  0.3240802683482296  0.6085075380323107  0.9693888940468737   T   T   T
  0.2818100444911130  0.6283617572881490  0.9675699603904759   T   T   T
  0.2615505504512305  0.6284949209055110  0.9364134657421626   T   T   T
  0.2191759149110130  0.6092483229187843  0.9345874937646752   T   T   T
  0.2018954611464481  0.5920480842352196  0.9034285934371640   T   T   T
  0.1720421236514156  0.5395214817693060  0.9016281222357371   T   T   T
  0.1628732951115715  0.5101444395214864  0.8704752101330671   T   T   T
  0.1543828021234939  0.4399821891494971  0.8686670205476226   T   T   T
  0.1560378117107585  0.4071317027993419  0.8375240695734221   T   T   T
  0.1714312632836253  0.3401542864666540  0.8357220123504198   T   T   T
  0.1834191527136471  0.3135828908379254  0.8045686182267510   T   T   T
  0.2181559488260571  0.2696849208975011  0.8027518878871959   T   T   T
  0.2369362550279115  0.2573355402765468  0.7715993933668713   T   T   T
  0.2806819330940954  0.2496293726041957  0.7697781274628102   T   T   T
  0.3006540863921644  0.2552125108373555  0.7386165985628912   T   T   T
  0.3403537349647498  0.2859834011948423  0.7368359577261457   T   T   T
  0.3555896277284357  0.3077478830152728  0.7056810240871048   T   T   T
  0.3794831435273332  0.3677840052092040  0.7039239005272205   T   T   T
  0.3854933443292834  0.3992919121058832  0.6728119739188180   T   T   T
  0.3864666593044748  0.4707897421394049  0.6710772394136328   T   T   T
  0.3814174394246280  0.5027668539333652  0.6399756294337998   T   T   T
  0.2575244586847505  0.6278630673183949  0.9968485152237535   T   T   T
  0.2155827981272898  0.6062591907324472  0.9950280757236332   T   T   T
  0.1986787958636303  0.5881077453675283  0.9638688033357833   T   T   T
  0.1699527012155088  0.5339436963509980  0.9620654863849658   T   T   T
  0.1614154041575006  0.5040659898736313  0.9309144501767617   T   T   T
  0.1544203157424374  0.4334770926320582  0.9291015098703354   T   T   T
  0.1567777455536833  0.4007483566571748  0.8979523883423590   T   T   T
  0.1735868499098254  0.3346699080150013  0.8961560808046412   T   T   T
  0.1861366777148552  0.3087880389548074  0.8650077259642123   T   T   T
  0.2217750028355382  0.2668515222175242  0.8631950789737886   T   T   T
  0.2408153716596936  0.2555449244664874  0.8320432056222168   T   T   T
  0.2846898146974863  0.2502858004889255  0.8302333178445416   T   T   T
  0.3045364318367237  0.2569150872648229  0.7990710184859645   T   T   T
  0.3435685172175367  0.2899165838848986  0.7972800679124087   T   T   T
  0.3583129125265860  0.3125056295668092  0.7661353428758586   T   T   T
  0.3808882913073594  0.3738833801851925  0.7643496493199141   T   T   T
  0.3861701957161123  0.4056997384060900  0.7332161107076581   T   T   T
  0.3856337870048852  0.4771788508300804  0.7314433558895526   T   T   T
  0.3799150995587829  0.5087867048270154  0.7003040082817317   T   T   T
  0.1600824294323027  0.4979148255771333  0.9913512411210609   T   T   T
  0.1545882791418838  0.4269732342749997  0.9895364194608145   T   T   T
  0.1576392213460218  0.3943944842112606  0.9583866435850001   T   T   T
  0.1758415052689120  0.3292963451165578  0.9565911427638533   T   T   T
  0.1889414420470782  0.3041368744214424  0.9254435925226804   T   T   T
  0.2254463046501855  0.2642225835191648  0.9236301113239220   T   T   T
  0.2447148029686248  0.2539760421011703  0.8924796783879639   T   T   T
  0.2886806573122455  0.2511834207242447  0.8906763115618836   T   T   T
  0.3083771923464955  0.2589144369461712  0.8595218722819093   T   T   T
  0.3466875722532199  0.2940854368609842  0.8577218300435874   T   T   T
  0.3609381047945203  0.3174885273790859  0.8265716366888162   T   T   T
  0.3821890396964914  0.3800903950201026  0.8247708265538856   T   T   T
  0.3867865925007004  0.4121595560476760  0.7936238126218839   T   T   T
  0.3847209333552953  0.4835845055581401  0.7918310316006910   T   T   T
  0.3783149590210607  0.5148284427006248  0.7606949480822399   T   T   T
  0.1918335806759688  0.2996485562596092  0.9858768623291201   T   T   T
  0.2291636955710118  0.2617974954548890  0.9840615290059220   T   T   T
  0.2486406308060604  0.2526328842278107  0.9529150992446277   T   T   T
  0.2926412271887134  0.2523042720483627  0.9511160220756765   T   T   T
  0.3121651091548939  0.2611544496281357  0.9199632489977868   T   T   T
  0.3497014578270635  0.2984539759115502  0.9181542927274392   T   T   T
  0.3634581395200831  0.3226241771113629  0.8870022973424718   T   T   T
  0.3833717484806725  0.3863832985373535  0.8851967049681120   T   T   T
  0.3872789165229309  0.4186855012160461  0.8540465891827583   T   T   T
  0.3836868706435517  0.4899493156472670  0.8522432760365357   T   T   T
  0.3766018207837938  0.5207933488833546  0.8210961898470182   T   T   T
  0.3159030843768378  0.2635709816595546  0.9803978395688399   T   T   T
  0.3526274818991565  0.3029589844304207  0.9785824541707521   T   T   T
  0.3658597969942131  0.3279034340579294  0.9474340584274288   T   T   T
  0.3844195621802514  0.3927303128346216  0.9456285563141903   T   T   T
  0.3876407584476780  0.4252385767731469  0.9144735696988238   T   T   T
  0.3825471667985173  0.4962583721757978  0.9126626157581813   T   T   T
  0.3748098747395627  0.5266887531805148  0.8815110314960360   T   T   T
  0.3878640202531234  0.4317922731579490  0.9749045229079257   T   T   T
  0.3812618165587582  0.5024864448155896  0.9730876889075258   T   T   T
  0.3728896257583662  0.5324688609606224  0.9419371506927732   T   T   T
  0.4517403674875922  0.4800356174880346  0.5039515488757184   T   T   T
  0.4710005165956239  0.4287071764300371  0.5257734612999009   T   T   T
 
  0.00000000E+00  0.00000000E+00  0.00000000E+00
  0.00000000E+00  0.00000000E+00  0.00000000E+00
  0.00000000E+00  0.00000000E+00  0.00000000E+00
  0.00000000E+00  0.00000000E+00  0.00000000E+00
  0.00000000E+00  0.00000000E+00  0.00000000E+00
  0.00000000E+00  0.00000000E+00  0.00000000E+00
  0.00000000E+00  0.00000000E+00  0.00000000E+00
  0.00000000E+00  0.00000000E+00  0.00000000E+00
  0.00000000E+00  0.00000000E+00  0.00000000E+00
  0.00000000E+00  0.00000000E+00  0.00000000E+00
  0.00000000E+00  0.00000000E+00  0.00000000E+00
  0.00000000E+00  0.00000000E+00  0.00000000E+00
  0.00000000E+00  0.00000000E+00  0.00000000E+00
  0.00000000E+00  0.00000000E+00  0.00000000E+00
  0.00000000E+00  0.00000000E+00  0.00000000E+00
  0.00000000E+00  0.00000000E+00  0.00000000E+00
  0.00000000E+00  0.00000000E+00  0.00000000E+00
  0.00000000E+00  0.00000000E+00  0.00000000E+00
  0.00000000E+00  0.00000000E+00  0.00000000E+00
  0.00000000E+00  0.00000000E+00  0.00000000E+00
  0.00000000E+00  0.00000000E+00  0.00000000E+00
  0.00000000E+00  0.00000000E+00  0.00000000E+00
  0.00000000E+00  0.00000000E+00  0.00000000E+00
  0.00000000E+00  0.00000000E+00  0.00000000E+00
  0.00000000E+00  0.00000000E+00  0.00000000E+00
  0.00000000E+00  0.00000000E+00  0.00000000E+00
  0.00000000E+00  0.00000000E+00  0.00000000E+00
  0.00000000E+00  0.00000000E+00  0.00000000E+00
  0.00000000E+00  0.00000000E+00  0.00000000E+00
  0.00000000E+00  0.00000000E+00  0.00000000E+00
  0.00000000E+00  0.00000000E+00  0.00000000E+00
  0.00000000E+00  0.00000000E+00  0.00000000E+00
  0.00000000E+00  0.00000000E+00  0.00000000E+00
  0.00000000E+00  0.00000000E+00  0.00000000E+00
  0.00000000E+00  0.00000000E+00  0.00000000E+00
  0.00000000E+00  0.00000000E+00  0.00000000E+00
  0.00000000E+00  0.00000000E+00  0.00000000E+00
  0.00000000E+00  0.00000000E+00  0.00000000E+00
  0.00000000E+00  0.00000000E+00  0.00000000E+00
  0.00000000E+00  0.00000000E+00  0.00000000E+00
  0.00000000E+00  0.00000000E+00  0.00000000E+00
  0.00000000E+00  0.00000000E+00  0.00000000E+00
  0.00000000E+00  0.00000000E+00  0.00000000E+00
  0.00000000E+00  0.00000000E+00  0.00000000E+00
  0.00000000E+00  0.00000000E+00  0.00000000E+00
  0.00000000E+00  0.00000000E+00  0.00000000E+00
  0.00000000E+00  0.00000000E+00  0.00000000E+00
  0.00000000E+00  0.00000000E+00  0.00000000E+00
  0.00000000E+00  0.00000000E+00  0.00000000E+00
  0.00000000E+00  0.00000000E+00  0.00000000E+00
  0.00000000E+00  0.00000000E+00  0.00000000E+00
  0.00000000E+00  0.00000000E+00  0.00000000E+00
  0.00000000E+00  0.00000000E+00  0.00000000E+00
  0.00000000E+00  0.00000000E+00  0.00000000E+00
  0.00000000E+00  0.00000000E+00  0.00000000E+00
  0.00000000E+00  0.00000000E+00  0.00000000E+00
  0.00000000E+00  0.00000000E+00  0.00000000E+00
  0.00000000E+00  0.00000000E+00  0.00000000E+00
  0.00000000E+00  0.00000000E+00  0.00000000E+00
  0.00000000E+00  0.00000000E+00  0.00000000E+00