 C  S  O                                
    1.000000000000000     
    32.3722991942999982    0.0000000000000000    0.0000000000000000
     0.0000000000000000   19.9214134216000005    0.0000000000000000
     0.0000000000000000    0.0000000000000000   40.4480476378999967
   C    S    O 
   364     1     1
Selective dynamics
Direct
  0.3709591060967696  0.5383088381324939  0.0023923714666694   T   T   T
  0.3687616886701761  0.5438322189037734  0.0628331579240040   T   T   T
  0.3380242297629152  0.5949985254173313  0.0610140974893696   T   T   T
  0.3204746487727874  0.6114021893879595  0.0298538763374339   T   T   T
  0.2777942887814078  0.6287682795452980  0.0280297729775185   T   T   T
  0.3664113959917756  0.5492369423993537  0.1232654790403700   T   T   T
  0.3346167681230128  0.5986653711987131  0.1214446354021845   T   T   T
  0.3167386972115054  0.6140650525324176  0.0902831823819668   T   T   T
  0.2737170148458645  0.6290321966845482  0.0884526570746189   T   T   T
  0.2535198005523185  0.6268717618192312  0.0572989798721366   T   T   T
  0.2120651838172165  0.6029110826768260  0.0554847285341253   T   T   T
  0.1955730820468204  0.5838129274014392  0.0243308429517768   T   T   T
  0.1680193458133274  0.5280678279201965  0.0225240098272579   T   T   T
  0.3638993321306501  0.5545231033784859  0.1836821857394142   T   T   T
  0.3311110685521896  0.6021912030503529  0.1818628848234169   T   T   T
  0.3129349734249942  0.6165740882276651  0.1507039174397065   T   T   T
  0.2696229791486147  0.6291521396857576  0.1488749718067908   T   T   T
  0.2494907136131914  0.6258156144091842  0.1177221999160309   T   T   T
  0.2085715023787600  0.5995523805696834  0.1159156382326145   T   T   T
  0.1924976169867492  0.5795266131667773  0.0847602706218069   T   T   T
  0.1661455570385471  0.5222743154160483  0.0829509024987090   T   T   T
  0.1589133861164385  0.4915038293217862  0.0518052862642264   T   T   T
  0.1549688406228995  0.4202868012301622  0.0499961979841359   T   T   T
  0.1587483987126532  0.3879055145823216  0.0188493277164454   T   T   T
  0.1783895722643365  0.3239234798801434  0.0170509435986546   T   T   T
  0.3612905952651317  0.5597181021152693  0.2440825790410841   T   T   T
  0.3275562591205059  0.6056292589263776  0.2422770150316893   T   T   T
  0.3090737628739575  0.6189562835440157  0.2111238226656553   T   T   T
  0.2655289681125907  0.6291350318345224  0.2093055300537756   T   T   T
  0.2454767217684690  0.6246233754045392  0.1781464808758173   T   T   T
  0.2051481669124513  0.5960581713761357  0.1763506269599304   T   T   T
  0.1895054311626652  0.5751215984751710  0.1451985053004918   T   T   T
  0.1643897759933850  0.5164084641823408  0.1433875555538577   T   T   T
  0.1578252275653895  0.4852318052866380  0.1122401831100532   T   T   T
  0.1553978981499782  0.4138389520429016  0.1104331183313079   T   T   T
  0.1598626540885064  0.3816763724903964  0.0792823693157771   T   T   T
  0.1808447359475878  0.3188276045797380  0.0774791860155020   T   T   T
  0.1950213547013249  0.2952332094960610  0.0463376499222150   T   T   T
  0.2331767845737716  0.2596149146835316  0.0445249833578245   T   T   T
  0.2528576898174606  0.2516075392957973  0.0133786491491676   T   T   T
  0.2968365110784177  0.2538314764186467  0.0115795480202934   T   T   T
  0.3706006794264809  0.5382258002560789  0.3355898190642179   T   T   T
  0.3586344721641410  0.5648217451971860  0.3044732681739006   T   T   T
  0.3240058689605121  0.6089143948652804  0.3027033842999174   T   T   T
  0.3052108435969103  0.6212026847540955  0.2715433489172483   T   T   T
  0.2614836115860086  0.6289226053335142  0.2697479516224917   T   T   T
  0.2415127943198030  0.6232855266504345  0.2385928754517934   T   T   T
  0.2018221371647542  0.5924041657109598  0.2368022004872472   T   T   T
  0.1866382484969336  0.5705617679581607  0.2056514242606724   T   T   T
  0.1628121778020386  0.5104478085234447  0.2038361668554742   T   T   T
  0.1568926261005004  0.4789216830480001  0.1726809098511737   T   T   T
  0.1559809476428171  0.4074380034033993  0.1708730776727023   T   T   T
  0.1611018913569211  0.3755364986728082  0.1397228860867443   T   T   T
  0.1833973983684345  0.3138823193703217  0.1379105000680383   T   T   T
  0.1980735602931958  0.2910978862623992  0.1067671669046533   T   T   T
  0.2369553108479536  0.2576313445977121  0.1049561443573666   T   T   T
  0.2568047608024457  0.2507215438591075  0.0738119478336188   T   T   T
  0.3007133168229856  0.2553980498925341  0.0720150439313798   T   T   T
  0.3198280888444316  0.2664299007397517  0.0408681262229038   T   T   T
  0.3556934041386199  0.3078563754462706  0.0390518117945220   T   T   T
  0.3683960341696704  0.3335288346346701  0.0078952089095381   T   T   T
  0.3855610646971144  0.3993626698964263  0.0060884396798500   T   T   T
  0.3685869869776255  0.5436062765421710  0.3959507078313607   T   T   T
  0.3560009069142964  0.5697198838009712  0.3648298679239801   T   T   T
  0.3204909119418033  0.6117657632467441  0.3631295741019187   T   T   T
  0.3014064617298757  0.6232123732286254  0.3320009444017984   T   T   T
  0.2575122798546730  0.6283926765872820  0.3302263288244731   T   T   T
  0.2376492299086976  0.6216476932765787  0.2990755404717760   T   T   T
  0.1986685582962906  0.5884615341288892  0.2972749086651163   T   T   T
  0.1839273943864583  0.5658154942767837  0.2661117167280551   T   T   T
  0.1614197044245245  0.5043828838051496  0.2642878550563594   T   T   T
  0.1561321572527419  0.4725667755086249  0.2331312588127190   T   T   T
  0.1567184150188865  0.4010615934537185  0.2313165896490830   T   T   T
  0.1625003888045384  0.3694742322869402  0.2001646146467451   T   T   T
  0.1860557830475216  0.3090794507396026  0.1983404867545531   T   T   T
  0.2011900372517630  0.2871164240417770  0.1671926060352718   T   T   T
  0.2407447036640278  0.2557938402042481  0.1653859946834402   T   T   T
  0.2607405210451006  0.2500236804564295  0.1342451176896517   T   T   T
  0.3045249699380292  0.2571378383350833  0.1324476829885128   T   T   T
  0.3234150973155465  0.2692486465077550  0.1013058643574567   T   T   T
  0.3583841439793929  0.3126465555915487  0.0994939153706440   T   T   T
  0.3705521106097009  0.3390228292431701  0.0683413479215886   T   T   T
  0.3863148202127178  0.4057809069910618  0.0665379739155867   T   T   T
  0.3881526910714825  0.4385811722979298  0.0353784834634396   T   T   T
  0.3799909622844169  0.5088412877099913  0.0335524310637112   T   T   T
  0.3668406678730420  0.5476668851498800  0.4563292120519407   T   T   T
  0.3534277628418465  0.5736370592248647  0.4253144371410968   T   T   T
  0.3169546301822095  0.6135457505140494  0.4236287454979006   T   T   T
  0.2976433543077732  0.6243757877249791  0.3925453360008646   T   T   T
  0.2536615331754390  0.6271179706021712  0.3907465452777572   T   T   T
  0.2339057474051671  0.6195268541410215  0.3595627809522242   T   T   T
  0.1956700947767445  0.5841799756496471  0.3577395620972297   T   T   T
  0.1813863234045527  0.5608071126364393  0.3265748741573518   T   T   T
  0.1601794860784764  0.4981403193784999  0.3247419026982357   T   T   T
  0.1555594643098885  0.4661005499325270  0.2935824741478115   T   T   T
  0.1575955193763008  0.3946719731393600  0.2917568432704627   T   T   T
  0.1640165940827742  0.3634442375273466  0.2605938032406243   T   T   T
  0.1887819034688505  0.3043513976429963  0.2587584407999799   T   T   T
  0.2043728619719687  0.2832475927155826  0.2276196659071203   T   T   T
  0.2445569845980060  0.2540685850913533  0.2258209923648522   T   T   T
  0.2646692110878774  0.2494610784850693  0.1946734676503041   T   T   T
  0.3082710969669904  0.2590162382709096  0.1928753159348418   T   T   T
  0.3269051992859318  0.2722182858350166  0.1617397588806355   T   T   T
  0.3609300957894206  0.3175677356024025  0.1599331608582730   T   T   T
  0.3725530499006524  0.3446253598953675  0.1287878013563670   T   T   T
  0.3868753910177389  0.4122364029577739  0.1269814586306879   T   T   T
  0.3880445179364784  0.4451261604420793  0.0958244675754614   T   T   T
  0.3783979387872165  0.5148856992154052  0.0939926340520003   T   T   T
  0.3653320807286704  0.5541992424718529  0.5170619730188335   T   T   T
  0.3508646435623533  0.5773055330748207  0.4860983532041914   T   T   T
  0.3133371659744881  0.6142489279365932  0.4841813453467765   T   T   T
  0.2937834346939425  0.6241807698484578  0.4530194463129078   T   T   T
  0.2498983492915485  0.6250120479266172  0.4511993969820054   T   T   T
  0.2302460040873271  0.6168464933515736  0.4200331205965568   T   T   T
  0.1926653026676846  0.5796216491230197  0.4181916725609369   T   T   T
  0.1789312813921882  0.5555207655548173  0.3870334272352594   T   T   T
  0.1590224412480623  0.4917510708992694  0.3851945816087934   T   T   T
  0.1551008500742270  0.4595130619937038  0.3540170663970272   T   T   T
  0.1585668857697655  0.3882532331416044  0.3521847212125735   T   T   T
  0.1656059775047254  0.3574139853855840  0.3210256110658847   T   T   T
  0.1915448976322480  0.2996314675005891  0.3191855509282888   T   T   T
  0.2075995155739037  0.2794721560610682  0.2880466989568191   T   T   T
  0.2483609212341236  0.2525271216677183  0.2862550666763681   T   T   T
  0.2685736419833233  0.2490239980961917  0.2551065345379016   T   T   T
  0.3119578981575089  0.2610395833114367  0.2533096701682283   T   T   T
  0.3303015927100290  0.2753268413744863  0.2221780571820702   T   T   T
  0.3633092734422405  0.3226226978680202  0.2203709438345882   T   T   T
  0.3743655303811053  0.3503379077104611  0.1892256107306949   T   T   T
  0.3872221150466046  0.4187155610137125  0.1874080997489642   T   T   T
  0.3877323620373545  0.4516564430578924  0.1562595795994497   T   T   T
  0.3766196103643367  0.5208432031797514  0.1544250047968561   T   T   T
  0.3621026742382725  0.5593618535812297  0.5776061792640519   T   T   T
  0.3478989483569705  0.5819514140557231  0.5462529352370353   T   T   T
  0.3094741860477512  0.6170005311589293  0.5444696791971637   T   T   T
  0.2898557766496808  0.6249430984984201  0.5134273296372456   T   T   T
  0.2458067105083899  0.6236542661069890  0.5116035775328527   T   T   T
  0.2265034777152692  0.6138772962126211  0.4804927754476935   T   T   T
  0.1896796394343951  0.5748946421011354  0.4786347580509229   T   T   T
  0.1764832136160734  0.5500379957924721  0.4474505079227669   T   T   T
  0.1579327403769994  0.4852819380454818  0.4456213699986122   T   T   T
  0.1546851578435025  0.4528535444258566  0.4144569934057785   T   T   T
  0.1596032213809053  0.3817755293999952  0.4126278323554544   T   T   T
  0.1672940170393886  0.3513800794320261  0.3814682123576247   T   T   T
  0.1943465416195380  0.2949833882332200  0.3796289065036120   T   T   T
  0.2108354638711418  0.2757472786029354  0.3484698948507727   T   T   T
  0.2521510688826751  0.2511673232398763  0.3466747340356449   T   T   T
  0.2724467994569864  0.2488138421119572  0.3155604764772093   T   T   T
  0.3155777581899386  0.2633261118398735  0.3137752313923201   T   T   T
  0.3335923650957895  0.2786492512856285  0.2826116531601386   T   T   T
  0.3655122088042475  0.3278295987749189  0.2807901335886100   T   T   T
  0.3759960325546743  0.3561456568173895  0.2496515181196202   T   T   T
  0.3873824939689214  0.4252196616326174  0.2478111675568755   T   T   T
  0.3872147721087131  0.4581690243325980  0.2166751413038028   T   T   T
  0.3746775600789363  0.5267062627640371  0.2148425765891488   T   T   T
  0.3591228601358623  0.5643086633638887  0.6379710588630516   T   T   T
  0.3446361270446516  0.5870455227393023  0.6067397141307538   T   T   T
  0.3056087570219077  0.6203131594420057  0.6049185267792012   T   T   T
  0.2858249374255379  0.6265534149336460  0.5737659843908531   T   T   T
  0.2419244905782634  0.6222477969465956  0.5719791513260972   T   T   T
  0.2227625932968778  0.6113823410328081  0.5408576459565921   T   T   T
  0.1867536361985671  0.5702415050738310  0.5390324346765993   T   T   T
  0.1740523219455810  0.5446472775089930  0.5079115829306318   T   T   T
  0.1568263056544481  0.4787748878018121  0.5060824400253026   T   T   T
  0.1543803974138740  0.4461652716125855  0.4749282629035463   T   T   T
  0.1607841878208447  0.3754352549384805  0.4730963432179749   T   T   T
  0.1690894816111523  0.3454255757647999  0.4419154396994927   T   T   T
  0.1972578366430184  0.2905212751657160  0.4400833727638727   T   T   T
  0.2140604902836714  0.2720868111878971  0.4089252967683592   T   T   T
  0.2559261196068547  0.2498699081610525  0.4071127855758263   T   T   T
  0.2763026017785322  0.2489524187081145  0.3760148798641652   T   T   T
  0.3190398643931971  0.2661380448377741  0.3742325499171599   T   T   T
  0.3367818416167836  0.2822008987353044  0.3430448014615592   T   T   T
  0.3676923877690044  0.3331566036885221  0.3412096361517527   T   T   T
  0.3774751762394430  0.3620727307821525  0.3100658843917756   T   T   T
  0.3873803756816372  0.4317236339987147  0.3081776405502694   T   T   T
  0.3865278304605297  0.4646684234279590  0.2770452216158219   T   T   T
  0.3726323431301779  0.5324853028675776  0.2752272791369847   T   T   T
  0.3562971705419855  0.5692172104305726  0.6983734315944687   T   T   T
  0.3412367812055024  0.5911551389147220  0.6672145923918933   T   T   T
  0.3016754073498902  0.6224673534790313  0.6653794456653586   T   T   T
  0.2817727902854870  0.6280440068303577  0.6341729762242991   T   T   T
  0.2379622565919206  0.6209119661432965  0.6323905533803114   T   T   T
  0.2191123577817891  0.6087614647309110  0.6012758062195473   T   T   T
  0.1840339376235249  0.5655199008876650  0.5994709316071152   T   T   T
  0.1718682664562223  0.5391041895690094  0.5683382260690166   T   T   T
  0.1560774947388381  0.4724031905890200  0.5665307766901293   T   T   T
  0.1541873420307809  0.4395965953980863  0.5353700961393315   T   T   T
  0.1621496769828141  0.3692518155120297  0.5335435309327536   T   T   T
  0.1710021796380659  0.3396780246278936  0.5024046546984877   T   T   T
  0.2004086558690901  0.2863454628727808  0.5005844042121339   T   T   T
  0.2175320070311031  0.2688630789493587  0.4694233903703449   T   T   T
  0.2598261385902134  0.2491193544717163  0.4675997449455096   T   T   T
  0.2801019120199513  0.2492299948959840  0.4364197954744071   T   T   T
  0.3222921723113927  0.2693739029998810  0.4345820731966796   T   T   T
  0.3397815366629899  0.2863017041531251  0.4035194092124641   T   T   T
  0.3698792724439883  0.3388411741111597  0.4017220734121167   T   T   T
  0.3789786617774595  0.3680965488451164  0.3704197381358014   T   T   T
  0.3873536637732542  0.4381521874294094  0.3684466493163967   T   T   T
  0.3857963402772526  0.4711035011369447  0.3373708957939883   T   T   T
  0.3534834185046449  0.5739837157692307  0.7588044084380883   T   T   T
  0.3379064800861045  0.5950281752651421  0.7276474311131977   T   T   T
  0.2977265877989126  0.6241444260564180  0.7258245707763606   T   T   T
  0.2776923869763337  0.6287995156240527  0.6946430613328403   T   T   T
  0.2340598038777699  0.6192017314101221  0.6928468537449888   T   T   T
  0.2155070402113353  0.6059385220143199  0.6617020754931033   T   T   T
  0.1814678430880008  0.5606380947164666  0.6599071713272053   T   T   T
  0.1698386641599399  0.5336015721343159  0.6287628134956478   T   T   T
  0.1554557787823896  0.4660050196712220  0.6269718631924732   T   T   T
  0.1542734140066244  0.4330975444042480  0.5958413442138166   T   T   T
  0.1637869150271598  0.3632734191705609  0.5940278800052425   T   T   T
  0.1733266889196088  0.3342286925597051  0.5628731275017245   T   T   T
  0.2039078610984006  0.2829059495315889  0.5610612749659651   T   T   T
  0.2212841142496842  0.2662134113121084  0.5298759095191343   T   T   T
  0.2640135295412804  0.2491156710328966  0.5280165423335248   T   T   T
  0.2840661570115657  0.2500084275086607  0.4968793967944336   T   T   T
  0.3258489573501606  0.2729325325460792  0.4950130910221944   T   T   T
  0.3423908089002552  0.2913507974898906  0.4638944978411672   T   T   T
  0.3710915596628510  0.3454594796951085  0.4621149551231127   T   T   T
  0.3807332173426090  0.3741729442994810  0.4307399067385518   T   T   T
  0.3881003170843584  0.4449339505322385  0.4286977301821153   T   T   T
  0.3851225810115650  0.4775052242276629  0.3976354563471816   T   T   T
  0.3505961164091929  0.5785668235392407  0.8192384055180284   T   T   T
  0.3345752087991940  0.5987398281434793  0.7880815716615359   T   T   T
  0.2937817206714612  0.6255432817195370  0.7862736125659779   T   T   T
  0.2736332876660015  0.6290809119088152  0.7551144420382272   T   T   T
  0.2302576373733487  0.6170489005310742  0.7533058572179030   T   T   T
  0.2119836757990896  0.6028493274122013  0.7221400610674706   T   T   T
  0.1789444716135122  0.5555935471340661  0.7203500765638822   T   T   T
  0.1679361024496231  0.5279208023532220  0.6892103543695001   T   T   T
  0.1550135001674562  0.4595572413912166  0.6874195705790882   T   T   T
  0.1545510632164806  0.4266114648426864  0.6562766631185539   T   T   T
  0.1656174077450814  0.3574322771003224  0.6544633824395021   T   T   T
  0.1757585101888992  0.3289553572527169  0.6233099509473021   T   T   T
  0.2075319789766539  0.2794722908661527  0.6214935540433402   T   T   T
  0.2253128674088529  0.2639731504298908  0.5903386888807276   T   T   T
  0.2683814607701862  0.2493155465145591  0.5884710627459597   T   T   T
  0.2884522962930305  0.2518084317822371  0.5572720587088753   T   T   T
  0.3296796615128983  0.2763761377100664  0.5553652446610542   T   T   T
  0.3458119298669615  0.2957734405329120  0.5241421848664629   T   T   T
  0.3736027174099235  0.3513046852864790  0.5220969618777644   T   T   T
  0.3817183507613748  0.3801469996670335  0.4912166246660590   T   T   T
  0.3949105987330981  0.4510415449191001  0.4890869841235315   T   T   T
  0.3857202029313953  0.4842032573568531  0.4576382655542588   T   T   T
  0.3476222662221176  0.5829756849245200  0.8796816344901757   T   T   T
  0.3311802964574539  0.6022342025331966  0.8485254272919747   T   T   T
  0.2898332826640981  0.6266878226945138  0.8467221471139439   T   T   T
  0.2696136177692594  0.6290776769979800  0.8155655253184264   T   T   T
  0.2265235241590844  0.6146091535294360  0.8137511469524625   T   T   T
  0.2085419880259494  0.5994293001467952  0.7825938395397714   T   T   T
  0.1765289290608507  0.5503468891962555  0.7808017334194233   T   T   T
  0.1661422622167734  0.5220823254253162  0.7496491004522383   T   T   T
  0.1547140585265936  0.4530408890280668  0.7478501581869068   T   T   T
  0.1549502919625496  0.4201177306107695  0.7167018314991225   T   T   T
  0.1675209798865822  0.3515870714486340  0.7148898900887701   T   T   T
  0.1783346423234704  0.3237761228419203  0.6837451634236231   T   T   T
  0.2111572200027894  0.2761450865538322  0.6819248764738077   T   T   T
  0.2293250160730196  0.2617608675222627  0.6507536392545887   T   T   T
  0.2726326544899536  0.2493180427025763  0.6488759705862108   T   T   T
  0.2926945282787941  0.2527452038364046  0.6176770967651350   T   T   T
  0.3336266197941029  0.2791032004695637  0.6157863966338866   T   T   T
  0.3495910450463100  0.2993161019195156  0.5846579264329606   T   T   T
  0.3763196310254173  0.3562392425817507  0.5828557647128676   T   T   T
  0.3837358451426880  0.3873770082424173  0.5518511357094127   T   T   T
  0.3883419851244057  0.4580285453991735  0.5503229864474335   T   T   T
  0.3876908210887464  0.4917126248024104  0.5191637809982055   T   T   T
  0.3445332969485548  0.5871739620194347  0.9401294697792082   T   T   T
  0.3276959877744900  0.6055031144017704  0.9089692845322048   T   T   T
  0.2858525104779090  0.6276102260204439  0.9071621775773338   T   T   T
  0.2655985362661255  0.6288591660952392  0.8760080455470955   T   T   T
  0.2228453989539503  0.6119565839807990  0.8741906103693680   T   T   T
  0.2051982680626452  0.5957637333474821  0.8430386808899613   T   T   T
  0.1742504776195588  0.5449345321578107  0.8412427417370125   T   T   T
  0.1644523347301146  0.5161214005443213  0.8100859107685423   T   T   T
  0.1545068124333113  0.4464614361709209  0.8082783996455305   T   T   T
  0.1554714154216299  0.4135864676884324  0.7771333738875938   T   T   T
  0.1694953992734796  0.3458078696901481  0.7753247381423876   T   T   T
  0.1809317359409093  0.3186562944711682  0.7441685188505005   T   T   T
  0.2147329155587343  0.2729011166291926  0.7423477427348786   T   T   T
  0.2332128540539102  0.2595148403035452  0.7111840392769366   T   T   T
  0.2767718092308797  0.2493675524308401  0.7093264794293290   T   T   T
  0.2968001457496072  0.2538126467701289  0.6781640688172246   T   T   T
  0.3371663170159493  0.2823052651643891  0.6763341261930336   T   T   T
  0.3527697687877591  0.3032748486449961  0.6451731567511487   T   T   T
  0.3779805620340682  0.3617976541483472  0.6434084455304330   T   T   T
  0.3846722392821533  0.3929359641697800  0.6122625141913787   T   T   T
  0.3871231947428839  0.4642391004181334  0.6105829730011010   T   T   T
  0.3830392515883716  0.4965101892141774  0.5795082073997975   T   T   T
  0.3413327058551729  0.5911714849782399  0.0005748775218137   T   T   T
  0.3241327262256419  0.6085637960398032  0.9694132326951816   T   T   T
  0.2818426640847278  0.6283083817998971  0.9675978568580987   T   T   T
  0.2615805576668464  0.6284191181196093  0.9364453766726086   T   T   T
  0.2192142659052081  0.6091206169859120  0.9346255656918032   T   T   T
  0.2019291781843862  0.5919334872117261  0.9034730972060316   T   T   T
  0.1720806510516937  0.5393986962925865  0.9016743226914059   T   T   T
  0.1629047909080796  0.5100496695630241  0.8705230798040375   T   T   T
  0.1544391857439038  0.4398801244778738  0.8687101841904692   T   T   T
  0.1561075859905472  0.4070744951373086  0.8375609619751216   T   T   T
  0.1715636020836442  0.3401354689030143  0.8357562374800978   T   T   T
  0.1835669467630154  0.3136336823176791  0.8045991667949224   T   T   T
  0.2183374101751170  0.2698049088211292  0.8027820077173473   T   T   T
  0.2371027360071025  0.2574815138461588  0.7716293049791219   T   T   T
  0.2808496696768970  0.2497744523085643  0.7697960576085805   T   T   T
  0.3007948208256721  0.2553132858628828  0.7386279983863773   T   T   T
  0.3404952085636452  0.2860780398503735  0.7368161592921183   T   T   T
  0.3556900259219375  0.3077963330721332  0.7056417796346111   T   T   T
  0.3795359866974266  0.3678632088317784  0.7038523277289812   T   T   T
  0.3854895922148813  0.3993063968018689  0.6727110485331167   T   T   T
  0.3863972198068097  0.4707893761951496  0.6709646315273545   T   T   T
  0.3813054271017577  0.5026359165888934  0.6398363191522307   T   T   T
  0.2575566165369949  0.6277468077176209  0.9968747743153941   T   T   T
  0.2156247557600750  0.6060942750779645  0.9950556407882587   T   T   T
  0.1987241858288797  0.5879472448194321  0.9639031593670140   T   T   T
  0.1700054204731529  0.5337731712877201  0.9621003676303630   T   T   T
  0.1614696845275745  0.5039098609305128  0.9309537677658071   T   T   T
  0.1545013310068484  0.4333150782111090  0.9291383896495873   T   T   T
  0.1568711203273807  0.4006192818883889  0.8979884020045361   T   T   T
  0.1737405309154809  0.3345805569088682  0.8961891695343596   T   T   T
  0.1863087825201504  0.3087727706978143  0.8650373019782833   T   T   T
  0.2219902297196725  0.2669287521042349  0.8632217270644347   T   T   T
  0.2410213426659595  0.2556836456986815  0.8320671470769128   T   T   T
  0.2848971214977212  0.2504701900594881  0.8302488848892722   T   T   T
  0.3047216422429386  0.2570922549039452  0.7990803179395485   T   T   T
  0.3437472033703486  0.2900987958928098  0.7972699924802171   T   T   T
  0.3584625181658367  0.3126556432349474  0.7661072788983745   T   T   T
  0.3810101804486905  0.3740543880823495  0.7642991973979392   T   T   T
  0.3862292598224855  0.4058266630634364  0.7331437938253487   T   T   T
  0.3856351353807099  0.4773057900063620  0.7313643772013805   T   T   T
  0.3798502447329781  0.5088298852677227  0.7002129976131783   T   T   T
  0.1601407258803675  0.4977241310013198  0.9913780058845632   T   T   T
  0.1546767136269267  0.4267774969692226  0.9895643567195549   T   T   T
  0.1577522400609865  0.3942173386742951  0.9584182418415281   T   T   T
  0.1760157771073665  0.3291637378187957  0.9566217838614861   T   T   T
  0.1891364320135622  0.3040653407633371  0.9254721062522719   T   T   T
  0.2256870868618819  0.2642603001478108  0.9236570980884622   T   T   T
  0.2449528363374753  0.2540844922384267  0.8925029235961759   T   T   T
  0.2889202224128269  0.2513683831514513  0.8906940815180278   T   T   T
  0.3085966538610521  0.2591190701306445  0.8595331304509628   T   T   T
  0.3469027148588424  0.2943045051265401  0.8577200568886383   T   T   T
  0.3611284049024235  0.3176972040249737  0.8265568842166857   T   T   T
  0.3823623485794201  0.3803128290842395  0.8247412616700416   T   T   T
  0.3869141671237983  0.4123596871558632  0.7935772949638746   T   T   T
  0.3847929071613478  0.4837771141252034  0.7917812416340411   T   T   T
  0.3783268766509522  0.5149669446973064  0.7606332811822369   T   T   T
  0.1920461684433903  0.2995569496412429  0.9859054513527568   T   T   T
  0.2294219475558208  0.2618226790247675  0.9840913078850448   T   T   T
  0.2489014267110932  0.2527197717967553  0.9529416224345155   T   T   T
  0.2929045970003443  0.2524805581797835  0.9511407585996281   T   T   T
  0.3124114973492098  0.2613598106464181  0.9199808753467380   T   T   T
  0.3499399003228589  0.2986813567980988  0.9181646136573676   T   T   T
  0.3636768479567678  0.3228533692948830  0.8870024758807915   T   T   T
  0.3835722155060353  0.3866256219250701  0.8851865868216109   T   T   T
  0.3874489996626380  0.4189181626181906  0.8540229776454709   T   T   T
  0.3838088079696647  0.4901764451774824  0.8522182821874935   T   T   T
  0.3766757367455256  0.5209810569347013  0.8210612107035899   T   T   T
  0.3161659577376383  0.2637764837542633  0.9804254980913072   T   T   T
  0.3528827690425871  0.3031862647773735  0.9786078563433520   T   T   T
  0.3661011884674039  0.3281327302241266  0.9474493956587722   T   T   T
  0.3846457142334359  0.3929734397727387  0.9456379419234295   T   T   T
  0.3878372212658761  0.4254793063010069  0.9144725205386308   T   T   T
  0.3826955475677849  0.4964905737740324  0.9126599985649122   T   T   T
  0.3749198153845228  0.5268943262664791  0.8815012917939384   T   T   T
  0.3880799805111010  0.4320318146999043  0.9749242347172995   T   T   T
  0.3814241931611662  0.5027118748513502  0.9731052095786126   T   T   T
  0.3730168388358379  0.5326698267293750  0.9419475789408267   T   T   T
  0.4530937366184938  0.4719750248063281  0.5021439065624183   T   T   T
  0.4692162235904301  0.4167358002651533  0.5234878808153909   T   T   T
 
  0.00000000E+00  0.00000000E+00  0.00000000E+00
  0.00000000E+00  0.00000000E+00  0.00000000E+00
  0.00000000E+00  0.00000000E+00  0.00000000E+00
  0.00000000E+00  0.00000000E+00  0.00000000E+00
  0.00000000E+00  0.00000000E+00  0.00000000E+00
  0.00000000E+00  0.00000000E+00  0.00000000E+00
  0.00000000E+00  0.00000000E+00  0.00000000E+00
  0.00000000E+00  0.00000000E+00  0.00000000E+00
  0.00000000E+00  0.00000000E+00  0.00000000E+00
  0.00000000E+00  0.00000000E+00  0.00000000E+00
  0.00000000E+00  0.00000000E+00  0.00000000E+00
  0.00000000E+00  0.00000000E+00  0.00000000E+00
  0.00000000E+00  0.00000000E+00  0.00000000E+00
  0.00000000E+00  0.00000000E+00  0.00000000E+00
  0.00000000E+00  0.00000000E+00  0.00000000E+00
  0.00000000E+00  0.00000000E+00  0.00000000E+00
  0.00000000E+00  0.00000000E+00  0.00000000E+00
  0.00000000E+00  0.00000000E+00  0.00000000E+00
  0.00000000E+00  0.00000000E+00  0.00000000E+00
  0.00000000E+00  0.00000000E+00  0.00000000E+00
  0.00000000E+00  0.00000000E+00  0.00000000E+00
  0.00000000E+00  0.00000000E+00  0.00000000E+00
  0.00000000E+00  0.00000000E+00  0.00000000E+00
  0.00000000E+00  0.00000000E+00  0.00000000E+00
  0.00000000E+00  0.00000000E+00  0.00000000E+00
  0.00000000E+00  0.00000000E+00  0.00000000E+00
  0.00000000E+00  0.00000000E+00  0.00000000E+00
  0.00000000E+00  0.00000000E+00  0.00000000E+00
  0.00000000E+00  0.00000000E+00  0.00000000E+00
  0.00000000E+00  0.00000000E+00  0.00000000E+00
  0.00000000E+00  0.00000000E+00  0.00000000E+00
  0.00000000E+00  0.00000000E+00  0.00000000E+00
  0.00000000E+00  0.00000000E+00  0.00000000E+00
  0.00000000E+00  0.00000000E+00  0.00000000E+00
  0.00000000E+00  0.00000000E+00  0.00000000E+00
  0.00000000E+00  0.00000000E+00  0.00000000E+00
  0.00000000E+00  0.00000000E+00  0.00000000E+00
  0.00000000E+00  0.00000000E+00  0.00000000E+00
  0.00000000E+00  0.00000000E+00  0.00000000E+00
  0.00000000E+00  0.00000000E+00  0.00000000E+00
  0.00000000E+00  0.00000000E+00  0.00000000E+00
  0.00000000E+00  0.00000000E+00  0.00000000E+00
  0.00000000E+00  0.00000000E+00  0.00000000E+00
  0.00000000E+00  0.00000000E+00  0.00000000E+00
  0.00000000E+00  0.00000000E+00  0.00000000E+00
  0.00000000E+00  0.00000000E+00  0.00000000E+00
  0.00000000E+00  0.00000000E+00  0.00000000E+00
  0.00000000E+00  0.00000000E+00  0.00000000E+00
  0.00000000E+00  0.00000000E+00  0.00000000E+00
  0.00000000E+00  0.00000000E+00  0.00000000E+00
  0.00000000E+00  0.00000000E+00  0.00000000E+00
  0.00000000E+00  0.00000000E+00  0.00000000E+00
  0.00000000E+00  0.00000000E+00  0.00000000E+00
  0.00000000E+00  0.00000000E+00  0.00000000E+00
  0.00000000E+00  0.00000000E+00  0.00000000E+00
  0.00000000E+00  0.00000000E+00  0.00000000E+00
  0.00000000E+00  0.00000000E+00  0.00000000E+00
  0.00000000E+00  0.00000000E+00  0.00000000E+00
  0.00000000E+00  0.00000000E+00  0.00000000E+00
  0.00000000E+00  0.00000000E+00  0.00000000E+00