 C  S  O                                
    1.000000000000000     
    32.3722991942999982    0.0000000000000000    0.0000000000000000
     0.0000000000000000   19.9214134216000005    0.0000000000000000
     0.0000000000000000    0.0000000000000000   40.4480476378999967
   C    S    O 
   364     1     1
Selective Dynamics
Direct
  0.3709591060967687  0.5383088381324944  0.0023923714666659   F  F  F
  0.3687616886701773  0.5438322189037719  0.0628331579240023   F  F  F
  0.3380242297629156  0.5949985254173297  0.0610140974893722   F  F  F
  0.3204746487727850  0.6114021893879580  0.0298538763374345   F  F  F
  0.2777942887814056  0.6287682795452948  0.0280297729775164   F  F  F
  0.3664113959917792  0.5492369423993503  0.1232654790403707   F  F  F
  0.3346167681230153  0.5986653711987100  0.1214446354021865   F  F  F
  0.3167386972115056  0.6140650525324178  0.0902831823819697   F  F  F
  0.2737170148458656  0.6290321966845496  0.0884526570746176   F  F  F
  0.2535198005523155  0.6268717618192309  0.0572989798721332   F  F  F
  0.2120651838172133  0.6029110826768292  0.0554847285341238   F  F  F
  0.1955730820468234  0.5838129274014412  0.0243308429517765   F  F  F
  0.1680193458133275  0.5280678279201951  0.0225240098272610   F  F  F
  0.3638993321306498  0.5545231033784860  0.1836821857394109   F  F  F
  0.3311110685521931  0.6021912030503495  0.1818628848234191   F  F  F
  0.3129349734249970  0.6165740882276619  0.1507039174397041   F  F  F
  0.2696229791486139  0.6291521396857587  0.1488749718067938   F  F  F
  0.2494907136131941  0.6258156144091808  0.1177221999160342   F  F  F
  0.2085715023787588  0.5995523805696814  0.1159156382326166   F  F  F
  0.1924976169867481  0.5795266131667792  0.0847602706218076   F  F  F
  0.1661455570385463  0.5222743154160501  0.0829509024987062   F  F  F
  0.1589133861164362  0.4915038293217870  0.0518052862642239   F  F  F
  0.1549688406228986  0.4202868012301632  0.0499961979841376   F  F  F
  0.1587483987126561  0.3879055145823204  0.0188493277164467   F  F  F
  0.1783895722643387  0.3239234798801400  0.0170509435986549   F  F  F
  0.3612905952651351  0.5597181021152696  0.2440825790410861   F  F  F
  0.3275562591205032  0.6056292589263756  0.2422770150316869   F  F  F
  0.3090737628739567  0.6189562835440191  0.2111238226656538   F  F  F
  0.2655289681125887  0.6291350318345205  0.2093055300537748   F  F  F
  0.2454767217684679  0.6246233754045357  0.1781464808758177   F  F  F
  0.2051481669124479  0.5960581713761327  0.1763506269599329   F  F  F
  0.1895054311626686  0.5751215984751709  0.1451985053004952   F  F  F
  0.1643897759933854  0.5164084641823391  0.1433875555538602   F  F  F
  0.1578252275653865  0.4852318052866400  0.1122401831100564   F  F  F
  0.1553978981499807  0.4138389520428989  0.1104331183313101   F  F  F
  0.1598626540885075  0.3816763724903937  0.0792823693157743   F  F  F
  0.1808447359475856  0.3188276045797387  0.0774791860154997   F  F  F
  0.1950213547013269  0.2952332094960637  0.0463376499222116   F  F  F
  0.2331767845737702  0.2596149146835343  0.0445249833578280   F  F  F
  0.2528576898174609  0.2516075392957954  0.0133786491491662   F  F  F
  0.2968365110784176  0.2538314764186433  0.0115795480202958   F  F  F
  0.3706006794264817  0.5382258002560761  0.3355898190642149   F  F  F
  0.3586344721641436  0.5648217451971846  0.3044732681738995   F  F  F
  0.3240058689605148  0.6089143948652801  0.3027033842999158   F  F  F
  0.3052108435969110  0.6212026847540943  0.2715433489172455   F  F  F
  0.2614836115860108  0.6289226053335140  0.2697479516224938   F  F  F
  0.2415127943198042  0.6232855266504339  0.2385928754517962   F  F  F
  0.2018221371647572  0.5924041657109584  0.2368022004872441   F  F  F
  0.1866382484969330  0.5705617679581633  0.2056514242606702   F  F  F
  0.1628121778020352  0.5104478085234467  0.2038361668554722   F  F  F
  0.1568926261004998  0.4789216830480020  0.1726809098511745   F  F  F
  0.1559809476428176  0.4074380034033961  0.1708730776727000   F  F  F
  0.1611018913569200  0.3755364986728065  0.1397228860867477   F  F  F
  0.1833973983684360  0.3138823193703210  0.1379105000680394   F  F  F
  0.1980735602931946  0.2910978862624023  0.1067671669046527   F  F  F
  0.2369553108479544  0.2576313445977093  0.1049561443573682   F  F  F
  0.2568047608024468  0.2507215438591041  0.0738119478336163   F  F  F
  0.3007133168229889  0.2553980498925325  0.0720150439313806   F  F  F
  0.3198280888444296  0.2664299007397543  0.0408681262229049   F  F  F
  0.3556934041386233  0.3078563754462694  0.0390518117945235   F  F  F
  0.3683960341696696  0.3335288346346716  0.0078952089095363   F  F  F
  0.3855610646971142  0.3993626698964266  0.0060884396798514   F  F  F
  0.3685869869776242  0.5436062765421694  0.3959507078313617   F  F  F
  0.3560009069142955  0.5697198838009708  0.3648298679239797   F  F  F
  0.3204909119418060  0.6117657632467437  0.3631295741019195   F  F  F
  0.3014064617298745  0.6232123732286221  0.3320009444018008   F  F  F
  0.2575122798546700  0.6283926765872799  0.3302263288244731   F  F  F
  0.2376492299086948  0.6216476932765802  0.2990755404717746   F  F  F
  0.1986685582962871  0.5884615341288868  0.2972749086651129   F  F  F
  0.1839273943864558  0.5658154942767806  0.2661117167280580   F  F  F
  0.1614197044245243  0.5043828838051511  0.2642878550563577   F  F  F
  0.1561321572527415  0.4725667755086222  0.2331312588127200   F  F  F
  0.1567184150188900  0.4010615934537157  0.2313165896490817   F  F  F
  0.1625003888045418  0.3694742322869415  0.2001646146467434   F  F  F
  0.1860557830475215  0.3090794507396062  0.1983404867545563   F  F  F
  0.2011900372517665  0.2871164240417780  0.1671926060352690   F  F  F
  0.2407447036640254  0.2557938402042489  0.1653859946834393   F  F  F
  0.2607405210450972  0.2500236804564270  0.1342451176896484   F  F  F
  0.3045249699380270  0.2571378383350806  0.1324476829885117   F  F  F
  0.3234150973155444  0.2692486465077552  0.1013058643574591   F  F  F
  0.3583841439793929  0.3126465555915454  0.0994939153706459   F  F  F
  0.3705521106097038  0.3390228292431676  0.0683413479215858   F  F  F
  0.3863148202127152  0.4057809069910643  0.0665379739155891   F  F  F
  0.3881526910714824  0.4385811722979310  0.0353784834634424   F  F  F
  0.3799909622844171  0.5088412877099917  0.0335524310637129   F  F  F
  0.3668406678730433  0.5476668851498806  0.4563292120519430   F  F  F
  0.3534277628418452  0.5736370592248645  0.4253144371410991   F  F  F
  0.3169546301822130  0.6135457505140492  0.4236287454978995   F  F  F
  0.2976433543077719  0.6243757877249780  0.3925453360008611   F  F  F
  0.2536615331754377  0.6271179706021699  0.3907465452777542   F  F  F
  0.2339057474051679  0.6195268541410246  0.3595627809522264   F  F  F
  0.1956700947767446  0.5841799756496479  0.3577395620972332   F  F  F
  0.1813863234045550  0.5608071126364411  0.3265748741573517   F  F  F
  0.1601794860784736  0.4981403193785007  0.3247419026982331   F  F  F
  0.1555594643098901  0.4661005499325281  0.2935824741478081   F  F  F
  0.1575955193763008  0.3946719731393600  0.2917568432704624   F  F  F
  0.1640165940827713  0.3634442375273439  0.2605938032406259   F  F  F
  0.1887819034688505  0.3043513976429961  0.2587584407999787   F  F  F
  0.2043728619719656  0.2832475927155812  0.2276196659071225   F  F  F
  0.2445569845980061  0.2540685850913539  0.2258209923648510   F  F  F
  0.2646692110878783  0.2494610784850728  0.1946734676503041   F  F  F
  0.3082710969669912  0.2590162382709094  0.1928753159348436   F  F  F
  0.3269051992859351  0.2722182858350158  0.1617397588806327   F  F  F
  0.3609300957894205  0.3175677356024009  0.1599331608582755   F  F  F
  0.3725530499006502  0.3446253598953690  0.1287878013563658   F  F  F
  0.3868753910177418  0.4122364029577743  0.1269814586306901   F  F  F
  0.3880445179364798  0.4451261604420803  0.0958244675754613   F  F  F
  0.3783979387872167  0.5148856992154084  0.0939926340520034   F  F  F
  0.3653320807286680  0.5541992424718539  0.5170619730188356   F  F  F
  0.3508646435623514  0.5773055330748226  0.4860983532041880   F  F  F
  0.3133371659744908  0.6142489279365945  0.4841813453467749   F  F  F
  0.2937834346939451  0.6241807698484565  0.4530194463129087   F  F  F
  0.2498983492915474  0.6250120479266138  0.4511993969820046   F  F  F
  0.2302460040873284  0.6168464933515765  0.4200331205965562   F  F  F
  0.1926653026676865  0.5796216491230184  0.4181916725609339   F  F  F
  0.1789312813921902  0.5555207655548186  0.3870334272352575   F  F  F
  0.1590224412480639  0.4917510708992704  0.3851945816087943   F  F  F
  0.1551008500742286  0.4595130619937025  0.3540170663970269   F  F  F
  0.1585668857697673  0.3882532331416029  0.3521847212125738   F  F  F
  0.1656059775047241  0.3574139853855817  0.3210256110658867   F  F  F
  0.1915448976322499  0.2996314675005891  0.3191855509282884   F  F  F
  0.2075995155739039  0.2794721560610697  0.2880466989568201   F  F  F
  0.2483609212341252  0.2525271216677150  0.2862550666763660   F  F  F
  0.2685736419833267  0.2490239980961925  0.2551065345379041   F  F  F
  0.3119578981575069  0.2610395833114376  0.2533096701682273   F  F  F
  0.3303015927100302  0.2753268413744863  0.2221780571820718   F  F  F
  0.3633092734422427  0.3226226978680191  0.2203709438345865   F  F  F
  0.3743655303811066  0.3503379077104627  0.1892256107306976   F  F  F
  0.3872221150466057  0.4187155610137145  0.1874080997489644   F  F  F
  0.3877323620373564  0.4516564430578958  0.1562595795994511   F  F  F
  0.3766196103643368  0.5208432031797509  0.1544250047968526   F  F  F
  0.3621026742382704  0.5593618535812309  0.5776061792640488   F  F  F
  0.3478989483569683  0.5819514140557245  0.5462529352370371   F  F  F
  0.3094741860477481  0.6170005311589272  0.5444696791971622   F  F  F
  0.2898557766496797  0.6249430984984186  0.5134273296372451   F  F  F
  0.2458067105083908  0.6236542661069922  0.5116035775328532   F  F  F
  0.2265034777152660  0.6138772962126234  0.4804927754476924   F  F  F
  0.1896796394343944  0.5748946421011376  0.4786347580509203   F  F  F
  0.1764832136160746  0.5500379957924708  0.4474505079227639   F  F  F
  0.1579327403769991  0.4852819380454804  0.4456213699986152   F  F  F
  0.1546851578435042  0.4528535444258547  0.4144569934057799   F  F  F
  0.1596032213809082  0.3817755293999969  0.4126278323554515   F  F  F
  0.1672940170393898  0.3513800794320291  0.3814682123576263   F  F  F
  0.1943465416195373  0.2949833882332228  0.3796289065036112   F  F  F
  0.2108354638711417  0.2757472786029346  0.3484698948507723   F  F  F
  0.2521510688826726  0.2511673232398751  0.3466747340356435   F  F  F
  0.2724467994569862  0.2488138421119594  0.3155604764772121   F  F  F
  0.3155777581899399  0.2633261118398748  0.3137752313923229   F  F  F
  0.3335923650957883  0.2786492512856281  0.2826116531601385   F  F  F
  0.3655122088042448  0.3278295987749213  0.2807901335886135   F  F  F
  0.3759960325546753  0.3561456568173916  0.2496515181196189   F  F  F
  0.3873824939689215  0.4252196616326184  0.2478111675568780   F  F  F
  0.3872147721087137  0.4581690243326007  0.2166751413038009   F  F  F
  0.3746775600789383  0.5267062627640354  0.2148425765891485   F  F  F
  0.3591228601358602  0.5643086633638893  0.6379710588630511   F  F  F
  0.3446361270446540  0.5870455227393012  0.6067397141307518   F  F  F
  0.3056087570219046  0.6203131594420068  0.6049185267792042   F  F  F
  0.2858249374255395  0.6265534149336437  0.5737659843908537   F  F  F
  0.2419244905782627  0.6222477969465933  0.5719791513260994   F  F  F
  0.2227625932968772  0.6113823410328052  0.5408576459565897   F  F  F
  0.1867536361985670  0.5702415050738275  0.5390324346766024   F  F  F
  0.1740523219455791  0.5446472775089901  0.5079115829306330   F  F  F
  0.1568263056544474  0.4787748878018107  0.5060824400253018   F  F  F
  0.1543803974138766  0.4461652716125857  0.4749282629035476   F  F  F
  0.1607841878208475  0.3754352549384806  0.4730963432179749   F  F  F
  0.1690894816111520  0.3454255757648028  0.4419154396994922   F  F  F
  0.1972578366430216  0.2905212751657150  0.4400833727638709   F  F  F
  0.2140604902836679  0.2720868111878961  0.4089252967683559   F  F  F
  0.2559261196068583  0.2498699081610521  0.4071127855758273   F  F  F
  0.2763026017785339  0.2489524187081137  0.3760148798641637   F  F  F
  0.3190398643931975  0.2661380448377713  0.3742325499171597   F  F  F
  0.3367818416167822  0.2822008987353056  0.3430448014615563   F  F  F
  0.3676923877690056  0.3331566036885208  0.3412096361517561   F  F  F
  0.3774751762394442  0.3620727307821534  0.3100658843917732   F  F  F
  0.3873803756816368  0.4317236339987143  0.3081776405502672   F  F  F
  0.3865278304605313  0.4646684234279555  0.2770452216158187   F  F  F
  0.3726323431301798  0.5324853028675797  0.2752272791369845   F  F  F
  0.3562971705419853  0.5692172104305752  0.6983734315944717   F  F  F
  0.3412367812055042  0.5911551389147217  0.6672145923918931   F  F  F
  0.3016754073498873  0.6224673534790333  0.6653794456653557   F  F  F
  0.2817727902854884  0.6280440068303607  0.6341729762243010   F  F  F
  0.2379622565919225  0.6209119661432959  0.6323905533803081   F  F  F
  0.2191123577817863  0.6087614647309089  0.6012758062195461   F  F  F
  0.1840339376235244  0.5655199008876676  0.5994709316071142   F  F  F
  0.1718682664562252  0.5391041895690114  0.5683382260690161   F  F  F
  0.1560774947388398  0.4724031905890185  0.5665307766901277   F  F  F
  0.1541873420307797  0.4395965953980830  0.5353700961393303   F  F  F
  0.1621496769828147  0.3692518155120322  0.5335435309327567   F  F  F
  0.1710021796380639  0.3396780246278924  0.5024046546984852   F  F  F
  0.2004086558690915  0.2863454628727783  0.5005844042121312   F  F  F
  0.2175320070311018  0.2688630789493575  0.4694233903703448   F  F  F
  0.2598261385902160  0.2491193544717150  0.4675997449455078   F  F  F
  0.2801019120199533  0.2492299948959826  0.4364197954744076   F  F  F
  0.3222921723113963  0.2693739029998841  0.4345820731966778   F  F  F
  0.3397815366629932  0.2863017041531249  0.4035194092124609   F  F  F
  0.3698792724439879  0.3388411741111571  0.4017220734121202   F  F  F
  0.3789786617774603  0.3680965488451159  0.3704197381357981   F  F  F
  0.3873536637732545  0.4381521874294114  0.3684466493164000   F  F  F
  0.3857963402772553  0.4711035011369455  0.3373708957939873   F  F  F
  0.3534834185046476  0.5739837157692279  0.7588044084380876   F  F  F
  0.3379064800861072  0.5950281752651394  0.7276474311131947   F  F  F
  0.2977265877989160  0.6241444260564208  0.7258245707763631   F  F  F
  0.2776923869763339  0.6287995156240538  0.6946430613328378   F  F  F
  0.2340598038777730  0.6192017314101226  0.6928468537449898   F  F  F
  0.2155070402113340  0.6059385220143200  0.6617020754931019   F  F  F
  0.1814678430879973  0.5606380947164681  0.6599071713272024   F  F  F
  0.1698386641599429  0.5336015721343174  0.6287628134956511   F  F  F
  0.1554557787823866  0.4660050196712218  0.6269718631924706   F  F  F
  0.1542734140066213  0.4330975444042474  0.5958413442138145   F  F  F
  0.1637869150271587  0.3632734191705627  0.5940278800052392   F  F  F
  0.1733266889196109  0.3342286925597081  0.5628731275017236   F  F  F
  0.2039078610984034  0.2829059495315923  0.5610612749659616   F  F  F
  0.2212841142496811  0.2662134113121104  0.5298759095191361   F  F  F
  0.2640135295412837  0.2491156710328938  0.5280165423335218   F  F  F
  0.2840661570115621  0.2500084275086573  0.4968793967944339   F  F  F
  0.3258489573501622  0.2729325325460757  0.4950130910221912   F  F  F
  0.3423908089002553  0.2913507974898895  0.4638944978411669   F  F  F
  0.3710915596628478  0.3454594796951077  0.4621149551231136   F  F  F
  0.3807332173426062  0.3741729442994815  0.4307399067385531   F  F  F
  0.3881003170843598  0.4449339505322402  0.4286977301821181   F  F  F
  0.3851225810115636  0.4775052242276629  0.3976354563471825   F  F  F
  0.3505961164091908  0.5785668235392410  0.8192384055180254   F  F  F
  0.3345752087991906  0.5987398281434781  0.7880815716615349   F  F  F
  0.2937817206714584  0.6255432817195377  0.7862736125659792   F  F  F
  0.2736332876659979  0.6290809119088120  0.7551144420382243   F  F  F
  0.2302576373733481  0.6170489005310739  0.7533058572179018   F  F  F
  0.2119836757990862  0.6028493274122025  0.7221400610674715   F  F  F
  0.1789444716135095  0.5555935471340688  0.7203500765638794   F  F  F
  0.1679361024496260  0.5279208023532213  0.6892103543694976   F  F  F
  0.1550135001674527  0.4595572413912178  0.6874195705790916   F  F  F
  0.1545510632164817  0.4266114648426837  0.6562766631185546   F  F  F
  0.1656174077450800  0.3574322771003241  0.6544633824395013   F  F  F
  0.1757585101888961  0.3289553572527191  0.6233099509473035   F  F  F
  0.2075319789766530  0.2794722908661552  0.6214935540433409   F  F  F
  0.2253128674088535  0.2639731504298884  0.5903386888807256   F  F  F
  0.2683814607701828  0.2493155465145583  0.5884710627459631   F  F  F
  0.2884522962930292  0.2518084317822391  0.5572720587088753   F  F  F
  0.3296796615128956  0.2763761377100673  0.5553652446610575   F  F  F
  0.3458119298669603  0.2957734405329129  0.5241421848664622   F  F  F
  0.3736027174099240  0.3513046852864759  0.5220969618777649   F  F  F
  0.3817183507613729  0.3801469996670325  0.4912166246660576   F  F  F
  0.3949105987331015  0.4510415449190972  0.4890869841235331   F  F  F
  0.3857202029313962  0.4842032573568539  0.4576382655542562   F  F  F
  0.3476222662221181  0.5829756849245196  0.8796816344901790   F  F  F
  0.3311802964574505  0.6022342025331968  0.8485254272919770   F  F  F
  0.2898332826640970  0.6266878226945128  0.8467221471139418   F  F  F
  0.2696136177692562  0.6290776769979767  0.8155655253184260   F  F  F
  0.2265235241590865  0.6146091535294389  0.8137511469524620   F  F  F
  0.2085419880259513  0.5994293001467950  0.7825938395397721   F  F  F
  0.1765289290608504  0.5503468891962551  0.7808017334194214   F  F  F
  0.1661422622167701  0.5220823254253159  0.7496491004522400   F  F  F
  0.1547140585265930  0.4530408890280648  0.7478501581869067   F  F  F
  0.1549502919625507  0.4201177306107713  0.7167018314991198   F  F  F
  0.1675209798865798  0.3515870714486343  0.7148898900887712   F  F  F
  0.1783346423234691  0.3237761228419198  0.6837451634236258   F  F  F
  0.2111572200027881  0.2761450865538292  0.6819248764738052   F  F  F
  0.2293250160730210  0.2617608675222620  0.6507536392545890   F  F  F
  0.2726326544899565  0.2493180427025739  0.6488759705862096   F  F  F
  0.2926945282787927  0.2527452038364069  0.6176770967651368   F  F  F
  0.3336266197941020  0.2791032004695672  0.6157863966338868   F  F  F
  0.3495910450463087  0.2993161019195139  0.5846579264329586   F  F  F
  0.3763196310254153  0.3562392425817493  0.5828557647128649   F  F  F
  0.3837358451426887  0.3873770082424167  0.5518511357094120   F  F  F
  0.3883419851244064  0.4580285453991726  0.5503229864474307   F  F  F
  0.3876908210887499  0.4917126248024122  0.5191637809982023   F  F  F
  0.3445332969485516  0.5871739620194359  0.9401294697792056   F  F  F
  0.3276959877744899  0.6055031144017711  0.9089692845322057   F  F  F
  0.2858525104779111  0.6276102260204423  0.9071621775773346   F  F  F
  0.2655985362661263  0.6288591660952402  0.8760080455470961   F  F  F
  0.2228453989539514  0.6119565839807978  0.8741906103693695   F  F  F
  0.2051982680626455  0.5957637333474820  0.8430386808899590   F  F  F
  0.1742504776195609  0.5449345321578137  0.8412427417370125   F  F  F
  0.1644523347301116  0.5161214005443191  0.8100859107685400   F  F  F
  0.1545068124333091  0.4464614361709207  0.8082783996455279   F  F  F
  0.1554714154216304  0.4135864676884329  0.7771333738875934   F  F  F
  0.1694953992734831  0.3458078696901480  0.7753247381423841   F  F  F
  0.1809317359409090  0.3186562944711652  0.7441685188504993   F  F  F
  0.2147329155587350  0.2729011166291902  0.7423477427348801   F  F  F
  0.2332128540539104  0.2595148403035444  0.7111840392769395   F  F  F
  0.2767718092308828  0.2493675524308387  0.7093264794293324   F  F  F
  0.2968001457496077  0.2538126467701293  0.6781640688172225   F  F  F
  0.3371663170159483  0.2823052651643893  0.6763341261930367   F  F  F
  0.3527697687877617  0.3032748486449969  0.6451731567511516   F  F  F
  0.3779805620340676  0.3617976541483443  0.6434084455304309   F  F  F
  0.3846722392821569  0.3929359641697804  0.6122625141913812   F  F  F
  0.3871231947428833  0.4642391004181332  0.6105829730011045   F  F  F
  0.3830392515883732  0.4965101892141762  0.5795082073997939   F  F  F
  0.3413327058551701  0.5911714849782412  0.0005748775218148   F  F  F
  0.3241327262256440  0.6085637960398051  0.9694132326951851   F  F  F
  0.2818426640847256  0.6283083817998990  0.9675978568580995   F  F  F
  0.2615805576668433  0.6284191181196096  0.9364453766726054   F  F  F
  0.2192142659052054  0.6091206169859136  0.9346255656918044   F  F  F
  0.2019291781843885  0.5919334872117236  0.9034730972060311   F  F  F
  0.1720806510516964  0.5393986962925863  0.9016743226914065   F  F  F
  0.1629047909080764  0.5100496695630261  0.8705230798040363   F  F  F
  0.1544391857439034  0.4398801244778720  0.8687101841904701   F  F  F
  0.1561075859905449  0.4070744951373093  0.8375609619751224   F  F  F
  0.1715636020836466  0.3401354689030110  0.8357562374800946   F  F  F
  0.1835669467630119  0.3136336823176762  0.8045991667949213   F  F  F
  0.2183374101751152  0.2698049088211300  0.8027820077173500   F  F  F
  0.2371027360071021  0.2574815138461584  0.7716293049791243   F  F  F
  0.2808496696768963  0.2497744523085660  0.7697960576085784   F  F  F
  0.3007948208256687  0.2553132858628812  0.7386279983863798   F  F  F
  0.3404952085636431  0.2860780398503724  0.7368161592921157   F  F  F
  0.3556900259219354  0.3077963330721337  0.7056417796346096   F  F  F
  0.3795359866974293  0.3678632088317794  0.7038523277289781   F  F  F
  0.3854895922148825  0.3993063968018666  0.6727110485331195   F  F  F
  0.3863972198068120  0.4707893761951509  0.6709646315273580   F  F  F
  0.3813054271017606  0.5026359165888913  0.6398363191522320   F  F  F
  0.2575566165369974  0.6277468077176221  0.9968747743153946   F  F  F
  0.2156247557600722  0.6060942750779651  0.9950556407882588   F  F  F
  0.1987241858288801  0.5879472448194286  0.9639031593670119   F  F  F
  0.1700054204731550  0.5337731712877224  0.9621003676303611   F  F  F
  0.1614696845275728  0.5039098609305160  0.9309537677658066   F  F  F
  0.1545013310068493  0.4333150782111116  0.9291383896495884   F  F  F
  0.1568711203273842  0.4006192818883910  0.8979884020045334   F  F  F
  0.1737405309154818  0.3345805569088707  0.8961891695343586   F  F  F
  0.1863087825201520  0.3087727706978127  0.8650373019782865   F  F  F
  0.2219902297196723  0.2669287521042322  0.8632217270644377   F  F  F
  0.2410213426659609  0.2556836456986805  0.8320671470769110   F  F  F
  0.2848971214977186  0.2504701900594885  0.8302488848892713   F  F  F
  0.3047216422429388  0.2570922549039472  0.7990803179395450   F  F  F
  0.3437472033703464  0.2900987958928073  0.7972699924802188   F  F  F
  0.3584625181658376  0.3126556432349475  0.7661072788983742   F  F  F
  0.3810101804486870  0.3740543880823513  0.7642991973979388   F  F  F
  0.3862292598224867  0.4058266630634360  0.7331437938253482   F  F  F
  0.3856351353807107  0.4773057900063616  0.7313643772013818   F  F  F
  0.3798502447329810  0.5088298852677259  0.7002129976131800   F  F  F
  0.1601407258803653  0.4977241310013183  0.9913780058845655   F  F  F
  0.1546767136269251  0.4267774969692196  0.9895643567195582   F  F  F
  0.1577522400609835  0.3942173386742957  0.9584182418415270   F  F  F
  0.1760157771073646  0.3291637378187967  0.9566217838614829   F  F  F
  0.1891364320135637  0.3040653407633366  0.9254721062522755   F  F  F
  0.2256870868618825  0.2642603001478107  0.9236570980884644   F  F  F
  0.2449528363374756  0.2540844922384252  0.8925029235961749   F  F  F
  0.2889202224128251  0.2513683831514497  0.8906940815180286   F  F  F
  0.3085966538610526  0.2591190701306473  0.8595331304509615   F  F  F
  0.3469027148588444  0.2943045051265413  0.8577200568886373   F  F  F
  0.3611284049024239  0.3176972040249770  0.8265568842166843   F  F  F
  0.3823623485794211  0.3803128290842396  0.8247412616700380   F  F  F
  0.3869141671237982  0.4123596871558600  0.7935772949638746   F  F  F
  0.3847929071613512  0.4837771141252009  0.7917812416340424   F  F  F
  0.3783268766509512  0.5149669446973045  0.7606332811822367   F  F  F
  0.1920461684433920  0.2995569496412411  0.9859054513527591   F  F  F
  0.2294219475558227  0.2618226790247690  0.9840913078850437   F  F  F
  0.2489014267110919  0.2527197717967519  0.9529416224345137   F  F  F
  0.2929045970003422  0.2524805581797869  0.9511407585996299   F  F  F
  0.3124114973492076  0.2613598106464146  0.9199808753467387   F  F  F
  0.3499399003228613  0.2986813567980968  0.9181646136573672   F  F  F
  0.3636768479567665  0.3228533692948846  0.8870024758807934   F  F  F
  0.3835722155060368  0.3866256219250709  0.8851865868216128   F  F  F
  0.3874489996626359  0.4189181626181941  0.8540229776454685   F  F  F
  0.3838088079696663  0.4901764451774838  0.8522182821874922   F  F  F
  0.3766757367455257  0.5209810569347014  0.8210612107035893   F  F  F
  0.3161659577376391  0.2637764837542667  0.9804254980913060   F  F  F
  0.3528827690425861  0.3031862647773704  0.9786078563433551   F  F  F
  0.3661011884674022  0.3281327302241274  0.9474493956587692   F  F  F
  0.3846457142334380  0.3929734397727363  0.9456379419234286   F  F  F
  0.3878372212658749  0.4254793063010048  0.9144725205386294   F  F  F
  0.3826955475677850  0.4964905737740344  0.9126599985649092   F  F  F
  0.3749198153845255  0.5268943262664817  0.8815012917939402   F  F  F
  0.3880799805111017  0.4320318146999032  0.9749242347172981   F  F  F
  0.3814241931611645  0.5027118748513526  0.9731052095786105   F  F  F
  0.3730168388358345  0.5326698267293738  0.9419475789408267   F  F  F
  0.4554584604178913  0.4599467044282819  0.4992112910711762   T  T  T
  0.4673438883916509  0.3976925093652390  0.5177151766586584   T  T  T
 
  0.00000000E+00  0.00000000E+00  0.00000000E+00
  0.00000000E+00  0.00000000E+00  0.00000000E+00
  0.00000000E+00  0.00000000E+00  0.00000000E+00
  0.00000000E+00  0.00000000E+00  0.00000000E+00
  0.00000000E+00  0.00000000E+00  0.00000000E+00
  0.00000000E+00  0.00000000E+00  0.00000000E+00
  0.00000000E+00  0.00000000E+00  0.00000000E+00
  0.00000000E+00  0.00000000E+00  0.00000000E+00
  0.00000000E+00  0.00000000E+00  0.00000000E+00
  0.00000000E+00  0.00000000E+00  0.00000000E+00
  0.00000000E+00  0.00000000E+00  0.00000000E+00
  0.00000000E+00  0.00000000E+00  0.00000000E+00
  0.00000000E+00  0.00000000E+00  0.00000000E+00
  0.00000000E+00  0.00000000E+00  0.00000000E+00
  0.00000000E+00  0.00000000E+00  0.00000000E+00
  0.00000000E+00  0.00000000E+00  0.00000000E+00
  0.00000000E+00  0.00000000E+00  0.00000000E+00
  0.00000000E+00  0.00000000E+00  0.00000000E+00
  0.00000000E+00  0.00000000E+00  0.00000000E+00
  0.00000000E+00  0.00000000E+00  0.00000000E+00
  0.00000000E+00  0.00000000E+00  0.00000000E+00
  0.00000000E+00  0.00000000E+00  0.00000000E+00
  0.00000000E+00  0.00000000E+00  0.00000000E+00
  0.00000000E+00  0.00000000E+00  0.00000000E+00
  0.00000000E+00  0.00000000E+00  0.00000000E+00
  0.00000000E+00  0.00000000E+00  0.00000000E+00
  0.00000000E+00  0.00000000E+00  0.00000000E+00
  0.00000000E+00  0.00000000E+00  0.00000000E+00
  0.00000000E+00  0.00000000E+00  0.00000000E+00
  0.00000000E+00  0.00000000E+00  0.00000000E+00
  0.00000000E+00  0.00000000E+00  0.00000000E+00
  0.00000000E+00  0.00000000E+00  0.00000000E+00
  0.00000000E+00  0.00000000E+00  0.00000000E+00
  0.00000000E+00  0.00000000E+00  0.00000000E+00
  0.00000000E+00  0.00000000E+00  0.00000000E+00
  0.00000000E+00  0.00000000E+00  0.00000000E+00
  0.00000000E+00  0.00000000E+00  0.00000000E+00
  0.00000000E+00  0.00000000E+00  0.00000000E+00
  0.00000000E+00  0.00000000E+00  0.00000000E+00
  0.00000000E+00  0.00000000E+00  0.00000000E+00
  0.00000000E+00  0.00000000E+00  0.00000000E+00
  0.00000000E+00  0.00000000E+00  0.00000000E+00
  0.00000000E+00  0.00000000E+00  0.00000000E+00
  0.00000000E+00  0.00000000E+00  0.00000000E+00
  0.00000000E+00  0.00000000E+00  0.00000000E+00
  0.00000000E+00  0.00000000E+00  0.00000000E+00
  0.00000000E+00  0.00000000E+00  0.00000000E+00
  0.00000000E+00  0.00000000E+00  0.00000000E+00
  0.00000000E+00  0.00000000E+00  0.00000000E+00
  0.00000000E+00  0.00000000E+00  0.00000000E+00
  0.00000000E+00  0.00000000E+00  0.00000000E+00
  0.00000000E+00  0.00000000E+00  0.00000000E+00
  0.00000000E+00  0.00000000E+00  0.00000000E+00
  0.00000000E+00  0.00000000E+00  0.00000000E+00
  0.00000000E+00  0.00000000E+00  0.00000000E+00
  0.00000000E+00  0.00000000E+00  0.00000000E+00
  0.00000000E+00  0.00000000E+00  0.00000000E+00
  0.00000000E+00  0.00000000E+00  0.00000000E+00
  0.00000000E+00  0.00000000E+00  0.00000000E+00
  0.00000000E+00  0.00000000E+00  0.00000000E+00
  0.00000000E+00  0.00000000E+00  0.00000000E+00
  0.00000000E+00  0.00000000E+00  0.00000000E+00
  0.00000000E+00  0.00000000E+00  0.00000000E+00
  0.00000000E+00  0.00000000E+00  0.00000000E+00
  0.00000000E+00  0.00000000E+00  0.00000000E+00
  0.00000000E+00  0.00000000E+00  0.00000000E+00
  0.00000000E+00  0.00000000E+00  0.00000000E+00
  0.00000000E+00  0.00000000E+00  0.00000000E+00
  0.00000000E+00  0.00000000E+00  0.00000000E+00
  0.00000000E+00  0.00000000E+00  0.00000000E+00
  0.00000000E+00  0.00000000E+00  0.00000000E+00
  0.00000000E+00  0.00000000E+00  0.00000000E+00
  0.00000000E+00  0.00000000E+00  0.00000000E+00
  0.00000000E+00  0.00000000E+00  0.00000000E+00
  0.00000000E+00  0.00000000E+00  0.00000000E+00