Ge Se                                   
    1.000000000000000     
    12.4657350542119225   -0.0000011102089394   -0.0000005256847118
    -0.0000011104613718   12.4685693775524520   -0.0000026644926234
    -0.0000005977789350   -0.0000030292216104   11.0119278014664523
   Ge   Se
    36    36
Direct
  0.0677312742053573  0.0201794082027575  0.1456239001473776
  0.2402065043984933  0.9157013413516211  0.3796577939510115
  0.5664174803373356  0.1878297526749932  0.3723318271017604
  0.5608976234674472  0.5460043014428848  0.4860885656293945
  0.5752649539329369  0.8544828585770290  0.3811917957584612
  0.8943400374314976  0.1950434703379571  0.3676024702787402
  0.8800006572393997  0.5070492286879329  0.3788019407572776
  0.8807711574910542  0.8672064285577008  0.3812488764730944
  0.0772361516890498  0.1436476951604320  0.6291181630351801
  0.1118949633045503  0.5294387330258417  0.6137758362857682
  0.0657263872413765  0.7766609629803014  0.5423316490819943
  0.3922196974163654  0.1295736931745495  0.5895799922192069
  0.3951369114109653  0.4692135716525598  0.6302331069053153
  0.4035550133551382  0.8377162850184945  0.6238368093909514
  0.7464992830942947  0.1590887657289812  0.6167362473110600
  0.7493079640376905  0.4594727750562910  0.6336405131086593
  0.2394802616166487  0.5024350021786219  0.3993558574904270
  0.2450149793598513  0.2119675630497682  0.3679710104555411
  0.7679849910922769  0.8530566473679428  0.6415037851652059
  0.9428157258365601  0.6522094496973807  0.8887930626278546
  0.9088285832136975  0.0022318795887628  0.8907529011650865
  0.0496645313038968  0.3272273022933661  0.1292203575389337
  0.0502892639995665  0.7381947836044205  0.0866110172540857
  0.4195606044689768  0.0208665650614890  0.0672924396275576
  0.4309102580366400  0.3431061263186947  0.1220972342360227
  0.7400168533568419  0.0473218467118812  0.1272864525935091
  0.7509730617761861  0.3772881741433309  0.1332095314823007
  0.5090833601363798  0.6755121766159320  0.1300297884282813
  0.2590802036317470  0.3169960675684678  0.9067784488340536
  0.2395128653748060  0.6234972527992255  0.0058693207287561
  0.2439077761306834  0.9490668281979637  0.9001478086646841
  0.5409729711455924  0.3068934418822451  0.8611086636927681
  0.5648581506427277  0.6347595608568781  0.8904664192343930
  0.6064336467845521  0.0055247422688751  0.8807681754063523
  0.9264339798689747  0.3471613540209262  0.8675724185915143
  0.7622482663339625  0.6688044030422660  0.1430722615702820
  0.8951863886316858  0.0149167684423475  0.6608814794182152
  0.2415018692419437  0.3412884286179789  0.6374426507937514
  0.2570669533505665  0.6797982012902466  0.5815462959435393
  0.5746708088625354  0.0066063639390492  0.6560227631557183
  0.5662501166616494  0.3269766025962682  0.6232739182789402
  0.5713297182416994  0.7191599556444572  0.6481686642181401
  0.8914204621373401  0.3267611083409747  0.6374862700562574
  0.7322632719524833  0.0104054657927861  0.3577474125389557
  0.0573420304643903  0.0124023951380821  0.3803627627468344
  0.0654081658944889  0.3339391883119802  0.3500283221971898
  0.0375613682781832  0.6738067054999846  0.3426279739294387
  0.4241911765828519  0.0139980090743350  0.3690504538304182
  0.4142448185292196  0.3390885822880279  0.3486222096128699
  0.4431816186780750  0.6623896899161537  0.3304666079228369
  0.2354129052384408  0.0147052806798484  0.6434600222246800
  0.9216797790403390  0.6553735726387728  0.6365881382654308
  0.8933927776720481  0.8420869740889287  0.1569786156125659
  0.2098892533821015  0.1712287568839059  0.1382958953464737
  0.8786571465268906  0.1750146236640973  0.1321956298029718
  0.7332208566678062  0.3542080391197331  0.3648973144180232
  0.0703062151164104  0.1715412531554108  0.8702199203977301
  0.0815878822244542  0.5172407584368841  0.8341591628186862
  0.0649798326776718  0.8444465323870247  0.8491139749595362
  0.4028009595357176  0.1665035177188372  0.8489190180656152
  0.3962365059618378  0.5039880719747032  0.8499898872601364
  0.3734798659821550  0.7909843908439740  0.8597885913232375
  0.7316538331926168  0.1746379555104625  0.8654664622054042
  0.7638961134657478  0.5099837329037697  0.8546572516763291
  0.7360348075268135  0.8548130579127289  0.8616238634495730
  0.2304183557167150  0.4636226940602199  0.1573427427546648
  0.2576669030828569  0.8547362486806733  0.1617503633309880
  0.5734339417537058  0.1663476768076251  0.1453187796796840
  0.5855153898089540  0.4962796043365216  0.1309728953308920
  0.5934198305826328  0.8661309723060597  0.1314625278324826
  0.9166917713177440  0.5263064229527714  0.1402994667319390
  0.7242169029012402  0.6684027932579397  0.3720778513153249
 
  0.00000000E+00  0.00000000E+00  0.00000000E+00
  0.00000000E+00  0.00000000E+00  0.00000000E+00
  0.00000000E+00  0.00000000E+00  0.00000000E+00
  0.00000000E+00  0.00000000E+00  0.00000000E+00
  0.00000000E+00  0.00000000E+00  0.00000000E+00
  0.00000000E+00  0.00000000E+00  0.00000000E+00
  0.00000000E+00  0.00000000E+00  0.00000000E+00
  0.00000000E+00  0.00000000E+00  0.00000000E+00
  0.00000000E+00  0.00000000E+00  0.00000000E+00
  0.00000000E+00  0.00000000E+00  0.00000000E+00
  0.00000000E+00  0.00000000E+00  0.00000000E+00
  0.00000000E+00  0.00000000E+00  0.00000000E+00
  0.00000000E+00  0.00000000E+00  0.00000000E+00
  0.00000000E+00  0.00000000E+00  0.00000000E+00
  0.00000000E+00  0.00000000E+00  0.00000000E+00
  0.00000000E+00  0.00000000E+00  0.00000000E+00
  0.00000000E+00  0.00000000E+00  0.00000000E+00
  0.00000000E+00  0.00000000E+00  0.00000000E+00
  0.00000000E+00  0.00000000E+00  0.00000000E+00
  0.00000000E+00  0.00000000E+00  0.00000000E+00
  0.00000000E+00  0.00000000E+00  0.00000000E+00
  0.00000000E+00  0.00000000E+00  0.00000000E+00
  0.00000000E+00  0.00000000E+00  0.00000000E+00
  0.00000000E+00  0.00000000E+00  0.00000000E+00
  0.00000000E+00  0.00000000E+00  0.00000000E+00
  0.00000000E+00  0.00000000E+00  0.00000000E+00
  0.00000000E+00  0.00000000E+00  0.00000000E+00
  0.00000000E+00  0.00000000E+00  0.00000000E+00
  0.00000000E+00  0.00000000E+00  0.00000000E+00
  0.00000000E+00  0.00000000E+00  0.00000000E+00
  0.00000000E+00  0.00000000E+00  0.00000000E+00
  0.00000000E+00  0.00000000E+00  0.00000000E+00
  0.00000000E+00  0.00000000E+00  0.00000000E+00
  0.00000000E+00  0.00000000E+00  0.00000000E+00
  0.00000000E+00  0.00000000E+00  0.00000000E+00
  0.00000000E+00  0.00000000E+00  0.00000000E+00
  0.00000000E+00  0.00000000E+00  0.00000000E+00
  0.00000000E+00  0.00000000E+00  0.00000000E+00
  0.00000000E+00  0.00000000E+00  0.00000000E+00
  0.00000000E+00  0.00000000E+00  0.00000000E+00
  0.00000000E+00  0.00000000E+00  0.00000000E+00
  0.00000000E+00  0.00000000E+00  0.00000000E+00
  0.00000000E+00  0.00000000E+00  0.00000000E+00
  0.00000000E+00  0.00000000E+00  0.00000000E+00
  0.00000000E+00  0.00000000E+00  0.00000000E+00
  0.00000000E+00  0.00000000E+00  0.00000000E+00
  0.00000000E+00  0.00000000E+00  0.00000000E+00
  0.00000000E+00  0.00000000E+00  0.00000000E+00
  0.00000000E+00  0.00000000E+00  0.00000000E+00
  0.00000000E+00  0.00000000E+00  0.00000000E+00
  0.00000000E+00  0.00000000E+00  0.00000000E+00
  0.00000000E+00  0.00000000E+00  0.00000000E+00
  0.00000000E+00  0.00000000E+00  0.00000000E+00
  0.00000000E+00  0.00000000E+00  0.00000000E+00
  0.00000000E+00  0.00000000E+00  0.00000000E+00
  0.00000000E+00  0.00000000E+00  0.00000000E+00
  0.00000000E+00  0.00000000E+00  0.00000000E+00
  0.00000000E+00  0.00000000E+00  0.00000000E+00
  0.00000000E+00  0.00000000E+00  0.00000000E+00
  0.00000000E+00  0.00000000E+00  0.00000000E+00
  0.00000000E+00  0.00000000E+00  0.00000000E+00
  0.00000000E+00  0.00000000E+00  0.00000000E+00
  0.00000000E+00  0.00000000E+00  0.00000000E+00
  0.00000000E+00  0.00000000E+00  0.00000000E+00
  0.00000000E+00  0.00000000E+00  0.00000000E+00
  0.00000000E+00  0.00000000E+00  0.00000000E+00
  0.00000000E+00  0.00000000E+00  0.00000000E+00
  0.00000000E+00  0.00000000E+00  0.00000000E+00
  0.00000000E+00  0.00000000E+00  0.00000000E+00
  0.00000000E+00  0.00000000E+00  0.00000000E+00
  0.00000000E+00  0.00000000E+00  0.00000000E+00
  0.00000000E+00  0.00000000E+00  0.00000000E+00
