Ge Se                                   
    1.000000000000000     
     4.5999999999999996    0.0000000000000000    0.0000000000000000
     0.0000000000000000    4.5999999999999996    0.0000000000000000
     0.0000000000000000    0.0000000000000000   11.1422209999999993
   Ge   Se
     4     4
Selective dynamics
Direct
  0.0000000000000000  0.2500000000000000  0.1473707302424714   T   T   T
  0.5000000000000000  0.7500000000000000  0.3526292697575286   T   T   T
  0.0000000000000000  0.7500000000000000  0.8526292697575286   T   T   T
  0.5000000000000000  0.2500000000000000  0.6473707302424714   T   T   T
  0.0000000000000000  0.2500000000000000  0.3647324453468173   T   T   T
  0.5000000000000000  0.7500000000000000  0.1352675546531827   T   T   T
  0.0000000000000000  0.7500000000000000  0.6352675546531827   T   T   T
  0.5000000000000000  0.2500000000000000  0.8647324453468173   T   T   T
 
  0.00000000E+00  0.00000000E+00  0.00000000E+00
  0.00000000E+00  0.00000000E+00  0.00000000E+00
  0.00000000E+00  0.00000000E+00  0.00000000E+00
  0.00000000E+00  0.00000000E+00  0.00000000E+00
  0.00000000E+00  0.00000000E+00  0.00000000E+00
  0.00000000E+00  0.00000000E+00  0.00000000E+00
  0.00000000E+00  0.00000000E+00  0.00000000E+00
  0.00000000E+00  0.00000000E+00  0.00000000E+00
