Ge Se                                   
    1.000000000000000     
    12.4116113948739386   -0.0000016447104675   -0.0000034004306577
    -0.0000016573422015   12.5069341060998855    0.0000014024368234
    -0.0000039024619998    0.0000015972221839   11.0652999328448782
   Ge   Se
    36    36
Direct
  0.0741956203866323  0.0330411801520327  0.1491892753183564
  0.2351334303097730  0.8884175445896716  0.3725354055733163
  0.5817190789245430  0.2136477955845137  0.3816165083764389
  0.5613855690893601  0.5506925279725721  0.3681434541721629
  0.5523237705260939  0.8824641062505236  0.3627874986512367
  0.8909892578315493  0.2133005008367590  0.3680555298497410
  0.9004098776698584  0.5547623284480494  0.3730341651530580
  0.8935972027373609  0.8750073658935662  0.3751456450441708
  0.0809690574310267  0.1628959123352089  0.6253940985237918
  0.0930090950881137  0.5109349879800575  0.6514224644240514
  0.0600161396624301  0.8073104925824168  0.6329253867067877
  0.4070729638096182  0.1523495867721252  0.6232809108594495
  0.4113089257878997  0.4777020487577275  0.6355242517029467
  0.4273816284321654  0.8271456873407317  0.6327604880266620
  0.7611168405232718  0.1782289157076988  0.6187566367321367
  0.7370226719354349  0.4876012094640174  0.6205273487159815
  0.2334925862798372  0.5390624036447349  0.3628053758537533
  0.2327857117495427  0.1989573326142065  0.3718862525782356
  0.7359263542591634  0.8187441051073918  0.6447820463572853
  0.8931601565142699  0.6500323143693691  0.8659046170555129
  0.9228682138939064  0.9952900606274540  0.8554588175245783
  0.0686730995972198  0.3661417912869354  0.1381109231892239
  0.0756812218210712  0.7184952173415624  0.1293117200831233
  0.4208827108076605  0.0320522758466950  0.1291608288767065
  0.4039279196546417  0.3548888111302730  0.1358328193021947
  0.7340300475372459  0.0621349997804614  0.1224286478400387
  0.7473167829190572  0.3950322149299481  0.1109400362337070
  0.3976060619987791  0.7079571448245403  0.1208406203449144
  0.2286239170754314  0.3124680986161295  0.8913556624184835
  0.2661655967930727  0.6556631666615473  0.8526438224916575
  0.2403112664358176  0.9827019693663956  0.8600571723916701
  0.5641551470878383  0.2958227791609929  0.8704296218762764
  0.5852992016451708  0.6423925679038049  0.8814529591069586
  0.5900011273536663  0.9932583076769390  0.8514043290701849
  0.9057784336486350  0.3386119850860112  0.8946776116164870
  0.7435795699528143  0.7016486055771693  0.1415123431712146
  0.9025452199427662  0.0302649039855609  0.6281448123218780
  0.2416509057124685  0.3467468298374357  0.6534380456426803
  0.2321672808989419  0.6678606597404908  0.6309620083768905
  0.5597407292273076  0.0053560264000296  0.6226559269239402
  0.5727519575854103  0.3475147173524036  0.6323960130215838
  0.5861934856069198  0.6897923245646922  0.6444466170831404
  0.8898444347904970  0.3485677934784874  0.6538364255947400
  0.7321868697237335  0.0057256958959897  0.3479298983804142
  0.0696973206137415  0.0153955268936130  0.3720610488736469
  0.0532052906503679  0.3475362480103499  0.3676981312751906
  0.0785355071380280  0.6834927987533490  0.3623856392382763
  0.4020359178912400  0.0200935113954159  0.3504198981015847
  0.4157208965110186  0.3469740708309601  0.3645479165697409
  0.3956025405416241  0.6829752020683983  0.3559316415729512
  0.2234405376156730  0.0207757445537808  0.6331261778555586
  0.8942306595031013  0.6782340623974363  0.6430765177999191
  0.9074528023878443  0.8430887955451070  0.1452786699096720
  0.2310204714691437  0.1807381391070138  0.1431927061261220
  0.9042386767142503  0.1799033876775695  0.1407211934444987
  0.7345241015934363  0.3386219271819897  0.3423292072783113
  0.0733646358917071  0.1786093047339463  0.8647852048216436
  0.0457668436873604  0.5147872505641544  0.8824997825510579
  0.0696523055847109  0.8555245495237926  0.8573975875428061
  0.4038748149671108  0.1714833574260979  0.8576279775693791
  0.4047383898834767  0.5232892072947521  0.8659760080439227
  0.3940343095432510  0.8286363098191103  0.8521532719760785
  0.7302365860755344  0.1685254881665372  0.8583462687457626
  0.7298995893681592  0.4977965872569143  0.8530797133742922
  0.7474973733687520  0.8507245165532282  0.8586812314034091
  0.2408271017184234  0.4925764548866525  0.1408529304841295
  0.2349803250471751  0.8541096505778683  0.1348573141945622
  0.5667714286247261  0.1785517950142577  0.1427720836188442
  0.5853013427756792  0.5163601559408377  0.1462958660693587
  0.5592279454364473  0.8386734175783843  0.1286814970345134
  0.9077480716220805  0.5218336005315365  0.1387590419681857
  0.7296079542686655  0.6889326587743767  0.3727161734968476
 
  0.00000000E+00  0.00000000E+00  0.00000000E+00
  0.00000000E+00  0.00000000E+00  0.00000000E+00
  0.00000000E+00  0.00000000E+00  0.00000000E+00
  0.00000000E+00  0.00000000E+00  0.00000000E+00
  0.00000000E+00  0.00000000E+00  0.00000000E+00
  0.00000000E+00  0.00000000E+00  0.00000000E+00
  0.00000000E+00  0.00000000E+00  0.00000000E+00
  0.00000000E+00  0.00000000E+00  0.00000000E+00
  0.00000000E+00  0.00000000E+00  0.00000000E+00
  0.00000000E+00  0.00000000E+00  0.00000000E+00
  0.00000000E+00  0.00000000E+00  0.00000000E+00
  0.00000000E+00  0.00000000E+00  0.00000000E+00
  0.00000000E+00  0.00000000E+00  0.00000000E+00
  0.00000000E+00  0.00000000E+00  0.00000000E+00
  0.00000000E+00  0.00000000E+00  0.00000000E+00
  0.00000000E+00  0.00000000E+00  0.00000000E+00
  0.00000000E+00  0.00000000E+00  0.00000000E+00
  0.00000000E+00  0.00000000E+00  0.00000000E+00
  0.00000000E+00  0.00000000E+00  0.00000000E+00
  0.00000000E+00  0.00000000E+00  0.00000000E+00
  0.00000000E+00  0.00000000E+00  0.00000000E+00
  0.00000000E+00  0.00000000E+00  0.00000000E+00
  0.00000000E+00  0.00000000E+00  0.00000000E+00
  0.00000000E+00  0.00000000E+00  0.00000000E+00
  0.00000000E+00  0.00000000E+00  0.00000000E+00
  0.00000000E+00  0.00000000E+00  0.00000000E+00
  0.00000000E+00  0.00000000E+00  0.00000000E+00
  0.00000000E+00  0.00000000E+00  0.00000000E+00
  0.00000000E+00  0.00000000E+00  0.00000000E+00
  0.00000000E+00  0.00000000E+00  0.00000000E+00
  0.00000000E+00  0.00000000E+00  0.00000000E+00
  0.00000000E+00  0.00000000E+00  0.00000000E+00
  0.00000000E+00  0.00000000E+00  0.00000000E+00
  0.00000000E+00  0.00000000E+00  0.00000000E+00
  0.00000000E+00  0.00000000E+00  0.00000000E+00
  0.00000000E+00  0.00000000E+00  0.00000000E+00
  0.00000000E+00  0.00000000E+00  0.00000000E+00
  0.00000000E+00  0.00000000E+00  0.00000000E+00
  0.00000000E+00  0.00000000E+00  0.00000000E+00
  0.00000000E+00  0.00000000E+00  0.00000000E+00
  0.00000000E+00  0.00000000E+00  0.00000000E+00
  0.00000000E+00  0.00000000E+00  0.00000000E+00
  0.00000000E+00  0.00000000E+00  0.00000000E+00
  0.00000000E+00  0.00000000E+00  0.00000000E+00
  0.00000000E+00  0.00000000E+00  0.00000000E+00
  0.00000000E+00  0.00000000E+00  0.00000000E+00
  0.00000000E+00  0.00000000E+00  0.00000000E+00
  0.00000000E+00  0.00000000E+00  0.00000000E+00
  0.00000000E+00  0.00000000E+00  0.00000000E+00
  0.00000000E+00  0.00000000E+00  0.00000000E+00
  0.00000000E+00  0.00000000E+00  0.00000000E+00
  0.00000000E+00  0.00000000E+00  0.00000000E+00
  0.00000000E+00  0.00000000E+00  0.00000000E+00
  0.00000000E+00  0.00000000E+00  0.00000000E+00
  0.00000000E+00  0.00000000E+00  0.00000000E+00
  0.00000000E+00  0.00000000E+00  0.00000000E+00
  0.00000000E+00  0.00000000E+00  0.00000000E+00
  0.00000000E+00  0.00000000E+00  0.00000000E+00
  0.00000000E+00  0.00000000E+00  0.00000000E+00
  0.00000000E+00  0.00000000E+00  0.00000000E+00
  0.00000000E+00  0.00000000E+00  0.00000000E+00
  0.00000000E+00  0.00000000E+00  0.00000000E+00
  0.00000000E+00  0.00000000E+00  0.00000000E+00
  0.00000000E+00  0.00000000E+00  0.00000000E+00
  0.00000000E+00  0.00000000E+00  0.00000000E+00
  0.00000000E+00  0.00000000E+00  0.00000000E+00
  0.00000000E+00  0.00000000E+00  0.00000000E+00
  0.00000000E+00  0.00000000E+00  0.00000000E+00
  0.00000000E+00  0.00000000E+00  0.00000000E+00
  0.00000000E+00  0.00000000E+00  0.00000000E+00
  0.00000000E+00  0.00000000E+00  0.00000000E+00
  0.00000000E+00  0.00000000E+00  0.00000000E+00
