 running  256 mpi-ranks, with    1 threads/rank, on   14 nodes
 distrk:  each k-point on  256 cores,    1 groups
 distr:  one band on  128 cores,    2 groups
 vasp.6.4.2 20Jul23 (build Jun 13 2024 16:43:53) complex                         
 POSCAR found type information on POSCAR C 
 POSCAR found :  1 types and     364 ions
 Reading from existing POTCAR
 -----------------------------------------------------------------------------
|                                                                             |
|           W    W    AA    RRRRR   N    N  II  N    N   GGGG   !!!           |
|           W    W   A  A   R    R  NN   N  II  NN   N  G    G  !!!           |
|           W    W  A    A  R    R  N N  N  II  N N  N  G       !!!           |
|           W WW W  AAAAAA  RRRRR   N  N N  II  N  N N  G  GGG   !            |
|           WW  WW  A    A  R   R   N   NN  II  N   NN  G    G                |
|           W    W  A    A  R    R  N    N  II  N    N   GGGG   !!!           |
|                                                                             |
|     You use a magnetic or noncollinear calculation, but did not specify     |
|     the initial magnetic moment with the MAGMOM tag. Note that a            |
|     default of 1 will be used for all atoms. This ferromagnetic setup       |
|     may break the symmetry of the crystal, in particular it may rule        |
|     out finding an antiferromagnetic solution. Thence, we recommend         |
|     setting the initial magnetic moment manually or verifying carefully     |
|     that this magnetic setup is desired.                                    |
|                                                                             |
 -----------------------------------------------------------------------------

 scaLAPACK will be used
 Reading from existing POTCAR
 -----------------------------------------------------------------------------
|                                                                             |
|               ----> ADVICE to this user running VASP <----                  |
|                                                                             |
|     You have a (more or less) 'large supercell' and for larger cells it     |
|     might be more efficient to use real-space projection operators.         |
|     Therefore, try LREAL= Auto in the INCAR file.                           |
|     Mind: If you want to do very accurate calculations, keep the            |
|     reciprocal projection scheme (i.e. LREAL=.FALSE.).                      |
|                                                                             |
 -----------------------------------------------------------------------------

 LDA part: xc-table for Pade appr. of Perdew
 found WAVECAR, reading the header
  number of k-points has changed, file:     2 present:    10
  trying to continue reading WAVECAR, but it might fail
 WARNING: stress and forces are not correct
 POSCAR, INCAR and KPOINTS ok, starting setup
 FFT: planning ... GRIDC
 FFT: planning ... GRID_SOFT
 FFT: planning ... GRID
 reading WAVECAR
 the WAVECAR file was read successfully
 reading imaginary part of occupancies ...
 charge-density read from file: 06_SOC                                  
 reading imaginary part of occupancies ...
 magnetization density read from file 1
 reading imaginary part of occupancies ...
 magnetization density read from file 2
 reading imaginary part of occupancies ...
 magnetization density read from file 3
 entering main loop
       N       E                     dE             d eps       ncg     rms          rms(c)
DAV:   1    -0.330695870205E+04   -0.33070E+04   -0.59225E+02 36944   0.173E+01
DAV:   2    -0.330861123136E+04   -0.16525E+01   -0.16524E+01 40424   0.411E+00
DAV:   3    -0.330866190454E+04   -0.50673E-01   -0.50672E-01 47968   0.629E-01
DAV:   4    -0.330866244258E+04   -0.53804E-03   -0.53796E-03 39792   0.727E-02
DAV:   5    -0.330866246719E+04   -0.24609E-04   -0.24604E-04 48568   0.132E-02
DAV:   6    -0.330866246773E+04   -0.53877E-06   -0.53306E-06 33408   0.185E-03
   1 F= -.33226016E+04 E0= -.33226016E+04  d E =-.961366E-66  mag=     0.0000    -0.0000     0.0000
 writing wavefunctions
 PROFILE, used timers:     261
