
     Program PWSCF v.7.2 starts on 14Nov2024 at 15:31:16 

     This program is part of the open-source Quantum ESPRESSO suite
     for quantum simulation of materials; please cite
         "P. Giannozzi et al., J. Phys.:Condens. Matter 21 395502 (2009);
         "P. Giannozzi et al., J. Phys.:Condens. Matter 29 465901 (2017);
         "P. Giannozzi et al., J. Chem. Phys. 152 154105 (2020);
          URL http://www.quantum-espresso.org", 
     in publications or presentations arising from this work. More details at
     http://www.quantum-espresso.org/quote

     Parallel version (MPI & OpenMP), running on    6144 processor cores
     Number of MPI processes:              1536
     Threads/MPI process:                     4

     MPI processes distributed on    24 nodes
     485365 MiB available memory on the printing compute node when the environment starts

     Reading input from espresso.pwi
Warning: card &IONS ignored
Warning: card / ignored
Warning: card &CELL ignored
Warning: card / ignored

     Current dimensions of program PWSCF are:
     Max number of different atomic species (ntypx) = 10
     Max number of k-points (npk) =  40000
     Max angular momentum in pseudopotentials (lmaxx) =  4

     Atomic positions and unit cell read from directory:
     ./CNT_PBE.save/
     Atomic positions from file used, from input discarded


     K-points division:     npool     =       2
     R & G space division:  proc/nbgrp/npool/nimage =     768
     WARNING: too many processors for an effective parallelization!
     wavefunctions fft division:  task group distribution
                                  #TG    x Z-proc =      12     64
     Subspace diagonalization in iterative solution of the eigenvalue problem:
     one sub-group per band group will be used
     custom distributed-memory algorithm (size of sub-group:  9*  9 procs)


     Parallelization info
     --------------------
     sticks:   dense  smooth     PW     G-vecs:    dense   smooth      PW
     Min          57      57     14                14383    14383    1818
     Max          58      58     15                14402    14402    1843
     Sum       43977   43977  11115             11053081 11053081 1403735

     Using Pencil Decomposition



     bravais-lattice index     =            0
     lattice parameter (alat)  =      61.1748  a.u.
     unit-cell volume          =  176044.1909 (a.u.)^3
     number of atoms/cell      =          365
     number of atomic types    =            2
     number of electrons       =      1462.00
     number of Kohn-Sham states=          896
     kinetic-energy cutoff     =      60.0000  Ry
     charge density cutoff     =     240.0000  Ry
     Exchange-correlation= PBE
                           (   1   4   3   4   0   0   0)

     celldm(1)=  61.174780  celldm(2)=   0.000000  celldm(3)=   0.000000
     celldm(4)=   0.000000  celldm(5)=   0.000000  celldm(6)=   0.000000

     crystal axes: (cart. coord. in units of alat)
               a(1) = (   1.000000   0.000000   0.000000 )  
               a(2) = (   0.000000   0.615409   0.000000 )  
               a(3) = (   0.000000   0.000000   1.249513 )  

     reciprocal axes: (cart. coord. in units 2 pi/alat)
               b(1) = (  1.000000  0.000000  0.000000 )  
               b(2) = (  0.000000  1.624937  0.000000 )  
               b(3) = (  0.000000  0.000000  0.800312 )  


     PseudoPot. # 1 for C  read from file:
     ./C_ONCV_PBE-1.2.upf
     MD5 check sum: 1a5f83a7b1f58d24996abe00ed223ac6
     Pseudo is Norm-conserving, Zval =  4.0
     Generated using ONCVPSP code by D. R. Hamann
     Using radial grid of  602 points,  4 beta functions with: 
                l(1) =   0
                l(2) =   0
                l(3) =   1
                l(4) =   1

     PseudoPot. # 2 for Se read from file:
     ./Se_ONCV_PBE-1.2.upf
     MD5 check sum: e78e48a4f5d8ce1f8dc76ec1271f249c
     Pseudo is Norm-conserving, Zval =  6.0
     Generated using ONCVPSP code by D. R. Hamann
     Using radial grid of  602 points,  6 beta functions with: 
                l(1) =   0
                l(2) =   0
                l(3) =   1
                l(4) =   1
                l(5) =   2
                l(6) =   2

     atomic species   valence    mass     pseudopotential
        C              4.00    12.01100     C ( 1.00)
        Se             6.00    78.96000     Se( 1.00)

     No symmetry found


                                    s                        frac. trans.

      isym =  1     identity                                     

 cryst.   s( 1) = (     1          0          0      )
                  (     0          1          0      )
                  (     0          0          1      )

 cart.    s( 1) = (  1.0000000  0.0000000  0.0000000 )
                  (  0.0000000  1.0000000  0.0000000 )
                  (  0.0000000  0.0000000  1.0000000 )


   Cartesian axes

     site n.     atom                  positions (alat units)
         1           C   tau(   1) = (   0.3709649   0.3312756   0.0030847  )
         2           C   tau(   2) = (   0.3687886   0.3346704   0.0785943  )
         3           C   tau(   3) = (   0.3380600   0.3661665   0.0763375  )
         4           C   tau(   4) = (   0.3204964   0.3762649   0.0374102  )
         5           C   tau(   5) = (   0.2778193   0.3869584   0.0351410  )
         6           C   tau(   6) = (   0.3664688   0.3379916   0.1540928  )
         7           C   tau(   7) = (   0.3346861   0.3684166   0.1518421  )
         8           C   tau(   8) = (   0.3167937   0.3779038   0.1129157  )
         9           C   tau(   9) = (   0.2737690   0.3871160   0.1106423  )
        10           C   tau(  10) = (   0.2535560   0.3857890   0.0717233  )
        11           C   tau(  11) = (   0.2121012   0.3710454   0.0694638  )
        12           C   tau(  12) = (   0.1955926   0.3593031   0.0305382  )
        13           C   tau(  13) = (   0.1680345   0.3250008   0.0282795  )
        14           C   tau(  14) = (   0.3640065   0.3412351   0.2295858  )
        15           C   tau(  15) = (   0.3312186   0.3705826   0.2273467  )
        16           C   tau(  16) = (   0.3130234   0.3794345   0.1884219  )
        17           C   tau(  17) = (   0.2697107   0.3871643   0.1861506  )
        18           C   tau(  18) = (   0.2495609   0.3851183   0.1472239  )
        19           C   tau(  19) = (   0.2086489   0.3689473   0.1449717  )
        20           C   tau(  20) = (   0.1925505   0.3566441   0.1060477  )
        21           C   tau(  21) = (   0.1661941   0.3214094   0.1037848  )
        22           C   tau(  22) = (   0.1589423   0.3024890   0.0648678  )
        23           C   tau(  23) = (   0.1549889   0.2586644   0.0626042  )
        24           C   tau(  24) = (   0.1587453   0.2387469   0.0236811  )
        25           C   tau(  25) = (   0.1783760   0.1993668   0.0214272  )
        26           C   tau(  26) = (   0.3614371   0.3444016   0.3050804  )
        27           C   tau(  27) = (   0.3276868   0.3726295   0.3028690  )
        28           C   tau(  28) = (   0.3091910   0.3808546   0.2639297  )
        29           C   tau(  29) = (   0.2656522   0.3870857   0.2616659  )
        30           C   tau(  30) = (   0.2455861   0.3843490   0.2227347  )
        31           C   tau(  31) = (   0.2052578   0.3667505   0.2204849  )
        32           C   tau(  32) = (   0.1896013   0.3538869   0.1815657  )
        33           C   tau(  33) = (   0.1644810   0.3177602   0.1792966  )
        34           C   tau(  34) = (   0.1578915   0.2985950   0.1403733  )
        35           C   tau(  35) = (   0.1554506   0.2546643   0.1381135  )
        36           C   tau(  36) = (   0.1598890   0.2348870   0.0991896  )
        37           C   tau(  37) = (   0.1808602   0.1962011   0.0969316  )
        38           C   tau(  38) = (   0.1950179   0.1816955   0.0580118  )
        39           C   tau(  39) = (   0.2331659   0.1597708   0.0557393  )
        40           C   tau(  40) = (   0.2528332   0.1548474   0.0168191  )
        41           C   tau(  41) = (   0.2968132   0.1562093   0.0145633  )
        42           C   tau(  42) = (   0.3707550   0.3309338   0.4194296  )
        43           C   tau(  43) = (   0.3587737   0.3474162   0.3805436  )
        44           C   tau(  44) = (   0.3241009   0.3744057   0.3783907  )
        45           C   tau(  45) = (   0.3053437   0.3821229   0.3394669  )
        46           C   tau(  46) = (   0.2615925   0.3868531   0.3372075  )
        47           C   tau(  47) = (   0.2416408   0.3834358   0.2982800  )
        48           C   tau(  48) = (   0.2019449   0.3644380   0.2960149  )
        49           C   tau(  49) = (   0.1867615   0.3510245   0.2570824  )
        50           C   tau(  50) = (   0.1629242   0.3140498   0.2548053  )
        51           C   tau(  51) = (   0.1569822   0.2946723   0.2158831  )
        52           C   tau(  52) = (   0.1560556   0.2506778   0.2136269  )
        53           C   tau(  53) = (   0.1611672   0.2310679   0.1747042  )
        54           C   tau(  54) = (   0.1834541   0.1931271   0.1724391  )
        55           C   tau(  55) = (   0.1981025   0.1791163   0.1335133  )
        56           C   tau(  56) = (   0.2369801   0.1585154   0.1312461  )
        57           C   tau(  57) = (   0.2568083   0.1542785   0.0923242  )
        58           C   tau(  58) = (   0.3007161   0.1571584   0.0900684  )
        59           C   tau(  59) = (   0.3198171   0.1639567   0.0511476  )
        60           C   tau(  60) = (   0.3556797   0.1894472   0.0488712  )
        61           C   tau(  61) = (   0.3683813   0.2052489   0.0099499  )
        62           C   tau(  62) = (   0.3855513   0.2457602   0.0076920  )
        63           C   tau(  63) = (   0.3685623   0.3332953   0.4948979  )
        64           C   tau(  64) = (   0.3559057   0.3497062   0.4561388  )
        65           C   tau(  65) = (   0.3203548   0.3755662   0.4539651  )
        66           C   tau(  66) = (   0.3014490   0.3829636   0.4151023  )
        67           C   tau(  67) = (   0.2575525   0.3863115   0.4128030  )
        68           C   tau(  68) = (   0.2377349   0.3823035   0.3738302  )
        69           C   tau(  69) = (   0.1987238   0.3619798   0.3715394  )
        70           C   tau(  70) = (   0.1840007   0.3480827   0.3326005  )
        71           C   tau(  71) = (   0.1614608   0.3102855   0.3303184  )
        72           C   tau(  72) = (   0.1562158   0.2907166   0.2914010  )
        73           C   tau(  73) = (   0.1568029   0.2467157   0.2891440  )
        74           C   tau(  74) = (   0.1625902   0.2272955   0.2502153  )
        75           C   tau(  75) = (   0.1861583   0.1901443   0.2479421  )
        76           C   tau(  76) = (   0.2012654   0.1766378   0.2090244  )
        77           C   tau(  77) = (   0.2408294   0.1573637   0.2067701  )
        78           C   tau(  78) = (   0.2607915   0.1538278   0.1678344  )
        79           C   tau(  79) = (   0.3045667   0.1582160   0.1655732  )
        80           C   tau(  80) = (   0.3234345   0.1656742   0.1266534  )
        81           C   tau(  81) = (   0.3583996   0.1923857   0.1243777  )
        82           C   tau(  82) = (   0.3705530   0.2086251   0.0854598  )
        83           C   tau(  83) = (   0.3863175   0.2497038   0.0832051  )
        84           C   tau(  84) = (   0.3881502   0.2698964   0.0442817  )
        85           C   tau(  85) = (   0.3799997   0.3131326   0.0420076  )
        86           C   tau(  86) = (   0.3674523   0.3382404   0.5706301  )
        87           C   tau(  87) = (   0.3532560   0.3521135   0.5320906  )
        88           C   tau(  88) = (   0.3165410   0.3764334   0.5295983  )
        89           C   tau(  89) = (   0.2973730   0.3831006   0.4906587  )
        90           C   tau(  90) = (   0.2535402   0.3853693   0.4883297  )
        91           C   tau(  91) = (   0.2338222   0.3809629   0.4493544  )
        92           C   tau(  92) = (   0.1954531   0.3594170   0.4470548  )
        93           C   tau(  93) = (   0.1812863   0.3450143   0.4081280  )
        94           C   tau(  94) = (   0.1600863   0.3064470   0.4058436  )
        95           C   tau(  95) = (   0.1555663   0.2867166   0.3669060  )
        96           C   tau(  96) = (   0.1576662   0.2427762   0.3646448  )
        97           C   tau(  97) = (   0.1641046   0.2235636   0.3257238  )
        98           C   tau(  98) = (   0.1889344   0.1872236   0.3234478  )
        99           C   tau(  99) = (   0.2045256   0.1742668   0.2845391  )
       100           C   tau( 100) = (   0.2447183   0.1563464   0.2822975  )
       101           C   tau( 101) = (   0.2647814   0.1534750   0.2433501  )
       102           C   tau( 102) = (   0.3083902   0.1593541   0.2410889  )
       103           C   tau( 103) = (   0.3269753   0.1674895   0.2021678  )
       104           C   tau( 104) = (   0.3609867   0.1954104   0.1998895  )
       105           C   tau( 105) = (   0.3725808   0.2120702   0.1609671  )
       106           C   tau( 106) = (   0.3869013   0.2536696   0.1587062  )
       107           C   tau( 107) = (   0.3880665   0.2739171   0.1197888  )
       108           C   tau( 108) = (   0.3784364   0.3168518   0.1175143  )
       109           C   tau( 109) = (   0.3645212   0.3413294   0.6463916  )
       110           C   tau( 110) = (   0.3504626   0.3553848   0.6070502  )
       111           C   tau( 111) = (   0.3128293   0.3782488   0.6048630  )
       112           C   tau( 112) = (   0.2934310   0.3839791   0.5660643  )
       113           C   tau( 113) = (   0.2493267   0.3849046   0.5637888  )
       114           C   tau( 114) = (   0.2298761   0.3795261   0.5249253  )
       115           C   tau( 115) = (   0.1922385   0.3567443   0.5226040  )
       116           C   tau( 116) = (   0.1786262   0.3418254   0.4836411  )
       117           C   tau( 117) = (   0.1588363   0.3025678   0.4813609  )
       118           C   tau( 118) = (   0.1549851   0.2826986   0.4424231  )
       119           C   tau( 119) = (   0.1586031   0.2388334   0.4401586  )
       120           C   tau( 120) = (   0.1657246   0.2198719   0.4012442  )
       121           C   tau( 121) = (   0.1917490   0.1843795   0.3989640  )
       122           C   tau( 122) = (   0.2078134   0.1719812   0.3600419  )
       123           C   tau( 123) = (   0.2486038   0.1554831   0.3578055  )
       124           C   tau( 124) = (   0.2687669   0.1532667   0.3188982  )
       125           C   tau( 125) = (   0.3121886   0.1606339   0.3166513  )
       126           C   tau( 126) = (   0.3304597   0.1694081   0.2776858  )
       127           C   tau( 127) = (   0.3634460   0.1985080   0.2753931  )
       128           C   tau( 128) = (   0.3744585   0.2155681   0.2364706  )
       129           C   tau( 129) = (   0.3873174   0.2576524   0.2341886  )
       130           C   tau( 130) = (   0.3877902   0.2779301   0.1952864  )
       131           C   tau( 131) = (   0.3766916   0.3205093   0.1930214  )
       132           C   tau( 132) = (   0.3615246   0.3443322   0.7217988  )
       133           C   tau( 133) = (   0.3476054   0.3588705   0.6826684  )
       134           C   tau( 134) = (   0.3092093   0.3806542   0.6803952  )
       135           C   tau( 135) = (   0.2894983   0.3851092   0.6415051  )
       136           C   tau( 136) = (   0.2455266   0.3841021   0.6392752  )
       137           C   tau( 137) = (   0.2260929   0.3781214   0.6003680  )
       138           C   tau( 138) = (   0.1892983   0.3539753   0.5980940  )
       139           C   tau( 139) = (   0.1760717   0.3386508   0.5591892  )
       140           C   tau( 140) = (   0.1576549   0.2986247   0.5569102  )
       141           C   tau( 141) = (   0.1545716   0.2786406   0.5179878  )
       142           C   tau( 142) = (   0.1596962   0.2349302   0.5157075  )
       143           C   tau( 143) = (   0.1674462   0.2162184   0.4767568  )
       144           C   tau( 144) = (   0.1946095   0.1816222   0.4744676  )
       145           C   tau( 145) = (   0.2110688   0.1697480   0.4355597  )
       146           C   tau( 146) = (   0.2524705   0.1547325   0.4333199  )
       147           C   tau( 147) = (   0.2727503   0.1533280   0.3944493  )
       148           C   tau( 148) = (   0.3158674   0.1622403   0.3922255  )
       149           C   tau( 149) = (   0.3338818   0.1714512   0.3532134  )
       150           C   tau( 150) = (   0.3658960   0.2016672   0.3509095  )
       151           C   tau( 151) = (   0.3762221   0.2191229   0.3119794  )
       152           C   tau( 152) = (   0.3875645   0.2616353   0.3096454  )
       153           C   tau( 153) = (   0.3873335   0.2819280   0.2707454  )
       154           C   tau( 154) = (   0.3747965   0.3240958   0.2685032  )
       155           C   tau( 155) = (   0.3588392   0.3473784   0.7972417  )
       156           C   tau( 156) = (   0.3442726   0.3614725   0.7583150  )
       157           C   tau( 157) = (   0.3054003   0.3821209   0.7559938  )
       158           C   tau( 158) = (   0.2856024   0.3862091   0.7169703  )
       159           C   tau( 159) = (   0.2416696   0.3833209   0.7147623  )
       160           C   tau( 160) = (   0.2225108   0.3765584   0.6758886  )
       161           C   tau( 161) = (   0.1865837   0.3510854   0.6736276  )
       162           C   tau( 162) = (   0.1738771   0.3352522   0.6347251  )
       163           C   tau( 163) = (   0.1568637   0.2946940   0.6324559  )
       164           C   tau( 164) = (   0.1543455   0.2745895   0.5935058  )
       165           C   tau( 165) = (   0.1609927   0.2310853   0.5912209  )
       166           C   tau( 166) = (   0.1692596   0.2126324   0.5523030  )
       167           C   tau( 167) = (   0.1976213   0.1789107   0.5500169  )
       168           C   tau( 168) = (   0.2144417   0.1676554   0.5111017  )
       169           C   tau( 169) = (   0.2563269   0.1541466   0.5088443  )
       170           C   tau( 170) = (   0.2766569   0.1535694   0.4699386  )
       171           C   tau( 171) = (   0.3193072   0.1643125   0.4676930  )
       172           C   tau( 172) = (   0.3371325   0.1738615   0.4288095  )
       173           C   tau( 173) = (   0.3683848   0.2050418   0.4265654  )
       174           C   tau( 174) = (   0.3779829   0.2227497   0.3874355  )
       175           C   tau( 175) = (   0.3877226   0.2655755   0.3849909  )
       176           C   tau( 176) = (   0.3867688   0.2858947   0.3461544  )
       177           C   tau( 177) = (   0.3728444   0.3276472   0.3439658  )
       178           C   tau( 178) = (   0.3561932   0.3503666   0.8727408  )
       179           C   tau( 179) = (   0.3410544   0.3638822   0.8338225  )
       180           C   tau( 180) = (   0.3015367   0.3831968   0.8315258  )
       181           C   tau( 181) = (   0.2816016   0.3867928   0.7925507  )
       182           C   tau( 182) = (   0.2377860   0.3823386   0.7903126  )
       183           C   tau( 183) = (   0.2189529   0.3748316   0.7514025  )
       184           C   tau( 184) = (   0.1840051   0.3480977   0.7491479  )
       185           C   tau( 185) = (   0.1718268   0.3318638   0.7102251  )
       186           C   tau( 186) = (   0.1561535   0.2907424   0.7079715  )
       187           C   tau( 187) = (   0.1543327   0.2705566   0.6690599  )
       188           C   tau( 188) = (   0.1624776   0.2273054   0.6667839  )
       189           C   tau( 189) = (   0.1714482   0.2091534   0.6278525  )
       190           C   tau( 190) = (   0.2009293   0.1765363   0.6255798  )
       191           C   tau( 191) = (   0.2180027   0.1657471   0.5866069  )
       192           C   tau( 192) = (   0.2603371   0.1537631   0.5842949  )
       193           C   tau( 193) = (   0.2805220   0.1537665   0.5454296  )
       194           C   tau( 194) = (   0.3227878   0.1664016   0.5431422  )
       195           C   tau( 195) = (   0.3399685   0.1771088   0.5043452  )
       196           C   tau( 196) = (   0.3701984   0.2091296   0.5021922  )
       197           C   tau( 197) = (   0.3800533   0.2264149   0.4628541  )
       198           C   tau( 198) = (   0.3885372   0.2696743   0.4602790  )
       199           C   tau( 199) = (   0.3861870   0.2898228   0.4215027  )
       200           C   tau( 200) = (   0.3534591   0.3532752   0.9482388  )
       201           C   tau( 201) = (   0.3378597   0.3662448   0.9093179  )
       202           C   tau( 202) = (   0.2976596   0.3841450   0.9070505  )
       203           C   tau( 203) = (   0.2775841   0.3870379   0.8681220  )
       204           C   tau( 204) = (   0.2339806   0.3811077   0.8658588  )
       205           C   tau( 205) = (   0.2154103   0.3729912   0.8269127  )
       206           C   tau( 206) = (   0.1814204   0.3450372   0.8246622  )
       207           C   tau( 207) = (   0.1698404   0.3283982   0.7857469  )
       208           C   tau( 208) = (   0.1555459   0.2867731   0.7834955  )
       209           C   tau( 209) = (   0.1544506   0.2665294   0.7445776  )
       210           C   tau( 210) = (   0.1640954   0.2236113   0.7423012  )
       211           C   tau( 211) = (   0.1736877   0.2057696   0.7033705  )
       212           C   tau( 212) = (   0.2043492   0.1741953   0.7011069  )
       213           C   tau( 213) = (   0.2218231   0.1640498   0.6621736  )
       214           C   tau( 214) = (   0.2645265   0.1534315   0.6598720  )
       215           C   tau( 215) = (   0.2847047   0.1544110   0.6208949  )
       216           C   tau( 216) = (   0.3263533   0.1682586   0.6185630  )
       217           C   tau( 217) = (   0.3430554   0.1798002   0.5796189  )
       218           C   tau( 218) = (   0.3719934   0.2130003   0.5771577  )
       219           C   tau( 219) = (   0.3820275   0.2301457   0.5386258  )
       220           C   tau( 220) = (   0.3954587   0.2735384   0.5358113  )
       221           C   tau( 221) = (   0.3867406   0.2939108   0.4965031  )
       222           C   tau( 222) = (   0.3505949   0.3560813   1.0237443  )
       223           C   tau( 223) = (   0.3345598   0.3684976   0.9848253  )
       224           C   tau( 224) = (   0.2937555   0.3849656   0.9825717  )
       225           C   tau( 225) = (   0.2735873   0.3871367   0.9436468  )
       226           C   tau( 226) = (   0.2302189   0.3797210   0.9413783  )
       227           C   tau( 227) = (   0.2119250   0.3710024   0.9024433  )
       228           C   tau( 228) = (   0.1789056   0.3418993   0.9001916  )
       229           C   tau( 229) = (   0.1679286   0.3248623   0.8612678  )
       230           C   tau( 230) = (   0.1550609   0.2827883   0.8590105  )
       231           C   tau( 231) = (   0.1546442   0.2625231   0.8200843  )
       232           C   tau( 232) = (   0.1657707   0.2199481   0.8178122  )
       233           C   tau( 233) = (   0.1760278   0.2024665   0.7788981  )
       234           C   tau( 234) = (   0.2077788   0.1719924   0.7766441  )
       235           C   tau( 235) = (   0.2256534   0.1624676   0.7377043  )
       236           C   tau( 236) = (   0.2686514   0.1531946   0.7354024  )
       237           C   tau( 237) = (   0.2888226   0.1545756   0.6964301  )
       238           C   tau( 238) = (   0.3302467   0.1694754   0.6941360  )
       239           C   tau( 239) = (   0.3465037   0.1816316   0.6552633  )
       240           C   tau( 240) = (   0.3738910   0.2160193   0.6531062  )
       241           C   tau( 241) = (   0.3817464   0.2352029   0.6143560  )
       242           C   tau( 242) = (   0.3888418   0.2779957   0.6127443  )
       243           C   tau( 243) = (   0.3918830   0.2999487   0.5734374  )
       244           C   tau( 244) = (   0.3476196   0.3587802   1.0992603  )
       245           C   tau( 245) = (   0.3311698   0.3706328   1.0603337  )
       246           C   tau( 246) = (   0.2898219   0.3856713   1.0580832  )
       247           C   tau( 247) = (   0.2695939   0.3871370   1.0191609  )
       248           C   tau( 248) = (   0.2265036   0.3782228   1.0168911  )
       249           C   tau( 249) = (   0.2085136   0.3688685   0.9779700  )
       250           C   tau( 250) = (   0.1765097   0.3386687   0.9757187  )
       251           C   tau( 251) = (   0.1661199   0.3212723   0.9367831  )
       252           C   tau( 252) = (   0.1546955   0.2787773   0.9345231  )
       253           C   tau( 253) = (   0.1549686   0.2585146   0.8956046  )
       254           C   tau( 254) = (   0.1675430   0.2163433   0.8933397  )
       255           C   tau( 255) = (   0.1784217   0.1992373   0.8544162  )
       256           C   tau( 256) = (   0.2112140   0.1699068   0.8521654  )
       257           C   tau( 257) = (   0.2294103   0.1609872   0.8132369  )
       258           C   tau( 258) = (   0.2727190   0.1531846   0.8109559  )
       259           C   tau( 259) = (   0.2928613   0.1551595   0.7720288  )
       260           C   tau( 260) = (   0.3337784   0.1713506   0.7697849  )
       261           C   tau( 261) = (   0.3498047   0.1837645   0.7308504  )
       262           C   tau( 262) = (   0.3760423   0.2190079   0.7286949  )
       263           C   tau( 263) = (   0.3832108   0.2380725   0.6898144  )
       264           C   tau( 264) = (   0.3871795   0.2818029   0.6877395  )
       265           C   tau( 265) = (   0.3841299   0.3018504   0.6489603  )
       266           C   tau( 266) = (   0.3445315   0.3613558   1.1747747  )
       267           C   tau( 267) = (   0.3276912   0.3726430   1.1358477  )
       268           C   tau( 268) = (   0.2858482   0.3862478   1.1335922  )
       269           C   tau( 269) = (   0.2655863   0.3870109   1.0946723  )
       270           C   tau( 270) = (   0.2228360   0.3766092   1.0924013  )
       271           C   tau( 271) = (   0.2051834   0.3666321   1.0534806  )
       272           C   tau( 272) = (   0.1742296   0.3353602   1.0512319  )
       273           C   tau( 273) = (   0.1644249   0.3176190   1.0123046  )
       274           C   tau( 274) = (   0.1544689   0.2747541   1.0100403  )
       275           C   tau( 275) = (   0.1554408   0.2545117   0.9711196  )
       276           C   tau( 276) = (   0.1694562   0.2128049   0.9688627  )
       277           C   tau( 277) = (   0.1808976   0.1960804   0.9299340  )
       278           C   tau( 278) = (   0.2147008   0.1679087   0.9276831  )
       279           C   tau( 279) = (   0.2332089   0.1596515   0.8887692  )
       280           C   tau( 280) = (   0.2767624   0.1533894   0.8865022  )
       281           C   tau( 281) = (   0.2968360   0.1560574   0.8475721  )
       282           C   tau( 282) = (   0.3371524   0.1736406   0.8453278  )
       283           C   tau( 283) = (   0.3527944   0.1864601   0.8063801  )
       284           C   tau( 284) = (   0.3778194   0.2226486   0.8041516  )
       285           C   tau( 285) = (   0.3843510   0.2418195   0.7652676  )
       286           C   tau( 286) = (   0.3866903   0.2857696   0.7630822  )
       287           C   tau( 287) = (   0.3822339   0.3056061   0.7242423  )
       288           C   tau( 288) = (   0.3413440   0.3638141   0.0008251  )
       289           C   tau( 289) = (   0.3241350   0.3745214   1.2113636  )
       290           C   tau( 290) = (   0.2818483   0.3866788   1.2091007  )
       291           C   tau( 291) = (   0.2615765   0.3867477   1.1701807  )
       292           C   tau( 292) = (   0.2192103   0.3748797   1.1679102  )
       293           C   tau( 293) = (   0.2019166   0.3642998   1.1289890  )
       294           C   tau( 294) = (   0.1720622   0.3319752   1.1267403  )
       295           C   tau( 295) = (   0.1628798   0.3139054   1.0878207  )
       296           C   tau( 296) = (   0.1544051   0.2707305   1.0855520  )
       297           C   tau( 297) = (   0.1560616   0.2505305   1.0466296  )
       298           C   tau( 298) = (   0.1715070   0.2093317   1.0443791  )
       299           C   tau( 299) = (   0.1835113   0.1930097   1.0054561  )
       300           C   tau( 300) = (   0.2182806   0.1660406   1.0031996  )
       301           C   tau( 301) = (   0.2370597   0.1584483   0.9642804  )
       302           C   tau( 302) = (   0.2807995   0.1537329   0.9620176  )
       303           C   tau( 303) = (   0.3007627   0.1571022   0.9230862  )
       304           C   tau( 304) = (   0.3404596   0.1760718   0.9208314  )
       305           C   tau( 305) = (   0.3556511   0.1894210   0.8819043  )
       306           C   tau( 306) = (   0.3794641   0.2264252   0.8796394  )
       307           C   tau( 307) = (   0.3853086   0.2457940   0.8407201  )
       308           C   tau( 308) = (   0.3861941   0.2897768   0.8384878  )
       309           C   tau( 309) = (   0.3810300   0.3093871   0.7995845  )
       310           C   tau( 310) = (   0.2575684   0.3863381   1.2456856  )
       311           C   tau( 311) = (   0.2156330   0.3730194   1.2434191  )
       312           C   tau( 312) = (   0.1987219   0.3618540   1.2044974  )
       313           C   tau( 313) = (   0.1699993   0.3285206   1.2022447  )
       314           C   tau( 314) = (   0.1614524   0.3101433   1.1633266  )
       315           C   tau( 315) = (   0.1544736   0.2667012   1.1610572  )
       316           C   tau( 316) = (   0.1568322   0.2465747   1.1221380  )
       317           C   tau( 317) = (   0.1736929   0.2059336   1.1198905  )
       318           C   tau( 318) = (   0.1862565   0.1900403   1.0809684  )
       319           C   tau( 319) = (   0.2219342   0.1642959   1.0787030  )
       320           C   tau( 320) = (   0.2409656   0.1573637   1.0397817  )
       321           C   tau( 321) = (   0.2848457   0.1541710   1.0375202  )
       322           C   tau( 322) = (   0.3046758   0.1582539   0.9985936  )
       323           C   tau( 323) = (   0.3437026   0.1785697   0.9963318  )
       324           C   tau( 324) = (   0.3584190   0.1924607   0.9574043  )
       325           C   tau( 325) = (   0.3809756   0.2302357   0.9551272  )
       326           C   tau( 326) = (   0.3861907   0.2497894   0.9161968  )
       327           C   tau( 327) = (   0.3855879   0.2937903   0.9139475  )
       328           C   tau( 328) = (   0.3797474   0.3131945   0.8750394  )
       329           C   tau( 329) = (   0.1601384   0.3063368   1.2388283  )
       330           C   tau( 330) = (   0.1546662   0.2626753   1.2365608  )
       331           C   tau( 331) = (   0.1577283   0.2426407   1.1976418  )
       332           C   tau( 332) = (   0.1759845   0.2026073   1.1953928  )
       333           C   tau( 333) = (   0.1890932   0.1871563   1.1564724  )
       334           C   tau( 334) = (   0.2256410   0.1626554   1.1542013  )
       335           C   tau( 335) = (   0.2449049   0.1563910   1.1152816  )
       336           C   tau( 336) = (   0.2888723   0.1547173   1.1130237  )
       337           C   tau( 337) = (   0.3085524   0.1594978   1.0740965  )
       338           C   tau( 338) = (   0.3468558   0.1811453   1.0718285  )
       339           C   tau( 339) = (   0.3610944   0.1955455   1.0329023  )
       340           C   tau( 340) = (   0.3823444   0.2340738   1.0306254  )
       341           C   tau( 341) = (   0.3869028   0.2538047   0.9916988  )
       342           C   tau( 342) = (   0.3847943   0.2977582   0.9894418  )
       343           C   tau( 343) = (   0.3783040   0.3169600   0.9505217  )
       344           C   tau( 344) = (   0.1920183   0.1843774   1.2319758  )
       345           C   tau( 345) = (   0.2293897   0.1611477   1.2297019  )
       346           C   tau( 346) = (   0.2488630   0.1555481   1.1907823  )
       347           C   tau( 347) = (   0.2928635   0.1553937   1.1885274  )
       348           C   tau( 348) = (   0.3123715   0.1608576   1.1496016  )
       349           C   tau( 349) = (   0.3499039   0.1838201   1.1473284  )
       350           C   tau( 350) = (   0.3636444   0.1987054   1.1084049  )
       351           C   tau( 351) = (   0.3835523   0.2379429   1.1061351  )
       352           C   tau( 352) = (   0.3874358   0.2578283   1.0672049  )
       353           C   tau( 353) = (   0.3838100   0.3016775   1.0649451  )
       354           C   tau( 354) = (   0.3766858   0.3206490   1.0260196  )
       355           C   tau( 355) = (   0.3161361   0.1623347   1.2251088  )
       356           C   tau( 356) = (   0.3528568   0.1865813   1.2228316  )
       357           C   tau( 357) = (   0.3660745   0.2019405   1.1839091  )
       358           C   tau( 358) = (   0.3846254   0.2418360   1.1816453  )
       359           C   tau( 359) = (   0.3878256   0.2618496   1.1427166  )
       360           C   tau( 360) = (   0.3826906   0.3055497   1.1404514  )
       361           C   tau( 361) = (   0.3749177   0.3242713   1.1015303  )
       362           C   tau( 362) = (   0.3880683   0.2658723   1.2182321  )
       363           C   tau( 363) = (   0.3814198   0.3093681   1.2159621  )
       364           C   tau( 364) = (   0.3730093   0.3278125   1.1770402  )
       365           Se  tau( 365) = (   0.4534243   0.2947929   0.5546461  )

   Crystallographic axes

     site n.     atom                  positions (cryst. coord.)
         1           C   tau(   1) = (  0.3709649  0.5383020  0.0024687  )
         2           C   tau(   2) = (  0.3687886  0.5438183  0.0629000  )
         3           C   tau(   3) = (  0.3380600  0.5949973  0.0610938  )
         4           C   tau(   4) = (  0.3204964  0.6114068  0.0299398  )
         5           C   tau(   5) = (  0.2778193  0.6287830  0.0281237  )
         6           C   tau(   6) = (  0.3664688  0.5492150  0.1233222  )
         7           C   tau(   7) = (  0.3346861  0.5986537  0.1215210  )
         8           C   tau(   8) = (  0.3167937  0.6140698  0.0903677  )
         9           C   tau(   9) = (  0.2737690  0.6290390  0.0885483  )
        10           C   tau(  10) = (  0.2535560  0.6268828  0.0574010  )
        11           C   tau(  11) = (  0.2121012  0.6029254  0.0555927  )
        12           C   tau(  12) = (  0.1955926  0.5838448  0.0244400  )
        13           C   tau(  13) = (  0.1680345  0.5281058  0.0226324  )
        14           C   tau(  14) = (  0.3640065  0.5544854  0.1837401  )
        15           C   tau(  15) = (  0.3312186  0.6021733  0.1819482  )
        16           C   tau(  16) = (  0.3130234  0.6165571  0.1507962  )
        17           C   tau(  17) = (  0.2697107  0.6291176  0.1489785  )
        18           C   tau(  18) = (  0.2495609  0.6257929  0.1178250  )
        19           C   tau(  19) = (  0.2086489  0.5995161  0.1160225  )
        20           C   tau(  20) = (  0.1925505  0.5795241  0.0848712  )
        21           C   tau(  21) = (  0.1661941  0.5222700  0.0830601  )
        22           C   tau(  22) = (  0.1589423  0.4915256  0.0519144  )
        23           C   tau(  23) = (  0.1549889  0.4203133  0.0501029  )
        24           C   tau(  24) = (  0.1587453  0.3879487  0.0189523  )
        25           C   tau(  25) = (  0.1783760  0.3239585  0.0171484  )
        26           C   tau(  26) = (  0.3614371  0.5596308  0.2441594  )
        27           C   tau(  27) = (  0.3276868  0.6054995  0.2423896  )
        28           C   tau(  28) = (  0.3091910  0.6188646  0.2112260  )
        29           C   tau(  29) = (  0.2656522  0.6289899  0.2094142  )
        30           C   tau(  30) = (  0.2455861  0.6245428  0.1782572  )
        31           C   tau(  31) = (  0.2052578  0.5959463  0.1764566  )
        32           C   tau(  32) = (  0.1896013  0.5750439  0.1453092  )
        33           C   tau(  33) = (  0.1644810  0.5163403  0.1434931  )
        34           C   tau(  34) = (  0.1578915  0.4851980  0.1123423  )
        35           C   tau(  35) = (  0.1554506  0.4138133  0.1105338  )
        36           C   tau(  36) = (  0.1598890  0.3816766  0.0793826  )
        37           C   tau(  37) = (  0.1808602  0.3188144  0.0775755  )
        38           C   tau(  38) = (  0.1950179  0.2952437  0.0464275  )
        39           C   tau(  39) = (  0.2331659  0.2596174  0.0446088  )
        40           C   tau(  40) = (  0.2528332  0.2516172  0.0134605  )
        41           C   tau(  41) = (  0.2968132  0.2538302  0.0116552  )
        42           C   tau(  42) = (  0.3707550  0.5377465  0.3356744  )
        43           C   tau(  43) = (  0.3587737  0.5645293  0.3045534  )
        44           C   tau(  44) = (  0.3241009  0.6083856  0.3028304  )
        45           C   tau(  45) = (  0.3053437  0.6209256  0.2716792  )
        46           C   tau(  46) = (  0.2615925  0.6286118  0.2698710  )
        47           C   tau(  47) = (  0.2416408  0.6230590  0.2387169  )
        48           C   tau(  48) = (  0.2019449  0.5921887  0.2369041  )
        49           C   tau(  49) = (  0.1867615  0.5703926  0.2057460  )
        50           C   tau(  50) = (  0.1629242  0.5103111  0.2039236  )
        51           C   tau(  51) = (  0.1569822  0.4788239  0.1727737  )
        52           C   tau(  52) = (  0.1560556  0.4073356  0.1709681  )
        53           C   tau(  53) = (  0.1611672  0.3754707  0.1398178  )
        54           C   tau(  54) = (  0.1834541  0.3138193  0.1380050  )
        55           C   tau(  55) = (  0.1981025  0.2910527  0.1068523  )
        56           C   tau(  56) = (  0.2369801  0.2575775  0.1050378  )
        57           C   tau(  57) = (  0.2568083  0.2506929  0.0738881  )
        58           C   tau(  58) = (  0.3007161  0.2553724  0.0720828  )
        59           C   tau(  59) = (  0.3198171  0.2664193  0.0409340  )
        60           C   tau(  60) = (  0.3556797  0.3078397  0.0391122  )
        61           C   tau(  61) = (  0.3683813  0.3335165  0.0079630  )
        62           C   tau(  62) = (  0.3855513  0.3993447  0.0061560  )
        63           C   tau(  63) = (  0.3685623  0.5415838  0.3960725  )
        64           C   tau(  64) = (  0.3559057  0.5682505  0.3650532  )
        65           C   tau(  65) = (  0.3203548  0.6102714  0.3633135  )
        66           C   tau(  66) = (  0.3014490  0.6222916  0.3322112  )
        67           C   tau(  67) = (  0.2575525  0.6277318  0.3303710  )
        68           C   tau(  68) = (  0.2377349  0.6212190  0.2991806  )
        69           C   tau(  69) = (  0.1987238  0.5881943  0.2973472  )
        70           C   tau(  70) = (  0.1840007  0.5656125  0.2661840  )
        71           C   tau(  71) = (  0.1614608  0.5041944  0.2643576  )
        72           C   tau(  72) = (  0.1562158  0.4723961  0.2332115  )
        73           C   tau(  73) = (  0.1568029  0.4008975  0.2314053  )
        74           C   tau(  74) = (  0.1625902  0.3693408  0.2002502  )
        75           C   tau(  75) = (  0.1861583  0.3089724  0.1984309  )
        76           C   tau(  76) = (  0.2012654  0.2870253  0.1672847  )
        77           C   tau(  77) = (  0.2408294  0.2557061  0.1654805  )
        78           C   tau(  78) = (  0.2607915  0.2499604  0.1343198  )
        79           C   tau(  79) = (  0.3045667  0.2570910  0.1325101  )
        80           C   tau(  80) = (  0.3234345  0.2692101  0.1013622  )
        81           C   tau(  81) = (  0.3583996  0.3126146  0.0995409  )
        82           C   tau(  82) = (  0.3705530  0.3390027  0.0683944  )
        83           C   tau(  83) = (  0.3863175  0.4057528  0.0665900  )
        84           C   tau(  84) = (  0.3881502  0.4385645  0.0354391  )
        85           C   tau(  85) = (  0.3799997  0.5088207  0.0336191  )
        86           C   tau(  86) = (  0.3674523  0.5496192  0.4566818  )
        87           C   tau(  87) = (  0.3532560  0.5721622  0.4258382  )
        88           C   tau(  88) = (  0.3165410  0.6116805  0.4238437  )
        89           C   tau(  89) = (  0.2973730  0.6225142  0.3926798  )
        90           C   tau(  90) = (  0.2535402  0.6262007  0.3908159  )
        91           C   tau(  91) = (  0.2338222  0.6190407  0.3596235  )
        92           C   tau(  92) = (  0.1954531  0.5840300  0.3577831  )
        93           C   tau(  93) = (  0.1812863  0.5606264  0.3266296  )
        94           C   tau(  94) = (  0.1600863  0.4979569  0.3248013  )
        95           C   tau(  95) = (  0.1555663  0.4658963  0.2936391  )
        96           C   tau(  96) = (  0.1576662  0.3944960  0.2918295  )
        97           C   tau(  97) = (  0.1641046  0.3632768  0.2606805  )
        98           C   tau(  98) = (  0.1889344  0.3042265  0.2588590  )
        99           C   tau(  99) = (  0.2045256  0.2831725  0.2277199  )
       100           C   tau( 100) = (  0.2447183  0.2540531  0.2259260  )
       101           C   tau( 101) = (  0.2647814  0.2493872  0.1947559  )
       102           C   tau( 102) = (  0.3083902  0.2589403  0.1929462  )
       103           C   tau( 103) = (  0.3269753  0.2721599  0.1617972  )
       104           C   tau( 104) = (  0.3609867  0.3175296  0.1599739  )
       105           C   tau( 105) = (  0.3725808  0.3446006  0.1288238  )
       106           C   tau( 106) = (  0.3869013  0.4121971  0.1270144  )
       107           C   tau( 107) = (  0.3880665  0.4450980  0.0958684  )
       108           C   tau( 108) = (  0.3784364  0.5148642  0.0940481  )
       109           C   tau( 109) = (  0.3645212  0.5546388  0.5173147  )
       110           C   tau( 110) = (  0.3504626  0.5774778  0.4858293  )
       111           C   tau( 111) = (  0.3128293  0.6146304  0.4840788  )
       112           C   tau( 112) = (  0.2934310  0.6239418  0.4530277  )
       113           C   tau( 113) = (  0.2493267  0.6254456  0.4512066  )
       114           C   tau( 114) = (  0.2298761  0.6167059  0.4201037  )
       115           C   tau( 115) = (  0.1922385  0.5796869  0.4182460  )
       116           C   tau( 116) = (  0.1786262  0.5554447  0.3870635  )
       117           C   tau( 117) = (  0.1588363  0.4916536  0.3852386  )
       118           C   tau( 118) = (  0.1549851  0.4593674  0.3540763  )
       119           C   tau( 119) = (  0.1586031  0.3880892  0.3522640  )
       120           C   tau( 120) = (  0.1657246  0.3572780  0.3211204  )
       121           C   tau( 121) = (  0.1917490  0.2996051  0.3192955  )
       122           C   tau( 122) = (  0.2078134  0.2794587  0.2881456  )
       123           C   tau( 123) = (  0.2486038  0.2526502  0.2863559  )
       124           C   tau( 124) = (  0.2687669  0.2490486  0.2552179  )
       125           C   tau( 125) = (  0.3121886  0.2610199  0.2534197  )
       126           C   tau( 126) = (  0.3304597  0.2752775  0.2222351  )
       127           C   tau( 127) = (  0.3634460  0.3225630  0.2204003  )
       128           C   tau( 128) = (  0.3744585  0.3502845  0.1892501  )
       129           C   tau( 129) = (  0.3873174  0.4186689  0.1874239  )
       130           C   tau( 130) = (  0.3877902  0.4516188  0.1562900  )
       131           C   tau( 131) = (  0.3766916  0.5208073  0.1544772  )
       132           C   tau( 132) = (  0.3615246  0.5595181  0.5776639  )
       133           C   tau( 133) = (  0.3476054  0.5831419  0.5463474  )
       134           C   tau( 134) = (  0.3092093  0.6185391  0.5445281  )
       135           C   tau( 135) = (  0.2894983  0.6257781  0.5134039  )
       136           C   tau( 136) = (  0.2455266  0.6241417  0.5116193  )
       137           C   tau( 137) = (  0.2260929  0.6144234  0.4804814  )
       138           C   tau( 138) = (  0.1892983  0.5751876  0.4786615  )
       139           C   tau( 139) = (  0.1760717  0.5502861  0.4475256  )
       140           C   tau( 140) = (  0.1576549  0.4852462  0.4457016  )
       141           C   tau( 141) = (  0.1545716  0.4527734  0.4145516  )
       142           C   tau( 142) = (  0.1596962  0.3817468  0.4127267  )
       143           C   tau( 143) = (  0.1674462  0.3513412  0.3815539  )
       144           C   tau( 144) = (  0.1946095  0.2951246  0.3797219  )
       145           C   tau( 145) = (  0.2110688  0.2758297  0.3485834  )
       146           C   tau( 146) = (  0.2524705  0.2514306  0.3467909  )
       147           C   tau( 147) = (  0.2727503  0.2491483  0.3156823  )
       148           C   tau( 148) = (  0.3158674  0.2636303  0.3139026  )
       149           C   tau( 149) = (  0.3338818  0.2785974  0.2826807  )
       150           C   tau( 150) = (  0.3658960  0.3276965  0.2808369  )
       151           C   tau( 151) = (  0.3762221  0.3560608  0.2496807  )
       152           C   tau( 152) = (  0.3875645  0.4251408  0.2478128  )
       153           C   tau( 153) = (  0.3873335  0.4581152  0.2166806  )
       154           C   tau( 154) = (  0.3747965  0.5266353  0.2148862  )
       155           C   tau( 155) = (  0.3588392  0.5644680  0.6380417  )
       156           C   tau( 156) = (  0.3442726  0.5873700  0.6068882  )
       157           C   tau( 157) = (  0.3054003  0.6209223  0.6050305  )
       158           C   tau( 158) = (  0.2856024  0.6275654  0.5737996  )
       159           C   tau( 159) = (  0.2416696  0.6228723  0.5720325  )
       160           C   tau( 160) = (  0.2225108  0.6118836  0.5409214  )
       161           C   tau( 161) = (  0.1865837  0.5704916  0.5391120  )
       162           C   tau( 162) = (  0.1738771  0.5447636  0.5079778  )
       163           C   tau( 163) = (  0.1568637  0.4788591  0.5061617  )
       164           C   tau( 164) = (  0.1543455  0.4461905  0.4749895  )
       165           C   tau( 165) = (  0.1609927  0.3754991  0.4731609  )
       166           C   tau( 166) = (  0.1692596  0.3455142  0.4420144  )
       167           C   tau( 167) = (  0.1976213  0.2907185  0.4401849  )
       168           C   tau( 168) = (  0.2144417  0.2724294  0.4090406  )
       169           C   tau( 169) = (  0.2563269  0.2504784  0.4072340  )
       170           C   tau( 170) = (  0.2766569  0.2495406  0.3760973  )
       171           C   tau( 171) = (  0.3193072  0.2669974  0.3743001  )
       172           C   tau( 172) = (  0.3371325  0.2825139  0.3431812  )
       173           C   tau( 173) = (  0.3683848  0.3331800  0.3413852  )
       174           C   tau( 174) = (  0.3779829  0.3619543  0.3100691  )
       175           C   tau( 175) = (  0.3877226  0.4315433  0.3081126  )
       176           C   tau( 176) = (  0.3867688  0.4645608  0.2770314  )
       177           C   tau( 177) = (  0.3728444  0.5324060  0.2752798  )
       178           C   tau( 178) = (  0.3561932  0.5693236  0.6984645  )
       179           C   tau( 179) = (  0.3410544  0.5912856  0.6673177  )
       180           C   tau( 180) = (  0.3015367  0.6226706  0.6654797  )
       181           C   tau( 181) = (  0.2816016  0.6285139  0.6342874  )
       182           C   tau( 182) = (  0.2377860  0.6212761  0.6324963  )
       183           C   tau( 183) = (  0.2189529  0.6090777  0.6013561  )
       184           C   tau( 184) = (  0.1840051  0.5656368  0.5995517  )
       185           C   tau( 185) = (  0.1718268  0.5392577  0.5684013  )
       186           C   tau( 186) = (  0.1561535  0.4724380  0.5665977  )
       187           C   tau( 187) = (  0.1543327  0.4396373  0.5354564  )
       188           C   tau( 188) = (  0.1624776  0.3693570  0.5336348  )
       189           C   tau( 189) = (  0.1714482  0.3398610  0.5024776  )
       190           C   tau( 190) = (  0.2009293  0.2868603  0.5006587  )
       191           C   tau( 191) = (  0.2180027  0.2693286  0.4694682  )
       192           C   tau( 192) = (  0.2603371  0.2498554  0.4676180  )
       193           C   tau( 193) = (  0.2805220  0.2498608  0.4365136  )
       194           C   tau( 194) = (  0.3227878  0.2703920  0.4346829  )
       195           C   tau( 195) = (  0.3399685  0.2877906  0.4036332  )
       196           C   tau( 196) = (  0.3701984  0.3398224  0.4019102  )
       197           C   tau( 197) = (  0.3800533  0.3679100  0.3704275  )
       198           C   tau( 198) = (  0.3885372  0.4382036  0.3683666  )
       199           C   tau( 199) = (  0.3861870  0.4709437  0.3373335  )
       200           C   tau( 200) = (  0.3534591  0.5740499  0.7588865  )
       201           C   tau( 201) = (  0.3378597  0.5951247  0.7277376  )
       202           C   tau( 202) = (  0.2976596  0.6242114  0.7259230  )
       203           C   tau( 203) = (  0.2775841  0.6289121  0.6947680  )
       204           C   tau( 204) = (  0.2339806  0.6192759  0.6929568  )
       205           C   tau( 205) = (  0.2154103  0.6060871  0.6617878  )
       206           C   tau( 206) = (  0.1814204  0.5606637  0.6599867  )
       207           C   tau( 207) = (  0.1698404  0.5336263  0.6288423  )
       208           C   tau( 208) = (  0.1555459  0.4659882  0.6270405  )
       209           C   tau( 209) = (  0.1544506  0.4330935  0.5958940  )
       210           C   tau( 210) = (  0.1640954  0.3633542  0.5940722  )
       211           C   tau( 211) = (  0.1736877  0.3343626  0.5629155  )
       212           C   tau( 212) = (  0.2043492  0.2830563  0.5611039  )
       213           C   tau( 213) = (  0.2218231  0.2665706  0.5299452  )
       214           C   tau( 214) = (  0.2645265  0.2493165  0.5281032  )
       215           C   tau( 215) = (  0.2847047  0.2509082  0.4969093  )
       216           C   tau( 216) = (  0.3263533  0.2734096  0.4950431  )
       217           C   tau( 217) = (  0.3430554  0.2921640  0.4638757  )
       218           C   tau( 218) = (  0.3719934  0.3461121  0.4619060  )
       219           C   tau( 219) = (  0.3820275  0.3739722  0.4310685  )
       220           C   tau( 220) = (  0.3954587  0.4444826  0.4288159  )
       221           C   tau( 221) = (  0.3867406  0.4775865  0.3973571  )
       222           C   tau( 222) = (  0.3505949  0.5786096  0.8193143  )
       223           C   tau( 223) = (  0.3345598  0.5987854  0.7881671  )
       224           C   tau( 224) = (  0.2937555  0.6255449  0.7863634  )
       225           C   tau( 225) = (  0.2735873  0.6290727  0.7552114  )
       226           C   tau( 226) = (  0.2302189  0.6170226  0.7533959  )
       227           C   tau( 227) = (  0.2119250  0.6028555  0.7222358  )
       228           C   tau( 228) = (  0.1789056  0.5555647  0.7204337  )
       229           C   tau( 229) = (  0.1679286  0.5278807  0.6892826  )
       230           C   tau( 230) = (  0.1550609  0.4595131  0.6874760  )
       231           C   tau( 231) = (  0.1546442  0.4265834  0.6563229  )
       232           C   tau( 232) = (  0.1657707  0.3574018  0.6545045  )
       233           C   tau( 233) = (  0.1760278  0.3289953  0.6233611  )
       234           C   tau( 234) = (  0.2077788  0.2794768  0.6215572  )
       235           C   tau( 235) = (  0.2256534  0.2639995  0.5903933  )
       236           C   tau( 236) = (  0.2686514  0.2489315  0.5885510  )
       237           C   tau( 237) = (  0.2888226  0.2511756  0.5573610  )
       238           C   tau( 238) = (  0.3302467  0.2753868  0.5555251  )
       239           C   tau( 239) = (  0.3465037  0.2951399  0.5244147  )
       240           C   tau( 240) = (  0.3738910  0.3510178  0.5226884  )
       241           C   tau( 241) = (  0.3817464  0.3821899  0.4916762  )
       242           C   tau( 242) = (  0.3888418  0.4517255  0.4903863  )
       243           C   tau( 243) = (  0.3918830  0.4873976  0.4589286  )
       244           C   tau( 244) = (  0.3476196  0.5829952  0.8797507  )
       245           C   tau( 245) = (  0.3311698  0.6022548  0.8485972  )
       246           C   tau( 246) = (  0.2898219  0.6266914  0.8467962  )
       247           C   tau( 247) = (  0.2695939  0.6290731  0.8156462  )
       248           C   tau( 248) = (  0.2265036  0.6145882  0.8138297  )
       249           C   tau( 249) = (  0.2085136  0.5993880  0.7826807  )
       250           C   tau( 250) = (  0.1765097  0.5503152  0.7808789  )
       251           C   tau( 251) = (  0.1661199  0.5220471  0.7497183  )
       252           C   tau( 252) = (  0.1546955  0.4529956  0.7479096  )
       253           C   tau( 253) = (  0.1549686  0.4200698  0.7167627  )
       254           C   tau( 254) = (  0.1675430  0.3515442  0.7149500  )
       255           C   tau( 255) = (  0.1784217  0.3237480  0.6837992  )
       256           C   tau( 256) = (  0.2112140  0.2760878  0.6819978  )
       257           C   tau( 257) = (  0.2294103  0.2615941  0.6508428  )
       258           C   tau( 258) = (  0.2727190  0.2489153  0.6490173  )
       259           C   tau( 259) = (  0.2928613  0.2521244  0.6178635  )
       260           C   tau( 260) = (  0.3337784  0.2784339  0.6160677  )
       261           C   tau( 261) = (  0.3498047  0.2986058  0.5849080  )
       262           C   tau( 262) = (  0.3760423  0.3558740  0.5831829  )
       263           C   tau( 263) = (  0.3832108  0.3868527  0.5520664  )
       264           C   tau( 264) = (  0.3871795  0.4579120  0.5504058  )
       265           C   tau( 265) = (  0.3841299  0.4904877  0.5193704  )
       266           C   tau( 266) = (  0.3445315  0.5871803  0.9401857  )
       267           C   tau( 267) = (  0.3276912  0.6055214  0.9090320  )
       268           C   tau( 268) = (  0.2858482  0.6276283  0.9072269  )
       269           C   tau( 269) = (  0.2655863  0.6288682  0.8760789  )
       270           C   tau( 270) = (  0.2228360  0.6119661  0.8742614  )
       271           C   tau( 271) = (  0.2051834  0.5957540  0.8431126  )
       272           C   tau( 272) = (  0.1742296  0.5449391  0.8413130  )
       273           C   tau( 273) = (  0.1644249  0.5161108  0.8101590  )
       274           C   tau( 274) = (  0.1544689  0.4464580  0.8083468  )
       275           C   tau( 275) = (  0.1554408  0.4135654  0.7771982  )
       276           C   tau( 276) = (  0.1694562  0.3457945  0.7753920  )
       277           C   tau( 277) = (  0.1808976  0.3186183  0.7442369  )
       278           C   tau( 278) = (  0.2147008  0.2728411  0.7424354  )
       279           C   tau( 279) = (  0.2332089  0.2594236  0.7112922  )
       280           C   tau( 280) = (  0.2767624  0.2492481  0.7094779  )
       281           C   tau( 281) = (  0.2968360  0.2535834  0.6783217  )
       282           C   tau( 282) = (  0.3371524  0.2821550  0.6765256  )
       283           C   tau( 283) = (  0.3527944  0.3029859  0.6453553  )
       284           C   tau( 284) = (  0.3778194  0.3617899  0.6435718  )
       285           C   tau( 285) = (  0.3843510  0.3929415  0.6124525  )
       286           C   tau( 286) = (  0.3866903  0.4643575  0.6107035  )
       287           C   tau( 287) = (  0.3822339  0.4965907  0.5796195  )
       288           C   tau( 288) = (  0.3413440  0.5911749  0.0006603  )
       289           C   tau( 289) = (  0.3241350  0.6085736  0.9694683  )
       290           C   tau( 290) = (  0.2818483  0.6283286  0.9676572  )
       291           C   tau( 291) = (  0.2615765  0.6284406  0.9365091  )
       292           C   tau( 292) = (  0.2192103  0.6091558  0.9346920  )
       293           C   tau( 293) = (  0.2019166  0.5919641  0.9035429  )
       294           C   tau( 294) = (  0.1720622  0.5394387  0.9017432  )
       295           C   tau( 295) = (  0.1628798  0.5100765  0.8705955  )
       296           C   tau( 296) = (  0.1544051  0.4399199  0.8687797  )
       297           C   tau( 297) = (  0.1560616  0.4070963  0.8376297  )
       298           C   tau( 298) = (  0.1715070  0.3401507  0.8358286  )
       299           C   tau( 299) = (  0.1835113  0.3136286  0.8046781  )
       300           C   tau( 300) = (  0.2182806  0.2698055  0.8028722  )
       301           C   tau( 301) = (  0.2370597  0.2574685  0.7717247  )
       302           C   tau( 302) = (  0.2807995  0.2498062  0.7699138  )
       303           C   tau( 303) = (  0.3007627  0.2552812  0.7387565  )
       304           C   tau( 304) = (  0.3404596  0.2861055  0.7369520  )
       305           C   tau( 305) = (  0.3556511  0.3077971  0.7057982  )
       306           C   tau( 306) = (  0.3794641  0.3679267  0.7039856  )
       307           C   tau( 307) = (  0.3853086  0.3993997  0.6728380  )
       308           C   tau( 308) = (  0.3861941  0.4708690  0.6710515  )
       309           C   tau( 309) = (  0.3810300  0.5027346  0.6399166  )
       310           C   tau( 310) = (  0.2575684  0.6277751  0.9969365  )
       311           C   tau( 311) = (  0.2156330  0.6061330  0.9951226  )
       312           C   tau( 312) = (  0.1987219  0.5879900  0.9639732  )
       313           C   tau( 313) = (  0.1699993  0.5338252  0.9621703  )
       314           C   tau( 314) = (  0.1614524  0.5039632  0.9310237  )
       315           C   tau( 315) = (  0.1544736  0.4333727  0.9292074  )
       316           C   tau( 316) = (  0.1568322  0.4006683  0.8980600  )
       317           C   tau( 317) = (  0.1736929  0.3346291  0.8962613  )
       318           C   tau( 318) = (  0.1862565  0.3088034  0.8651114  )
       319           C   tau( 319) = (  0.2219342  0.2669705  0.8632984  )
       320           C   tau( 320) = (  0.2409656  0.2557061  0.8321493  )
       321           C   tau( 321) = (  0.2848457  0.2505181  0.8303393  )
       322           C   tau( 322) = (  0.3046758  0.2571526  0.7991860  )
       323           C   tau( 323) = (  0.3437026  0.2901645  0.7973758  )
       324           C   tau( 324) = (  0.3584190  0.3127365  0.7662217  )
       325           C   tau( 325) = (  0.3809756  0.3741184  0.7643993  )
       326           C   tau( 326) = (  0.3861907  0.4058921  0.7332429  )
       327           C   tau( 327) = (  0.3855879  0.4773907  0.7314427  )
       328           C   tau( 328) = (  0.3797474  0.5089213  0.7003041  )
       329           C   tau( 329) = (  0.1601384  0.4977779  0.9914485  )
       330           C   tau( 330) = (  0.1546662  0.4268307  0.9896339  )
       331           C   tau( 331) = (  0.1577283  0.3942758  0.9584865  )
       332           C   tau( 332) = (  0.1759845  0.3292240  0.9566866  )
       333           C   tau( 333) = (  0.1890932  0.3041172  0.9255382  )
       334           C   tau( 334) = (  0.2256410  0.2643047  0.9237206  )
       335           C   tau( 335) = (  0.2449049  0.2541255  0.8925727  )
       336           C   tau( 336) = (  0.2888723  0.2514059  0.8907657  )
       337           C   tau( 337) = (  0.3085524  0.2591738  0.8596118  )
       338           C   tau( 338) = (  0.3468558  0.2943496  0.8577967  )
       339           C   tau( 339) = (  0.3610944  0.3177492  0.8266436  )
       340           C   tau( 340) = (  0.3823444  0.3803552  0.8248213  )
       341           C   tau( 341) = (  0.3869028  0.4124165  0.7936680  )
       342           C   tau( 342) = (  0.3847943  0.4838382  0.7918617  )
       343           C   tau( 343) = (  0.3783040  0.5150399  0.7607134  )
       344           C   tau( 344) = (  0.1920183  0.2996016  0.9859645  )
       345           C   tau( 345) = (  0.2293897  0.2618548  0.9841446  )
       346           C   tau( 346) = (  0.2488630  0.2527558  0.9529968  )
       347           C   tau( 347) = (  0.2928635  0.2525050  0.9511922  )
       348           C   tau( 348) = (  0.3123715  0.2613835  0.9200394  )
       349           C   tau( 349) = (  0.3499039  0.2986961  0.9182202  )
       350           C   tau( 350) = (  0.3636444  0.3228837  0.8870692  )
       351           C   tau( 351) = (  0.3835523  0.3866422  0.8852527  )
       352           C   tau( 352) = (  0.3874358  0.4189547  0.8540964  )
       353           C   tau( 353) = (  0.3838100  0.4902068  0.8522878  )
       354           C   tau( 354) = (  0.3766858  0.5210343  0.8211353  )
       355           C   tau( 355) = (  0.3161361  0.2637837  0.9804686  )
       356           C   tau( 356) = (  0.3528568  0.3031828  0.9786462  )
       357           C   tau( 357) = (  0.3660745  0.3281405  0.9474961  )
       358           C   tau( 358) = (  0.3846254  0.3929682  0.9456843  )
       359           C   tau( 359) = (  0.3878256  0.4254890  0.9145293  )
       360           C   tau( 360) = (  0.3826906  0.4964990  0.9127164  )
       361           C   tau( 361) = (  0.3749177  0.5269204  0.8815673  )
       362           C   tau( 362) = (  0.3880683  0.4320258  0.9749652  )
       363           C   tau( 363) = (  0.3814198  0.5027037  0.9731485  )
       364           C   tau( 364) = (  0.3730093  0.5326746  0.9419989  )
       365           Se  tau( 365) = (  0.4534243  0.4790198  0.4438896  )

     number of k points=     2
                       cart. coord. in units 2pi/alat
        k(    1) = (   0.0000000   0.0000000   0.0008003), wk =   1.0000000
        k(    2) = (   0.0000000   0.0000000   0.4009561), wk =   1.0000000

                       cryst. coord.
        k(    1) = (   0.0000000   0.0000000   0.0010000), wk =   1.0000000
        k(    2) = (   0.0000000   0.0000000   0.5010000), wk =   1.0000000

     Dense  grid: 11053081 G-vectors     FFT dimensions: ( 320, 192, 384)

     Dynamical RAM for                 wfc:      24.60 MB

     Dynamical RAM for     wfc (w. buffer):      24.60 MB

     Dynamical RAM for           str. fact:       0.44 MB

     Dynamical RAM for           local pot:       0.00 MB

     Dynamical RAM for          nlocal pot:      80.43 MB

     Dynamical RAM for                qrad:       2.49 MB

     Dynamical RAM for          rho,v,vnew:       2.07 MB

     Dynamical RAM for           G-vectors:       0.93 MB

     Dynamical RAM for          h,s,v(r/c):       1.81 MB

     Dynamical RAM for          <psi|beta>:      40.06 MB

     Dynamical RAM for                 psi:      49.19 MB

     Dynamical RAM for                hpsi:      49.19 MB

     Dynamical RAM for      wfcinit/wfcrot:      67.57 MB

     Estimated static dynamical RAM per process >     113.96 MB

     Estimated max dynamical RAM per process >     254.21 MB

     Estimated total dynamical RAM >     381.31 GB

     The potential is recalculated from file :
     ./CNT_PBE.save/charge-density

     Starting wfcs are random

     Band Structure Calculation
     Davidson diagonalization with overlap

     Computing kpt #:     1  of     1 on this pool
     c_bands:  4 eigenvalues not converged
     total cpu time spent up to now is     2564.6 secs

     ethr =  5.03E-12,  avg # of iterations =120.0

     total cpu time spent up to now is     2564.6 secs

     End of band structure calculation

          k = 0.0000 0.0000 0.0008 (****** PWs)   bands (ev):

   -22.6858 -22.6227 -22.6143 -22.4811 -22.4678 -22.4277 -22.4168 -22.4114
   -22.4032 -22.4027 -22.4007 -22.2194 -22.2066 -22.2059 -22.2031 -22.0945
   -22.0880 -21.8981 -21.8789 -21.8778 -21.8754 -21.8509 -21.8384 -21.7912
   -21.7749 -21.7737 -21.7726 -21.6376 -21.6291 -21.5955 -21.5812 -21.5783
   -21.5770 -21.4339 -21.4213 -21.4207 -21.4180 -21.2718 -21.2574 -21.2541
   -21.2516 -21.0527 -21.0425 -20.8777 -20.8377 -20.8368 -20.8350 -20.8326
   -20.8233 -20.8115 -20.8047 -20.8019 -20.7984 -20.7743 -20.7598 -20.7594
   -20.7589 -20.5892 -20.5690 -20.5674 -20.5663 -20.3463 -20.3328 -20.2794
   -20.2511 -20.2486 -20.2476 -20.2352 -20.2263 -20.2252 -20.2201 -20.1429
   -20.1307 -20.1284 -20.1267 -19.8330 -19.8072 -19.8052 -19.8034 -19.5708
   -19.5288 -19.5274 -19.5226 -19.5122 -19.5060 -19.4880 -19.4646 -19.4288
   -19.4033 -19.4025 -19.4020 -19.3262 -19.3066 -19.3053 -19.3047 -19.2669
   -19.2422 -19.2406 -19.2380 -19.2286 -19.2181 -19.2164 -19.2155 -18.9416
   -18.9099 -18.9081 -18.9072 -18.7426 -18.7207 -18.7177 -18.7145 -18.6053
   -18.5727 -18.5693 -18.5645 -18.5623 -18.5589 -18.5067 -18.4825 -18.4803
   -18.4791 -18.3948 -18.3797 -18.3784 -18.3767 -18.0453 -17.9424 -17.9418
   -17.9391 -17.9119 -17.8739 -17.8573 -17.8354 -17.8338 -17.8247 -17.8232
   -17.8221 -17.8143 -17.8097 -17.8063 -17.8031 -17.8001 -17.7977 -17.6821
   -17.6532 -17.6371 -17.6299 -17.5580 -17.5494 -17.4361 -17.3940 -17.3896
   -17.3740 -17.3726 -17.3696 -17.3469 -17.3371 -17.3284 -17.3271 -17.3165
   -17.3103 -17.2506 -17.2265 -17.2176 -17.0505 -17.0473 -17.0148 -16.9789
   -16.9431 -16.9338 -16.8030 -16.7790 -16.5547 -16.4966 -16.4941 -16.4862
   -16.4652 -16.4618 -16.4324 -16.4309 -16.2766 -16.2213 -16.2209 -16.1108
   -16.0248 -15.9894 -15.9636 -15.7931 -15.7921 -15.7768 -15.6191 -15.6140
   -15.6049 -15.5912 -15.5776 -15.5595 -15.5278 -15.5221 -15.5217 -15.5046
   -15.4601 -15.4427 -15.4280 -15.4260 -15.4237 -15.4146 -15.4126 -15.3956
   -15.3826 -15.3740 -15.3707 -15.3679 -15.3662 -15.3315 -15.3302 -15.2227
   -15.1498 -15.1420 -15.1167 -15.1036 -15.0729 -15.0602 -15.0437 -14.9980
   -14.9956 -14.9578 -14.8820 -14.8782 -14.8513 -14.8272 -14.8071 -14.7661
   -14.6053 -14.5916 -14.5495 -14.5470 -14.5443 -14.5238 -14.4761 -14.4657
   -14.4218 -14.4018 -14.3449 -14.3284 -14.2864 -14.2746 -14.2717 -14.2561
   -14.0109 -13.9974 -13.8770 -13.8712 -13.5416 -13.5307 -13.5204 -13.5102
   -13.4775 -13.4715 -13.4472 -13.4360 -13.4209 -13.4141 -13.4137 -13.4128
   -13.4059 -13.4029 -13.3987 -13.3911 -13.3813 -13.3763 -13.3695 -13.3639
   -13.3544 -13.3475 -13.3428 -13.3371 -13.3345 -13.3269 -13.1428 -13.1415
   -13.0834 -13.0805 -13.0798 -13.0727 -13.0610 -13.0601 -13.0539 -13.0465
   -13.0259 -13.0246 -12.9981 -12.9950 -12.8763 -12.8736 -12.5777 -12.5763
   -12.3911 -12.3888 -12.3708 -12.3690 -12.2587 -12.2560 -12.2538 -12.2531
   -12.1968 -12.1916 -12.1536 -12.1534 -12.1442 -12.1359 -12.0711 -12.0684
   -12.0296 -12.0198 -12.0066 -12.0025 -11.9796 -11.9789 -11.9105 -11.9073
   -11.8888 -11.8849 -11.7025 -11.6986 -11.6562 -11.6539 -11.5897 -11.5880
   -11.5555 -11.5542 -11.5064 -11.4967 -11.4774 -11.4744 -11.3957 -11.3951
   -11.3749 -11.3641 -11.3531 -11.3520 -11.3254 -11.3187 -11.2915 -11.2846
   -11.2242 -11.2206 -11.1981 -11.1896 -11.1301 -11.1204 -11.1136 -11.1075
   -11.0598 -11.0562 -11.0359 -11.0335 -11.0247 -11.0216 -11.0203 -11.0147
   -10.9557 -10.9450 -10.9441 -10.9417 -10.8937 -10.8909 -10.8109 -10.8088
   -10.8083 -10.7379 -10.7355 -10.7346 -10.7272 -10.6464 -10.6420 -10.5717
   -10.5654 -10.5176 -10.5072 -10.5060 -10.5053 -10.4975 -10.4954 -10.4949
   -10.4894 -10.4693 -10.4678 -10.4374 -10.4287 -10.4178 -10.4155 -10.3125
   -10.3119 -10.2998 -10.2979 -10.2820 -10.2757 -10.2696 -10.2625 -10.2592
   -10.2564 -10.2075 -10.2034 -10.1383 -10.1279 -10.0906 -10.0866 -10.0712
   -10.0680 -10.0616 -10.0609 -10.0441 -10.0438 -10.0343 -10.0273 -10.0210
   -10.0176  -9.9967  -9.9849  -9.9829  -9.9791  -9.9778  -9.9749  -9.9719
    -9.9669  -9.9587  -9.9451  -9.9416  -9.9400  -9.9302  -9.9270  -9.9072
    -9.9040  -9.8853  -9.8822  -9.8801  -9.8761  -9.8701  -9.8694  -9.8616
    -9.8588  -9.8314  -9.8216  -9.8189  -9.8136  -9.7962  -9.7939  -9.7855
    -9.7838  -9.6961  -9.6845  -9.6779  -9.6741  -9.6501  -9.6393  -9.5797
    -9.5712  -9.5577  -9.5427  -9.5220  -9.5164  -9.5145  -9.5111  -9.4948
    -9.4121  -9.4010  -9.3919  -9.3877  -9.3752  -9.3593  -9.3563  -9.3536
    -9.3482  -9.3381  -9.3356  -9.3272  -9.2535  -9.2519  -9.2350  -9.2140
    -9.2108  -9.2032  -9.1935  -9.1908  -9.1733  -9.1620  -9.1477  -9.1374
    -9.1292  -9.1095  -9.0995  -9.0890  -9.0455  -9.0397  -9.0306  -9.0292
    -9.0183  -9.0162  -9.0070  -8.9999  -8.9947  -8.9943  -8.9881  -8.9808
    -8.9425  -8.9417  -8.9349  -8.9297  -8.8935  -8.8841  -8.7945  -8.7776
    -8.6779  -8.6682  -8.6063  -8.6006  -8.5925  -8.5896  -8.5809  -8.5627
    -8.5439  -8.5414  -8.5296  -8.5236  -8.5167  -8.5153  -8.4810  -8.4778
    -8.3667  -8.3647  -8.3360  -8.3241  -8.3065  -8.2999  -8.2472  -8.2368
    -8.2188  -8.2150  -8.2132  -8.2123  -8.1764  -8.1716  -8.1667  -8.1643
    -8.1421  -8.1386  -8.0991  -8.0929  -8.0450  -8.0438  -8.0227  -8.0185
    -8.0139  -8.0129  -8.0002  -7.9981  -7.9744  -7.9677  -7.9652  -7.9563
    -7.9357  -7.9336  -7.9222  -7.9134  -7.8469  -7.8425  -7.8326  -7.8286
    -7.7476  -7.7389  -7.7046  -7.7020  -7.6915  -7.6878  -7.6797  -7.6792
    -7.6770  -7.6723  -7.6637  -7.6588  -7.6274  -7.6258  -7.5921  -7.5887
    -7.5275  -7.5262  -7.4418  -7.4333  -7.3960  -7.3863  -7.3407  -7.3341
    -7.2656  -7.2518  -7.2393  -7.2363  -7.2274  -7.2196  -7.2072  -7.2059
    -7.1118  -7.0974  -7.0833  -7.0665  -7.0554  -7.0525  -7.0389  -7.0362
    -7.0164  -7.0136  -6.9900  -6.9773  -6.9425  -6.9390  -6.9327  -6.9245
    -6.9241  -6.9219  -6.8917  -6.8822  -6.8543  -6.8507  -6.8356  -6.8323
    -6.7820  -6.7756  -6.7596  -6.7588  -6.6779  -6.6713  -6.6618  -6.6604
    -6.6365  -6.6290  -6.5767  -6.5679  -6.5615  -6.5586  -6.5504  -6.5475
    -6.5465  -6.5392  -6.3570  -6.3538  -6.3380  -6.3106  -6.2971  -6.2925
    -6.2523  -6.2454  -6.2286  -6.2233  -6.2148  -6.2142  -6.2063  -6.2031
    -6.1755  -6.1226  -6.0844  -6.0528  -6.0355  -6.0041  -5.9901  -5.9531
    -5.9518  -5.9318  -5.9089  -5.8896  -5.8041  -5.7976  -5.7603  -5.7566
    -5.6265  -5.5841  -5.5362  -5.4902  -5.4769  -5.4749  -5.4481  -5.4069
    -5.3683  -5.3599  -5.3164  -5.3016  -5.2819  -5.2794  -5.2455  -5.2440
    -5.2214  -5.2155  -5.2137  -5.1807  -5.1766  -5.1229  -5.1141  -5.0934
    -5.0695  -5.0565  -5.0307  -5.0071  -4.9854  -4.9622  -4.9397  -4.9266
    -4.9140  -4.9095  -4.9083  -4.7935  -4.7638  -4.7236  -4.7146  -4.6440
    -4.6208  -4.5719  -4.5601  -4.4110  -4.3249  -4.3088  -4.1696  -4.1286
    -4.0871  -4.0664  -4.0320  -4.0096  -3.8942  -3.8262  -3.7600  -3.7231
    -3.5546  -3.3902  -3.3332  -2.4903  -2.3986  -2.3386  -2.0316  -2.0111
    -1.9516  -1.9174  -1.8410  -1.8389  -1.8001  -1.7094  -1.6886  -1.6823
    -1.6654  -1.6356  -1.5696  -1.5485  -1.5427  -1.5278  -1.4989  -1.4569
    -1.3944  -1.3644  -1.3573  -1.3378  -1.3303  -1.3083  -1.3019  -1.2868
    -1.2833  -1.2557  -1.2510  -1.2502  -1.2422  -1.1983  -1.1976  -1.1871
    -1.1396  -1.1107  -1.1014  -1.0900  -1.0619  -1.0434  -1.0353  -1.0243
    -1.0191  -1.0123  -1.0007  -0.9855  -0.9779  -0.9383  -0.9236  -0.9033
    -0.7474  -0.6761  -0.6677  -0.6655  -0.5918  -0.5812  -0.5500  -0.5010
    -0.4736  -0.4460  -0.4371  -0.4168  -0.3365  -0.2472  -0.2053  -0.1726
    -0.0715  -0.0657  -0.0487   0.0058   0.0608   0.1047   0.1469   0.1907
     0.2361   0.2475   0.2981   0.3548   0.3707   0.3765   0.4195   0.4475
     0.4884   0.5023   0.5036   0.5080   0.5100   0.5174   0.5284   0.5588
     0.6084   0.6242   0.6435   0.6853   0.7345   0.7556   0.7834   0.8019
     0.8155   0.8165   0.8332   0.8379   0.8581   0.8601   0.8684   0.8959
     0.9037   0.9144   0.9463   0.9486   0.9524   0.9559   1.1360   1.1417
     1.1744   1.1822   1.1832   1.2134   1.2175   1.2183   1.2248   1.2310
     1.2351   1.2517   1.2845   1.3010   1.3060   1.3092   1.3241   1.3278
     1.3377   1.3583   1.3690   1.4049   1.4087   1.4967   1.4978   1.5076
     1.5121   1.5193   1.5575   1.5613   1.5632   1.5718   1.5738   1.5949
     1.6001   1.6026   1.6061   1.6318   1.6380   1.6483   1.6622   1.6643
     1.6654   1.6705   1.6991   1.7502   1.7579   1.7690   1.7776   1.7878

          k = 0.0000 0.0000 0.4010 (****** PWs)   bands (ev):

   -22.6745 -22.6627 -22.5414 -22.5314 -22.4712 -22.4528 -22.4504 -22.4498
   -22.3354 -22.3217 -22.3206 -22.3176 -22.2742 -22.2689 -22.0723 -22.0591
   -22.0579 -22.0557 -21.8838 -21.8753 -21.8477 -21.8224 -21.8223 -21.8219
   -21.7153 -21.6939 -21.6924 -21.6911 -21.6727 -21.6666 -21.6646 -21.6632
   -21.4508 -21.4358 -21.4322 -21.4304 -21.3583 -21.3524 -21.1602 -21.1455
   -21.1440 -21.1422 -21.0609 -21.0477 -21.0434 -21.0414 -20.8413 -20.8080
   -20.8067 -20.8066 -20.7183 -20.7031 -20.6971 -20.6803 -20.6791 -20.6783
   -20.5512 -20.5322 -20.5284 -20.5260 -20.5080 -20.4991 -20.4976 -20.4949
   -20.4416 -20.4259 -20.4237 -20.4223 -20.0698 -20.0451 -20.0423 -20.0412
   -19.9463 -19.9338 -19.9069 -19.8923 -19.8907 -19.8861 -19.7499 -19.7325
   -19.7311 -19.7299 -19.5753 -19.5401 -19.5374 -19.5361 -19.4836 -19.4499
   -19.4484 -19.4482 -19.3542 -19.3264 -19.3245 -19.3238 -19.1645 -19.1376
   -19.1353 -19.1315 -19.1031 -19.0792 -19.0777 -19.0766 -19.0578 -19.0512
   -18.9384 -18.9167 -18.9150 -18.9113 -18.8681 -18.8548 -18.8532 -18.8526
   -18.7370 -18.7112 -18.7090 -18.7078 -18.3343 -18.2825 -18.2783 -18.2765
   -18.2560 -18.2264 -18.2236 -18.2226 -18.2007 -18.1895 -18.1885 -18.1846
   -18.0792 -18.0692 -17.9629 -17.8893 -17.8875 -17.8823 -17.8802 -17.8629
   -17.8577 -17.8559 -17.7852 -17.7525 -17.7398 -17.7342 -17.6598 -17.6390
   -17.6349 -17.6338 -17.5571 -17.5260 -17.5054 -17.4973 -17.4514 -17.4419
   -17.4342 -17.4296 -17.4231 -17.4191 -17.3829 -17.3806 -17.2238 -17.1884
   -17.1575 -17.1477 -17.0669 -17.0657 -17.0369 -17.0190 -17.0059 -16.9912
   -16.9605 -16.9503 -16.8717 -16.8673 -16.7782 -16.7444 -16.7086 -16.6998
   -16.3186 -16.2896 -16.2691 -16.2121 -16.1157 -16.0504 -16.0491 -16.0419
   -16.0411 -16.0396 -15.9402 -15.9275 -15.9140 -15.8713 -15.8193 -15.7836
   -15.7617 -15.7603 -15.6601 -15.5687 -15.5612 -15.5610 -15.5262 -15.4636
   -15.4564 -15.4559 -15.4406 -15.4035 -15.4014 -15.3995 -15.3788 -15.3715
   -15.3139 -15.2653 -15.2597 -15.2522 -15.2365 -15.2074 -15.1519 -15.1036
   -15.0977 -15.0939 -15.0852 -15.0841 -15.0583 -15.0441 -15.0327 -14.9691
   -14.9647 -14.9622 -14.9455 -14.9210 -14.9058 -14.8954 -14.8662 -14.8630
   -14.8244 -14.7231 -14.7116 -14.6966 -14.6779 -14.6676 -14.6108 -14.4478
   -14.4214 -14.3497 -14.3448 -13.9785 -13.9709 -13.9700 -13.9635 -13.9546
   -13.9477 -13.8944 -13.8825 -13.8472 -13.8373 -13.8111 -13.8008 -13.6758
   -13.6682 -13.5588 -13.5460 -13.5440 -13.5396 -13.5352 -13.5279 -13.5147
   -13.5087 -13.4854 -13.4750 -13.4160 -13.4121 -13.4071 -13.4005 -13.3706
   -13.3659 -13.2718 -13.2709 -13.2431 -13.2399 -13.0975 -13.0961 -13.0706
   -13.0667 -13.0493 -13.0474 -12.8974 -12.8938 -12.8606 -12.8596 -12.8407
   -12.8376 -12.8175 -12.8132 -12.7764 -12.7698 -12.7592 -12.7519 -12.7186
   -12.7172 -12.6179 -12.6148 -12.5404 -12.5348 -12.5163 -12.5083 -12.4415
   -12.4384 -12.2484 -12.2460 -12.1174 -12.1170 -12.0113 -12.0098 -11.9918
   -11.9903 -11.8666 -11.8642 -11.7862 -11.7852 -11.7528 -11.7484 -11.6904
   -11.6756 -11.6590 -11.6566 -11.6406 -11.6371 -11.6124 -11.6084 -11.5731
   -11.5694 -11.5377 -11.5269 -11.5083 -11.5032 -11.5011 -11.4990 -11.4566
   -11.4527 -11.4266 -11.4228 -11.3756 -11.3718 -11.3536 -11.3509 -11.3284
   -11.3222 -11.2987 -11.2944 -11.2651 -11.2626 -11.2470 -11.2395 -11.1808
   -11.1707 -11.1704 -11.1679 -11.1656 -11.1646 -11.1486 -11.1431 -10.7924
   -10.7870 -10.7773 -10.7742 -10.7669 -10.7628 -10.7535 -10.7516 -10.7269
   -10.7210 -10.7084 -10.7035 -10.6394 -10.6350 -10.5547 -10.5518 -10.5513
   -10.5417 -10.5083 -10.4932 -10.4865 -10.4846 -10.4751 -10.4640 -10.4455
   -10.4319 -10.4292 -10.4253 -10.4090 -10.4068 -10.4026 -10.4021 -10.3950
   -10.3873 -10.3391 -10.3310 -10.3281 -10.3266 -10.3108 -10.3091 -10.3003
   -10.2944 -10.2514 -10.2408 -10.2342 -10.2222 -10.1961 -10.1905 -10.1398
   -10.1380 -10.1226 -10.1168 -10.1066 -10.1038 -10.1024 -10.0920 -10.0779
   -10.0727 -10.0502 -10.0428 -10.0285 -10.0194  -9.9906  -9.9832  -9.9697
    -9.9687  -9.9505  -9.9466  -9.9403  -9.9316  -9.9051  -9.9049  -9.8986
    -9.8979  -9.8913  -9.8902  -9.8201  -9.8113  -9.8002  -9.7967  -9.7953
    -9.7830  -9.7810  -9.7757  -9.7429  -9.7388  -9.7192  -9.7163  -9.7070
    -9.6985  -9.6899  -9.6894  -9.6586  -9.6528  -9.6218  -9.6187  -9.6139
    -9.6035  -9.5581  -9.5533  -9.5162  -9.5035  -9.4971  -9.4817  -9.4786
    -9.4744  -9.4640  -9.4586  -9.4323  -9.4285  -9.3472  -9.3374  -9.3179
    -9.3088  -9.3002  -9.2980  -9.2954  -9.2929  -9.2844  -9.2726  -9.2001
    -9.1865  -9.1721  -9.1548  -9.1420  -9.1330  -9.1218  -9.1198  -9.1089
    -9.1069  -9.1029  -9.1018  -9.0915  -9.0899  -9.0858  -9.0747  -9.0584
    -9.0524  -9.0477  -9.0392  -9.0319  -9.0239  -9.0095  -9.0081  -8.9626
    -8.9557  -8.9435  -8.9394  -8.9266  -8.9265  -8.9135  -8.9116  -8.8175
    -8.8081  -8.6369  -8.6293  -8.6262  -8.5992  -8.5964  -8.5948  -8.5480
    -8.5359  -8.5136  -8.5077  -8.4746  -8.4646  -8.3769  -8.3722  -8.3235
    -8.3208  -8.3124  -8.3072  -8.2853  -8.2827  -8.2697  -8.2596  -8.2493
    -8.2455  -8.2295  -8.2273  -8.1875  -8.1830  -8.1612  -8.1483  -8.1374
    -8.1314  -8.1071  -8.0962  -8.0896  -8.0847  -8.0797  -8.0772  -8.0653
    -8.0634  -8.0600  -8.0526  -8.0449  -8.0437  -8.0362  -8.0351  -8.0236
    -8.0210  -7.9428  -7.9399  -7.9018  -7.8873  -7.8759  -7.8689  -7.8635
    -7.8588  -7.7722  -7.7712  -7.7055  -7.6956  -7.6126  -7.6033  -7.5876
    -7.5787  -7.5727  -7.5704  -7.5592  -7.5473  -7.4871  -7.4811  -7.4607
    -7.4544  -7.4181  -7.4047  -7.3829  -7.3779  -7.3659  -7.3611  -7.3333
    -7.3302  -7.3182  -7.3080  -7.2987  -7.2954  -7.2833  -7.2730  -7.2684
    -7.2664  -7.2634  -7.2594  -7.1920  -7.1808  -7.1250  -7.1178  -7.0075
    -6.9953  -6.9623  -6.9566  -6.9448  -6.9442  -6.9332  -6.9309  -6.9251
    -6.9177  -6.8462  -6.8385  -6.8122  -6.8117  -6.7779  -6.7593  -6.7540
    -6.7429  -6.7297  -6.7115  -6.6775  -6.6701  -6.6597  -6.6485  -6.6398
    -6.6373  -6.5969  -6.5913  -6.5323  -6.5202  -6.4707  -6.4683  -6.4540
    -6.4501  -6.4072  -6.4052  -6.4038  -6.3950  -6.3933  -6.3904  -6.3865
    -6.3848  -6.3794  -6.3692  -6.3497  -6.3402  -6.3133  -6.3111  -6.2137
    -6.2040  -6.0699  -6.0564  -6.0114  -6.0065  -5.9985  -5.9948  -5.9279
    -5.8940  -5.8721  -5.8524  -5.7863  -5.7431  -5.7042  -5.6790  -5.6303
    -5.5963  -5.5416  -5.5397  -5.5132  -5.4967  -5.4847  -5.4807  -5.4350
    -5.4070  -5.3699  -5.3476  -5.3184  -5.3025  -5.2906  -5.2874  -5.2855
    -5.2853  -5.2403  -5.2226  -5.2166  -5.2074  -5.2054  -5.1605  -5.1270
    -5.1185  -5.0905  -5.0697  -4.9877  -4.9535  -4.9431  -4.9423  -4.9267
    -4.8550  -4.8206  -4.8116  -4.7535  -4.7416  -4.6183  -4.6037  -4.5655
    -4.5500  -4.5447  -4.5116  -4.4910  -4.4620  -4.4062  -4.3971  -4.2264
    -4.0724  -4.0560  -3.9555  -3.9456  -3.8890  -3.8522  -3.6501  -3.6248
    -3.5215  -3.4881  -3.4203  -2.4478  -2.3046  -2.2823  -2.1990  -2.1775
    -1.9728  -1.9010  -1.7862  -1.7666  -1.7472  -1.7229  -1.6130  -1.6022
    -1.5835  -1.5802  -1.5752  -1.5736  -1.5639  -1.5203  -1.4843  -1.4832
    -1.4474  -1.4445  -1.4256  -1.4091  -1.3840  -1.3800  -1.3771  -1.3680
    -1.3529  -1.3301  -1.3015  -1.1708  -1.1593  -1.1479  -1.0872  -1.0765
    -1.0667  -1.0601  -1.0213  -1.0126  -1.0117  -1.0098  -1.0088  -1.0062
    -0.9986  -0.9902  -0.9832  -0.9828  -0.9475  -0.9358  -0.9125  -0.8918
    -0.8808  -0.8776  -0.8371  -0.7456  -0.6610  -0.6537  -0.6450  -0.4808
    -0.4149  -0.3621  -0.3487  -0.3407  -0.3188  -0.1850  -0.1343  -0.1116
    -0.0507  -0.0183   0.0204   0.0377   0.0418   0.0887   0.1689   0.1701
     0.1735   0.1859   0.1965   0.2407   0.2848   0.3114   0.3308   0.3463
     0.3482   0.4197   0.4910   0.5234   0.6039   0.6596   0.6793   0.6872
     0.6936   0.6989   0.7027   0.7244   0.7608   0.8025   0.8125   0.8255
     0.8318   0.8481   0.8496   0.8528   0.8538   0.8772   0.8797   0.8876
     0.9022   0.9048   0.9438   0.9562   0.9721   0.9906   1.0212   1.0266
     1.0611   1.0637   1.0836   1.1062   1.1552   1.1635   1.2285   1.2332
     1.2344   1.2429   1.2532   1.2690   1.3068   1.3325   1.3384   1.3406
     1.3833   1.3847   1.4166   1.4183   1.4191   1.4207   1.4389   1.4457
     1.5290   1.5425   1.5722   1.5774   1.5933   1.6712   1.6861   1.6894
     1.6989   1.6997   1.7039   1.7101   1.7138   1.7185   1.7193   1.7231
     1.7237   1.7285   1.7297   1.7411   1.7615   1.7648   1.7745   1.7815

     Writing all to output data dir ./CNT_PBE.save/

     init_run     :      6.77s CPU      9.35s WALL (       1 calls)
     electrons    :   2994.86s CPU   2552.62s WALL (       1 calls)

     Called by init_run:
     wfcinit      :      0.02s CPU      0.01s WALL (       1 calls)
     wfcinit:wfcr :     45.35s CPU     35.02s WALL (       1 calls)
     potinit      :      0.73s CPU      3.19s WALL (       1 calls)
     hinit0       :      1.13s CPU      1.19s WALL (       1 calls)

     Called by electrons:
     c_bands      :   2994.85s CPU   2552.57s WALL (       1 calls)
     v_of_rho     :      0.31s CPU      1.06s WALL (       1 calls)
     v_h          :      0.07s CPU      0.35s WALL (       1 calls)
     v_xc         :      0.24s CPU      0.70s WALL (       1 calls)

     Called by c_bands:
     init_us_2    :      0.12s CPU      0.14s WALL (       1 calls)
     init_us_2:cp :      0.12s CPU      0.14s WALL (       1 calls)
     cegterg      :   2943.72s CPU   2489.62s WALL (       6 calls)

     Called by sum_band:

     Called by *egterg:
     cdiaghg      :     77.29s CPU    153.97s WALL (     121 calls)
     cegterg:over :    221.61s CPU    237.59s WALL (     120 calls)
     cegterg:upda :    164.31s CPU    173.00s WALL (     120 calls)
     cegterg:last :    305.48s CPU    332.15s WALL (      53 calls)
     cdiaghg:chol :      1.52s CPU      7.43s WALL (     121 calls)
     cdiaghg:inve :      0.18s CPU      0.47s WALL (     121 calls)
     cdiaghg:para :     19.77s CPU     36.63s WALL (     242 calls)
     h_psi        :   2201.91s CPU   1610.65s WALL (     127 calls)
     g_psi        :      0.86s CPU      0.27s WALL (     120 calls)

     Called by h_psi:
     h_psi:calbec :    661.61s CPU    670.38s WALL (     127 calls)
     vloc_psi     :    883.98s CPU    284.85s WALL (     127 calls)
     vloc_psi:tg_ :      0.11s CPU      0.05s WALL (     127 calls)
     add_vuspsi   :    653.46s CPU    654.60s WALL (     127 calls)

     General routines
     calbec       :    661.60s CPU    670.38s WALL (     127 calls)
     fft          :      1.18s CPU      2.29s WALL (      10 calls)
     fftw         :    869.29s CPU    281.12s WALL (   94842 calls)
     davcio       :      0.00s CPU      0.11s WALL (       2 calls)

     Parallel routines
     fft_scatt_xy :     23.03s CPU      6.09s WALL (   94852 calls)
     fft_scatt_yz :    727.55s CPU    245.15s WALL (   94852 calls)
     fft_scatt_tg :      3.16s CPU      0.90s WALL (   94842 calls)

     PWSCF        :  50m19.19s CPU  43m44.14s WALL


   This run was terminated on:  16:15: 0  14Nov2024            

=------------------------------------------------------------------------------=
   JOB DONE.
=------------------------------------------------------------------------------=
