Ge Se                                   
    1.000000000000000     
     4.2999999999999998    0.0000000000000000    0.0000000000000000
     0.0000000000000000    4.5000000000000000    0.0000000000000000
     0.0000000000000000    0.0000000000000000   11.1422209999999975
   Ge   Se
     4     4
Selective dynamics
Direct
  0.2500000000000000  0.1068471626775960  0.1314210115934102   T   T   T
  0.7500000000000000  0.6068471626775960  0.3685789884065898   T   T   T
  0.7500000000000000  0.8931528373224040  0.8685789884065898   T   T   T
  0.2500000000000000  0.3931528373224040  0.6314210115934102   T   T   T
  0.2500000000000000  0.9693433494992334  0.3536899980459793   T   T   T
  0.7500000000000000  0.4693433494992334  0.1463100019540207   T   T   T
  0.7500000000000000  0.0306566505007666  0.6463100019540207   T   T   T
  0.2500000000000000  0.5306566505007666  0.8536899980459793   T   T   T
 
  0.00000000E+00  0.00000000E+00  0.00000000E+00
  0.00000000E+00  0.00000000E+00  0.00000000E+00
  0.00000000E+00  0.00000000E+00  0.00000000E+00
  0.00000000E+00  0.00000000E+00  0.00000000E+00
  0.00000000E+00  0.00000000E+00  0.00000000E+00
  0.00000000E+00  0.00000000E+00  0.00000000E+00
  0.00000000E+00  0.00000000E+00  0.00000000E+00
  0.00000000E+00  0.00000000E+00  0.00000000E+00
