Ge Se 
 1.0000000000000000
    12.4599012941007263    0.0000005044214709    0.0000015325166983
     0.0000005068162157   12.5190575708173188    0.0000055528670666
     0.0000017556728992    0.0000063313850916   11.0887661510437638
 Ge  Se 
  36  36
Cartesian
  1.0135659224308973  0.4788288357703896  1.3280589157192597
  2.9473409160914730 10.9340725099996519  4.0529767191085382
  7.2152347414003026  2.5696256834101461  4.1192167782427385
  7.2401890340405091  6.8089891857565927  4.0948295886387900
  7.2248275299168796 10.9688633315163155  4.4079907298805958
 11.1493903977595448  2.7098946913553301  4.1926287862545948
 11.2224739232726218  6.5840923182946005  4.0908114613287898
 11.5378702056908136 10.9268611717225905  3.9015189788543618
  0.8622400865391078  1.9222369488879967  6.9596970764885029
  0.6765126002457666  6.1736739050122047  6.9336144890415845
  0.6285485922967827 10.4633417220726361  6.7907409511381926
  4.8408338027752045  2.0127784644590991  7.1160697224507814
  4.6087588471091721  6.2255510240063341  6.9122473390353933
  4.9634455969496312 10.1783656278657908  7.0633717146686390
  8.8598027313500083  2.0702968357789282  6.8354141755446731
  9.0092066800145094  6.0022781453015002  7.0035234122112673
  3.0379497225106888  6.5371585442760392  4.1995482266940689
  3.2355208939983235  2.4141569434434551  4.0850993979880652
  9.0275265497269590 10.5666549723352556  6.8513657279296281
 11.2039161096489099  8.2711716699938105  9.4395103814896704
 11.0188041458708827 12.4484914747102469  9.6945638179436582
  1.0180765901187037  4.6503695043750186  1.4815546192417473
  0.9923589607738937  8.5730142172953840  1.3857239270240791
  5.2721334959810076  0.3032781968323963  1.5092227291554670
  5.3930400153921196  4.5534990354116855  1.6071801922973792
  9.2903137270961711  0.5577184400615266  1.4909828404347558
  9.2722221766228223  4.8441551015055255  1.2294767132544380
  4.9212844050089100  8.8828132580711223  1.3298114933428307
  2.6218617952002843  4.0433564306280179  9.5289555399764225
  2.6508291276434708  8.4780904955494290  9.7489348005063974
  3.0530624671874174 12.2908412494741857  9.4220309243426730
  6.7862352046642425  4.2033387662957322  9.6204065663652223
  6.9627268105239306  8.0581956090217375  9.6926769358641476
  7.0777012091595877 12.3906111369775775  9.6228401235075225
 11.1966086154986932  3.9700551095344703  9.5460718153538284
  9.1339677447075882  8.6201166326879228  1.4531915116725105
 11.5056812854029307 -0.0635225906939715  7.0834597323793300
  2.5837095072295275  4.4567982203432894  7.1482232123167764
  3.0573879944055555  8.2948496411408534  7.1677219245745789
  6.8617322747175518  0.2552317734402723  7.1128954318242839
  7.2566920195654072  4.2031458331248208  7.0966235694786883
  7.0535903271734188  8.4666853915489870  7.2332616851476024
 11.1668371374196589  4.3804081229434457  6.9804673383123133
  9.2940896770815744 -0.0476380610272866  4.0290708183082202
  0.9943754841956326  0.1093232411752550  3.9452887943876527
  0.5179660250559447  4.6572462088863515  3.9133443739357920
  1.0566509687167889  8.3679457639379891  3.8884055005126203
  4.7870968044350333  0.1748925065498776  4.0487685799065041
  5.0870537391494164  4.1341313425684607  4.1069934781283264
  4.9555459041062857  8.2987122712924801  3.7847638565884103
  3.0521158463390128  0.1214486827355606  7.0204636676708994
 11.0736198791567908  8.7315567539665739  7.0389397807232328
 11.3025842378626820 10.4011442869980915  1.5512246421518121
  2.9665089569764644  2.2985685807899463  1.5069465216505382
 11.1131598054490670  2.2739511735026507  1.6011535053286894
  9.0499543008582997  4.3135357076708098  3.7689378417387975
  0.8223257163456139  2.1524295725059908  9.3974372387359075
  0.7033317000093489  6.5559487708650339  9.4689470535660885
  1.1532514657414645 10.5826201992233493  9.3702185928799420
  4.9261604297462576  2.5239650588853131  9.6321106306570368
  5.1230459098068337  6.3034853061651654  9.4532275435066477
  5.1728709069710899 10.6485210848219243  9.4548574577777114
  9.4395453164205687  2.1077639098228507  9.3880781697333759
  9.0714194278560623  6.4692145533427574  9.4520361053108797
  9.0277123843760272 10.6927072822666833  9.4803591630270461
  3.0435002826321282  6.2746777671215606  1.6603828499997686
  2.7951708577058225 10.5578524582479556  1.4818945077418038
  7.0660188996245941  2.0531139831837142  1.5751047187472063
  7.1622145085489270  6.5105285329973901  1.5429289178763910
  6.8673604634628376 10.7673820822566526  1.9372827090481297
 11.0286896836402040  6.7355687701756253  1.6287156889728196
  8.8577501239282164  8.7166133274597311  3.9813837823204321
