Ge Se
 1.0000000000000000
     3.8581001759000002    0.0000000000000000    0.0000000000000000
     0.0000000000000000    4.5265750884999996    0.0000000000000000
     0.0000000000000000    0.0000000000000000    9.0851764679000002
 Ge  Se 
   2   2
Cartesian
  0.9645250440000001  0.5234617410000000  1.3694657470000000
  2.8935751320000000  2.7867492519999999  4.1731224039999999
  2.8935751320000000  2.2408853739999999  1.6336212520000000
  0.9645250440000001  4.5041731880000002  3.9089669819999999
