Ge Se                                   
    1.000000000000000     
     4.4500000000000002    0.0000000000000000    0.0000000000000000
     0.0000000000000000    4.3499999999999996    0.0000000000000000
     0.0000000000000000    0.0000000000000000   11.1422209999999993
   Ge   Se
     4     4
Selective dynamics
Direct
  0.1038270274812731  0.2500000000000000  0.1325060887089577   T   T   T
  0.6038270274812803  0.7500000000000000  0.3674939112910423   T   T   T
  0.8961729725187269  0.7500000000000000  0.8674939112910423   T   T   T
  0.3961729725187197  0.2500000000000000  0.6325060887089577   T   T   T
  0.9681888616781009  0.2500000000000000  0.3544400671165775   T   T   T
  0.4681888616781009  0.7500000000000000  0.1455599328834225   T   T   T
  0.0318111383218991  0.7500000000000000  0.6455599328834225   T   T   T
  0.5318111383218991  0.2500000000000000  0.8544400671165775   T   T   T
 
  0.00000000E+00  0.00000000E+00  0.00000000E+00
  0.00000000E+00  0.00000000E+00  0.00000000E+00
  0.00000000E+00  0.00000000E+00  0.00000000E+00
  0.00000000E+00  0.00000000E+00  0.00000000E+00
  0.00000000E+00  0.00000000E+00  0.00000000E+00
  0.00000000E+00  0.00000000E+00  0.00000000E+00
  0.00000000E+00  0.00000000E+00  0.00000000E+00
  0.00000000E+00  0.00000000E+00  0.00000000E+00
