Ge Se 
 1.0000000000000000
    12.4323129277684945   -0.0000010758580527   -0.0000024385290174
    -0.0000010838092105   12.5241941409417237    0.0000014481290478
    -0.0000027998502078    0.0000016505028243   11.0889188654871997
 Ge  Se 
  36  36
Cartesian
  0.4287695296377488  0.2304907188681953  1.3016272260671018
  2.9867069234769787 10.9310771344111028  4.1267031280183195
  7.1086609647599444  2.4935644181041368  4.1631641371718864
  6.8498785730272536  6.4174826519482533  4.1891459144510135
  7.2118096670301073 10.5488634516078683  3.9346698618069476
 11.3206130081473333  2.4415779570425062  4.1084716432356281
 11.1848066568356526  6.5665952524074793  3.9323961767443940
 11.1153108546228321 10.5957653628285033  3.8638449121040144
  1.0288319105450745  1.7895166692133140  7.1055782787299240
  0.7421581253503222  6.3720516136341905  6.9015579718004245
  0.7428023750435601 10.2980443820470562  7.1645475454636376
  4.7903030869070431  1.9955440879512600  6.9562428348125467
  4.7006297281052793  6.1673715022052358  7.0386468428825921
  5.0505731466464159 10.3602466622701783  7.1780315989891728
  8.9372592169909666  2.0394614651156613  7.0151030458465158
  9.3482379494813657  5.8812006710701308  6.8633437400075810
  2.8433317107777154  6.8575289583365819  4.2226588512636498
  2.7579538166214324  2.2735928541254364  4.1607430500222904
  9.0350883497475074 10.3590929460304579  7.0021328304163841
 10.8664136245487271  8.4029562272677403  9.7213387627592436
 10.9774497809188105 12.5585694253909477  9.6962394911862262
  1.1143952857601773  4.6128052841285001  1.4908049702150317
  1.2464757611510500  8.8823655201509517  1.6190639946170364
  5.2621674632437587  0.4379055552522096  1.5208126885011599
  4.9809603975545667  4.3055755625301382  1.5137660668317225
  9.0609596638393626  0.3147490199350380  1.3914151216515527
  9.2001602903413531  4.7368139497471971  1.6469836059659240
  5.0685739911821015  8.6186509857660880  1.5658290070191712
  2.6965627427647405  3.9057803755380149  9.7820405704315512
  2.7849583681811407  8.2886912935754378  9.5048396632278980
  2.9932754601823910 12.3052681464465277  9.7384544129534731
  6.9205131350718876  4.1983630332408115  9.4789502225093738
  7.1593659853670477  8.0871243355653384  9.5124550601396862
  6.9773357153043758 12.3821853432283575  9.7085190508379693
 11.3948230713136489  4.0961561978158763  9.6739988755678592
  9.0932778596836776  8.6735874634467383  1.4140854430682901
 11.6009803288973750 -0.2367937697114068  7.1484657303312655
  2.7081985616382029  4.7578110861185312  7.3513097142753550
  3.1728321212208757  8.5726955124303910  6.9972575989081962
  6.8208527134695265  0.3564943596731257  7.2085510282784462
  7.2410569700895211  4.1637009072787885  6.9766247042911713
  7.0905449720309388  8.6423510320865677  7.1121367447525383
 11.4090065016289284  4.3493021493513835  7.0962055185311570
  9.0833709856559750 -0.2091385880117033  3.7760562623032152
  1.2178152685182728  0.2882677086922260  3.8240145497052862
  0.8106586461048799  4.1675130136624032  4.1088226596681547
  1.0019483910317082  8.5404443063139048  4.1155359212978162
  5.3886429999532313 -0.1012665502878567  4.0905383592583764
  5.3368285323001787  4.3785198338971165  4.0114317841130527
  5.0442168283624369  8.3753702342577245  4.0653171930744998
  2.9213783808746365  0.0829328261019445  7.0779673685759894
 11.0659589813138250  8.7476792653797339  7.1241177643792089
 11.5573869371910387 10.4562261945068791  1.4154456785818537
  3.3989826352157535  2.1756118087972038  1.6283203475109824
 11.0980167047298242  2.1463385003001254  1.6475490031887225
  9.5635934737759918  4.3613120172125992  4.1348577554684196
  0.9343298024779307  2.1579036485449965  9.5459264557247181
  0.5799594631551367  6.7894956750223017  9.4701732057142411
  1.1932242943421130 10.3871037960408916  9.7262935619562150
  4.7815351457471982  2.4264162689573552  9.4108557855021182
  5.3518403710337221  6.3283755673551392  9.3988085763508273
  5.0799247101568339 10.5419596516768745  9.6940166133435817
  9.3176484000025042  2.0490136724856702  9.4528584695264364
  9.2676086918968537  6.4162944567602134  9.3433962131007107
  9.0367433029813178 10.7236808714867795  9.4753728554503542
  2.8681995246551404  6.1825427970967022  1.6583363516960021
  3.4228226384155689 10.6663163791100892  1.5578202427128596
  7.3440151222650307  2.3285423004971033  1.5928888485543418
  7.3846188622491526  6.4804861798625835  1.6174255554959767
  7.0671067259162301 10.2099874321167352  1.3974671156461786
 11.3360899759419596  6.2341183500728024  1.4412566724477034
  9.4984602156067215  8.6271546143096067  3.9687997630858121
