Ge Se 
 1.0000000000000000
    12.3872782776821033   -0.0000046773649827   -0.0000023069573806
    -0.0000047306349954   12.5283472845824377    0.0000023400407406
    -0.0000026570346638    0.0000026647893705   11.0831644016759530
 Ge  Se 
  36  36
Cartesian
  1.0075546492517053  0.3868369190415917  1.5310248720333504
  2.9779165886360945 10.9586549530309387  4.2811303982134454
  6.9728416278805456  2.5314320429218617  4.0972184635945359
  7.0753420698928151  6.9179634093328630  4.1790576585421153
  7.0636110820471556 10.9563237738752104  3.9786917638230150
 11.2261202217785279  2.6058596918690951  4.1269935538381128
 11.5696699379861059  7.0117427793946527  4.3918849596219847
 11.1160656578188473 10.8395454712334551  4.0972023858702773
  0.9473778679090095  1.7482112816456816  7.0346927460271909
  0.7018463787026457  5.9423586072127330  7.1829353307825450
  1.0421754669292900 10.2404823113650352  6.8710554919878746
  5.0936538822564037  1.9729685521474543  7.1084919349116644
  4.8052392177401764  6.0327619442188043  6.9999323427529898
  5.0446875327130476 10.0878462697589999  6.9161024581300836
  9.3048162636990348  1.6606689719439454  7.0072486068372557
  9.2557335170255506  5.9742377605270258  6.8553752333803892
  3.0655895017992636  6.8362378666707402  3.9423620313318439
  2.8346303910254407  2.7962455182053549  4.0368579178109707
  9.3848020159275229 10.2131715962622316  6.9526792241195023
 11.1514451248915307  8.1410113326270590  9.7511291829447924
 11.2469771247719788 12.3146419575652999  9.5925895661954534
  0.5633844898862419  4.7066810783926831  1.3480592017265616
  0.9199091215354149  8.7697182300532841  1.3185421131324797
  5.0303087921011320  0.4082681986330650  1.4277232760450356
  4.9149889669322882  4.5495931840128314  1.5135666574705018
  9.1594785737692721  0.3968842736887644  1.3607000202634025
  8.9274339162781260  4.7657690036849774  1.3687194903744464
  4.9857122259532023  8.9459625940780612  1.2010004270001353
  2.8782542807614702  3.9246077693457817  9.6672245420371254
  2.7979375939117075  8.2073292540343399  9.5512635102230252
  3.1131129479579931 12.2520335846947415  9.6732016592923848
  7.0174090528254869  4.1962852370852586  9.4031600907472779
  7.1436191294354137  8.2808581307167337  9.5360127169956286
  7.1243873956741970 12.1176539486332562  9.6849358310106766
 11.1561100670620039  3.8797326608776070  9.9233204253860041
  9.0706215009180085  8.6887584120891752  1.3062900376865865
 11.3480704819938900  0.0736115076153659  7.0830896609693337
  2.7809736979925330  4.3713695555844483  7.2110153896730917
  2.9462766610113764  8.4341527466458643  7.0221517408274199
  7.1173174436182176 -0.0011322884420360  7.1692885926390213
  7.2357305189991603  4.3111400073575243  6.9692941002188862
  7.2460626261736696  8.5857127976974557  7.0636852870664821
 11.2774531326611438  4.2679997529136520  7.3594348954916731
  9.2559521148408574  0.0170964478760175  3.7958395991102098
  0.8935232478373913  0.1930297065905221  3.9837496855631520
  0.7597533241282237  4.4919854614303976  3.8483801598185470
  1.0956253650747998  8.5628386457172780  3.8784324552130500
  4.8679913917671094  0.2111993925913412  3.9187543619777379
  4.9991394913749927  4.3865680643606195  4.1580271013341106
  5.0170116974568257  8.6227044004851390  3.8343027328740593
  3.0259079456938505  0.3073325855281568  7.2269619468864530
 11.2133979207229117  8.4705160540652571  7.1814195171213298
 11.2130022414282458 10.4561538840458734  1.4124453734622580
  2.9290784470462659  2.3890518520601436  1.4605315464963913
 11.3823131712182768  2.2586349832056687  1.7052885893535101
  9.0962053748754794  4.3009569668245158  3.8836980430736991
  0.7914310477253895  2.1604785206038644  9.6447018638865600
  0.7409063504655985  6.5709401532826970  9.5864684790630097
  0.9346105804855401 10.6984486672251986  9.6067684870189840
  4.9498969739641545  2.3548597449218120  9.5590388501142822
  5.0500732900088492  6.4936905967231553  9.3829607333337375
  5.0673804211371811 10.5509446217046605  9.4159867005300626
  9.1763725954107400  2.1728598339696044  9.5121272969618040
  9.0950846171036162  6.3477318899175224  9.3771559888090259
  9.0782524732889698 10.5495061954566065  9.5101972072143415
  3.0465914510121346  6.4050261685221681  1.4705605258109793
  2.8889718788060379 10.4522366093094252  1.8062921543098627
  7.1561581245973747  2.0606996338434875  1.6811527530349935
  6.8759084594352640  6.4212136962727229  1.5572554321118233
  7.0170079969983385 10.6115060151043270  1.5119798214650497
 10.9351276327890599  6.3776147527588041  1.7224262854060592
  9.2833635925614466  8.4179617383601748  3.9532220341276321
