Ge Se
 1.0000000000000000
     4.7000000000000002    0.0000000000000000    0.0000000000000000
     0.0000000000000000    3.9499999999999997    0.0000000000000000
     0.0000000000000000    0.0000000000000000   11.1422209999999993
 Ge  Se 
   4   4
Selective dynamics
Cartesian
  0.5087754384993763  0.9874999999999998  1.3997544983790162   T   T   T
  2.8587754384993751  2.9624999999999999  4.1713560016209827   T   T   T
  4.1912245615006238  2.9624999999999999  9.7424665016209815   T   T   T
  1.8412245615006244  0.9874999999999998  6.9708649983790165   T   T   T
 -0.1438258539340530  0.9874999999999998  3.9031566495206258   T   T   T
  2.2061741460659476  2.9624999999999999  1.6679538504793734   T   T   T
  4.8438258539340548  2.9624999999999999  7.2390643504793744   T   T   T
  2.4938258539340525  0.9874999999999998  9.4742671495206245   T   T   T
