Ge Se 
 1.0000000000000000
    12.4553471784129197   -0.0000048069875505    0.0000014512451049
    -0.0000048192969239   12.4872405353235028   -0.0000017502031919
     0.0000016570225209   -0.0000019932667736   11.0477483276086144
 Ge  Se 
  36  36
Cartesian
  0.8106132518267688  0.4268744887011958  1.5225316624738208
  2.5992303461262147 10.4111933700492099  4.1358107247489926
  6.7991475673006763  2.2907127741989806  4.1457085450848661
  7.1152819901385627  6.8193621203725510  4.0835726308663176
  6.9932192441198717 10.6372556293859510  4.0662849012143294
 11.1427798945164227  2.0725225541685806  4.0256023221988215
 11.0076769979039000  6.3777479831216901  4.1893384001312679
 11.3003615008953098 10.8494456941123527  4.0439140138768233
  0.6285974333338008  1.9395781165697235  7.0012652831982534
  0.7267724473628774  6.2740123044893297  7.0525391441091303
  0.9465511577908614 10.1781254728333828  6.7622232460841083
  4.7882273531579296  1.9696487433999599  6.9190212749263100
  5.0319290770700738  5.9293221201081403  6.7710514647461819
  4.6903413785675729 10.6428413749095725  6.9355438962299374
  9.3218623829124603  1.8428946241717095  7.0750738642601076
  8.7703244877859099  6.4374997570491583  6.9281778551491939
  2.7091924849849485  6.6054109934323879  4.1311864879760272
  2.9220766457316789  2.5343586972329306  4.0305371520082813
  9.1299797079039919 10.1882501601521511  6.9892087195610753
 11.1600760891875908  8.2720224828428286  9.5658527261710322
 11.1952786898126178 12.2294161030747297  9.7584971721976856
  0.8009423523987662  4.4542113041622677  1.5261811675346513
  0.5161970884632223  8.3170163184759627  1.3842303426820688
  4.8574586144948499  0.1755868332113396  1.5609371010436448
  4.9456990934168914  4.6923374586211493  1.3929982235466467
  8.9630720376813322  0.1918593649644169  1.3662663687300221
  8.8161896560132877  4.0523957756058513  1.5636341500359539
  4.8623918689277286  8.7164973295098509  1.2473169033694385
  2.8508550983123855  4.0962742977049196  9.6224092645512638
  2.8691570972549219  8.1413799741899648  9.6010935837001288
  2.6367924220443424 12.6521770624241157  9.6806751357805449
  6.9839048420985135  4.2077494604658483  9.4781819970590160
  6.6629092597152955  8.6927666373116708  9.6050300791097243
  6.8726627167919263 12.6650554588079221  9.5853486054228370
 10.9661225200299715  4.1762051416733570  9.6587412548235854
  9.3917439897409025  8.8162897206061945  1.5178010877549739
 11.2838475549817261  0.0020605777931690  7.1946010815117161
  3.0395178381343033  4.1603813532806786  7.1625233235896859
  2.9524245855334454  8.5371205336032663  7.0806545153835874
  7.3443004808379122 -0.1573744686778214  7.0652188505186801
  7.0641608905959128  4.3345694547649583  6.9473247935151052
  7.1951636244019355  8.7319307816362493  7.1126990857141497
 11.6169184423000118  4.2213677279117734  7.1862229920392338
  9.3149152413800280  0.2277085552372564  4.0245176183580158
  0.8112516208443633  0.0490489976477897  4.1747038360499076
  1.0621570103897759  4.4393983640970163  3.9848201894077806
  0.8679955853610014  8.4749186544285422  3.8872821182503632
  5.2049680413135588  0.0749622845732557  4.0445259780045335
  5.0479545025477561  4.1015915710668258  3.9144338387727386
  5.3273379573553488  8.5966513450292279  3.7945518429727025
  2.9647703927731692  0.2158995125199694  7.0974823545076786
 11.5049133040624518  8.2515691285991242  6.9891559580325939
 11.3617260619418783 10.5065542476338702  1.5756803227570211
  2.9200216984724872  1.9596409634201404  1.5917283456344871
 11.5240518637091185  2.3076234313021451  1.4755590761741857
  9.2843465758198018  4.1549319744862769  4.0925045809240146
  1.1042290468962048  2.2250822397847236  9.5612927439415820
  1.1270777295200274  6.2459122475355189  9.5250219328445471
  1.0045174730307453 10.6079506615359325  9.2747631276795364
  5.1211685424745284  2.3094665351856540  9.3634319700334956
  5.0058614377300739  6.3361604175272790  9.3978466969869050
  5.0694590658367735 10.5981518345436463  9.4625723071059173
  9.0474588758225867  2.3667795234481783  9.3782058306707903
  9.4524566518452726  6.3742025039062771  9.4469995791096526
  9.3948731532182865 10.3158219390841026  9.4423710881159213
  3.1728851108249811  6.4085003735670503  1.5363610639352352
  3.0158824901390222 10.6257428847160025  1.4906467913817842
  7.1944772381909159  2.1221585891312187  1.5473842100771240
  7.0736826918641196  6.2321807672935812  1.6192101609262022
  7.4416336162082617 10.6915964792866500  1.3850847095748771
 11.4595759381937246  6.2592275565356452  1.6809152347009146
  9.2152014243718963  8.4115135403883556  4.0696820529271323
