Ge Se
 1.0000000000000000
     3.8581001759000002    0.0000000000000000    0.0000000000000000
     0.0000000000000000    4.5265750884999996    0.0000000000000000
     0.0000000000000000    0.0000000000000000   10.5851764679000002
 Ge  Se 
   4   4
Cartesian
  1.4677543786529132  1.3267806507546327  1.2309844077729040
  3.3968046519141564  3.5900683100439181  4.0616027420565342
  2.8935733141497706  3.9870233979347738  9.3541913476858447
  0.9645208501404087  1.7237360441284149  6.5235733451711093
  1.4677546558717647  0.7643314580461648  3.7526753251779357
  3.3968042761271815  3.0276194580923752  1.5399130127421194
  2.8935717321832550  0.0228970589221863  6.8325007053680169
  0.9645228164448353  2.2861849785849908  9.0452633883586451
