Ge Se
 1.0000000000000000
     3.8581001759000002    0.0000000000000000    0.0000000000000000
     0.0000000000000000    4.5265750884999996    0.0000000000000000
     0.0000000000000000    0.0000000000000000   11.5851764679000002
 Ge  Se 
   4   4
Cartesian
  1.6354989998459966  0.0420375587167993  1.5289159488927335
  3.5645489493094993  2.3053250455355654  4.2636719698814636
  2.8935745721801496  4.0909218782550072 10.0562604474579977
  0.9645242008595937  1.8276341213021121  7.3215043516953928
  1.6354989374406581  4.0400098337942065  4.0676704668023795
  3.5645490889970102  1.7767223833186494  1.7249174919497487
  2.8935742079256404  0.0929493801008354  7.5175060349394816
  0.9645244176642640  2.3562370331364004  9.8602589228854409
