Ge Se 
 1.0000000000000000
    12.4545594559115234    0.0000043880563573   -0.0000026680206070
     0.0000044101882267   12.5173664591668992    0.0000025503969269
    -0.0000030508242473    0.0000029016889602   11.0633543090453159
 Ge  Se 
  36  36
Cartesian
  1.2282604986023014  0.3926946555840318  1.4851640136991433
  3.1549544510596053 10.8479052175157573  4.0104537948345547
  7.1312197777386830  2.6537974241146718  4.2717044619931688
  7.3710053299940848  6.7700967777779706  4.2399915005035167
  7.1457968438797836 10.7168910449917600  4.2356240202908655
 11.5623923385035958  2.4312060280714110  4.1556681697472717
 11.4843521571844374  6.4926944349100344  4.0935516562634300
 11.1229565497922014 10.9417738688514792  3.9194583944535357
  0.9117357159829693  2.0983412854188326  7.1701034202339775
  1.1358101137908634  6.2397767486374720  7.1238015963739532
  0.5535540334100923 10.2439696900276118  6.6393439936698186
  5.0268527353820716  1.7055617831960812  6.8110727674074489
  5.1760654966666628  6.2278052701422864  6.9507235898898561
  5.1577687065663564 10.4590369174116109  7.0669471299720978
  9.2652792978172460  2.1827026475404390  6.9869655006423654
  9.1163313221308400  5.8806699628988452  7.0392823725441209
  3.1173763945275010  6.7069960460976938  4.1156999063630506
  3.0376024897158018  2.6517033785054838  4.1510478544025124
  9.2875389365193755 10.2326222858427620  6.9237647261437205
 11.0667493053575257  8.2423609565009954  9.7066968439734929
 11.4035427112850822 12.4914767953070900  9.6744656051528306
  1.1247540934304572  4.6410691669339830  1.3548823678278830
  0.5933580243464356  8.9291630093188328  1.3560018925064918
  5.2959575293944976  0.3630879281550753  1.4955864441076705
  5.0984663915791675  4.7300139911159587  1.3149940650220611
  8.9075022660217673  0.6086681736647197  1.4513865818208771
  9.2918721836063440  4.4709890923798161  1.3971248706738164
  5.0531370814428183  8.6617832919398445  1.7295150239645456
  3.2581086049884820  4.1034267046972106  9.6512978329977788
  3.0231145706756815  8.5482013077346881  9.4919123424106022
  2.9283062924428935 12.3317685140404194  9.6862615721271421
  7.0358752847119321  3.9784261084778358  9.6789991822722197
  7.2208524758284751  8.0709940504719953  9.7490217652532607
  7.2040375825215852 12.4772796400481827  9.4740428408951569
 11.5526257793924430  4.1768193451144038  9.5238638104290594
  9.1553359477267708  8.6545196299252236  1.4650470121187793
 11.3893789223906179  0.3910903238825900  7.1096497627070860
  3.0664811232872515  4.6754882458444715  7.2718400887543657
  2.6121692117177324  8.6558529675495635  6.9343719945732731
  7.0134506415922910  0.0706997094721975  6.9911823599871159
  7.0019300067467967  4.2703429755901947  7.0539527341115011
  7.1155804683446267  8.6096100696908575  7.0970724569695127
 11.0435790806098204  4.0974882218802771  7.0454527531468889
  9.1285911828071171 -0.0227929062311515  3.7939058298715485
  0.6696023644366971  0.2302924887309724  4.0328533271487927
  0.9078337639804535  4.2343415450105439  3.9319246535129606
  0.8208263896628626  8.3599154934834523  3.9276355858420575
  5.1953971386740889  0.1023968349055033  4.0193819054273012
  4.9880657674329303  4.1614873636942677  3.9011268594984734
  4.7548299069227085  8.7154023781090508  4.2365473971709600
  2.8027745268233399  0.2104952636478157  7.1581230789729160
 11.0420772304504826  8.4737840714447028  7.1491450679486430
 11.1804820361391570 10.6130283585458915  1.4919773500740356
  3.1236000101933916  2.1838483772824357  1.5141300976233987
 10.9193948474760596  2.4244295066582966  1.6659345853604848
  8.8336042062346962  4.5949197849144365  3.9013338866995504
  0.8953504095961683  2.3089948262203928  9.8373337042699376
  0.6186635983814966  6.3482292900961470  9.4791785955591745
  0.8464587323775746 10.5958151986960605  9.2986403341052135
  4.9266238082732334  2.2141900480294381  9.2929103098327897
  5.0868338264503210  6.5680537669885375  9.4885089114713796
  4.8912586457975005 10.3783444293351437  9.4422336663710258
  9.0118803911100986  2.0547172172271653  9.4805435708298518
  9.0613198872162837  6.2624304966872533  9.5515664594454925
  9.2969543661401435 10.5154082067142873  9.4273970382373875
  2.9471747301792841  6.4120021043395585  1.5011021818260499
  2.6112181346680527 10.5808068884547541  1.5548148693965242
  6.9724912341840390  2.2448170572887673  1.5565248031563068
  6.7650550601301767  6.6442179581587153  1.7759209379251504
  7.1482470291380702 10.3658103876560528  1.7398602970901917
 11.2884850138553468  6.2999469586078680  1.5516106397551042
  9.3858620809686286  8.1889568137988427  3.9610906741494478
