Ge Se                                   
    1.000000000000000     
    12.4594069797681328   -0.0000066821944845    0.0000000871036675
    -0.0000066965085476   12.4860930251332398   -0.0000037961961236
     0.0000000994585766   -0.0000043253885238   11.0518032368502457
   Ge   Se
    36    36
Direct
  0.0674297868726299  0.0555096191319606  0.1223616102071006
  0.2036576057365167  0.8668007332303347  0.3628027583366276
  0.5502161012267734  0.1956465935887266  0.3778526776297610
  0.5840637861540756  0.5348588936384004  0.3573982362473487
  0.5370794732682711  0.8600524852382421  0.3859067853117537
  0.8915720872465940  0.1984121259432285  0.3617354930022145
  0.8851050016783475  0.5500655772300860  0.3793392547942958
  0.8888287347038997  0.8702430651906070  0.3636584646253027
  0.0698010856662989  0.1416426609722521  0.6204049568370138
  0.0788702893887461  0.4725791163637538  0.6151815959127305
  0.0683937922974849  0.8136872354254692  0.6303632626312918
  0.3960254223957307  0.1380099878931560  0.6139560382811737
  0.4189849656259099  0.4739517416696586  0.6262967122802223
  0.3978408843789865  0.8200550252078713  0.6323278057087549
  0.7390684141743691  0.1483194757304318  0.6185643084492369
  0.7253491809016381  0.4879160635380231  0.6391250989706094
  0.2301425394712027  0.5178757826487228  0.3737043936175510
  0.2525071272906203  0.2237696901210526  0.3685691483942577
  0.7263451823531994  0.8180499441333282  0.6391561995509107
  0.9167063329006666  0.6556868457393819  0.8660138423676145
  0.8909173019099725  0.9900337368277405  0.8741854853282547
  0.0538763314362143  0.3603775222589718  0.1205008551044529
  0.0470322305885347  0.7136119822830054  0.1337144596952626
  0.3910921207818916  0.0291297154792076  0.1245647322232486
  0.4069693577011435  0.3620534727261813  0.1141383950074513
  0.7171277858709573  0.0271951603563849  0.1406813385789505
  0.7332339220594406  0.3628801780306574  0.1342392840694160
  0.3826312839727350  0.6916952081525949  0.1357223580979436
  0.2387904789362238  0.3278646629726296  0.8602281612317242
  0.2253687895950449  0.6559819421553570  0.8690849839327583
  0.2135143419326226  0.0051467014437776  0.8759908518155868
  0.5447226098481792  0.3196399762832627  0.8796424848768396
  0.5571854004243946  0.6631367900959191  0.8729821623680181
  0.5841906115349431  0.9784081628644472  0.8609397346230949
  0.8861974491650315  0.3276666623445337  0.8578917231141432
  0.7156224882717765  0.6940172259231616  0.1200523224233905
  0.9106481381958389  0.0085245117313164  0.6525400108942492
  0.2446322208066292  0.3428414884952176  0.6390920817797578
  0.2359737582929782  0.6770341969780347  0.6396949590027532
  0.5802071382224270  0.0177948708958979  0.6321024831658022
  0.5746987884647865  0.3404762089180835  0.6468871893081882
  0.5729716198560126  0.6641389814905381  0.6453018303952121
  0.9200818835356728  0.3293538986422035  0.6275803455894646
  0.7496040167316309  0.0220947706767873  0.3723963271904438
  0.0687790557649706  0.0155144379172256  0.3458187463584679
  0.0924029366598873  0.3636152682672318  0.3523916556532782
  0.0615580965275484  0.6579573186176120  0.3577031524632659
  0.3791637900217992  0.9950456491254229  0.3565865453885593
  0.4121130364074759  0.3614450875364668  0.3347039749680008
  0.4283425759779007  0.6817470678363051  0.3762378525916219
  0.2508945623264935  0.0064689885181721  0.6373348350801677
  0.8899961422638327  0.6873567705430830  0.6484428372998039
  0.9078640584718443  0.8548174211975450  0.1380011805768646
  0.2391834678370657  0.1860865382862684  0.1370629721057313
  0.9221910188006461  0.1987199488195728  0.1345582379169201
  0.7208865122792858  0.3217069498361127  0.3596407587080179
  0.0833296133648318  0.1837245574375785  0.8478577415414890
  0.0714931012604296  0.5156014548917227  0.8518197607448315
  0.0933017442739583  0.8366624036468480  0.8647303322842461
  0.3970061387197532  0.1747961279755401  0.8546270643923108
  0.4205564178418868  0.5073050647867134  0.8564060702844216
  0.4221796227578096  0.8328447363629650  0.8657616569834801
  0.7439749626150984  0.1823432000417071  0.8567517144447052
  0.7514405426229160  0.5075606071270258  0.8730975309908473
  0.7511676502648967  0.8425906874364273  0.8568594544048622
  0.2520496529290313  0.5368769795771584  0.1337851594242494
  0.2401615368225194  0.8351951926689196  0.1414345081301249
  0.5530455972623258  0.1678179518960192  0.1464073086237008
  0.5665827259269633  0.5138028183301202  0.1325329132557940
  0.5896187266677586  0.8725385021442662  0.1417723417299825
  0.8938607348910708  0.5012558485911356  0.1561463989280938
  0.7396493004709797  0.6879452164117623  0.3437219793666699
 
  0.00000000E+00  0.00000000E+00  0.00000000E+00
  0.00000000E+00  0.00000000E+00  0.00000000E+00
  0.00000000E+00  0.00000000E+00  0.00000000E+00
  0.00000000E+00  0.00000000E+00  0.00000000E+00
  0.00000000E+00  0.00000000E+00  0.00000000E+00
  0.00000000E+00  0.00000000E+00  0.00000000E+00
  0.00000000E+00  0.00000000E+00  0.00000000E+00
  0.00000000E+00  0.00000000E+00  0.00000000E+00
  0.00000000E+00  0.00000000E+00  0.00000000E+00
  0.00000000E+00  0.00000000E+00  0.00000000E+00
  0.00000000E+00  0.00000000E+00  0.00000000E+00
  0.00000000E+00  0.00000000E+00  0.00000000E+00
  0.00000000E+00  0.00000000E+00  0.00000000E+00
  0.00000000E+00  0.00000000E+00  0.00000000E+00
  0.00000000E+00  0.00000000E+00  0.00000000E+00
  0.00000000E+00  0.00000000E+00  0.00000000E+00
  0.00000000E+00  0.00000000E+00  0.00000000E+00
  0.00000000E+00  0.00000000E+00  0.00000000E+00
  0.00000000E+00  0.00000000E+00  0.00000000E+00
  0.00000000E+00  0.00000000E+00  0.00000000E+00
  0.00000000E+00  0.00000000E+00  0.00000000E+00
  0.00000000E+00  0.00000000E+00  0.00000000E+00
  0.00000000E+00  0.00000000E+00  0.00000000E+00
  0.00000000E+00  0.00000000E+00  0.00000000E+00
  0.00000000E+00  0.00000000E+00  0.00000000E+00
  0.00000000E+00  0.00000000E+00  0.00000000E+00
  0.00000000E+00  0.00000000E+00  0.00000000E+00
  0.00000000E+00  0.00000000E+00  0.00000000E+00
  0.00000000E+00  0.00000000E+00  0.00000000E+00
  0.00000000E+00  0.00000000E+00  0.00000000E+00
  0.00000000E+00  0.00000000E+00  0.00000000E+00
  0.00000000E+00  0.00000000E+00  0.00000000E+00
  0.00000000E+00  0.00000000E+00  0.00000000E+00
  0.00000000E+00  0.00000000E+00  0.00000000E+00
  0.00000000E+00  0.00000000E+00  0.00000000E+00
  0.00000000E+00  0.00000000E+00  0.00000000E+00
  0.00000000E+00  0.00000000E+00  0.00000000E+00
  0.00000000E+00  0.00000000E+00  0.00000000E+00
  0.00000000E+00  0.00000000E+00  0.00000000E+00
  0.00000000E+00  0.00000000E+00  0.00000000E+00
  0.00000000E+00  0.00000000E+00  0.00000000E+00
  0.00000000E+00  0.00000000E+00  0.00000000E+00
  0.00000000E+00  0.00000000E+00  0.00000000E+00
  0.00000000E+00  0.00000000E+00  0.00000000E+00
  0.00000000E+00  0.00000000E+00  0.00000000E+00
  0.00000000E+00  0.00000000E+00  0.00000000E+00
  0.00000000E+00  0.00000000E+00  0.00000000E+00
  0.00000000E+00  0.00000000E+00  0.00000000E+00
  0.00000000E+00  0.00000000E+00  0.00000000E+00
  0.00000000E+00  0.00000000E+00  0.00000000E+00
  0.00000000E+00  0.00000000E+00  0.00000000E+00
  0.00000000E+00  0.00000000E+00  0.00000000E+00
  0.00000000E+00  0.00000000E+00  0.00000000E+00
  0.00000000E+00  0.00000000E+00  0.00000000E+00
  0.00000000E+00  0.00000000E+00  0.00000000E+00
  0.00000000E+00  0.00000000E+00  0.00000000E+00
  0.00000000E+00  0.00000000E+00  0.00000000E+00
  0.00000000E+00  0.00000000E+00  0.00000000E+00
  0.00000000E+00  0.00000000E+00  0.00000000E+00
  0.00000000E+00  0.00000000E+00  0.00000000E+00
  0.00000000E+00  0.00000000E+00  0.00000000E+00
  0.00000000E+00  0.00000000E+00  0.00000000E+00
  0.00000000E+00  0.00000000E+00  0.00000000E+00
  0.00000000E+00  0.00000000E+00  0.00000000E+00
  0.00000000E+00  0.00000000E+00  0.00000000E+00
  0.00000000E+00  0.00000000E+00  0.00000000E+00
  0.00000000E+00  0.00000000E+00  0.00000000E+00
  0.00000000E+00  0.00000000E+00  0.00000000E+00
  0.00000000E+00  0.00000000E+00  0.00000000E+00
  0.00000000E+00  0.00000000E+00  0.00000000E+00
  0.00000000E+00  0.00000000E+00  0.00000000E+00
  0.00000000E+00  0.00000000E+00  0.00000000E+00
