Ge Se 
 1.0000000000000000
    12.4645781649245908    0.0000029949782564    0.0000012506021242
     0.0000030053284360   12.5076533312518823    0.0000083643962697
     0.0000014304166946    0.0000095341008389   11.0751958987272943
 Ge  Se 
  36  36
Cartesian
  0.8478289532476304  0.6291245612987397  1.2845607018750138
  2.9288025162272482 11.1829592492072649  4.2829984066368469
  7.3821157910875508  2.1752864279677735  4.0548253004274111
  7.1997236977902626  6.9150352377586257  4.0819658793998110
  7.2337364347627648 10.5941816285929917  3.9399748984827463
 11.2825623604357794  2.7441695235849854  4.1604777252976657
 11.3014229510153505  6.5940683251913148  3.8603628359391946
 11.3506091883176019 10.7559414128912643  4.0510369902127277
  1.1861797360311517  1.8826877264558610  6.9277624221444958
  0.6354615562299634  5.9004290704312181  6.8484008311776297
  1.0089754555549257 10.4181467265054959  7.0235209809015657
  5.1987584809410672  1.9520465882981821  6.8363809818258794
  5.1094427535763121  6.2584857573837303  6.9578522014516624
  4.8229961696238774  9.7831937589489897  6.6732431609168339
  8.9605441506226295  1.7560247405885321  6.8431303156776506
  9.2091439544377067  6.1322165998144191  7.2643723051546392
  3.1407617148871716  6.5539933893780296  4.2787646364470628
  3.0564244771288376  2.3793020364213628  3.8982850320916587
  9.3001918084549651 10.3138937609455645  6.9024458837629590
 11.5226025473291802  8.2208448310683675  9.7398366466952719
 11.4429847421185329 12.7866343959854554  9.5423948681522326
  1.3110352446320761  4.3673288120806157  1.3102009836505122
  1.0497496706171603  8.6482848681625928  1.4650476410773463
  5.4290294797930132  0.3083068321403301  1.4053963860930476
  5.2307475604697222  4.6573147135513056  1.5799015478498215
  9.4817843187010347  0.4085487027588722  1.5780584419876675
  8.9361740687878424  4.6063830347481804  1.2116773898421855
  5.0113282572579188  8.9591836546604746  1.3456281304413309
  3.1890149437634752  4.0990850094819375  9.5632159309665230
  2.9948352320108906  8.0421617859722652  9.8108414215965851
  3.1130905527441071 12.2702030867028320  9.7019790257705605
  7.2739267001325247  3.9213026136196811  9.4839143803288088
  7.3325602096298619  8.5109799731784079  9.5612652649228860
  7.0266918764672441 12.2020332875651274  9.5624862238684170
 11.1232007188830817  3.8483125492873271  9.6776670324192278
  9.6062304478979836  8.5752316033500016  1.2628608365926905
 10.7803933940233279  0.0515990005358389  7.1287924812206240
  2.5362613110648318  4.2888475414986242  7.0263278210211748
  2.7147421553343940  8.3534243052393453  7.0382476990250051
  6.8094590924982326  0.0950154342070738  6.8530188122564875
  7.0548960737728592  4.5267012341705071  7.0139932443370459
  6.7548227218384973  8.1364513089415880  7.0804121940366729
 11.0302052378145579  4.3102571099728424  7.2683438322089229
  9.1566811199212701  0.0377707817332222  4.0536247071322373
  0.7549963766346354  0.1031079766157511  3.8181103889325270
  0.6869509244436923  4.5058690626911657  3.9024762158599891
  0.7682639717533173  8.4850650115733419  3.8997793911309566
  4.9553356807932616  0.2739994779518645  3.9324890230069065
  4.8735969616901507  4.3130057259546710  4.0193168558619945
  5.0246007951026543  8.6555578971828560  3.9137972505121095
  3.1399428712883237  0.2382830129533620  7.1439411274558466
 11.2804297561364795  8.7371392723465249  7.1584467433254106
 11.2618760191404661 10.4635940002052390  1.5459981798584927
  2.8019631002938818  2.2675811837902571  1.5129958888302546
 11.1899691953062312  2.3219999074643085  1.6111853425916143
  9.0711977949530773  4.2294944265561272  3.8421341523896437
  0.6775778758694141  2.2586716910251816  9.4850276604497559
  0.6468615993203424  6.2504337983302474  9.5288892142779478
  0.9569692296661647 10.8117678907877135  9.4564872912503901
  5.0821836818903865  2.4637709955189289  9.3669345195312825
  4.8369891400704441  6.2197624689952944  9.5076388844092641
  4.9682587383503627 10.4626528672407400  9.3984898687383982
  9.0509833160849951  2.1394916643129083  9.4625228884448678
  9.0941866874850987  6.6737547387040328  9.6513464936920670
  8.9808817472940454 10.3993416631190119  9.4859650330780863
  3.0171847282173125  6.3024286011317034  1.6221470287463977
  2.9219577688705471 10.5406947053016822  1.6377308191172082
  7.2917240648015742  2.0365562960068591  1.5901439567338629
  7.0523217236309863  6.3609195086651917  1.5775779248952306
  7.0516286120389404 10.8206913141017527  1.4964235865582336
 11.0889394085065689  6.4716251008219459  1.4259253255446893
  9.0030904514354955  8.7001186192574380  3.9259367131039804
