Ge Se                                   
    1.000000000000000     
     4.6499999999999995    0.0000000000000000    0.0000000000000000
     0.0000000000000000    3.9499999999999997    0.0000000000000000
     0.0000000000000000    0.0000000000000000   11.1422210000000010
   Ge   Se
     4     4
Selective dynamics
Direct
  0.1137030211958319  0.2500000000000000  0.1254327356113052   T   T   T
  0.6137030211958319  0.7500000000000000  0.3745672643886948   T   T   T
  0.8862969788041681  0.7500000000000000  0.8745672643886948   T   T   T
  0.3862969788041681  0.2500000000000000  0.6254327356113052   T   T   T
  0.9786046207066050  0.2500000000000000  0.3509205114283347   T   T   T
  0.4786046207066050  0.7500000000000000  0.1490794885716653   T   T   T
  0.0213953792933950  0.7500000000000000  0.6490794885716653   T   T   T
  0.5213953792933950  0.2500000000000000  0.8509205114283347   T   T   T
 
  0.00000000E+00  0.00000000E+00  0.00000000E+00
  0.00000000E+00  0.00000000E+00  0.00000000E+00
  0.00000000E+00  0.00000000E+00  0.00000000E+00
  0.00000000E+00  0.00000000E+00  0.00000000E+00
  0.00000000E+00  0.00000000E+00  0.00000000E+00
  0.00000000E+00  0.00000000E+00  0.00000000E+00
  0.00000000E+00  0.00000000E+00  0.00000000E+00
  0.00000000E+00  0.00000000E+00  0.00000000E+00
