Ge Se 
 1.0000000000000000
    12.4601028120627859    0.0000029939029224    0.0000012501531009
     0.0000029939029224   12.4601023345037181    0.0000083325969090
     0.0000014183978382    0.0000094539920221   10.9821382675824850
 Ge  Se 
  36  36
Cartesian
  1.1368582524263402  0.4806990874931841  1.7112468673487482
  3.0513742368497692 10.9245925569577480  3.9883540374539082
  7.0079947221172629  2.4979181970622002  4.0165056470616332
  7.1448193655553034  6.8832545159936958  4.2679467572718268
  7.0844140449832080 10.8470650940377951  4.2199911035755138
 11.2983651816574788  2.8414203031163252  4.0921657252805179
 11.3363022856115432  6.8757236832203255  4.2008694387867118
 11.0392096624942866 10.9318045966294370  4.0928552155832874
  1.1972599451855730  1.7858647860529324  6.9773632631757252
  0.8231265194062178  5.5455371335423491  7.1330956701219543
  0.9925126920534227 10.3540358841881375  6.6178404014370038
  5.0679307056675231  1.8352578832849014  6.5771084894472338
  5.1042258779293546  5.8338136606231776  6.9842083687703758
  4.6835991904136609  9.9330240474101164  6.7467696172976108
  8.8638668220637271  1.8116871115632815  7.1461563030854789
  9.1617258589235124  6.0788213248152454  7.1784398372704281
  3.0372991768867097  6.6267208967229383  4.0375787660320936
  3.3226581254343301  2.4827532635439025  4.1074690771295144
  9.2754124758097625 10.0340347345207590  6.5078827515555000
 11.3918747807822438  8.1095084055327735  9.8120638032938210
 11.1822888709559969 12.2052797148903220  9.2314819381597086
  0.3683131150226701  4.6491963249690995  1.2826688933124142
  0.7655323005757280  8.7545368272280921  1.3675481896152686
  5.3177004749758288  0.5212179140372740  1.6116345608201670
  4.9725284028823511  4.7254954057153711  0.9053270552366038
  9.0231340249086021  0.3808537041677091  1.7930594958894257
  8.9493598679738113  4.5598755382594502  0.8375631126562083
  5.0081744232789109  8.9767537864390476  1.1500002550610180
  2.3589092067954893  3.7957186660736104  9.5458161710897382
  2.9557417534953898  8.0785111859361365  9.4051679405893420
  3.4555323067229216 12.0491969201038991  9.6122399286804683
  6.8053572375297433  3.7295358696838483  9.2236610233818741
  7.0984914881706889  7.9268203010503804  9.3272946710258946
  6.6608205753773753 12.2681154388997182  9.6871602605244096
 11.3753157321841023  3.8363219259238073  9.6637755355266393
  8.8306477605767526  8.8956353654020823  1.1202065996164037
 11.0811919789518285  0.0952647262054112  7.0531972535249308
  3.1900105532037859  4.4454439508716179  7.3236779792336710
  2.8159111236656678  8.3332141850494317  6.8839190817032287
  7.0660808939011766  0.5661605741794855  6.9802789187262313
  6.9706752107504917  4.3012547098846579  7.1990885556094142
  7.1938633469107218  8.6166115475574596  6.7949209123049172
 11.5243033116666673  4.0435742474372214  7.1627953096452419
  9.0429658069763850  0.4108455064643023  4.1489876152328122
  0.5908251836045584  0.4165932130127099  3.9976445796323747
  0.4820675345634330  4.4739130154101385  3.7399725788380418
  0.8468214971252430  8.4853923481862505  3.6718702161262073
  5.2410276511672951  0.0775647281373047  4.2627240473852970
  5.1169253049867223  4.4370756981575372  3.9927115654349787
  5.4126596425387570  8.2851931272451846  3.7844686072604170
  2.9737967300886758  0.1687621695036403  7.5451158080433842
 11.2085574689337086  8.5707196608043112  6.9054664042598866
 11.1838301921280898 10.1935620146937147  1.3066797504237253
  3.2422083838617315  2.1403564528429300  1.1433940801178886
 11.1888041361617887  2.3545597390431610  1.7172762623861479
  9.1919187390471251  4.3890891262826379  3.6125624966356478
  0.9232757922395318  2.1397154964681206  9.3262076667518983
  0.9978826571741284  6.4667117913158805  9.1064964399551478
  0.9022799390885282 10.4478058326428993  9.5865045080933715
  5.0037109724669939  2.3888085164969630  9.2862798715458919
  4.9291184524499609  6.2515231800914544  9.3816314017843165
  4.9602331396684214 10.7480641223034628  9.2229456674883092
  9.1781938872437294  1.9743757024073330  9.1318439785790204
  9.0436767727012395  6.0603075233499695  9.4523573080040997
  9.0162694950100661 10.4067555922024280  9.5072932321716923
  2.8555062060300136  6.3982076228262379  1.7569359599398762
  2.9268680121510440 10.3787252833780048  1.7163211488907824
  7.3049284304682072  2.2107577302658208  1.5919620804718808
  7.1629850095498373  6.9161108173987147  1.4174207714415332
  7.0113287302435081 10.5389615477150187  1.6803548300270506
 11.6405604905959610  6.3766278217412404  1.4781824186174688
  9.4706390342467106  8.4454030129864783  3.9646922412336640
