Ge Se
 1.0000000000000000
     3.8581001759000002    0.0000000000000000    0.0000000000000000
     0.0000000000000000    4.5265750884999996    0.0000000000000000
     0.0000000000000000    0.0000000000000000   11.5851764679000002
 Ge  Se 
   4   4
Cartesian
  3.8161643986998666  0.1465505566298211  1.5626318511389428
  1.8871138095045368  2.4098386003597589  4.2299590367020459
  2.8935747113402126  4.1176137160911894 10.0225442804371934
  0.9645240308349837  1.8543260799895005  7.3552181084149861
  3.8161641778895707  4.1785029699055860  4.0957175703470261
  1.8871145607467925  1.9152155426238815  1.6968723624226618
  2.8935749213110484  0.0856612195202619  7.4894595101012946
  0.9645238488039719  2.3489492654911945  9.8883029286348503
