Ge Se
 1.0000000000000000
     3.8581001759000002    0.0000000000000000    0.0000000000000000
     0.0000000000000000    4.5265750884999996    0.0000000000000000
     0.0000000000000000    0.0000000000000000   11.5851764679000002
 Ge  Se 
   4   4
Cartesian
  1.5795845865839240  0.4745632442022851  1.5626318511389428
  3.5086341732885935  2.7378512879322234  4.2299590367020459
  2.8935747113402126  4.1176137160911894 10.0225442804371934
  0.9645240308349837  1.8543260799895005  7.3552181084149861
  1.5795843657736284  4.5065156574780509  4.0957175703470261
  3.5086349245308508  2.2432282301963449  1.6968723624226618
  2.8935749213110484  0.0856612195202619  7.4894595101012946
  0.9645238488039719  2.3489492654911945  9.8883029286348503
