Ge Se
 1.0000000000000000
     3.8581001759000002    0.0000000000000000    0.0000000000000000
     0.0000000000000000    4.5265750884999996    0.0000000000000000
     0.0000000000000000    0.0000000000000000   11.5851764679000002
 Ge  Se 
   4   4
Cartesian
  1.2440976147665324  1.5242038444341688  1.5626318511389428
  3.1731472014712021  3.7874918881641073  4.2299590367020459
  2.8935747113402126  4.1176137160911894 10.0225442804371934
  0.9645240308349837  1.8543260799895005  7.3552181084149861
  1.2440973939562372  1.0295811692099344  4.0957175703470261
  3.1731479527134590  3.2928688304282288  1.6968723624226618
  2.8935749213110484  0.0856612195202619  7.4894595101012946
  0.9645238488039719  2.3489492654911945  9.8883029286348503
