Ge Se 
 1.0000000000000000
    12.4375758543978172   -0.0000010763134919   -0.0000024395613112
    -0.0000010822949113   12.5066953264587148    0.0000014461057206
    -0.0000027919442924    0.0000016458423122   11.0576071711645838
 Ge  Se 
  36  36
Cartesian
  0.5011560313589436  0.1932026847948894  1.1588428555861670
  3.1676947273042191 11.0075804706017824  4.2489312589786552
  7.2264063367241222  2.7508962634710308  4.0317975107534707
  6.6738047991272609  6.4637879287621676  4.3591274231422306
  7.0036022344130568 10.9457769850228068  4.2456424218844475
 11.1354129319357771  2.6066687441983003  4.3305919408150908
 11.3299039959842585  6.9082261734902639  4.1081393348503710
 10.9314771265388995 10.6512662685034165  3.9255446722209948
  1.1170942016287753  1.7417774719632670  6.8820066598517569
  1.1576764934805905  6.0522959160783909  6.8660896567159426
  1.1274192260951967 10.1403548638258201  6.9772439017749726
  4.9347206466224094  1.7235934522915166  6.9086404572198559
  5.0293504471587882  5.9642137665655346  7.0102636159711933
  5.1658529683241650 10.1674784312178588  7.1087617419811604
  9.3731111190221679  1.8682109352677532  6.9567511231097958
  9.2770354713306649  6.0757664573445487  6.8570986399188509
  3.0267306982111930  6.9197366356885732  4.3857929490659551
  2.3892570478228499  2.3388939489803002  4.0051172359744589
  9.3981927244903876 10.0957929987038035  6.9732344564847573
 11.3480005449671602  8.1258018607108706  9.7233293889197316
 11.2801926505708998 12.2096230144309441  9.6673486469941601
  0.8891398408162922  4.7760468059729906  1.5774904437076995
  0.8807477615233034  8.9883028399497498  1.3057254727524668
  5.1601936123464309  0.6723574103106008  1.3488183504734812
  4.6977863572552936  4.8191711569952238  1.3549031350453498
  9.0695340768417267  0.5621748739899814  1.4690172794211644
  9.1131321701795116  4.7678316369778635  1.4533183177838378
  5.0237436177591759  8.9691651023826413  1.3429095726602467
  2.8834117751303028  3.8297625481187838  9.6434483413683054
  2.9802833526264974  7.9486333486024012 10.0552036581987085
  3.0239383127269850 12.3504785436065987  9.8468768033620719
  6.9296597620001767  4.0308117095190301  9.5009025523964574
  7.0864155366173005  7.9309556742014893  9.6367554316456019
  7.1057185535764082 12.5183205196073768  9.5507401035154178
 11.3164127431424610  3.7852010484305421  9.5903191998111659
  8.8991890702457148  8.5279013838379694  1.2954462921464112
 11.3750493838033435  0.1729469515688622  7.1382165038746344
  3.1013611439813347  4.2033990835110355  7.0564670408221879
  3.2204179071954440  8.4054889228651088  7.4681372153442629
  7.1790070667785866  0.0980290481555642  7.1265610673704547
  7.0703570782714795  4.2225618127187827  6.9357557177828708
  7.3094924338339409  8.4340441645785198  7.1247323337886748
 11.3978486442555482  4.4576674398506366  7.0784920600219534
  9.0690976801704064  0.0052657589214939  4.0093263128079926
  0.9964362239671054  0.1041268187350417  3.8195716549385827
  0.6607128953824277  4.2093720833627364  3.9916015675623666
  0.8133964887274990  8.5375453957837806  4.0922482774080606
  5.2177240237630329  0.1932783530802172  3.9573607158237230
  5.0021766626539739  4.3832511645217949  3.8606029669169351
  4.9945158446032938  8.3952988852296428  3.9534241687624658
  3.0608311470851755 -0.0963030197052434  7.2472779386947632
 11.3223185615195003  8.4143182356507324  7.1293725338666167
 11.3798895389304668 10.6685610440226064  1.4010026546370138
  3.2558040744303667  2.3857150172665809  1.5155485028192437
 11.1111800031338959  2.0874908467847737  1.6600045432774804
  9.2798148959792019  4.3713539847115301  3.9604256324962557
  0.9317658498591835  2.1767889812505330  9.4661779149366918
  0.9555562591286395  6.3069733158299561  9.4678615467392611
  0.9904145468515748 10.5071292739011728  9.5500929823040721
  5.0371363489645775  2.1832222047060781  9.4852266883254401
  5.1639701691911304  6.2339963282860582  9.3840158550304160
  5.1244170047232602 10.6587101612590356  9.5994380035668119
  9.2927749676027265  2.1912575312566673  9.4436957145269691
  9.2941629595889754  6.4211460825086073  9.3662796316164822
  9.3351545373780844 10.4308608534579079  9.4351008718187845
  2.7437676346022450  6.4590229156644110  1.7344796705338554
  2.8798836124577525 10.6808304421312030  1.6870516802915565
  7.1579129441613727  2.4676752961903810  1.4091525356869787
  7.2619542013415943  6.4558342849904617  1.5752045074891190
  6.9702508408832093 10.3446163618389306  1.6316020326123575
 11.3313908010933169  6.3193462913513390  1.5575488144615843
  9.3487696539388647  8.5087459038043161  3.7248493883085949
