Ge Se                                   
    1.000000000000000     
    12.4553360536897344   -0.0000081603200894    0.0000030678097227
    -0.0000081787725468   12.4834993352939190    0.0000000815080340
     0.0000034961017142    0.0000000926776732   11.0265948769038236
   Ge   Se
    36    36
Direct
  0.0577589714364919  0.0357976916161462  0.1401146702405214
  0.2239682171889683  0.8828082114608975  0.3719386984721496
  0.5783987215373187  0.2329997997358788  0.3820396486133575
  0.5808247971917169  0.5358323544246133  0.3536268395503512
  0.5766070792269460  0.8768330810625002  0.3519478005328978
  0.9259041559431083  0.2220777953540534  0.3913445570670220
  0.9093117374015236  0.5431850127280313  0.3815420148665680
  0.9009302324503636  0.8726164237802294  0.3557627022811189
  0.0832993828980051  0.1502277295558372  0.6316181042599709
  0.0662450603718199  0.4791078246353493  0.6300816833123122
  0.0698229908426171  0.8170046926217438  0.6251390750513650
  0.4175738543109944  0.1567867968452106  0.6446323900425526
  0.4151529232892983  0.4865421577912343  0.6445048256491646
  0.4194112760549658  0.8249010301355142  0.6388874559878133
  0.7628726476484289  0.1538079739939064  0.6179693681011429
  0.7501891311809672  0.4786258075713548  0.6347417319411548
  0.2521890913243396  0.5433510580832817  0.3855905336504648
  0.2467504871239683  0.1972660280068581  0.3504770522533178
  0.7353852406900145  0.8256664908188753  0.6458849352698834
  0.9221380372163281  0.6458873954201039  0.8676227700093619
  0.8968205216331455  0.9910855346083949  0.8687530854487306
  0.0483126258853588  0.3974377732757688  0.1421769989340476
  0.0717489105062512  0.7016581305145166  0.1470242189803272
  0.3926534142536156  0.0362464036095176  0.1258732334097630
  0.4114550722387023  0.3953360355575484  0.1248612074373767
  0.7346640229485217  0.0387765924252435  0.1274924064977654
  0.7152096438952640  0.3542575649991591  0.1229535663120274
  0.3880513481940184  0.7210102632574191  0.1410193547159224
  0.2192061863675576  0.3223668557548294  0.8540731154275250
  0.2685352165101733  0.6745359749574575  0.8716349113282149
  0.2302263741633510  0.9659999378655328  0.8719999717819675
  0.5622142740127103  0.3108794035653943  0.8865520054375651
  0.5718651307173985  0.6637630311434464  0.8693737043289218
  0.5961458022816046  0.0057608535074607  0.8677899506848377
  0.9138412355497678  0.3221808505951387  0.8806691086561713
  0.7320944850462041  0.7001855843052880  0.1429478095909573
  0.8995810323540070  0.0160870397952522  0.6344218224326710
  0.2388579920504270  0.3548778995468354  0.6279430304859588
  0.2342481499720606  0.6830064513556451  0.6517192506507712
  0.5674321682751824  0.0136976142598471  0.6323459478940521
  0.5780241534530717  0.3468479415688535  0.6492534207164553
  0.5760044799983390  0.6850511528330827  0.6423899059762519
  0.8947042574036175  0.3319627795521569  0.6501659224297498
  0.7325492113619418  0.0090421795526581  0.3651811051942602
  0.0522184533786145  0.0099398502461696  0.3807908575240972
  0.0794502270472819  0.3647500148735432  0.3645654261778262
  0.0661849976964319  0.6828777504953720  0.3681504665892987
  0.3834567550092132  0.0037823432587984  0.3588372706463829
  0.3809857518353539  0.3486740564919657  0.3677297823778787
  0.4121465984075243  0.6754718500299290  0.3498870120223572
  0.2357704133525687  0.0260313003224582  0.6503980364256705
  0.8972471799743786  0.6876920382198506  0.6285654836023014
  0.9081498907035837  0.8569199830498704  0.1239215870909902
  0.2383812239144447  0.1782402908697449  0.1370134703913806
  0.8938517018592123  0.1818202808401068  0.1587913755589341
  0.7299702460213098  0.3647144845045744  0.3504104716743655
  0.0715269987234493  0.1847529320599079  0.8789601874232034
  0.0628771398565675  0.5009776504813814  0.8675382363313275
  0.0637198055522248  0.8498537646911331  0.8580087822701117
  0.3833593609811317  0.1821504386394892  0.8715950663067389
  0.4062572749471585  0.5236684340965709  0.8652732847177091
  0.3995868469131025  0.8464365256983015  0.8643985816056912
  0.7223931172822375  0.1755061028387246  0.8583778381033511
  0.7348173746582773  0.5166091414598171  0.8553513535316242
  0.7454058078990968  0.8540157300738329  0.8698742774621309
  0.2298706791982781  0.5238103473302900  0.1572205357549734
  0.2436761545439197  0.8682642416072426  0.1473076386904069
  0.5653754627323764  0.1859815388672246  0.1561951138989173
  0.5725055796757417  0.5108370646228053  0.1234819873817017
  0.5800247314135447  0.8413992111683228  0.1266391698104385
  0.9163096138165514  0.5425399250167331  0.1342349094588755
  0.7248706652710553  0.6875365793059487  0.3697225292040045
 
  0.00000000E+00  0.00000000E+00  0.00000000E+00
  0.00000000E+00  0.00000000E+00  0.00000000E+00
  0.00000000E+00  0.00000000E+00  0.00000000E+00
  0.00000000E+00  0.00000000E+00  0.00000000E+00
  0.00000000E+00  0.00000000E+00  0.00000000E+00
  0.00000000E+00  0.00000000E+00  0.00000000E+00
  0.00000000E+00  0.00000000E+00  0.00000000E+00
  0.00000000E+00  0.00000000E+00  0.00000000E+00
  0.00000000E+00  0.00000000E+00  0.00000000E+00
  0.00000000E+00  0.00000000E+00  0.00000000E+00
  0.00000000E+00  0.00000000E+00  0.00000000E+00
  0.00000000E+00  0.00000000E+00  0.00000000E+00
  0.00000000E+00  0.00000000E+00  0.00000000E+00
  0.00000000E+00  0.00000000E+00  0.00000000E+00
  0.00000000E+00  0.00000000E+00  0.00000000E+00
  0.00000000E+00  0.00000000E+00  0.00000000E+00
  0.00000000E+00  0.00000000E+00  0.00000000E+00
  0.00000000E+00  0.00000000E+00  0.00000000E+00
  0.00000000E+00  0.00000000E+00  0.00000000E+00
  0.00000000E+00  0.00000000E+00  0.00000000E+00
  0.00000000E+00  0.00000000E+00  0.00000000E+00
  0.00000000E+00  0.00000000E+00  0.00000000E+00
  0.00000000E+00  0.00000000E+00  0.00000000E+00
  0.00000000E+00  0.00000000E+00  0.00000000E+00
  0.00000000E+00  0.00000000E+00  0.00000000E+00
  0.00000000E+00  0.00000000E+00  0.00000000E+00
  0.00000000E+00  0.00000000E+00  0.00000000E+00
  0.00000000E+00  0.00000000E+00  0.00000000E+00
  0.00000000E+00  0.00000000E+00  0.00000000E+00
  0.00000000E+00  0.00000000E+00  0.00000000E+00
  0.00000000E+00  0.00000000E+00  0.00000000E+00
  0.00000000E+00  0.00000000E+00  0.00000000E+00
  0.00000000E+00  0.00000000E+00  0.00000000E+00
  0.00000000E+00  0.00000000E+00  0.00000000E+00
  0.00000000E+00  0.00000000E+00  0.00000000E+00
  0.00000000E+00  0.00000000E+00  0.00000000E+00
  0.00000000E+00  0.00000000E+00  0.00000000E+00
  0.00000000E+00  0.00000000E+00  0.00000000E+00
  0.00000000E+00  0.00000000E+00  0.00000000E+00
  0.00000000E+00  0.00000000E+00  0.00000000E+00
  0.00000000E+00  0.00000000E+00  0.00000000E+00
  0.00000000E+00  0.00000000E+00  0.00000000E+00
  0.00000000E+00  0.00000000E+00  0.00000000E+00
  0.00000000E+00  0.00000000E+00  0.00000000E+00
  0.00000000E+00  0.00000000E+00  0.00000000E+00
  0.00000000E+00  0.00000000E+00  0.00000000E+00
  0.00000000E+00  0.00000000E+00  0.00000000E+00
  0.00000000E+00  0.00000000E+00  0.00000000E+00
  0.00000000E+00  0.00000000E+00  0.00000000E+00
  0.00000000E+00  0.00000000E+00  0.00000000E+00
  0.00000000E+00  0.00000000E+00  0.00000000E+00
  0.00000000E+00  0.00000000E+00  0.00000000E+00
  0.00000000E+00  0.00000000E+00  0.00000000E+00
  0.00000000E+00  0.00000000E+00  0.00000000E+00
  0.00000000E+00  0.00000000E+00  0.00000000E+00
  0.00000000E+00  0.00000000E+00  0.00000000E+00
  0.00000000E+00  0.00000000E+00  0.00000000E+00
  0.00000000E+00  0.00000000E+00  0.00000000E+00
  0.00000000E+00  0.00000000E+00  0.00000000E+00
  0.00000000E+00  0.00000000E+00  0.00000000E+00
  0.00000000E+00  0.00000000E+00  0.00000000E+00
  0.00000000E+00  0.00000000E+00  0.00000000E+00
  0.00000000E+00  0.00000000E+00  0.00000000E+00
  0.00000000E+00  0.00000000E+00  0.00000000E+00
  0.00000000E+00  0.00000000E+00  0.00000000E+00
  0.00000000E+00  0.00000000E+00  0.00000000E+00
  0.00000000E+00  0.00000000E+00  0.00000000E+00
  0.00000000E+00  0.00000000E+00  0.00000000E+00
  0.00000000E+00  0.00000000E+00  0.00000000E+00
  0.00000000E+00  0.00000000E+00  0.00000000E+00
  0.00000000E+00  0.00000000E+00  0.00000000E+00
  0.00000000E+00  0.00000000E+00  0.00000000E+00
