Ge Se 
 1.0000000000000000
    12.4553360536897344   -0.0000081603200894    0.0000030678097227
    -0.0000081787725468   12.4834993352939190    0.0000000815080340
     0.0000034961017142    0.0000000926776732   11.0265948769038236
 Ge  Se 
  36  36
Cartesian
  0.7194075964309545  0.4468800011490314  1.5449878851645689
  2.7895934904823694 11.0205339277821963  4.1012181061431336
  7.2041498797689059  2.9086481606143244  4.2125982255827790
  7.2343648912034295  6.6890581333456565  3.8993017228561810
  7.1818290017350908 10.9459405119267750  3.8807876546833544
 11.5324469676359520  2.7723004912805234  4.3152007466583200
 11.3257801582234556  6.7808423604175765  4.2071120603205729
 11.2213829129494282 10.8932992273192468  3.9228540253741908
  1.0375227865823695  1.8753671408402435  6.9645972203841007
  0.8251027731436910  5.9809417281830957  6.9476557035208204
  0.8696643186727000 10.1990770254339953  6.8931556031098768
  5.2010236540547465  1.9572445264067513  7.1081015033460258
  5.1708674471766765  6.0737453753298212  7.1066949219101128
  5.2239038749090607 10.2976480980603160  7.0447545030233973
  9.5018360951525107  1.9200555731028390  6.8141002212722395
  9.3438560372345627  5.9749188877144954  6.9990422700287533
  3.1410967856383420  6.7829205502058167  4.2517514208884526
  3.0733598504501023  2.4625683484181455  3.8645692419110840
  9.1594658068586465 10.3072011481920924  7.1219138416366787
 11.4855368921506056  8.0629274268692654  9.5669276724594035
 11.1701959081721647 12.3722083746747753  9.5793911533595377
  0.6017472375504187  4.9614137974388850  1.5677283486680647
  0.8936515671508716  8.7591482340132991  1.6211767770920107
  4.8906303707719214  0.4524787628543231  1.3879543581957188
  5.1248083988921458  4.9351737910671041  1.3767952447419196
  9.1504874209609444  0.4840615824875614  1.4058093733024315
  8.9081739960213628  4.4223682522452936  1.3557613873952150
  4.8333045438828846  9.0007279885602589  1.5549645434907065
  2.7302870656169569  4.0242647198970491  9.4175189378328010
  3.3446938943325368  8.4205672844610149  9.6111659265773000
  2.8675420065338755 12.0590577843324027  9.6151912065387695
  7.0025682738735240  3.8808583220802939  9.7756515513722793
  7.1227699911244073  8.2860807720408847  9.5862334427436195
  7.4251911124065524 12.5554101619092098  9.5687701352895242
 11.3822001323562958  4.0219370586302556  9.7107843115069343
  9.1184776074048610  8.7407603153801450  1.5762298878975840
 11.2045861519252341  0.2008152685184515  6.9955151780867704
  2.9750558529847151  4.4301161321420333  6.9240741646401709
  2.9176361201795400  8.5263087303595810  7.1862449247046509
  7.0675604422572738  0.1709895866841076  6.9726243313697971
  7.1994845114731492  4.3298713913320332  7.1590562442233487
  7.1743260097930515  8.5518309701883624  7.0833750691217778
 11.1438417526270737  4.1440498970644297  7.1691190012413868
  9.1241478061347561  0.1128720984433094  4.0267063517357320
  0.6503996350224126  0.1240837231125182  4.1988266797534974
  0.9895775687662329  4.5533559536700876  4.0199155340568806
  0.8243520900113886  8.5247034384245630  4.0594463075262786
  4.7760839692937980  0.0472137836833865  3.9567543868321753
  4.7453040046718611  4.3526692775663092  4.0548085316644134
  5.1334200852607577  8.4322490600369413  3.8580636537046562
  2.9366017907772064  0.3249598565875367  7.1716763818201352
 11.1755117228584631  8.5847958384342338  6.9309397499237910
 11.3113055005235594 10.6973526394941416  1.3664359932322119
  2.9691172739705260  2.2250606200260714  1.5107927765206357
 11.1332223969030597  2.2697460756108150  1.7509309252214302
  9.0920229655438138  4.5529071005692971  3.8638365809150206
  0.8908943678943639  2.3063626023402120  9.6919381341332258
  0.7831548426280813  6.2539537340852762  9.5659929059779838
  0.7936476403540795 10.6091484661630755  9.4609155076682168
  4.7748712277657086  2.2738718321218703  9.6107268837928697
  5.0600696258414857  6.5372113139610502  9.5410192573932662
  4.9769845601505454 10.5664866252770917  9.5313742663840433
  8.9976506041745417  2.1909245027206627  9.4649869025479703
  9.1523961046255433  6.4490839569473781  9.4316151491922486
  9.2842758901238742 10.6610987965751907  9.5917536077866519
  2.8631128238377430  6.5389842614702980  1.7336079019941415
  3.0350618067820649 10.8389741081402278  1.6243024724350263
  7.0419404098154237  2.3216958176570270  1.7223019923385450
  7.1307456411592725  6.3770294962775100  1.3615876474284723
  7.2243965103374332 10.5036017718857142  1.3964006690334765
 11.4129402013000174  6.7727893283776694  1.4801568202257975
  9.0285034007949090  8.5828565498444629  4.0767828262018631
