Ge Se                                   
    1.000000000000000     
    12.4749794067417863    0.0000048259195830   -0.0000015892558847
     0.0000048347668382   12.4978509567693461    0.0000022493410499
    -0.0000018167549523    0.0000025666247612   11.0782915532109048
   Ge   Se
    36    36
Direct
  0.1002373337125633  0.0061552346354006  0.1303704318087924
  0.2587607375743204  0.8498532389961042  0.3603081769210092
  0.5817518808504758  0.1990358725723240  0.3730170066964433
  0.5868414053503699  0.5190475140382702  0.3603907526920764
  0.5753942205051175  0.8787763485809705  0.3609761997254139
  0.9236697410092347  0.1727146182711436  0.3668664506915462
  0.9005891221908584  0.5430610971553165  0.3747107893843378
  0.9145791126623166  0.8693007429945681  0.3910291453905543
  0.0704076746737385  0.1310284569008218  0.6214550460339225
  0.0803308833069494  0.5069847424272780  0.6352464802979867
  0.0645793630181686  0.7966017076646850  0.6257732071922177
  0.3692357770494823  0.1580332775201896  0.6121172633308518
  0.4137389500068807  0.4812366846576523  0.6258926465489196
  0.4280095288132770  0.8434767524789706  0.6425954562361653
  0.7737703867738190  0.1695176731291141  0.6097222058546947
  0.7198985146213914  0.4715922727173236  0.6412513387150867
  0.2444327490920557  0.5217720155311483  0.3729986076097234
  0.2313325014785903  0.2347059618549068  0.3870768838699732
  0.7463257971002690  0.8225531531632271  0.6210407496189205
  0.8983814907879974  0.6562373147927545  0.8724894092037587
  0.9103445560662706  0.9751345013072026  0.8788536292361613
  0.0570287203680380  0.3674092447295934  0.1170089520160289
  0.0649533097131609  0.6911943738367725  0.1196833864806237
  0.4062552397923369  0.0451493013593591  0.1141780663420846
  0.4081687305740829  0.3767852969935532  0.1394732471835738
  0.7527821896855400  0.0319735404989672  0.1157334237386749
  0.7363363529693814  0.3492802708957043  0.1407119396092824
  0.4118540157171537  0.6950079403668852  0.1264686695458863
  0.2422419820838257  0.3197388454503383  0.8677096255655385
  0.2589406368170089  0.6800970024034925  0.8648864308076654
  0.2283836345428085  0.9922229634521429  0.8827532664603339
  0.5580073232949658  0.3129733860723150  0.8518358503285555
  0.5782516696584494  0.6509060698011240  0.8670081342318028
  0.5849546299705608  0.0168073595234688  0.8588664640426700
  0.9210778204198107  0.3255727774351485  0.8853641349762853
  0.7289356068325432  0.7107938002920164  0.1220096436326372
  0.9070924822567079  0.0170138408654736  0.6500704396075463
  0.2324435609028512  0.3626992214738038  0.6413563536803224
  0.2220965326496227  0.6803082236247135  0.6369319040972314
  0.5410008898613796  0.0121250972601885  0.6351013439260953
  0.5589274326539737  0.3349205815185599  0.6297403442574918
  0.5742887755664157  0.6971710802191637  0.6352697006613468
  0.8842081230183112  0.3496047233837345  0.6397187126748491
  0.7162980777501318  0.0369584861775678  0.3590584343468208
  0.0613622435779178  0.0029513320079104  0.3603787557954732
  0.0599765985862390  0.3320018797837889  0.3619868578340046
  0.0458685497306561  0.6929183360173710  0.3479520035944574
  0.4042617280522904  0.0017476306560056  0.3491331311142716
  0.3896352546228599  0.3749264007564790  0.3552716693134741
  0.3956630454994183  0.6778200886929397  0.3512701981918767
  0.2247599386830572  0.0017564992908845  0.6472757373651774
  0.9014927616654518  0.6669770937510009  0.6437965125083380
  0.8783699043699258  0.8618741184727554  0.1552782280756446
  0.2354410780245502  0.1696257660314942  0.1481018102119407
  0.8963554571129251  0.1700053956794179  0.1445583286185581
  0.7330895161607884  0.3407605961066409  0.3620179452595664
  0.0705710105900295  0.1789913328478789  0.8423878737236805
  0.0393323402984507  0.5091395033510153  0.8652695469773164
  0.0670022336645459  0.8473493615311156  0.8543780799124931
  0.3792971031617327  0.1679640133573628  0.8420654797948970
  0.4077931420132188  0.5307493496723126  0.8650971394932370
  0.3894752471704308  0.8564974128005360  0.8722139361289010
  0.7155540383469585  0.1703531376363259  0.8571829072925468
  0.7254712289581704  0.5030391948325743  0.8691027228420438
  0.7335407476380098  0.8529711346524209  0.8409187856751572
  0.2072608301021504  0.5168783627061231  0.1419602448234372
  0.2388374997720035  0.8329860016945432  0.1353016620178309
  0.5416542669407534  0.2022667826060882  0.1404840296977383
  0.5666157990443423  0.5004185347684071  0.1390184660475740
  0.5641195725141586  0.8474744991368652  0.1346806320852636
  0.8879582668320154  0.4935157796503304  0.1412598733484316
  0.7377189191036564  0.6691209744721149  0.3495279434580851
 
  0.00000000E+00  0.00000000E+00  0.00000000E+00
  0.00000000E+00  0.00000000E+00  0.00000000E+00
  0.00000000E+00  0.00000000E+00  0.00000000E+00
  0.00000000E+00  0.00000000E+00  0.00000000E+00
  0.00000000E+00  0.00000000E+00  0.00000000E+00
  0.00000000E+00  0.00000000E+00  0.00000000E+00
  0.00000000E+00  0.00000000E+00  0.00000000E+00
  0.00000000E+00  0.00000000E+00  0.00000000E+00
  0.00000000E+00  0.00000000E+00  0.00000000E+00
  0.00000000E+00  0.00000000E+00  0.00000000E+00
  0.00000000E+00  0.00000000E+00  0.00000000E+00
  0.00000000E+00  0.00000000E+00  0.00000000E+00
  0.00000000E+00  0.00000000E+00  0.00000000E+00
  0.00000000E+00  0.00000000E+00  0.00000000E+00
  0.00000000E+00  0.00000000E+00  0.00000000E+00
  0.00000000E+00  0.00000000E+00  0.00000000E+00
  0.00000000E+00  0.00000000E+00  0.00000000E+00
  0.00000000E+00  0.00000000E+00  0.00000000E+00
  0.00000000E+00  0.00000000E+00  0.00000000E+00
  0.00000000E+00  0.00000000E+00  0.00000000E+00
  0.00000000E+00  0.00000000E+00  0.00000000E+00
  0.00000000E+00  0.00000000E+00  0.00000000E+00
  0.00000000E+00  0.00000000E+00  0.00000000E+00
  0.00000000E+00  0.00000000E+00  0.00000000E+00
  0.00000000E+00  0.00000000E+00  0.00000000E+00
  0.00000000E+00  0.00000000E+00  0.00000000E+00
  0.00000000E+00  0.00000000E+00  0.00000000E+00
  0.00000000E+00  0.00000000E+00  0.00000000E+00
  0.00000000E+00  0.00000000E+00  0.00000000E+00
  0.00000000E+00  0.00000000E+00  0.00000000E+00
  0.00000000E+00  0.00000000E+00  0.00000000E+00
  0.00000000E+00  0.00000000E+00  0.00000000E+00
  0.00000000E+00  0.00000000E+00  0.00000000E+00
  0.00000000E+00  0.00000000E+00  0.00000000E+00
  0.00000000E+00  0.00000000E+00  0.00000000E+00
  0.00000000E+00  0.00000000E+00  0.00000000E+00
  0.00000000E+00  0.00000000E+00  0.00000000E+00
  0.00000000E+00  0.00000000E+00  0.00000000E+00
  0.00000000E+00  0.00000000E+00  0.00000000E+00
  0.00000000E+00  0.00000000E+00  0.00000000E+00
  0.00000000E+00  0.00000000E+00  0.00000000E+00
  0.00000000E+00  0.00000000E+00  0.00000000E+00
  0.00000000E+00  0.00000000E+00  0.00000000E+00
  0.00000000E+00  0.00000000E+00  0.00000000E+00
  0.00000000E+00  0.00000000E+00  0.00000000E+00
  0.00000000E+00  0.00000000E+00  0.00000000E+00
  0.00000000E+00  0.00000000E+00  0.00000000E+00
  0.00000000E+00  0.00000000E+00  0.00000000E+00
  0.00000000E+00  0.00000000E+00  0.00000000E+00
  0.00000000E+00  0.00000000E+00  0.00000000E+00
  0.00000000E+00  0.00000000E+00  0.00000000E+00
  0.00000000E+00  0.00000000E+00  0.00000000E+00
  0.00000000E+00  0.00000000E+00  0.00000000E+00
  0.00000000E+00  0.00000000E+00  0.00000000E+00
  0.00000000E+00  0.00000000E+00  0.00000000E+00
  0.00000000E+00  0.00000000E+00  0.00000000E+00
  0.00000000E+00  0.00000000E+00  0.00000000E+00
  0.00000000E+00  0.00000000E+00  0.00000000E+00
  0.00000000E+00  0.00000000E+00  0.00000000E+00
  0.00000000E+00  0.00000000E+00  0.00000000E+00
  0.00000000E+00  0.00000000E+00  0.00000000E+00
  0.00000000E+00  0.00000000E+00  0.00000000E+00
  0.00000000E+00  0.00000000E+00  0.00000000E+00
  0.00000000E+00  0.00000000E+00  0.00000000E+00
  0.00000000E+00  0.00000000E+00  0.00000000E+00
  0.00000000E+00  0.00000000E+00  0.00000000E+00
  0.00000000E+00  0.00000000E+00  0.00000000E+00
  0.00000000E+00  0.00000000E+00  0.00000000E+00
  0.00000000E+00  0.00000000E+00  0.00000000E+00
  0.00000000E+00  0.00000000E+00  0.00000000E+00
  0.00000000E+00  0.00000000E+00  0.00000000E+00
  0.00000000E+00  0.00000000E+00  0.00000000E+00
