Ge Se 
 1.0000000000000000
    12.4592042856532341    0.0000005043932535    0.0000015324309691
     0.0000005069683153   12.5228146413497861    0.0000055545335269
     0.0000017564983443    0.0000063343618481   11.0939796321718092
 Ge  Se 
  36  36
Cartesian
  0.8733296877281453  0.5248344195276373  1.2197802868963046
  2.8784722604901387 10.7043808947528252  4.0875252758483738
  7.1640267898041188  2.6625499084822000  4.0233761869594789
  6.7973519590590330  6.9841249273643369  3.9947661289966545
  7.4392483437356463 10.7676161531151902  4.0997671319474556
 11.0357445904713956  2.7700018408224816  4.1572267313698159
 11.4563808982820898  6.6291287587031622  4.0336842255258656
 11.3886777338509724 10.9346788260343768  4.1961011856495603
  0.8113318925495823  1.7169701286986292  6.7256146968353825
  0.8347902632778843  6.0811446677022003  7.0168276453780107
  0.6690697205247900 10.3834194298167972  6.9554972310507841
  4.9128410964263134  2.1206592694539896  6.9046731194846016
  4.5625628657060000  6.2279755761589319  7.1279028402965334
  5.3500325815439949 10.1119973514151376  6.8703642135178393
  8.9412903786779605  2.1391459696519171  6.9924375989843268
  9.2921074232997984  5.9690701326741378  6.8197803841009978
  2.7864078807855948  6.8293044728983521  3.9920084399735600
  3.0152826210489527  2.3087060730618045  4.0770144556576957
  9.1097702170652202 10.2382166602861613  7.0500464963489486
 11.1085162319525335  8.3560012292500048  9.4749581912438767
 11.0179333494884375 12.6855365049968949  9.5919374555990125
  0.9555283976690758  4.5374943971066140  1.4188965515854151
  1.0039943726144993  8.5994562522496611  1.5252315580313400
  5.1280122616265089  0.4942764931339292  1.5909584563348451
  4.9934338362937671  4.7330853692141570  1.4739785601477509
  9.2034258091287473  0.3180366905886248  1.5304526832296452
  9.2359680737188352  4.6930069946496120  1.1265623411014538
  5.0225528702464075  8.9465995999607628  1.3717014790957827
  2.5993446496000163  3.9744926329087868  9.7411326456006098
  2.6447744902228174  8.4056899072971181  9.6518186368858974
  2.8548403611907207 12.2805167948657896  9.6359010006055357
  6.6969927750574003  4.2301479515923210  9.7183588289119793
  7.3267159730030995  8.0713302314736310  9.7556417418818153
  6.9562498246941127 12.3402597424123552  9.6868066192479638
 11.2647388577908298  3.7985886541416463  9.5093153734516633
  9.3574345190078922  9.0477522005817654  1.6166911505326753
 11.5255359868013851  0.0250470211337570  7.1345337691130934
  2.8494313451416500  4.4148511647828883  7.0694122466622096
  3.2393823143042222  8.5384746258791164  7.0958106795821196
  6.9741279310480246  0.4232139402723596  7.1789151055027887
  7.2323650591256481  4.2555051749292936  7.0963613287174248
  7.2236352843205704  8.4626036423460480  7.1136734658950989
 11.3417583214923905  4.3923903840025380  7.0045785724564293
  9.2634378653058231  0.1322811853757483  4.0649907960263043
  0.8319915619612742  0.0423868952978853  3.8543539550221531
  0.5536007777654169  4.3572105284696141  3.8780492658232699
  0.8215628477537386  8.4000814183789121  4.1173129648442570
  4.7895883495435747  0.2486734590047505  4.0684583193525983
  5.1644480782779620  4.2973727206434003  3.9487902662758385
  4.8446625298660830  8.6579196197281529  4.0918957414807853
  2.8750020778006293  0.1771570995261413  7.0833495052610047
 11.1174439980254274  8.5893029260258054  6.8266445563309244
 11.4737185011160996 10.2973587044416437  1.5966651941866163
  2.7249745623564423  2.3732741493353284  1.4979599480991612
 11.2828082439390247  1.9480254157736980  1.7160510412798038
  9.1381914160061637  4.3885986357228877  3.9216824993846005
  0.8602495623474892  2.1896035432927827  9.4681690928643842
  0.7876916451306532  6.6403810620352886  9.5925877362376397
  1.0295047253819232 10.4042509047898619  9.5818999424052791
  4.5990344680167867  2.3633146321640233  9.4970872811988958
  5.1806472183448742  6.3812179088807524  9.5050339475441170
  4.9313723231035755 10.5701793610354429  9.4687677673801165
  9.2410527511354825  2.1435699724630370  9.4567285161636381
  9.4018391988662575  6.5260606757613466  9.4005368809184109
  9.1191484747682718 10.8139473462776206  9.5975272100621023
  2.9838757355930055  6.3490755382974005  1.5220547143893379
  2.9339244327605210 10.4326764161384808  1.5430303398550147
  7.2500396964479439  2.2041207302959456  1.5929929581636550
  7.0567089700050376  6.3708368776583111  1.5054331961246876
  6.8781412264534278 10.7316614091556346  1.5491760478165759
 10.9958822481470531  6.4924790988484737  1.3784732255310748
  8.8955170335011289  8.6326846015792036  4.0713568739389290
