Ge Se
 1.0000000000000000
     4.1500000000000004    0.0000000000000000    0.0000000000000000
     0.0000000000000000    4.6999999999999993    0.0000000000000000
     0.0000000000000000    0.0000000000000000   11.1422209999999993
 Ge  Se 
   4   4
Selective dynamics
Cartesian
  1.0375000000000001  0.5362948622378320  1.4319651522894516   T   T   T
  3.1125000000000003  2.8862948622378317  4.1391453477105467   T   T   T
  3.1125000000000003  4.1637051377621672  9.7102558477105489   T   T   T
  1.0375000000000001  1.8137051377621674  7.0030756522894526   T   T   T
  1.0375000000000001 -0.1550133165669330  3.9082907643379357   T   T   T
  3.1125000000000003  2.1949866834330667  1.6628197356620640   T   T   T
  3.1125000000000003  4.8550133165669305  7.2339302356620632   T   T   T
  1.0375000000000001  2.5050133165669326  9.4794012643379375   T   T   T
