Ge Se                                   
    1.000000000000000     
    12.4318062005131669   -0.0000025064399525    0.0000018428075784
    -0.0000025252455415   12.5250839858239207   -0.0000007217953639
     0.0000021193542712   -0.0000008239319606   11.1067825951707775
   Ge   Se
    36    36
Direct
  0.0470138915586489  0.0474052359162869  0.1127902896440176
  0.2306891347775561  0.9041135483833784  0.3959195019004227
  0.5588820047653726  0.2090903289036490  0.3585437379383123
  0.5775977144686237  0.5528492930847833  0.3553716862204297
  0.5946851852443871  0.8540582673139170  0.3847660157751349
  0.9020586373989374  0.2160099784942062  0.3749100691424871
  0.9167168184044456  0.5252151756065260  0.3806191253716662
  0.9295807670946346  0.8639822072910093  0.3626438842013897
  0.0656669557063125  0.1652090549573515  0.6323144466855126
  0.0734826011111380  0.4871159602539095  0.6545514617071149
  0.0792229726441533  0.8057109318815137  0.6332823407404078
  0.4057841259429864  0.1630814653872150  0.6173283492505419
  0.3991790199883667  0.4880261080286559  0.6341677457328814
  0.4024983075646418  0.8066786399499577  0.6339319854408458
  0.7418013883009280  0.1532259858711171  0.6152807356493923
  0.7361933581016658  0.4884699504000025  0.6271353235831469
  0.2328227546397628  0.5493428501607127  0.3653088004982692
  0.2461213593503260  0.1917873323695218  0.3592747224609099
  0.7670325817576114  0.8192214250706797  0.6373020894114418
  0.8878227569241730  0.6520899155941819  0.8705893826721081
  0.9093632201986281  0.9860180475675975  0.8760713025128695
  0.0885704937200842  0.3715650039037399  0.1130251488018956
  0.0908201735342331  0.7105094145426989  0.1159327874454448
  0.4117419182671398  0.0254755637932931  0.1315571370698194
  0.4004381854967605  0.3781025136862723  0.1266703752922780
  0.7353400225016173  0.0396097049912001  0.1263133244925427
  0.7335271864053894  0.3999807776251529  0.1198684509163854
  0.3908431777913393  0.7278605512745884  0.1232228507047211
  0.2395864882290084  0.3061253501588652  0.8713599071810521
  0.2458979259406888  0.6436944399339239  0.8740102075519260
  0.2270120997240070  0.9689605146621503  0.8784454626736249
  0.5605856838742724  0.3101436150946455  0.8720233335544378
  0.5780110723385619  0.6673606779866361  0.8755280646526060
  0.5695252504862154  0.9910310102432618  0.8664794865401788
  0.9081019289843155  0.3311666835665932  0.8864586585049139
  0.7730940735633709  0.7117421717337393  0.1158513358630699
  0.8959908665473577  0.0021698609992740  0.6489088426935652
  0.2366627230389966  0.3460519379758296  0.6305369751758789
  0.2347712885397613  0.6725149401193633  0.6341528177522662
  0.5604241995061159  0.0216820808588878  0.6390089181417622
  0.5624171714007105  0.3477989522241032  0.6486600227976780
  0.5774707023188697  0.6820343416032415  0.6441123414926295
  0.9172709850578826  0.3478587208935338  0.6501331645620994
  0.7366016393317381  0.0024825694096293  0.3535670557379476
  0.0566195250905679  0.0220217484542857  0.3597011740568234
  0.0550436149252249  0.3585153327630124  0.3436571308346998
  0.0700131266729542  0.6818736770664628  0.3487037340171497
  0.3801170152253661  0.0292836052969108  0.3536682255266541
  0.3986319855443980  0.3445352633249712  0.3515123869000760
  0.4072371405976938  0.6795114512508107  0.3499860361667118
  0.2284944844763714  0.0276894517709394  0.6487894749377006
  0.9077312401191975  0.6862249591528098  0.6348485991922459
  0.9197775282407576  0.8446774617883506  0.1376815829134515
  0.2042339892091860  0.1892942241691671  0.1206318060500493
  0.8838086577559920  0.1846049305744870  0.1319413176421520
  0.7254411198440920  0.3536175959549723  0.3455711565485231
  0.0706360646877258  0.1765856473524394  0.8525724411434936
  0.0715947051117638  0.5237427825297587  0.8817941816555006
  0.0656242869787178  0.8404789313562802  0.8530378662354750
  0.4095477465272879  0.1650414150163044  0.8604288219381147
  0.4016684938117550  0.5169585828652359  0.8571678428772174
  0.4067058645689912  0.8425431181330083  0.8589512539934248
  0.7447675336285045  0.1942582275944389  0.8450004987451294
  0.7243253168638333  0.5202851043436212  0.8457923265180085
  0.7244517530566839  0.8549299962043619  0.8616036477029709
  0.2440022957442878  0.5008767009001431  0.1404604244173129
  0.2360481296513157  0.8586006165592579  0.1462952138463578
  0.5724860840621631  0.1780605761932321  0.1350655584949010
  0.5580797770413426  0.5114731955941849  0.1333298811118837
  0.5440489934681665  0.8604336368121608  0.1495529592928762
  0.8778820623309258  0.5296145486175661  0.1283438754106996
  0.7261995805392303  0.6934038692990754  0.3435662523640630
 
  0.00000000E+00  0.00000000E+00  0.00000000E+00
  0.00000000E+00  0.00000000E+00  0.00000000E+00
  0.00000000E+00  0.00000000E+00  0.00000000E+00
  0.00000000E+00  0.00000000E+00  0.00000000E+00
  0.00000000E+00  0.00000000E+00  0.00000000E+00
  0.00000000E+00  0.00000000E+00  0.00000000E+00
  0.00000000E+00  0.00000000E+00  0.00000000E+00
  0.00000000E+00  0.00000000E+00  0.00000000E+00
  0.00000000E+00  0.00000000E+00  0.00000000E+00
  0.00000000E+00  0.00000000E+00  0.00000000E+00
  0.00000000E+00  0.00000000E+00  0.00000000E+00
  0.00000000E+00  0.00000000E+00  0.00000000E+00
  0.00000000E+00  0.00000000E+00  0.00000000E+00
  0.00000000E+00  0.00000000E+00  0.00000000E+00
  0.00000000E+00  0.00000000E+00  0.00000000E+00
  0.00000000E+00  0.00000000E+00  0.00000000E+00
  0.00000000E+00  0.00000000E+00  0.00000000E+00
  0.00000000E+00  0.00000000E+00  0.00000000E+00
  0.00000000E+00  0.00000000E+00  0.00000000E+00
  0.00000000E+00  0.00000000E+00  0.00000000E+00
  0.00000000E+00  0.00000000E+00  0.00000000E+00
  0.00000000E+00  0.00000000E+00  0.00000000E+00
  0.00000000E+00  0.00000000E+00  0.00000000E+00
  0.00000000E+00  0.00000000E+00  0.00000000E+00
  0.00000000E+00  0.00000000E+00  0.00000000E+00
  0.00000000E+00  0.00000000E+00  0.00000000E+00
  0.00000000E+00  0.00000000E+00  0.00000000E+00
  0.00000000E+00  0.00000000E+00  0.00000000E+00
  0.00000000E+00  0.00000000E+00  0.00000000E+00
  0.00000000E+00  0.00000000E+00  0.00000000E+00
  0.00000000E+00  0.00000000E+00  0.00000000E+00
  0.00000000E+00  0.00000000E+00  0.00000000E+00
  0.00000000E+00  0.00000000E+00  0.00000000E+00
  0.00000000E+00  0.00000000E+00  0.00000000E+00
  0.00000000E+00  0.00000000E+00  0.00000000E+00
  0.00000000E+00  0.00000000E+00  0.00000000E+00
  0.00000000E+00  0.00000000E+00  0.00000000E+00
  0.00000000E+00  0.00000000E+00  0.00000000E+00
  0.00000000E+00  0.00000000E+00  0.00000000E+00
  0.00000000E+00  0.00000000E+00  0.00000000E+00
  0.00000000E+00  0.00000000E+00  0.00000000E+00
  0.00000000E+00  0.00000000E+00  0.00000000E+00
  0.00000000E+00  0.00000000E+00  0.00000000E+00
  0.00000000E+00  0.00000000E+00  0.00000000E+00
  0.00000000E+00  0.00000000E+00  0.00000000E+00
  0.00000000E+00  0.00000000E+00  0.00000000E+00
  0.00000000E+00  0.00000000E+00  0.00000000E+00
  0.00000000E+00  0.00000000E+00  0.00000000E+00
  0.00000000E+00  0.00000000E+00  0.00000000E+00
  0.00000000E+00  0.00000000E+00  0.00000000E+00
  0.00000000E+00  0.00000000E+00  0.00000000E+00
  0.00000000E+00  0.00000000E+00  0.00000000E+00
  0.00000000E+00  0.00000000E+00  0.00000000E+00
  0.00000000E+00  0.00000000E+00  0.00000000E+00
  0.00000000E+00  0.00000000E+00  0.00000000E+00
  0.00000000E+00  0.00000000E+00  0.00000000E+00
  0.00000000E+00  0.00000000E+00  0.00000000E+00
  0.00000000E+00  0.00000000E+00  0.00000000E+00
  0.00000000E+00  0.00000000E+00  0.00000000E+00
  0.00000000E+00  0.00000000E+00  0.00000000E+00
  0.00000000E+00  0.00000000E+00  0.00000000E+00
  0.00000000E+00  0.00000000E+00  0.00000000E+00
  0.00000000E+00  0.00000000E+00  0.00000000E+00
  0.00000000E+00  0.00000000E+00  0.00000000E+00
  0.00000000E+00  0.00000000E+00  0.00000000E+00
  0.00000000E+00  0.00000000E+00  0.00000000E+00
  0.00000000E+00  0.00000000E+00  0.00000000E+00
  0.00000000E+00  0.00000000E+00  0.00000000E+00
  0.00000000E+00  0.00000000E+00  0.00000000E+00
  0.00000000E+00  0.00000000E+00  0.00000000E+00
  0.00000000E+00  0.00000000E+00  0.00000000E+00
  0.00000000E+00  0.00000000E+00  0.00000000E+00
