 C  S  O 
 1.0000000000000000
    32.3722991942999982    0.0000000000000000    0.0000000000000000
     0.0000000000000000   19.9214134216000005    0.0000000000000000
     0.0000000000000000    0.0000000000000000   40.4480476378999967
 C   S   O  
 364   1   2
Cartesian
 12.0108040493371711 10.7240574712145502  0.0997734444919089
 11.9400419029075096 10.8341408934075645  2.5453352244008167
 10.9446691924547412 11.8531201518523019  2.4718503905554563
 10.3763978792665803 12.1797488436444983  1.2112436541946385
  8.9946812580155200 12.5255971737395342  1.1376194959937260
 11.8642299010893932 10.9420442621689684  4.9906879405462057
 10.8343878820488442 11.9261147404366223  4.9167533247698909
 10.2556516748126771 12.2326693338634893  3.6560553671260303
  8.8627813807077800 12.5304204626023381  3.5818534160620890
  8.2089724926974466 12.4876329189691848  2.3216346324957118
  6.8669319426129389 12.0105349581490426  2.2482486957686976
  6.3326340910516299 11.6306442293477126  0.9881767120093413
  5.4402297327238447 10.5204801438471449  0.9149760351862365
 11.7830375333210871 11.0477648845451011  7.4358468159177553
 10.7203545304332781 11.9961401857247765  7.3613399346071171
 10.1321136028040453 12.2820938648363995  6.1005007932936550
  8.7298553587911414 12.5316348952702370  6.0259328652229147
  8.0784185122272145 12.4657080523340742  4.7656119770744709
  6.7537209070604165 11.9425259212650374  4.6922784604878798
  6.2332703706725212 11.5443836103363111  3.4321084060026776
  5.3797440831081786 10.4041494654147932  3.3587003142824967
  5.1453977582508399  9.7916457800464460  2.0989268822548430
  5.0175285490982597  8.3730496424632399  2.0255856695405634
  5.1397171678904190  7.7282416889719583  0.7658775374926301
  5.7758006849334294  6.4538067005422564  0.6929341840576705
 11.6973776820699857 11.1516201734377827  9.8806249601463971
 10.6035070658132096 12.0637833655166808  9.8055909985575536
 10.0059912667798674 12.3287344576862790  8.5446326406337096
  8.5960737515018817 12.5299162234487742  8.4699161498137858
  7.9476818436124885 12.4405530132175990  7.2094700399250806
  6.6420127743433488 11.8714744795762304  7.1363338389572109
  6.1360187739120979 11.4551721812998935  5.8761769579368570
  5.3225183121582127 10.2859746926927151  5.8027007974782112
  5.1099749669489514  9.6656109044860781  4.5427616101766271
  5.0311748578671365  8.2434419600255957  4.4695700620283709
  5.1760157720811799  7.6032580850342546  3.2097032459965300
  5.8556049426154386  6.3514931852264542  3.1366692360898027
  6.3147257151450455  5.8820496869002676  1.8771283203543259
  7.5500759790234619  5.1729601876215652  1.8038087778981720
  8.1869656654661949  5.0138166889848437  0.5439507286267355
  9.6106881382030007  5.0581264677600419  0.4711094780754784
 11.9917268687329113 10.7255087521643286 13.5864390839102356
 11.6077881334222326 11.2537865419625973 12.3250334827624073
 10.4847763935260190 12.1297303408350086 12.2496360607471289
  9.8783910675952225 12.3731707571687100 10.9885738895701408
  8.4623282411193816 12.5255184528436985 10.9139884024905989
  7.8174296720308902 12.4124793374434255  9.6535582659725172
  6.5326851717098426 11.7974675788721299  9.5806279680559072
  6.0418730105347125 11.3629647326356391  8.3205017873750542
  5.2701509685427848 10.1657971750232772  8.2471014499477384
  5.0789231607352088  9.5384895622746040  6.9869995607175950
  5.0492357525808655  8.1144318972355229  6.9139420123391835
  5.2157324569357097  7.4796728260296463  5.6538877084725199
  5.9380175570284548  6.2519977004918683  5.5805878138710296
  6.4136016461011573  5.7988458562202512  4.3210674763901622
  7.6727180401213992  5.1329246585579575  4.2480793386177638
  8.3152548383235114  4.9958483200501496  2.9884099457220108
  9.7366400601625376  5.0892876435438845  2.9159951838177816
 10.3551803880052802  5.3089754084156446  1.6559265069920264
 11.5164406968327846  6.1339083055573651  1.5826023017558948
 11.9275887724982130  6.6450091056472873  0.3219915543704434
 12.4836210155830649  7.9564120726307932  0.2489804370301300
 11.9166508102800961 10.8387293929709685 16.0302054547798001
 11.5151537638969330 11.3540548728713571 14.7689760658584159
 10.3645704279513104 12.1934193699499485 14.6936798628903027
  9.7500729578793468 12.4156887060662253 13.4326563911392967
  8.3294378306581915 12.5182882024707887 13.3585030927681636
  7.6887774437840761 12.3811969398448660 12.0980413195147172
  6.4272767999396079 11.7198060266704349 12.0252759174409896
  5.9516544619000484 11.2680166398886143 10.7652245893449372
  5.2230975311823782 10.0439935184657294 10.6920138466086208
  5.0531547499152403  9.4104771726625565  9.4317501625655247
  5.0724677272626488  7.9862242621245363  9.3586799631645601
  5.2600977294245510  7.3575920142881230  8.0984171203414022
  6.0235095127253118  6.1550919619516069  8.0247528749680512
  6.5142783500216241  5.7186656626638346  6.7650855896623936
  7.7954028741201675  5.0961649189958012  6.6923917403563369
  8.4428830560220334  4.9818790197779732  5.4329080954365230
  9.8601597290566421  5.1243093589720177  5.3607768423829878
 10.4715494776979003  5.3653146240496676  4.1010928273183973
 11.6037762991795805  6.2297029507862911  4.0282967678122503
 11.9976341328619771  6.7546716324846532  2.7678144633581661
 12.5082670484203771  8.0844280869954144  2.6950816485555871
 12.5677061953829856  8.7375478237795949  1.4342163932207226
 12.3034374166197491 10.1372181785203637  1.3604565735873630
 11.8397293650413218 10.9509448521683463 18.4729916164607424
 11.4216844612507664 11.4533299669143087 17.2124283387873831
 10.2437284455135647 12.2542502457483788 17.1379316445101892
  9.6210989976012531 12.4549881584936362 15.8770924117622521
  8.1976952020766003 12.5067997656743977 15.8035310932938202
  7.5619440283127988 12.3463953777706408 14.5429604807644299
  6.3258959126449312 11.6384672972658478 14.4702084119693595
  5.8667405197145968 11.1693588856310448 13.2102426989068622
  5.1825573073852125  9.9200101988871268 13.1372312529032929
  5.0336646476212898  9.2812791439248628 11.8767772692540881
  5.1010351898076545  7.8584831022065620 11.8035759013955914
  5.3089133864681379  7.2366387117734696 10.5430643507111483
  6.1116854110123624  6.0600218382281481 10.4690369255662894
  6.6171457007880878  5.6408363442805785  9.2091988785884205
  7.9185449304494817  5.0618934079144324  9.1366491684604938
  8.5699662124631928  4.9708459665634646  7.8772980208634102
  9.9814262186273943  5.1625764496036188  7.8054148288441327
 10.5844975867756226  5.4253830334110509  6.5461375354852027
 11.6860811660311992  6.3286249378899280  6.4740095889609606
 12.0625029671601123  6.8668373493669943  5.2137228755456180
 12.5267783522069891  8.2134863099965436  5.1410593913776479
 12.5646154099439862  8.8681590313511904  3.8802381647968871
 12.2522683230296732 10.2578984821778700  3.8061636230788287
 11.7624860870824577 11.0582696741813091 20.9172235307230814
 11.3256764393753695 11.5469117573697577 19.6569591730097137
 10.1218356433817434 12.3069644207451478 19.5831752541522128
  9.4922194028983586 12.4880125019206645 18.3221457429463932
  8.0678255989717478 12.4885858841458415 18.2491521994160451
  7.4378509485897064 12.3062704227145634 16.9885329093206785
  6.2288411244067090 11.5529213234499188 16.9155060483064048
  5.7867719673430003 11.0675559755473802 15.6554317511301253
  5.1474713939808820  9.7946855454913795 15.5825300966171181
  5.0201477188734271  9.1511833751847931 14.3220358836837605
  5.1347139291252342  7.7313884351150710 14.2486611257888427
  5.3622867524293341  7.1168737898135985 12.9879537102524871
  6.2026724260759289  5.9667755514962275 12.9137003850641694
  6.7216420156860375  5.5650300885250239 11.6534970999360716
  8.0418299955909660  5.0302753473489794 11.5809627049799495
  8.6964461138214268  4.9625480615695396 10.3217790721090594
 10.1002989715429532  5.2041924820166674 10.2499942777433581
 10.6942315298817192  5.4886477859567471  8.9910802615518151
 11.7631260842140826  6.4303891534151782  8.9196071251210185
 12.1213921770157214  6.9814301719761298  7.6595945655237152
 12.5386312863561233  8.3434355946266034  7.5868812059672583
 12.5549310312897031  8.9988475876651819  6.3261142964846906
 12.1949312410833244 10.3769905803941072  6.2517891109149613
 11.6854516938590418 11.1579053333297420 23.3606982008156940
 11.2302270301993090 11.6340129888272070 22.1021541816874567
  9.9994089417284098 12.3511752611238990 22.0290663752896734
  9.3632944130872193 12.5120125502326793 20.7685901352033717
  7.9397861882254306 12.4622761525662664 20.6955007872586485
  7.3164027807124681 12.2589605989454338 19.4344950992602499
  6.1351144093505559 11.4631703883351452 19.3609443658815223
  5.7107257433178065 10.9627184865069012 18.1005702683088820
  5.1167054555416236  9.6681499217117626 18.0276721599289651
  5.0118590774181904  9.0205586414632872 16.7672712538920266
  5.1736099502515716  7.6053733536334178 16.6937772713069243
  5.4204774383014005  6.9984866301656057 15.4329547290697082
  6.2970490544321640  5.8757907218834537 15.3587585573485459
  6.8284576900643685  5.4914484805878443 14.0981452447949014
  8.1659222259910980  5.0014789765442771 14.0254456725426362
  8.8226057733997170  4.9574382614525812 12.7662823372547436
 10.2168440045438569  5.2492830388867171 12.6945046594366584
 10.8004078477520888  5.5554210852595380 11.4358316285923145
 11.8344097118957627  6.5352747859227671 11.3648458877715832
 12.1740478559447478  7.0984329618349760 10.1052429657806719
 12.5435660917939362  8.4741281978117478 10.0323736787851363
 12.5386186850951731  9.1294723946540639  8.7716727587749421
 12.1321330810090569 10.4946019480758501  8.6971321718311803
 11.6058431069509069 11.2540291324590775 25.8046714769201451
 11.1323329920706655 11.7127252106383395 24.5463281730448841
  9.8765566351802043 12.3850373192037964 24.4742231761529965
  9.2344577615897858 12.5264086496368297 23.2143428024066480
  7.8134533990958595 12.4280823795181625 23.1413101647437678
  7.1969713696374349 12.2053875276444543 21.8804856833473771
  6.0434352080353086 11.3695907359050121 21.8064398589475594
  5.6374295577448148 10.8548756093633223 20.5458437129262457
  5.0882932154676368  9.5407530779656806 20.4727741176718965
  5.0069198728096671  8.8898635410892037 19.2123033892372739
  5.2157728765253237  7.4810003677401333 19.1387797890079199
  5.4828697289379393  6.8823224050629035 17.8781788062852272
  6.3952416432517740  5.7883906577251754 17.8044122022359765
  6.9381398132243755  5.4209902340676752 16.5434653951965451
  8.2912057456005055  4.9757638632006600 16.4704011639051160
  8.9488040611056281  4.9554253997080009 15.2108450165924260
 10.3313821204716305  5.2980645263317099 15.1387664691139427
 10.9034923217632560  5.6257014012569435 13.8803767611463904
 11.9010158297594568  6.6428479767035071 13.8095717980746802
 12.2203705485444551  7.2178643571836263 12.5503580904856040
 12.5418782983672834  8.6054115059785605 12.4772627167579859
 12.5156378563039681  9.2600741959314927 11.2167119719435675
 12.0642282265450280 10.6108503567027785 11.1420380708873950
 11.5236689187742254 11.3475994114082361 28.2490622358141685
 11.0331101692116018 11.7879248233824594 26.9905243990439914
  9.7536467121549784 12.4140777272009455 26.9190101526853844
  9.1064511889181041 12.5329478654495059 25.6596014593013955
  7.6894774355439219 12.3871508013930605 25.5866216848909005
  7.0800638246608161 12.1451391051456561 24.3260406849403310
  5.9542026634571839 11.2725890108895683 24.2518184522577727
  5.5657855243976879 10.7449618045963522 22.9909152565719488
  5.0609834870818400  9.4131043496840530 22.9177496795847873
  5.0032515532306645  8.7595817989666980 21.6574527677739184
  5.2603962090303558  7.3586124646163791 21.5840871018315212
  5.5485321926594047  6.7690327159466728 20.3237275434618567
  6.4975110618561480  5.7068225300098110 20.2506240961091493
  7.0516886254787821  5.3562741828609957 18.9894565023915440
  8.4188579491618842  4.9568119524822780 18.9160257338499171
  9.0754979483436831  4.9570040566389304 17.6557140065365203
 10.4448924011211446  5.3493817796453031 17.5828356420852145
 11.0039544363584056  5.6993660700380326 16.3246464037026406
 11.9634398741638019  6.7525269619001564 16.2533597901852360
 12.2623375637982974  7.3389314976503135 14.9945909906705150
 12.5352958134364165  8.7367893718192384 14.9212787964632430
 12.4872066558784898  9.3901711384135176 13.6611250285715276
 11.4377507228400681 11.4389879591211692 30.6937516997488018
 10.9316486870429053 11.8604714454026965 29.4348776055000307
  9.6303979381741662 12.4400834260751676 29.3635413395728797
  8.9790664648320302 12.5354876804764519 28.1043401435900151
  7.5678636945537789 12.3423325327357194 28.0313576176577399
  6.9660000394394315 12.0804931680166856 26.7711460130084582
  5.8686967563633257 11.1723382920205836 26.6971166326161722
  5.4971017895557619 10.6326058652728399 25.4362099410230620
  5.0366276447084859  9.2847189740017502 25.3629102109422178
  5.0018866011352481  8.6295558969352761 24.1025615553527750
  5.3081493325425981  7.2385110862467457 24.0293587736887808
  5.6172082430074850  6.6591310732490046 22.7692551494104478
  6.6033339666767175  5.6310902209720588 22.6967348667664197
  7.1688908169159236  5.2988949190142280 21.4360106065329390
  8.5492609054214181  4.9473659316820200 21.3625420247270483
  9.2042798665599808  4.9677279684640911 20.1014858036429231
 10.5582628539084968  5.4080812424132851 20.0281085713175493
 11.1023302023546702  5.7758808011351457 18.7681110814264152
 12.0181078694974666  6.8652735014888133 18.6950264656069507
 12.2986270407264389  7.4614399376560447 17.4377942390717671
 12.5238224131441154  8.8687876157196346 17.3642872085823292
 12.4546793626182080  9.5199515180233973 16.1044598434730801
 11.3473487421631827 11.5278027898661648 33.1386556134557466
 10.8270515570345722 11.9305322310119220 31.8793459196672195
  9.5061070004163142 12.4635666193404440 31.8078628124942853
  8.8519855226083344 12.5353003006472008 30.5486926856801482
  7.4480938989578025 12.2945460835019240 30.4757498616715736
  6.8550198824653314 12.0126122557842887 29.2158946533289772
  5.7875415793761942 11.0695372134684398 29.1422883023605692
  5.4329490121900053 10.5179971299933861 27.8815991575439988
  5.0173206150313607  9.1556085667454798 27.8081781051348855
  5.0045197805055404  8.4997109007632190 26.5478071718963946
  5.3603794745684112  7.1204821141120007 26.4747325238053115
  5.6900954164416682  6.5526596798733072 25.2147316840601796
  6.7134238680157994  5.5617500629086836 25.1424491661567302
  7.2898212134157978  5.2491227382610663 23.8819920678069835
  8.6818634664561234  4.9475744707596521 23.8081438931818106
  9.3347200441418501  4.9881974797696644 22.5471788833567501
 10.6733207211975358  5.4748333986490136 22.4732230432480335
 11.2019091264555222  5.8586789596189668 21.2124722852729235
 12.0780461854816483  6.9803739521481294 21.1393797100506617
 12.3243816363043770  7.5866702048631813 19.8795029850088092
 12.5039023733383985  9.0010328506638349 19.8059270498402356
 12.4156512840385904  9.6495822764688963 18.5456184961552140
 11.2529731470738596 11.6142509019468623 35.5838762739260090
 10.7195456791139598 11.9981150983266396 34.3240764127438709
  9.3807708053447492 12.4846370319165860 34.2522231855104593
  8.7248519780468232 12.5327455277627351 32.9929331071736911
  7.3299898091505185 12.2441644652831734 32.9199160922207454
  6.7465549956923514 11.9418905586923447 31.6603387067976634
  5.7106947426037422 10.9641822043103101 31.5871814081628415
  5.3740152601369857 10.4012259435568044 30.3267814360680781
  5.0044298238720062  9.0256395293765443 30.2533156009109625
  5.0132917674574351  8.3698686276255909 28.9930129067217415
  5.4183849423344226  7.0042823392316045 28.9200064221374440
  5.7680421169582612  6.4491341090962848 27.6598714922418623
  6.8275727459826410  5.4971057478302754 27.5873569866542923
  7.4145292553999003  5.2059060261915722 26.3270935535897692
  8.8164640162277852  4.9545929751728401 26.2528128400223437
  9.4667530491660514  5.0178217621651431 24.9917466197944016
 10.7883004474444082  5.5487120767868303 24.9170684048850788
 11.3038764867074484  5.9491130028528412 23.6557293406116820
 12.1482600654455286  7.0961208296138212 23.5813238608488405
 12.3742673125131706  7.7105357212981280 22.3213034262197247
 12.5033287600654255  9.1298280382074228 22.2482444505169035
 12.3808196676569029  9.7764860484735205 20.9905907872373234
 11.1542323294729133 11.6973841617055694 38.0292425680234274
 10.6084769938570034 12.0625164490886636 36.7690541678865799
  9.2537360469378829 12.5025650238677155 36.6966566030000010
  8.5970995961584169 12.5274942929792790 35.4371038055117964
  7.2130707095571269 12.1910490307250168 35.3639840723361587
  6.6405866701351863 11.8685983061771196 34.1044743206544467
  5.6382511505867825 10.8565374118363067 34.0316213957627909
  5.3201023590265288 10.2824307691929047 32.7716434745791432
  4.9976882375378757  8.8950131485423292 32.6980907915311434
  5.0285052279251152  8.2399832545816523 31.4379270285771639
  5.4818224695652873  6.8896729748647756 31.3649490850619088
  5.8508131750093844  6.3479144976903799 30.1046722967735043
  6.9443581289315413  5.4352278884870735 30.0316865704586284
  7.5415683598840548  5.1664679009154755 28.7714608270124295
  8.9514783842177490  4.9649286686800496 28.6969397949427503
  9.5991263033184815  5.0511403621118465 27.4358650873761754
 10.9028402168283129  5.6244478749005697 27.3609148618194951
 11.4046634399022864  6.0416835661840560 26.0994531056353729
 12.2127465240199466  7.2146179698819992 26.0243825826698298
 12.4193530894036144  7.8359138820042746 24.7641366971417227
 12.4992941034637273  9.2581978150071169 24.6912539588998392
 12.3541725554186126  9.9002580091356318 23.4326985141431727
 11.0513977777008741 11.7769315164027546  0.0266118121900966
 10.4941873594529387 12.1232518727818128 39.2141880472223505
  9.1251219857289598 12.5164735693049654 39.1411719458167582
  8.4686028807325151 12.5187503563509477 37.8813518555568081
  7.0969581315705463 12.1348002094589624 37.8081047535483989
  6.5364287652228166 11.7925766651494541 36.5484742712496598
  5.5695983746534470 10.7465906413202958 36.4756954609063797
  5.2714237874718179 10.1618446532655735 35.2160011559476800
  4.9969081237303001  8.7642666709919990 35.1424041268953076
  5.0498235767107840  8.1105867457969509 33.8824417037794561
  5.5501836876516348  6.7770511154568158 33.8094522283785182
  5.9379203224518493  6.2488964925580293 32.5491940442088250
  7.0635724808900466  5.3761275200783833 32.4757601839901540
  7.6699354837858067  5.1297648149467259 31.2154251509534504
  9.0860375332591783  4.9775731308328455 31.1409419140379775
  9.7304143364270548  5.0869289101732642 29.8799110083327761
 11.0147576563578600  5.7024510099030739 29.8049826709088883
 11.5032698313186579  6.1361436996394643 28.5436592225938455
 12.2731944469284358  7.3344536710561012 28.4685320849082792
 12.4594753959609381  7.9622589955755831 27.2079523517490642
 12.4899490468665526  9.3863474076768583 27.1352674544126238
 12.3214929054795572 10.0222351874952693 25.8761335083603790
  8.3392753690857742 12.5054549480654718 40.3255742344480907
  6.9816896124781502 12.0745183588345188 40.2522286151836468
  6.4339213612967905 11.7132816720006936 38.9923763606243767
  5.5037805448723480 10.6345504920087119 38.9194417236476440
  5.2264842718054583 10.0397353541330858 37.6598734160602149
  5.0005271378590024  8.6335007875006387 37.5862996677972703
  5.0764008154747371  7.9820838889811112 36.3265039962404686
  5.6227377392956832  6.6667481602879084 36.2535541927444527
  6.0288670002939844  6.1526520879283817 34.9933929752389474
  7.1842674587702264  5.3197721210714386 34.9196440181406302
  7.7993399770226324  5.0956260627009629 33.6593015219815470
  9.2198501803664605  4.9923958274851206 33.5850931513756308
  9.8603652109743347  5.1246022531912239 32.3241313702006039
 11.1236023329149187  5.7824871311738608 32.2494725468527648
 11.5979259109347019  6.2326166345823557 30.9882952967923799
 12.3277970773182712  7.4558111574806860 30.9134776379182270
 12.4939174684357077  8.0895688589819965 29.6527195437981383
 12.4751112211990485  9.5139541604947997 29.5801789661408243
 12.2845213418403691 10.1432748187903918 28.3206354579798294
  5.1845875041574230  9.9162605106512540 40.1034176189683862
  5.0074844204236175  8.5030039927931025 40.0299178854801099
  5.1065572653628744  7.8544346856824676 38.7702368747343300
  5.6980540832177056  6.5587638764127210 38.6973206661747255
  6.1222767692954374  6.0589621771001569 37.4373728826927490
  7.3058024054692696  5.2664339745243884 37.3635642574793252
  7.9288131685153322  5.0641062261692804 36.1033118561994115
  9.3521127253667355  5.0100562563973083 36.0295372572303236
  9.9882049027353528  5.1647569344338562 34.7687201439743205
 11.2284338769112502  5.8652900733939139 34.6943852695151804
 11.6879640675594612  6.3315417427275795 33.4333712560959810
 12.3759784057123845  7.5787939038462406 33.3590093510175549
 12.5216165484462927  8.2178568344566489 32.0981253402792248
 12.4533529995378096  9.6407437335560306 32.0255274208438436
 12.2418395530158257 10.2630374055732148 30.7656877530513206
  6.2177786077929058  5.9688063336862287 39.8812965806180699
  7.4278776678652143  5.2174449294993623 39.8076642180293305
  8.0580586846000060  5.0365132978175335 38.5475745449321536
  9.4824826826795530  5.0316804988082868 38.4743276621603556
 10.1133985082724873  5.2086211730751186 37.2136818913684166
 11.3286596112537268  5.9516006464352698 37.1396326584942571
 11.7727446825648610  6.4332816055682098 35.8787605593135339
 12.4174823889124184  7.7034117509467395 35.8048977312736056
 12.5421670657635413  8.3470823029848731 34.5439367272562805
 12.4244344849278630  9.7667078881324461 34.4711664305249528
 12.1923887971686575 10.3809761688748896 33.2109936149257550
 10.2360186620437474  5.2563162323210859 39.6588111541281947
 11.4249583555220351  6.0409191380341687 39.5850785245153816
 11.8525942049456710  6.5377845059755879 38.3243389275121160
 12.4534179618195715  7.8292705861720560 38.2509512117243489
 12.5564516477603387  8.4769014218049321 36.9899797209110375
 12.3898261854777623  9.8916056946407025 36.9169169649592561
 12.1373103974045460 10.4974901448521187 35.6565511329647435
 12.5649744436453599  8.6070965876322187 39.4360929223425600
 12.3493754867995911 10.0151390991578477 39.3626916035325323
 12.0767367050923262 10.6119042127292076 38.1021787158397061
 15.5013148204974378  7.9916289511438396 20.2356191675278687
 15.6532987319913932  6.7095327245714165 19.5757625797964749
 16.0176310914491857  9.1774440152197378 19.5804396481620948
