Ge Se                                   
    1.000000000000000     
    12.4569518822244092   -0.0000066808777734    0.0000000870865039
    -0.0000067025566567   12.4973701336566112   -0.0000037996247474
     0.0000000996681875   -0.0000043345043667   11.0750951332421970
   Ge   Se
    36    36
Direct
  0.0604765501217770  0.0335838075395287  0.1319914872295342
  0.2305455054978225  0.8646944919741841  0.3618635171802467
  0.5703918642604933  0.2065821309704177  0.3621662260560257
  0.5826695833242113  0.5330475839322091  0.3516083818908768
  0.5480310941643864  0.8508929957774853  0.3618073722751163
  0.8804018544063723  0.2021908778664283  0.3549139849846696
  0.9045251222471293  0.5394603184784970  0.3765205805663854
  0.9097165498372703  0.8820957832136287  0.3819977138031092
  0.0478748082078511  0.1647244075112013  0.6319392040196234
  0.0673104024069247  0.4731810502603508  0.6312108405693735
  0.0630871841398246  0.8074315279727386  0.6240790968991021
  0.4011203205533675  0.1397817813270663  0.6298628878343706
  0.3960545594336722  0.4935037313107458  0.6251586882975104
  0.3663009658100478  0.8464722792439758  0.6212229618223404
  0.7343435971733570  0.1297819054553742  0.6133131864717427
  0.7012235982964370  0.5038896391799881  0.6307774689333172
  0.2252868310843112  0.5143102497074921  0.3680781795950097
  0.2499255383409675  0.1978446884430412  0.3772626084300370
  0.7371390126084236  0.8063050993278509  0.6120480229861442
  0.9185172208980248  0.6425574537056562  0.8799974980220924
  0.8908672166204354  0.9760941236685241  0.8933544253677610
  0.0638716584878765  0.3521245494894458  0.1294843704662938
  0.0565110801543085  0.6910458720536852  0.1358261148725859
  0.3986934144850736  0.0304042389480870  0.1242611122199335
  0.3917342894437255  0.3745208414191552  0.1224291001433997
  0.7376892597882403  0.0098825930438196  0.1268090432541413
  0.7439538308935880  0.3683135693029129  0.1300930784081089
  0.3947648603448002  0.6934951598491423  0.1247623873350179
  0.2481314517307851  0.2994179595579993  0.8709661046710693
  0.2295193859624547  0.6535117580293317  0.8762553570252720
  0.2105149126077919  0.0003102800766470  0.8673802785583007
  0.5433855906291427  0.3013499251938043  0.8795199502372242
  0.5443476311753344  0.6790753729333332  0.8514117715498344
  0.5865018938803175  0.9758140558134087  0.8666705968188140
  0.8715745154782297  0.3305231555381596  0.8574934142385473
  0.7153608067268209  0.7009760126019344  0.1206413751169890
  0.8984537179261025  0.0250259972308200  0.6679205365731349
  0.2481070662833460  0.3455551037851450  0.6328068351793519
  0.2316799791970112  0.6772801877771073  0.6459344101528615
  0.5800000362608699  0.9959178030332723  0.6311721034223936
  0.5651465872839552  0.3572592548752382  0.6485121580978657
  0.5650805948170401  0.6775869162192976  0.6364216619287006
  0.9062920159421211  0.3409055420031279  0.6269767940023030
  0.7473494711724342  0.0240879247836432  0.3527190192256526
  0.0820680444245951  0.0151692693544021  0.3615274237893686
  0.0874330971207442  0.3507769248487875  0.3601984205596622
  0.0659826414773050  0.6747620724078871  0.3550457508534635
  0.3920750649158506  0.0024426947659535  0.3545243501127899
  0.4114811504027784  0.3516494152445944  0.3458825093680176
  0.4235094310303325  0.6831398032035096  0.3558640753612465
  0.2426430642280479  0.0113784791345850  0.6365463517018171
  0.9106728920781038  0.6690297488274695  0.6286845333279913
  0.9300527672491086  0.8577309078485840  0.1562737831816960
  0.2537566162219136  0.1843984393383664  0.1440778762042214
  0.9183621226651866  0.1985200533880658  0.1369627679853593
  0.7358094620992333  0.3467396702479775  0.3622667746897790
  0.0745956685969063  0.1798249815764450  0.8701875582264336
  0.0722052274182730  0.4969492315069957  0.8648143402684028
  0.0780743823226189  0.8603474926325063  0.8606252396650120
  0.4051739729249348  0.1604591664791073  0.8541089527111438
  0.3991872607202538  0.5290380096927976  0.8521837595502646
  0.4133626232286360  0.8600001232416048  0.8549722349946052
  0.7134496725387649  0.1816984148617493  0.8517794415486719
  0.7457246543534382  0.5298640320507246  0.8616951255038430
  0.7577177007479179  0.8372795218748195  0.8645097548542324
  0.2497377883649818  0.5209705643930747  0.1443072697622938
  0.2393346027914447  0.8301020017739802  0.1434503140906358
  0.5642137245493473  0.1642009438226211  0.1464412207711447
  0.5954845438428222  0.5190155484493602  0.1295066935486204
  0.5741638754296616  0.8505880110522810  0.1344286658693150
  0.8950511470921896  0.5150454372363100  0.1484301102705388
  0.7527485913766867  0.6829956425023695  0.3581955985436096
 
  0.00000000E+00  0.00000000E+00  0.00000000E+00
  0.00000000E+00  0.00000000E+00  0.00000000E+00
  0.00000000E+00  0.00000000E+00  0.00000000E+00
  0.00000000E+00  0.00000000E+00  0.00000000E+00
  0.00000000E+00  0.00000000E+00  0.00000000E+00
  0.00000000E+00  0.00000000E+00  0.00000000E+00
  0.00000000E+00  0.00000000E+00  0.00000000E+00
  0.00000000E+00  0.00000000E+00  0.00000000E+00
  0.00000000E+00  0.00000000E+00  0.00000000E+00
  0.00000000E+00  0.00000000E+00  0.00000000E+00
  0.00000000E+00  0.00000000E+00  0.00000000E+00
  0.00000000E+00  0.00000000E+00  0.00000000E+00
  0.00000000E+00  0.00000000E+00  0.00000000E+00
  0.00000000E+00  0.00000000E+00  0.00000000E+00
  0.00000000E+00  0.00000000E+00  0.00000000E+00
  0.00000000E+00  0.00000000E+00  0.00000000E+00
  0.00000000E+00  0.00000000E+00  0.00000000E+00
  0.00000000E+00  0.00000000E+00  0.00000000E+00
  0.00000000E+00  0.00000000E+00  0.00000000E+00
  0.00000000E+00  0.00000000E+00  0.00000000E+00
  0.00000000E+00  0.00000000E+00  0.00000000E+00
  0.00000000E+00  0.00000000E+00  0.00000000E+00
  0.00000000E+00  0.00000000E+00  0.00000000E+00
  0.00000000E+00  0.00000000E+00  0.00000000E+00
  0.00000000E+00  0.00000000E+00  0.00000000E+00
  0.00000000E+00  0.00000000E+00  0.00000000E+00
  0.00000000E+00  0.00000000E+00  0.00000000E+00
  0.00000000E+00  0.00000000E+00  0.00000000E+00
  0.00000000E+00  0.00000000E+00  0.00000000E+00
  0.00000000E+00  0.00000000E+00  0.00000000E+00
  0.00000000E+00  0.00000000E+00  0.00000000E+00
  0.00000000E+00  0.00000000E+00  0.00000000E+00
  0.00000000E+00  0.00000000E+00  0.00000000E+00
  0.00000000E+00  0.00000000E+00  0.00000000E+00
  0.00000000E+00  0.00000000E+00  0.00000000E+00
  0.00000000E+00  0.00000000E+00  0.00000000E+00
  0.00000000E+00  0.00000000E+00  0.00000000E+00
  0.00000000E+00  0.00000000E+00  0.00000000E+00
  0.00000000E+00  0.00000000E+00  0.00000000E+00
  0.00000000E+00  0.00000000E+00  0.00000000E+00
  0.00000000E+00  0.00000000E+00  0.00000000E+00
  0.00000000E+00  0.00000000E+00  0.00000000E+00
  0.00000000E+00  0.00000000E+00  0.00000000E+00
  0.00000000E+00  0.00000000E+00  0.00000000E+00
  0.00000000E+00  0.00000000E+00  0.00000000E+00
  0.00000000E+00  0.00000000E+00  0.00000000E+00
  0.00000000E+00  0.00000000E+00  0.00000000E+00
  0.00000000E+00  0.00000000E+00  0.00000000E+00
  0.00000000E+00  0.00000000E+00  0.00000000E+00
  0.00000000E+00  0.00000000E+00  0.00000000E+00
  0.00000000E+00  0.00000000E+00  0.00000000E+00
  0.00000000E+00  0.00000000E+00  0.00000000E+00
  0.00000000E+00  0.00000000E+00  0.00000000E+00
  0.00000000E+00  0.00000000E+00  0.00000000E+00
  0.00000000E+00  0.00000000E+00  0.00000000E+00
  0.00000000E+00  0.00000000E+00  0.00000000E+00
  0.00000000E+00  0.00000000E+00  0.00000000E+00
  0.00000000E+00  0.00000000E+00  0.00000000E+00
  0.00000000E+00  0.00000000E+00  0.00000000E+00
  0.00000000E+00  0.00000000E+00  0.00000000E+00
  0.00000000E+00  0.00000000E+00  0.00000000E+00
  0.00000000E+00  0.00000000E+00  0.00000000E+00
  0.00000000E+00  0.00000000E+00  0.00000000E+00
  0.00000000E+00  0.00000000E+00  0.00000000E+00
  0.00000000E+00  0.00000000E+00  0.00000000E+00
  0.00000000E+00  0.00000000E+00  0.00000000E+00
  0.00000000E+00  0.00000000E+00  0.00000000E+00
  0.00000000E+00  0.00000000E+00  0.00000000E+00
  0.00000000E+00  0.00000000E+00  0.00000000E+00
  0.00000000E+00  0.00000000E+00  0.00000000E+00
  0.00000000E+00  0.00000000E+00  0.00000000E+00
  0.00000000E+00  0.00000000E+00  0.00000000E+00
