Ge Se                                   
    1.000000000000000     
     4.7000000000000002    0.0000000000000000    0.0000000000000000
     0.0000000000000000    3.8000000000000003    0.0000000000000000
     0.0000000000000000    0.0000000000000000   11.1422210000000010
   Ge   Se
     4     4
Selective dynamics
Direct
  0.1144544990485414  0.2500000000000000  0.1237488626558587   T   T   T
  0.6144544990485414  0.7500000000000000  0.3762511373441413   T   T   T
  0.8855455009514586  0.7500000000000000  0.8762511373441413   T   T   T
  0.3855455009514586  0.2500000000000000  0.6237488626558587   T   T   T
  0.9819148259397252  0.2500000000000000  0.3504862809148008   T   T   T
  0.4819148259397252  0.7500000000000000  0.1495137190851992   T   T   T
  0.0180851740602748  0.7500000000000000  0.6495137190851992   T   T   T
  0.5180851740602748  0.2500000000000000  0.8504862809148008   T   T   T
 
  0.00000000E+00  0.00000000E+00  0.00000000E+00
  0.00000000E+00  0.00000000E+00  0.00000000E+00
  0.00000000E+00  0.00000000E+00  0.00000000E+00
  0.00000000E+00  0.00000000E+00  0.00000000E+00
  0.00000000E+00  0.00000000E+00  0.00000000E+00
  0.00000000E+00  0.00000000E+00  0.00000000E+00
  0.00000000E+00  0.00000000E+00  0.00000000E+00
  0.00000000E+00  0.00000000E+00  0.00000000E+00
