 C  S                                   
    1.000000000000000     
    32.3722991942999982    0.0000000000000000    0.0000000000000000
     0.0000000000000000   19.9214134216000005    0.0000000000000000
     0.0000000000000000    0.0000000000000000   40.4480476378999967
   C    S 
   364     1
Direct
  0.3709515856542466  0.5383340711314235  0.0024580076678940
  0.3687839482258791  0.5438430617278227  0.0628885778961877
  0.3380561342524274  0.5950243170317484  0.0610920919087914
  0.3204892028426458  0.6114429675164480  0.0299400167168836
  0.2778062321867932  0.6288137267770794  0.0281287874085039
  0.3664906154914850  0.5492203630102614  0.1233166088778777
  0.3346978579944925  0.5986666329289159  0.1215247675628962
  0.3167960938848531  0.6140860987039265  0.0903764972214522
  0.2737665621424088  0.6290459930191101  0.0885616012151725
  0.2535496550070957  0.6268936548621822  0.0574093808988900
  0.2120977772331508  0.6029221248632114  0.0555994819602199
  0.1955852522894266  0.5838516589866302  0.0244414880549949
  0.1680286153684568  0.5281054658261528  0.0226270242532548
  0.3640454366673193  0.5544463481121971  0.1837455446329442
  0.3312446598637787  0.6021233946196856  0.1819614980950827
  0.3130385906807769  0.6165264072127494  0.1508081938530784
  0.2697248227876084  0.6290768194732979  0.1489949322246863
  0.2495684448485706  0.6257827941885132  0.1178425294110881
  0.2086497661906755  0.5994873564874079  0.1160372704883715
  0.1925534046502822  0.5795022685121572  0.0848810081672900
  0.1661977446056991  0.5222448677332698  0.0830627509283154
  0.1589402275248684  0.4915144711705328  0.0519058040402660
  0.1549809073611881  0.4203052747810896  0.0500839453118035
  0.1587353667155214  0.3879483367840825  0.0189277228548016
  0.1783619252014221  0.3239553863325875  0.0171146423399662
  0.3614779583258236  0.5595386363217824  0.2441551536306751
  0.3277362516147891  0.6053989086316222  0.2423906599894785
  0.3092360929260702  0.6188038505497874  0.2112434888782097
  0.2656711530275513  0.6289313456594456  0.2094341122625645
  0.2456054869691170  0.6244841080838927  0.1782836826936661
  0.2052694271244556  0.5958803923718300  0.1764780979168281
  0.1896128020551829  0.5749895105563323  0.1453201855124192
  0.1644922081909141  0.5162872125761421  0.1434979828729983
  0.1578928868523236  0.4851643074933183  0.1123415657263524
  0.1554429497202565  0.4137722780578418  0.1105248018006486
  0.1598816832844664  0.3816534875429176  0.0793630185030537
  0.1808469411213372  0.3187978375097418  0.0775437486962480
  0.1950012600946533  0.2952302790564713  0.0463914271312185
  0.2331489760783835  0.2596027768923184  0.0445646903853857
  0.2528165813324831  0.2516133091755827  0.0134167906947721
  0.2967961613573073  0.2538338311934347  0.0116106200841147
  0.3710378125109383  0.5380624855376350  0.3356492419411531
  0.3589624406297895  0.5646176215492578  0.3045668406940939
  0.3242140095101373  0.6085801128861507  0.3028222140294311
  0.3054197633114514  0.6208887671050105  0.2717117453463487
  0.2616319645556648  0.6285154511076753  0.2698966207473047
  0.2416750519193135  0.6229418297311535  0.2387321707477360
  0.2019804238769684  0.5920927102803688  0.2369185366452483
  0.1867759478873851  0.5703266027819400  0.2057581575940007
  0.1629295856536142  0.5102317957274212  0.2039339004531384
  0.1569962740654813  0.4787531287606413  0.1727797749477140
  0.1560678682211265  0.4072648791297803  0.1709689880337925
  0.1611624654336832  0.3754163343914667  0.1398024466346530
  0.1834441081811983  0.3137654478654067  0.1379766129950677
  0.1980878267048745  0.2910179277976955  0.1068227742519603
  0.2369692083699239  0.2575529580999795  0.1049955543641803
  0.2567951647920070  0.2506832993203741  0.0738431996086008
  0.3006977699636621  0.2553757963476804  0.0720335567746178
  0.3197991120418652  0.2664233116507536  0.0408887884749126
  0.3556620167308694  0.3078529698595251  0.0390707282411186
  0.3683611663667510  0.3335336061853272  0.0079271624297049
  0.3855325004667250  0.3993681358026218  0.0061291201578275
  0.3696682276536030  0.5441277925453178  0.3959891760945076
  0.3566405385757659  0.5696110963131519  0.3651102800242315
  0.3206164690316313  0.6111183666714542  0.3633221930128581
  0.3015628839530433  0.6224479157204771  0.3321944258071338
  0.2576661341593489  0.6276043870319601  0.3303654078827605
  0.2378087369611817  0.6211002563812293  0.2991795132335164
  0.1987630707179000  0.5881103678745033  0.2973558131796037
  0.1840299618293581  0.5655294847072557  0.2661995831686064
  0.1614825798026706  0.5041072271270004  0.2643731332197475
  0.1562419293394300  0.4723031980413454  0.2332155481703099
  0.1568526089360068  0.4008118270914083  0.2314085296205716
  0.1626099096531677  0.3692615736294771  0.2002481731361122
  0.1861811853023611  0.3088810288839408  0.1984214440618526
  0.2012767849963187  0.2869687920490362  0.1672561256154851
  0.2408307830712832  0.2556853658095561  0.1654297641323489
  0.2607846361805983  0.2499350259741363  0.1342718930929312
  0.3045619073006793  0.2570798860336952  0.1324543123811235
  0.3234213054597305  0.2692146584567212  0.1013148553238027
  0.3583848993367555  0.3126249810002049  0.0994956905086760
  0.3705330717451264  0.3390196291050813  0.0683530330054327
  0.3863023309466884  0.4057681873698847  0.0665579248811123
  0.3881370164037992  0.4385828247781251  0.0354125494802974
  0.3799910075580950  0.5088513712141153  0.0336032078700451
  0.3680089314661564  0.5498947369535985  0.4566580270330130
  0.3537608079674214  0.5731347536597067  0.4256698341204471
  0.3167986110953372  0.6119417620651144  0.4237876902674421
  0.2976162370952689  0.6230274225880397  0.3926074486332867
  0.2536602070853433  0.6263153055546090  0.3907902760696272
  0.2339500453472797  0.6189853549770897  0.3596286198720624
  0.1955468186257932  0.5839575821532320  0.3577947046832431
  0.1813579455001871  0.5605406551375216  0.3266286301925174
  0.1601498384090822  0.4978994601471617  0.3248030983305943
  0.1556066816062178  0.4658207547182944  0.2936454576563699
  0.1577645146135025  0.3943980216389795  0.2918433550303292
  0.1642112597928037  0.3631934055203822  0.2606890172503989
  0.1890476769884307  0.3041735303709922  0.2588661037772437
  0.2045787627690991  0.2830868775172993  0.2276923455362082
  0.2447569441414218  0.2539728081518226  0.2258700573950149
  0.2648027470459843  0.2493497381100902  0.1947098703660778
  0.3084032949588639  0.2589271437876002  0.1928832329873381
  0.3269781651081703  0.2721673414482316  0.1617358525772992
  0.3609883465800247  0.3175164981387917  0.1599149811273556
  0.3725808080034276  0.3445928171875565  0.1287767638930842
  0.3869165595253451  0.4121964464806870  0.1269792342605140
  0.3880665690063993  0.4451054634467215  0.0958434002213765
  0.3784417536893311  0.5148813723574561  0.0940345843036916
  0.3641365578169011  0.5517839127369988  0.5173459893499475
  0.3507232226700517  0.5762230615921548  0.4856470447205034
  0.3130845029417658  0.6137432791751407  0.4840304406644125
  0.2936750498062805  0.6235707126737994  0.4530041992670507
  0.2495737322334239  0.6250844074262814  0.4512008473406440
  0.2300723197523624  0.6165543217717153  0.4200504084978810
  0.1924256518874116  0.5795879085004829  0.4182200591861625
  0.1787227051533646  0.5554364664972512  0.3870453001668344
  0.1588616480716364  0.4916166106802217  0.3852349382964774
  0.1550584579500836  0.4593028064666609  0.3540805285323770
  0.1587568659116557  0.3880432224719674  0.3522790956444223
  0.1659129549533230  0.3572268236562371  0.3211201141109484
  0.1919838204219646  0.2996385163398620  0.3193024387903171
  0.2079591429284330  0.2794037184954334  0.2881437700694641
  0.2487335697677324  0.2524913503190908  0.2863393414601627
  0.2688603518283426  0.2489821652508204  0.2551572889501859
  0.3122153840802557  0.2609661576473830  0.2533186046889554
  0.3304948246114207  0.2752213838485708  0.2221620378875032
  0.3635094401385873  0.3224973665012408  0.2203336650539498
  0.3744938159715943  0.3502477222324992  0.1892030250601627
  0.3873622228409653  0.4186293030850702  0.1873940107085626
  0.3878154455562462  0.4516015361137442  0.1562629332468740
  0.3767200121112284  0.5207887451503067  0.1544608280574788
  0.3615696917662132  0.5590041708533166  0.5777047569861979
  0.3473587236541694  0.5815185390559646  0.5464886071478380
  0.3093568178917603  0.6172588794657959  0.5445687837096057
  0.2897342216448047  0.6245663686782077  0.5133071472144566
  0.2458263306232248  0.6234694053422051  0.5115629216865216
  0.2263396960078253  0.6140622118557266  0.4804208172226246
  0.1893930640480867  0.5750943077512211  0.4786340894057494
  0.1761793422782909  0.5502157053206281  0.4474935568419768
  0.1577058358404479  0.4852687456653636  0.4456929124001007
  0.1546169416584848  0.4527521153201500  0.4145175063157315
  0.1598267294692170  0.3817721011703059  0.4127109289783640
  0.1676271218987622  0.3513521476608127  0.3815582164987679
  0.1949164239305429  0.2952290560399816  0.3797510390926785
  0.2113993417053537  0.2759663035316832  0.3486003289335171
  0.2527215623634448  0.2514204191492724  0.3468152573786625
  0.2729192277772809  0.2488964843548052  0.3156176286121586
  0.3160073380408742  0.2632787525586510  0.3137758044215821
  0.3339657082680761  0.2784863699517652  0.2826190743023917
  0.3659287004729058  0.3276324790350205  0.2807669078104070
  0.3762793714637528  0.3560054224400288  0.2496160669547430
  0.3876387722136058  0.4250612679166227  0.2477788440091996
  0.3874113966526859  0.4580490222320159  0.2166650797894311
  0.3748591371522237  0.5265976438520683  0.2148771524236382
  0.3589788008282503  0.5645114374641541  0.6381165553562257
  0.3443240239859670  0.5871314680952425  0.6069590015918014
  0.3055422029832397  0.6205923362414142  0.6050403094886250
  0.2857911337963165  0.6271523997565788  0.5737929032908305
  0.2418437868442660  0.6227430724123064  0.5720142704030547
  0.2227286065611032  0.6115810148858043  0.5408915413381493
  0.1867615714066289  0.5704369075459620  0.5390935153699363
  0.1739734830100033  0.5447705830466670  0.5079308261254025
  0.1568539894741409  0.4789159248551400  0.5061379996082351
  0.1543213964290975  0.4462624527023868  0.4749734834157125
  0.1610031425712439  0.3755042866157392  0.4731720533389429
  0.1694489560647152  0.3455848167632938  0.4420124240498828
  0.1978860277996106  0.2910339669865917  0.4402129592330473
  0.2147890050897824  0.2727080793724773  0.4090443773999338
  0.2566515710028938  0.2507772113261675  0.4072581967590900
  0.2769351890838798  0.2493574308972550  0.3761262110452944
  0.3196940390729237  0.2664366079928611  0.3743269063025871
  0.3373259308339736  0.2823206308920567  0.3430766124322545
  0.3681718573445318  0.3331041608233606  0.3411708934462188
  0.3779829097196943  0.3618735585127586  0.3100189774530150
  0.3878181772252200  0.4315882142351855  0.3081234714098560
  0.3868558098692360  0.4645046602873034  0.2770437695780164
  0.3729003579652729  0.5323248576437403  0.2752896103579434
  0.3562582983221689  0.5694016492413390  0.6985170278550691
  0.3411685356030819  0.5913835349227069  0.6673581900740009
  0.3016286367302607  0.6227585032191157  0.6654997244265228
  0.2816994326423528  0.6284777644662798  0.6343368555963943
  0.2379323999210337  0.6213026217488912  0.6325127375433989
  0.2191109309893981  0.6090945772363140  0.6013244178744297
  0.1841381679158152  0.5657072121729524  0.5995303625034194
  0.1719236181353671  0.5393309575084934  0.5683862541147051
  0.1561781149921895  0.4725405448974481  0.5665946816355684
  0.1543324511786502  0.4397137854141828  0.5354408099793012
  0.1624590289497305  0.3694637578808951  0.5336265514300282
  0.1714067993201235  0.3399392532245349  0.5024563227098598
  0.2009836323075513  0.2869313682283628  0.5006594626158178
  0.2181631270042305  0.2695666832955217  0.4695159027380532
  0.2605672329127514  0.2502059471873894  0.4677402194705778
  0.2808858090428789  0.2506018652328662  0.4365916555357119
  0.3230051623913181  0.2707981437146004  0.4348309665823079
  0.3403746204660364  0.2872847150223433  0.4035561493044351
  0.3700666202702012  0.3398467330933521  0.4016511839542360
  0.3794619830950097  0.3682769841940924  0.3704331079714451
  0.3879270693371832  0.4382547490963978  0.3684155992271901
  0.3862164991810077  0.4710749803809655  0.3373169233442187
  0.3534800774656379  0.5741417654116584  0.7589286953732151
  0.3379026640880107  0.5952344278647322  0.7277907241367949
  0.2977058664270086  0.6243243453905540  0.7259630524736282
  0.2776445657024258  0.6289829122309418  0.6947984589243000
  0.2340670375624203  0.6193582644336499  0.6929683633145688
  0.2155041851082917  0.6062041766917567  0.6617937860715557
  0.1815096587049903  0.5607855059532639  0.6599865996926074
  0.1699531361906291  0.5337255712561633  0.6288323252297048
  0.1556313226482404  0.4661314006221614  0.6270344064872685
  0.1544703679828348  0.4332321367154138  0.5958767539464228
  0.1640754544961120  0.3634472824087057  0.5940623533800279
  0.1736646145819730  0.3344597698575246  0.5629123574265409
  0.2043603761446353  0.2832062914939956  0.5611158734263771
  0.2218796375778028  0.2667880669194740  0.5299392623005245
  0.2645908652768830  0.2497038178058855  0.5281159699552662
  0.2847708315232683  0.2509471594736243  0.4969640398763318
  0.3265964469489432  0.2737110510977240  0.4951500820813144
  0.3433183548593235  0.2924488483858995  0.4641090847536199
  0.3723597644434928  0.3465061257461070  0.4625057025306730
  0.3806299297372616  0.3763474612049184  0.4307991791715948
  0.3892563633596758  0.4450748419819266  0.4283881165149576
  0.3863396513465740  0.4776523218130944  0.3975538520543695
  0.3505886598611211  0.5786714188530004  0.8193560391487414
  0.3345601387564118  0.5988590817573199  0.7882110865446331
  0.2937681811319550  0.6256281432202845  0.7863989730595953
  0.2736158078867969  0.6291873955676929  0.7552422304024582
  0.2302467378910887  0.6171253856589151  0.7534153437083678
  0.2119745219732888  0.6029446191643176  0.7222602294812224
  0.1789717663616132  0.5556713705171300  0.7204430276601397
  0.1680083072769371  0.5280022911246031  0.6892709121122020
  0.1551249955489155  0.4596383923127780  0.6874656036450230
  0.1546968907297742  0.4267151233212315  0.6563141574327831
  0.1657915143689689  0.3575190806609585  0.6544973164304814
  0.1760340533948353  0.3291055489135262  0.6233428214343590
  0.2078009936418517  0.2796356739996048  0.6215368596092814
  0.2256549137289071  0.2641675902686259  0.5903718356896632
  0.2687366707774621  0.2493392076139584  0.5885385080838551
  0.2888967871772715  0.2518347784417834  0.5573806732905017
  0.3302584503155064  0.2762346580923040  0.5555628509087250
  0.3465386337159961  0.2960357862976336  0.5243682386317609
  0.3747126308276594  0.3509699141797562  0.5224914995515941
  0.3840326502738296  0.3800279983521880  0.4914951459100574
  0.3968771140576974  0.4515325462900024  0.4903000080800155
  0.3934265866901919  0.4879123447152135  0.4578386216512210
  0.3476033951644519  0.5830370256357862  0.8797855815666853
  0.3311622565883865  0.6023130848966748  0.8486360487954827
  0.2898125768140536  0.6267559744626333  0.8468308103884681
  0.2695930804927806  0.6291498474352240  0.8156833763956701
  0.2265066836209770  0.6146582793669346  0.8138570954185025
  0.2085322667984668  0.5994574175919267  0.7827012799842192
  0.1765361219845691  0.5503913000622858  0.7808865459243788
  0.1661548559052101  0.5221442948869999  0.7497200938460908
  0.1547295647839955  0.4530909304225947  0.7479047871925119
  0.1550186617548616  0.4201777270372956  0.7167490347340347
  0.1675814676518831  0.3516570232110159  0.7149315674314529
  0.1784418588214382  0.3238549903994165  0.6837733749731547
  0.2112591686404450  0.2761989902891527  0.6819668130120684
  0.2294738793825979  0.2617874206372409  0.6508139934786972
  0.2727962261850433  0.2492319363915262  0.6489848087270659
  0.2929487460192172  0.2526243011953565  0.6178049337523015
  0.3339055795925893  0.2787996542891054  0.6159857809746476
  0.3500344468546212  0.2987717331619957  0.5848499978459824
  0.3768297007536979  0.3558163394689010  0.5830579315486236
  0.3845883850170947  0.3863988202959558  0.5521712253388563
  0.3882751674755072  0.4579391693019773  0.5505943438092726
  0.3850327206087636  0.4904059486549410  0.5197518822805358
  0.3445152413583303  0.5872209411424856  0.9402191800202830
  0.3276753153184662  0.6055630271482975  0.9090690236355695
  0.2858306909721330  0.6276708085729733  0.9072640084942405
  0.2655734450003182  0.6289130171294716  0.8761140070021453
  0.2228254716229681  0.6120092875713415  0.8742897749059769
  0.2051791933152604  0.5958117251618763  0.8431359260824111
  0.1742290349091421  0.5449871704225334  0.8413256066406040
  0.1644374369727998  0.5161670358707173  0.8101692602316264
  0.1544860509660949  0.4465218947798971  0.8083450865022341
  0.1554653512543499  0.4136454532056114  0.7771842831012821
  0.1694808029806082  0.3458651516777671  0.7753716215424831
  0.1809307954761393  0.3187030872956048  0.7442141608312314
  0.2147364880323166  0.2729264279743932  0.7424067550239941
  0.2332614351598616  0.2595511240793204  0.7112508389914151
  0.2768129426798227  0.2493824481743145  0.7094267028419223
  0.2968947227307075  0.2537285525631465  0.6782686657019725
  0.3372864311497843  0.2822376591095830  0.6764713827152843
  0.3529838125764576  0.3030422516796437  0.6453570174427586
  0.3781055710111307  0.3618162787631210  0.6436032856685900
  0.3847831163075858  0.3929589677427218  0.6125156543691989
  0.3869500527308535  0.4642610311929526  0.6108386836609284
  0.3825429015421906  0.4963549488575788  0.5797265306704679
  0.3413309861174551  0.5912124970555129  0.0006569205381748
  0.3241185749197832  0.6086094217775462  0.9695038420116989
  0.2818312681965668  0.6283613950165498  0.9676956867426341
  0.2615613899171095  0.6284783434150069  0.9365451958279762
  0.2191934478434629  0.6091846889567997  0.9347246086207893
  0.2019049254516366  0.5919970002311592  0.9035718543325063
  0.1720552024633527  0.5394659578138112  0.9017629424640806
  0.1628795480924856  0.5101092326784756  0.8706078420224768
  0.1544062122254272  0.4399539177521601  0.8687810419200240
  0.1560667288236938  0.4071425687821147  0.8376247743031593
  0.1715148738576262  0.3401929486305895  0.8358152055158271
  0.1835303217500392  0.3136876720616471  0.8046561376443166
  0.2182963452098051  0.2698601656362848  0.8028443859316744
  0.2370773915982846  0.2575215872278245  0.7716901075641325
  0.2808316484953010  0.2498331736176879  0.7698755026412288
  0.3008030688938455  0.2553305770676790  0.7387281589422117
  0.3405154461884577  0.2861469996362700  0.7369371897631167
  0.3557298296030749  0.3078745739467724  0.7057918833203333
  0.3795231625895540  0.3679916862676300  0.7040122537554970
  0.3854579659503752  0.3994502911207057  0.6728738829655398
  0.3863170132556623  0.4709484551004675  0.6711188347285710
  0.3811983545104991  0.5027698492421923  0.6400227482879437
  0.2575547049511320  0.6278013591482500  0.9969780196842735
  0.2156203902149076  0.6061484336605578  0.9951625524325131
  0.1987102920651763  0.5880075691979821  0.9640058612444510
  0.1699909773899966  0.5338397638108018  0.9621952530478616
  0.1614444125554298  0.5039835782178297  0.9310425792736788
  0.1544677952799380  0.4333909243148702  0.9292159383019235
  0.1568300395669041  0.4006929979727014  0.8980619458603336
  0.1736902148525804  0.3346549427345549  0.8962539554337894
  0.1862551628919347  0.3088382952902030  0.8650954450905519
  0.2219340358346593  0.2669914007321971  0.8632787376804411
  0.2409687080028842  0.2557334697985701  0.8321276224611710
  0.2848536730383426  0.2505293639914589  0.8303194119392393
  0.3046909051868453  0.2571743554171152  0.7991648747135657
  0.3437132939112472  0.2901930589234038  0.7973673493094841
  0.3584470140443087  0.3127626654070416  0.7662178330192430
  0.3809933928381155  0.3741745368586408  0.7644164126878145
  0.3862231977659685  0.4059615327463245  0.7332838861496296
  0.3856184986175205  0.4774714721163727  0.7315004042973200
  0.3797930381277875  0.5090145014056046  0.7003731670877271
  0.1601327512955693  0.4977830619350292  0.9914740961502294
  0.1546607484412529  0.4268403198552043  0.9896486337683610
  0.1577215555070049  0.3942887598568339  0.9584942732685483
  0.1759733430039371  0.3292335165649078  0.9566853182257077
  0.1890830181806773  0.3041320534485479  0.9255314267115671
  0.2256304534847960  0.2643132984990636  0.9237097401242731
  0.2448971336547222  0.2541409872209948  0.8925584287541055
  0.2888636590754394  0.2514189899077587  0.8907526140028273
  0.3085476600748176  0.2591786855782706  0.8595981442956206
  0.3468553834168537  0.2943669479612704  0.8577927623467743
  0.3610950596344537  0.3177723416499231  0.8266470951796615
  0.3823397602284485  0.3803946541444842  0.8248400541873931
  0.3868949392374049  0.4124735411210154  0.7936946900675692
  0.3847848866766816  0.4838894084461454  0.7919004912838180
  0.3783200200449881  0.5151147792240814  0.7607620567867150
  0.1920053924193515  0.2996038412252793  0.9859633765206961
  0.2293734957587381  0.2618579518435103  0.9841381306836748
  0.2488475454290170  0.2527598286815978  0.9529874179805917
  0.2928500196431882  0.2525108264738010  0.9511838318653917
  0.3123589408512134  0.2613932066710998  0.9200328954421179
  0.3498926684142442  0.2987120998660981  0.9182212320174791
  0.3636332360453955  0.3229051734894252  0.8870725630720124
  0.3835371861286174  0.3866703336940326  0.8852664366383297
  0.3874260865550469  0.4189862526656911  0.8541161570853659
  0.3837963748998965  0.4902499282116984  0.8523172376277997
  0.3766755560836081  0.5210852291869396  0.8211768189426617
  0.3161196646486917  0.2637948136193763  0.9804627795091978
  0.3528371568546727  0.3031991865513346  0.9786466714288630
  0.3660588241136075  0.3281550880700454  0.9474989605410411
  0.3846095737814031  0.3929936463790349  0.9456969495603389
  0.3878091158358455  0.4255156438698731  0.9145473539881662
  0.3826732793805116  0.4965334525290847  0.9127442218753944
  0.3748984685711881  0.5269576612723421  0.8815990101690123
  0.3880483318107858  0.4320511567574180  0.9749792440643931
  0.3814020718656770  0.5027323571770846  0.9731721935546839
  0.3729946621439894  0.5327080793497032  0.9420263042825180
  0.4477713896157082  0.4828257095695229  0.4740531787022177
 
  0.00000000E+00  0.00000000E+00  0.00000000E+00
  0.00000000E+00  0.00000000E+00  0.00000000E+00
  0.00000000E+00  0.00000000E+00  0.00000000E+00
  0.00000000E+00  0.00000000E+00  0.00000000E+00
  0.00000000E+00  0.00000000E+00  0.00000000E+00
  0.00000000E+00  0.00000000E+00  0.00000000E+00
  0.00000000E+00  0.00000000E+00  0.00000000E+00
  0.00000000E+00  0.00000000E+00  0.00000000E+00
  0.00000000E+00  0.00000000E+00  0.00000000E+00
  0.00000000E+00  0.00000000E+00  0.00000000E+00
  0.00000000E+00  0.00000000E+00  0.00000000E+00
  0.00000000E+00  0.00000000E+00  0.00000000E+00
  0.00000000E+00  0.00000000E+00  0.00000000E+00
  0.00000000E+00  0.00000000E+00  0.00000000E+00
  0.00000000E+00  0.00000000E+00  0.00000000E+00
  0.00000000E+00  0.00000000E+00  0.00000000E+00
  0.00000000E+00  0.00000000E+00  0.00000000E+00
  0.00000000E+00  0.00000000E+00  0.00000000E+00
  0.00000000E+00  0.00000000E+00  0.00000000E+00
  0.00000000E+00  0.00000000E+00  0.00000000E+00
  0.00000000E+00  0.00000000E+00  0.00000000E+00
  0.00000000E+00  0.00000000E+00  0.00000000E+00
  0.00000000E+00  0.00000000E+00  0.00000000E+00
  0.00000000E+00  0.00000000E+00  0.00000000E+00
  0.00000000E+00  0.00000000E+00  0.00000000E+00
  0.00000000E+00  0.00000000E+00  0.00000000E+00
  0.00000000E+00  0.00000000E+00  0.00000000E+00
  0.00000000E+00  0.00000000E+00  0.00000000E+00
  0.00000000E+00  0.00000000E+00  0.00000000E+00
  0.00000000E+00  0.00000000E+00  0.00000000E+00
  0.00000000E+00  0.00000000E+00  0.00000000E+00
  0.00000000E+00  0.00000000E+00  0.00000000E+00
  0.00000000E+00  0.00000000E+00  0.00000000E+00
  0.00000000E+00  0.00000000E+00  0.00000000E+00
  0.00000000E+00  0.00000000E+00  0.00000000E+00
  0.00000000E+00  0.00000000E+00  0.00000000E+00
  0.00000000E+00  0.00000000E+00  0.00000000E+00
  0.00000000E+00  0.00000000E+00  0.00000000E+00
  0.00000000E+00  0.00000000E+00  0.00000000E+00
  0.00000000E+00  0.00000000E+00  0.00000000E+00
  0.00000000E+00  0.00000000E+00  0.00000000E+00
  0.00000000E+00  0.00000000E+00  0.00000000E+00
  0.00000000E+00  0.00000000E+00  0.00000000E+00
  0.00000000E+00  0.00000000E+00  0.00000000E+00
  0.00000000E+00  0.00000000E+00  0.00000000E+00
  0.00000000E+00  0.00000000E+00  0.00000000E+00
  0.00000000E+00  0.00000000E+00  0.00000000E+00
  0.00000000E+00  0.00000000E+00  0.00000000E+00
  0.00000000E+00  0.00000000E+00  0.00000000E+00
  0.00000000E+00  0.00000000E+00  0.00000000E+00
  0.00000000E+00  0.00000000E+00  0.00000000E+00
  0.00000000E+00  0.00000000E+00  0.00000000E+00
  0.00000000E+00  0.00000000E+00  0.00000000E+00
  0.00000000E+00  0.00000000E+00  0.00000000E+00
  0.00000000E+00  0.00000000E+00  0.00000000E+00
  0.00000000E+00  0.00000000E+00  0.00000000E+00
  0.00000000E+00  0.00000000E+00  0.00000000E+00
  0.00000000E+00  0.00000000E+00  0.00000000E+00
  0.00000000E+00  0.00000000E+00  0.00000000E+00
  0.00000000E+00  0.00000000E+00  0.00000000E+00
  0.00000000E+00  0.00000000E+00  0.00000000E+00
  0.00000000E+00  0.00000000E+00  0.00000000E+00
  0.00000000E+00  0.00000000E+00  0.00000000E+00
  0.00000000E+00  0.00000000E+00  0.00000000E+00
  0.00000000E+00  0.00000000E+00  0.00000000E+00
  0.00000000E+00  0.00000000E+00  0.00000000E+00
  0.00000000E+00  0.00000000E+00  0.00000000E+00
  0.00000000E+00  0.00000000E+00  0.00000000E+00
  0.00000000E+00  0.00000000E+00  0.00000000E+00
  0.00000000E+00  0.00000000E+00  0.00000000E+00
  0.00000000E+00  0.00000000E+00  0.00000000E+00
  0.00000000E+00  0.00000000E+00  0.00000000E+00
  0.00000000E+00  0.00000000E+00  0.00000000E+00
  0.00000000E+00  0.00000000E+00  0.00000000E+00
  0.00000000E+00  0.00000000E+00  0.00000000E+00
  0.00000000E+00  0.00000000E+00  0.00000000E+00
  0.00000000E+00  0.00000000E+00  0.00000000E+00
  0.00000000E+00  0.00000000E+00  0.00000000E+00
  0.00000000E+00  0.00000000E+00  0.00000000E+00
  0.00000000E+00  0.00000000E+00  0.00000000E+00
  0.00000000E+00  0.00000000E+00  0.00000000E+00
  0.00000000E+00  0.00000000E+00  0.00000000E+00
  0.00000000E+00  0.00000000E+00  0.00000000E+00
  0.00000000E+00  0.00000000E+00  0.00000000E+00
  0.00000000E+00  0.00000000E+00  0.00000000E+00
  0.00000000E+00  0.00000000E+00  0.00000000E+00
  0.00000000E+00  0.00000000E+00  0.00000000E+00
  0.00000000E+00  0.00000000E+00  0.00000000E+00
  0.00000000E+00  0.00000000E+00  0.00000000E+00
  0.00000000E+00  0.00000000E+00  0.00000000E+00
  0.00000000E+00  0.00000000E+00  0.00000000E+00
  0.00000000E+00  0.00000000E+00  0.00000000E+00
  0.00000000E+00  0.00000000E+00  0.00000000E+00
  0.00000000E+00  0.00000000E+00  0.00000000E+00
  0.00000000E+00  0.00000000E+00  0.00000000E+00
  0.00000000E+00  0.00000000E+00  0.00000000E+00
  0.00000000E+00  0.00000000E+00  0.00000000E+00
  0.00000000E+00  0.00000000E+00  0.00000000E+00
  0.00000000E+00  0.00000000E+00  0.00000000E+00
  0.00000000E+00  0.00000000E+00  0.00000000E+00
  0.00000000E+00  0.00000000E+00  0.00000000E+00
  0.00000000E+00  0.00000000E+00  0.00000000E+00
  0.00000000E+00  0.00000000E+00  0.00000000E+00
  0.00000000E+00  0.00000000E+00  0.00000000E+00
  0.00000000E+00  0.00000000E+00  0.00000000E+00
  0.00000000E+00  0.00000000E+00  0.00000000E+00
  0.00000000E+00  0.00000000E+00  0.00000000E+00
  0.00000000E+00  0.00000000E+00  0.00000000E+00
  0.00000000E+00  0.00000000E+00  0.00000000E+00
  0.00000000E+00  0.00000000E+00  0.00000000E+00
  0.00000000E+00  0.00000000E+00  0.00000000E+00
  0.00000000E+00  0.00000000E+00  0.00000000E+00
  0.00000000E+00  0.00000000E+00  0.00000000E+00
  0.00000000E+00  0.00000000E+00  0.00000000E+00
  0.00000000E+00  0.00000000E+00  0.00000000E+00
  0.00000000E+00  0.00000000E+00  0.00000000E+00
  0.00000000E+00  0.00000000E+00  0.00000000E+00
  0.00000000E+00  0.00000000E+00  0.00000000E+00
  0.00000000E+00  0.00000000E+00  0.00000000E+00
  0.00000000E+00  0.00000000E+00  0.00000000E+00
  0.00000000E+00  0.00000000E+00  0.00000000E+00
  0.00000000E+00  0.00000000E+00  0.00000000E+00
  0.00000000E+00  0.00000000E+00  0.00000000E+00
  0.00000000E+00  0.00000000E+00  0.00000000E+00
  0.00000000E+00  0.00000000E+00  0.00000000E+00
  0.00000000E+00  0.00000000E+00  0.00000000E+00
  0.00000000E+00  0.00000000E+00  0.00000000E+00
  0.00000000E+00  0.00000000E+00  0.00000000E+00
  0.00000000E+00  0.00000000E+00  0.00000000E+00
  0.00000000E+00  0.00000000E+00  0.00000000E+00
  0.00000000E+00  0.00000000E+00  0.00000000E+00
  0.00000000E+00  0.00000000E+00  0.00000000E+00
  0.00000000E+00  0.00000000E+00  0.00000000E+00
  0.00000000E+00  0.00000000E+00  0.00000000E+00
  0.00000000E+00  0.00000000E+00  0.00000000E+00
  0.00000000E+00  0.00000000E+00  0.00000000E+00
  0.00000000E+00  0.00000000E+00  0.00000000E+00
  0.00000000E+00  0.00000000E+00  0.00000000E+00
  0.00000000E+00  0.00000000E+00  0.00000000E+00
  0.00000000E+00  0.00000000E+00  0.00000000E+00
  0.00000000E+00  0.00000000E+00  0.00000000E+00
  0.00000000E+00  0.00000000E+00  0.00000000E+00
  0.00000000E+00  0.00000000E+00  0.00000000E+00
  0.00000000E+00  0.00000000E+00  0.00000000E+00
  0.00000000E+00  0.00000000E+00  0.00000000E+00
  0.00000000E+00  0.00000000E+00  0.00000000E+00
  0.00000000E+00  0.00000000E+00  0.00000000E+00
  0.00000000E+00  0.00000000E+00  0.00000000E+00
  0.00000000E+00  0.00000000E+00  0.00000000E+00
  0.00000000E+00  0.00000000E+00  0.00000000E+00
  0.00000000E+00  0.00000000E+00  0.00000000E+00