 C  S 
 1.0000000000000000
    32.3722991942999982    0.0000000000000000    0.0000000000000000
     0.0000000000000000   19.9214134216000005    0.0000000000000000
     0.0000000000000000    0.0000000000000000   40.4480476378999967
 C   S  
 364   1
Cartesian
 12.0098314290000001 10.7247724529999999  0.0995830890000000
 11.9398107529999997 10.8346986770000004  2.5425641539999999
 10.9447183609999996 11.8541364670000000  2.4697980880000001
 10.3757104869999992 12.1811876300000002  1.2103673220000000
  8.9939317699999997 12.5272216800000002  1.1372373099999999
 11.8658399580000005 10.9421749110000004  4.9857883449999996
 10.8361415860000001 11.9266319270000007  4.9129414560000004
 10.2562561040000002 12.2337799070000006  3.6535100940000000
  8.8632764819999998 12.5316839219999991  3.5800969600000001
  8.2084169389999992 12.4890136720000005  2.3207471370000001
  6.8664236069999998 12.0115365979999993  2.2476575369999998
  6.3315038680000004 11.6314363479999994  0.9882267120000000
  5.4393877980000003 10.5208568570000001  0.9150966410000000
 11.7876605990000005 11.0469408040000001  7.4294567110000003
 10.7246837619999997 11.9952602390000003  7.3565697669999999
 10.1349248890000005 12.2821693419999995  6.0968961720000001
  8.7325248720000008 12.5318241120000007  6.0233206749999999
  8.0797052380000007 12.4664421080000007  4.7638092040000002
  6.7549982069999999 11.9429464339999996  4.6908407209999998
  6.2334804530000003 11.5447778700000008  3.4312887189999999
  5.3802113530000000 10.4041967389999996  3.3579969410000001
  5.1451563839999999  9.7916135789999998  2.0985660550000000
  5.0172858240000000  8.3728303910000008  2.0252742769999998
  5.1389408110000003  7.7279348370000003  0.7658838030000000
  5.7747325900000002  6.4531431200000000  0.6928750870000000
 11.7059850690000005 11.1490392679999992  9.8737325669999993
 10.6109924319999998 12.0600252149999996  9.8006830219999994
 10.0116510390000002 12.3264350890000003  8.5406866069999996
  8.6016120909999998 12.5277004240000007  8.4670705799999997
  7.9516077039999997 12.4398069380000003  7.2072353360000001
  6.6457419399999997 11.8708705900000009  7.1343479160000003
  6.1384029389999997 11.4549522400000008  5.8746337889999998
  5.3249840739999996 10.2855854030000007  5.8012208940000001
  5.1114239689999996  9.6652126309999993  4.5416278840000004
  5.0325651169999999  8.2429027559999994  4.4684576990000000
  5.1763954160000001  7.6026887890000001  3.2088246350000000
  5.8555989270000000  6.3505482669999997  3.1357347970000000
  6.3139257430000004  5.8808813100000004  1.8764253849999999
  7.5491232869999996  5.1712999340000003  1.8028503659999999
  8.1858205799999997  5.0120086669999999  0.5435813070000000
  9.6096191409999996  5.0563135150000003  0.4706534740000000
 12.0097017289999997 10.7204694749999998 13.5793800349999998
 11.6209106450000004 11.2484064099999994 12.3186960219999992
 10.4952611919999992 12.1212244029999994 12.2454442980000007
  9.8871154790000002 12.3665151600000005 10.9851236340000007
  8.4709568019999999 12.5191144940000001 10.9115886690000004
  7.8244495389999997 12.4088697430000003  9.6513490680000000
  6.5389456749999999 11.7953090669999998  9.5784215929999998
  6.0465626720000003 11.3618993760000002  8.3184642790000005
  5.2742891309999997 10.1650609969999994  8.2448902129999997
  5.0822567940000001  9.5377349850000002  6.9851350779999999
  5.0525388720000004  8.1136131290000009  6.9120860100000003
  5.2180261610000001  7.4787974359999998  5.6522507670000000
  5.9400582310000001  6.2508811949999998  5.5789179799999999
  6.4143767360000004  5.7974700930000003  4.3194065090000002
  7.6733679769999998  5.1311187739999999  4.2459530829999999
  8.3150835040000004  4.9938602449999996  2.9865219590000001
  9.7365198139999993  5.0873708720000002  2.9135537149999999
 10.3547649380000006  5.3073430060000000  1.6542441840000000
 11.5157003400000004  6.1327276230000001  1.5806692840000001
 11.9267320629999993  6.6444087029999999  0.3213597540000000
 12.4824342730000009  7.9559745790000003  0.2485532460000000
 11.9396162029999999 10.8307342529999993 16.0252742770000012
 11.5325994489999992 11.3447666169999994 14.7643861770000004
 10.3776206969999993 12.1783390049999998 14.6908521650000008
  9.7615423200000002 12.4025735860000008 13.4302482600000008
  8.3409824369999992 12.5061254500000008 13.3568754199999997
  7.6987156870000000 12.3734893800000005 12.0962724690000005
  6.4351925850000002 11.7159833910000000 12.0232219699999998
  5.9578952789999997 11.2661161419999996 10.7629413599999992
  5.2275438310000002 10.0431814189999997 10.6893262860000000
  5.0574269290000000  9.4096002579999993  9.4292488100000007
  5.0771422389999996  7.9853396419999996  9.3562803270000003
  5.2644481660000002  7.3566389079999999  8.0962429050000004
  6.0283374790000002  6.1543817519999999  8.0227088930000008
  6.5176768300000001  5.7175850869999998  6.7628731730000000
  7.7987780569999998  5.0950012210000004  6.6896219250000000
  8.4448318479999998  4.9800944329999997  5.4298672679999997
  9.8620910639999995  5.1226120000000002  5.3567371369999996
 10.4725036619999994  5.3636612890000004  4.0973467829999999
 11.6044015880000000  6.2285094259999996  4.0237717630000001
 11.9974975589999993  6.7539963719999996  2.7643811700000001
 12.5078144069999997  8.0839099880000003  2.6916153430000000
 12.5667972559999992  8.7376117709999992  1.4321845769999999
 12.3027362819999997 10.1374301910000000  1.3588926790000000
 11.8657426830000006 10.9386091230000009 18.4714508060000000
 11.4416007999999998 11.4384975430000004 17.2104415889999984
 10.2585229869999992 12.2317075729999996 17.1367454529999996
  9.6348705290000005 12.4343881609999993 15.8759403230000000
  8.2115898129999998 12.4886741640000007 15.8027286530000008
  7.5742440220000002 12.3340635299999999 14.5418415069999991
  6.3342876429999997 11.6330699919999994 14.4685907359999995
  5.8730468750000000 11.1668682100000005 13.2080268860000007
  5.1854271890000003  9.9194889069999999 13.1344509120000001
  5.0371294019999997  9.2806692119999994 11.8739700320000008
  5.1060504910000004  7.8579416279999998 11.8010005949999996
  5.3149161339999997  7.2361545559999998 10.5407199859999992
  6.1198210719999997  6.0609507560000004 10.4670238490000003
  6.6239552499999999  5.6412858960000003  9.2069463729999992
  7.9256453510000000  5.0630273819999996  9.1338157649999996
  8.5750331880000008  4.9705319399999999  7.8736982350000000
  9.9864978789999999  5.1619567870000003  7.8004465100000004
 10.5879764559999998  5.4241228100000001  6.5407729149999998
 11.6894111630000008  6.3274192810000001  6.4673600200000001
 12.0643463129999997  6.8659949300000003  5.2076859469999999
 12.5283393860000007  8.2127418520000006  5.1348390579999998
 12.5649843220000008  8.8679971690000006  3.8753678800000002
 12.2528181079999996 10.2578744890000007  3.8019142150000000
 11.7882108690000003 11.0437545779999997 20.9177474980000007
 11.3469438549999992 11.5286417009999997 19.6567401890000006
 10.1373529429999998 12.2806348799999991 19.5830020900000008
  9.5072269439999992 12.4617204669999992 18.3220348360000003
  8.0828781129999996 12.4667205810000006 18.2490272520000012
  7.4515209200000001 12.2900180819999996 16.9879779820000003
  6.2366528509999997 11.5465116499999993 16.9144840240000001
  5.7917604450000004 11.0648307799999994 15.6536779399999997
  5.1472926140000004  9.7946414950000005 15.5802650450000009
  5.0212025640000002  9.1511001590000003 14.3194179530000003
  5.1390700340000004  7.7316002849999999 14.2463283539999992
  5.3694963460000000  7.1176023480000001 12.9857645030000004
  6.2143807410000003  5.9708456989999998 12.9120683669999998
  6.7325320240000002  5.5687718390000001 11.6516265870000009
  8.0533866879999998  5.0356550220000003 11.5786170960000003
  8.7055902480000000  4.9655318260000003 10.3182563779999992
 10.1095457080000006  5.2057843210000003 10.2448434830000004
 10.7015056610000006  5.4883890150000001  8.9847249980000008
 11.7710533139999995  6.4292378430000001  8.9115543370000001
 12.1270189290000001  6.9803438189999998  7.6515169140000001
 12.5442008969999996  8.3423109049999997  7.5785079000000000
 12.5581216809999994  8.9983034130000004  6.3188748360000000
 12.1980447769999998 10.3765068050000000  6.2453403470000000
 11.7074413300000000 11.1462888719999995 23.3639659880000004
 11.2497949599999991 11.6157979969999996 22.1030769350000007
 10.0148887630000001 12.3255777359999996 22.0294628139999986
  9.3787403109999996 12.4846305849999997 20.7684154509999992
  7.9551362990000003 12.4402856830000008 20.6954059599999987
  7.3301243779999998 12.2419672009999996 19.4343566890000012
  6.1415429120000002 11.4570045470000004 19.3607006069999983
  5.7137756350000002 10.9601440429999997 18.0997333530000013
  5.1135606769999997  9.6685190199999997 18.0265216829999986
  5.0098395350000002  9.0210533139999995 16.7654323580000018
  5.1768164629999998  7.6065335269999999 16.6921405790000001
  5.4279608730000000  7.0008230210000004 15.4313755040000000
  6.3120160099999998  5.8840088840000000 15.3577594760000000
  6.8436331749999999  5.5001826290000002 14.0969934460000008
  8.1820011140000002  5.0129647249999998 14.0239849089999993
  8.8361158369999995  4.9653129580000002 12.7633810039999993
 10.2309093480000008  5.2538547519999996 12.6897659300000001
 10.8127040860000001  5.5566997530000002 11.4294052120000007
 11.8491039279999999  6.5339446069999996 11.3563957210000002
 12.1857109070000007  7.0968642229999999 10.0959949489999996
 12.5554990770000003  8.4724178309999996 10.0228242870000006
 12.5467586519999994  9.1283102039999999  8.7627868650000007
 12.1392879489999999 10.4932060239999991  8.6893730159999993
 11.6230478290000008 11.2460165019999998 25.8099002840000011
 11.1492462159999999 11.6992082600000007 24.5491733550000006
  9.8905467989999991 12.3657588959999991 24.4757614140000008
  9.2494773860000006 12.5029582979999994 23.2147521969999993
  7.8282690050000001 12.4094276430000008 23.1417045590000008
  7.2106380459999997 12.1895351410000004 21.8807353969999987
  6.0498971939999997 11.3640909190000006 21.8069992070000005
  5.6393513679999998 10.8528470989999999 20.5460300449999984
  5.0840697290000003  9.5412817000000008 20.4729404449999990
  5.0027184489999996  8.8906879429999996 19.2118110659999992
  5.2182850839999997  7.4827818869999998 19.1383171079999990
  5.4905362130000004  6.8862748150000002 17.8773899080000014
  6.4124989509999999  5.8005781169999997 17.8039760590000000
  6.9570341109999996  5.4353585239999997 16.5429267879999990
  8.3113937379999996  4.9945969579999998 16.4697971340000002
  8.9666414260000007  4.9695959089999997 15.2089920040000006
 10.3505897519999994  5.3061480520000002 15.1353769299999996
 10.9214096069999993  5.6288752559999997 13.8746919630000001
 11.9232683179999999  6.6413412090000001 13.8017635349999992
 12.2403221129999995  7.2154359819999998 12.5411186220000008
 12.5622653960000008  8.6029424670000001 12.4677057270000002
 12.5308313370000004  9.2580194470000006 11.2073450090000009
 12.0765180589999996 10.6079540249999997 11.1340932850000005
 11.5354156490000008 11.3428544999999996 28.2553462979999992
 11.0460109709999994 11.7793121339999995 26.9949073790000007
  9.7650394439999992 12.4021148680000000 26.9217357640000010
  9.1195354460000004 12.5168828960000003 25.6608886719999987
  7.7023410800000001 12.3743658070000002 25.5877170559999989
  7.0926413540000004 12.1333360670000001 24.3269119260000011
  5.9608736039999997 11.2685470579999993 24.2532958980000011
  5.5684885980000001 10.7432794569999999 22.9923267359999990
  5.0586576460000003  9.4134054180000000 22.9193210600000015
  5.0000309940000003  8.7602825160000002 21.6583518979999994
  5.2640271189999996  7.3606834409999999 21.5846557620000006
  5.5565109250000004  6.7737984659999997 20.3237285609999994
  6.5155401230000001  5.7206926349999998 20.2504768370000008
  7.0723114010000003  5.3743591310000003 18.9893474580000010
  8.4410772319999996  4.9805722240000003 18.9160556789999994
  9.0968103409999994  4.9782018660000000 17.6550884249999989
 10.4683599469999997  5.3622069359999998 17.5815124509999983
 11.0276565550000001  5.7045960429999996 16.3205852510000007
 11.9938716890000006  6.7511081700000002 16.2476577760000005
 12.2906618119999997  7.3358411790000000 14.9868106839999999
 12.5644655230000009  8.7335472109999994 14.9131946559999999
 12.5103721619999995  9.3870697019999998 13.6525506970000006
 11.4447402950000008 11.4369029999999992 30.7002296450000003
 10.9402828220000004 11.8560905460000008 29.4400310519999984
  9.6385288239999998 12.4343080520000004 29.3671035770000017
  8.9891405110000004 12.5267038349999993 28.1065807340000013
  7.5777077669999997 12.3354978559999999 28.0332489010000003
  6.9765863420000001 12.0732727050000008 26.7727241519999986
  5.8754100800000000 11.1698369979999992 26.6993522640000016
  5.5011219980000003 10.6314201350000008 25.4384632109999984
  5.0374531749999996  9.2847127910000005 25.3654155729999999
  5.0015201569999999  8.6298770900000008 24.1046085360000006
  5.3137836460000001  7.2402386669999999 24.0309123990000018
  5.6265645030000000  6.6638321879999998 22.7700271610000016
  6.6212677959999997  5.6443338389999997 22.6969757080000001
  7.1897902489999996  5.3176426890000004 21.4358882900000012
  8.5712461470000001  4.9711499210000003 21.3624343870000004
  9.2266559600000004  4.9913501739999999 20.1014270780000004
 10.5840911870000003  5.4223699569999999 20.0279731749999996
 11.1312475200000005  5.7837042810000003 18.7668418879999983
 12.0607213970000000  6.8630666729999996 18.6937942499999998
 12.3370189670000006  7.4577803610000002 17.4329471590000011
 12.5623302460000001  8.8641529079999994 17.3592510219999987
 12.4857368470000001  9.5152835850000006 16.0983238220000011
 11.3506345750000008 11.5275259020000007 33.1444244380000015
 10.8319330219999994 11.9292411800000000 31.8845481870000000
  9.5109491350000006 12.4621000290000001 31.8117427829999997
  8.8586149219999992 12.5319833759999995 30.5516643519999995
  7.4545960429999996 12.2921104430000003 30.4782524109999997
  6.8627657890000000 12.0094251629999995 29.2180118560000004
  5.7934761049999999 11.0683774950000000 29.1448822020000016
  5.4378666879999997 10.5172710420000008 27.8843173980000003
  5.0208139420000002  9.1553440090000002 27.8111057280000011
  5.0074768069999998  8.4996099469999997 26.5505027769999984
  5.3676834109999998  7.1216263770000001 26.4768466949999990
  5.7001466750000001  6.5562567710000001 25.2161216740000000
  6.7292947769999998  5.5715212820000000 25.1431541440000004
  7.3088560100000004  5.2645120619999997 23.8823089599999996
  8.7015447619999993  4.9660897249999998 23.8086910250000017
  9.3559179310000005  5.0089406969999999 22.5478057860000014
 10.6977176669999992  5.4865565299999997 22.4745521550000014
 11.2321195599999992  5.8663978580000000 21.2133846280000000
 12.1235885620000001  6.9772562980000004 21.1401309970000000
 12.6380805970000001  7.5811934470000004 19.8791637419999994
 12.7822017670000001  8.8949108120000009 20.0077877039999983
 12.6185922619999999  9.7821712489999992 18.2209548949999984
 11.2537775040000003 11.6149406430000006 35.5881767269999969
 10.7214460369999998 11.9985876079999993 34.3285789489999971
  9.3827877040000001 12.4854669569999999 34.2557373049999967
  8.7282524109999997 12.5327005390000004 32.9960632319999974
  7.3333292009999997 12.2442779539999993 32.9225692750000007
  6.7512755389999999 11.9412937160000006 31.6627330779999987
  5.7150382999999998 10.9639291760000006 31.5897636410000011
  5.3787546160000002 10.4008302690000001 30.3294830319999988
  5.0088686940000002  9.0253162380000003 30.2561511990000014
  5.0179333689999996  8.3695240020000004 28.9958305359999997
  5.4253063199999998  7.0046477319999996 28.9223766329999989
  5.7773551940000001  6.4512109759999996 27.6618118290000012
  6.8399429319999996  5.5026731489999996 27.5888023380000007
  7.4297337529999998  5.2157444950000000 26.3282814029999983
  8.8319396969999993  4.9656910900000000 26.2546253199999988
  9.4844036099999993  5.0310931209999996 24.9939422610000008
 10.8088836669999999  5.5549464229999996 24.9208507539999999
 11.3299169539999998  5.9529767040000001 23.6598834989999993
 12.1827640529999996  7.0937962529999998 23.5863494869999997
 12.4171075819999999  7.7059812550000002 22.3254222869999985
 12.5447835919999999  9.1245450970000004 22.2519664759999998
 12.4232902529999993  9.7689037320000001 20.9908771509999994
 11.1537456509999995 11.6984519959999993 38.0316009519999980
 10.6084346770000000 12.0637702939999993 36.7721290590000010
  9.2537183760000001 12.5042133329999992 36.6992416379999966
  8.5978889469999995 12.5288963320000004 35.4397697449999995
  7.2138428689999996 12.1922435759999992 35.3662757869999993
  6.6425690650000000 11.8692569730000006 34.1067237849999998
  5.6404843329999999 10.8568325039999998 34.0338363649999991
  5.3233981129999997 10.2823581700000002 32.7740440370000030
  5.0012936589999999  8.8948316569999992 32.7005081180000019
  5.0329537389999999  8.2395963670000008 31.4405117029999985
  5.4870719909999996  6.8895421030000001 31.3673000339999994
  5.8578968050000002  6.3485159869999999 30.1069793700000012
  6.9526309970000000  5.4371910100000003 30.0338096619999995
  7.5522627829999998  5.1710810660000002 28.7736091609999995
  8.9623031619999995  4.9698548320000002 28.6999931339999996
  9.6123390200000003  5.0577878949999997 27.4395904540000011
 10.9179468150000005  5.6270623210000004 27.3665428159999990
 11.4249286649999995  6.0428419110000000 26.1058559420000016
 12.2381210330000005  7.2122488020000004 26.0322017670000001
 12.4513568879999994  7.8322830200000002 24.7714767460000012
 12.5299568180000005  9.2544527050000003 24.6982269290000005
 12.3862247470000000  9.8941297529999996 23.4372158050000010
 11.0506725310000000 11.7780971529999992  0.0267766060000000
 10.4932870860000005 12.1247100830000001 39.2153129579999984
  9.1241979600000001 12.5182180400000007 39.1423454279999987
  8.4677848820000001 12.5204687119999996 37.8829956049999979
  7.0961050989999999 12.1362247470000000 37.8096199040000016
  6.5362911219999997 11.7936563490000008 36.5502319340000028
  5.5698485370000004 10.7471237179999992 36.4773445129999985
  5.2727680210000001 10.1620330810000006 35.2178344730000035
  4.9986715320000004  8.7642669679999994 35.1442146300000005
  5.0527009960000004  8.1103067400000004 33.8845825200000021
  5.5530471800000001  6.7767066959999998 33.8115348819999966
  5.9421944619999998  6.2485899930000004 32.5515785219999998
  7.0680060390000001  5.3758730889999997 32.4782447810000008
  7.6763133999999997  5.1306405069999999 31.2182903289999985
  9.0925378800000001  4.9784412380000003 31.1448345179999997
  9.7390766140000000  5.0889649390000002 29.8846340179999999
 11.0243215560000003  5.7028632159999999 29.8115463259999984
 11.5167694090000001  6.1360540390000002 28.5512657169999997
 12.2892370220000000  7.3327536579999997 28.4775695800000008
 12.4810752869999995  7.9597206119999999 27.2170867919999999
 12.5106954570000006  9.3837823870000001 27.1440372470000000
 12.3448848719999997 10.0180997850000004 25.8833122250000010
  8.3380041120000001 12.5070819849999992 40.3259353640000029
  6.9804062839999999 12.0758228299999999 40.2527236939999966
  6.4326672550000001 11.7143087389999998 38.9933319089999983
  5.5028696060000000 10.6351060870000005 38.9203262329999973
  5.2261838909999998 10.0400133129999993 37.6610565189999988
  5.0004844669999997  8.6335620879999997 37.5874404910000024
  5.0772066120000003  7.9819326400000001 36.3280525209999965
  5.6232948299999999  6.6663427349999997 36.2551231380000019
  6.0304417609999996  6.1519517900000000 34.9954490659999990
  7.1856145859999998  5.3185992239999997 34.9219551090000024
  7.8021774290000003  5.0945825579999999 33.6622810360000031
  9.2228040700000005  4.9912304880000002 33.5890312189999989
  9.8651351930000004  5.1240863799999996 32.3290748599999986
 11.1285934449999999  5.7817320820000004 32.2559051510000003
 11.6055984500000005  6.2319364549999996 30.9959850310000000
 12.3362741469999992  7.4546728130000002 30.9223709110000016
 12.5063905720000008  8.0881137849999991 29.6622104640000011
 12.4870643619999999  9.5123558040000002 29.5892829900000010
 12.2993049620000008 10.1406574250000006 28.3288822170000003
  5.1836466789999998  9.9164619450000000 40.1038742069999969
  5.0066676140000004  8.5029973979999998 40.0303421019999988
  5.1059212680000003  7.8542962070000000 38.7710723880000003
  5.6971688269999996  6.5582885739999996 38.6981430049999986
  6.1218605039999998  6.0581612590000002 37.4387130739999989
  7.3051652909999998  5.2650704380000004 37.3651351930000004
  7.9291415210000000  5.0624690059999997 36.1057052609999971
  9.3525514600000008  5.0083031650000001 36.0326576229999986
  9.9900274279999994  5.1632518770000004 34.7729034420000005
 11.2301120759999993  5.8641667369999997 34.6996536250000034
 11.6913204190000002  6.3307466510000001 33.4400215149999980
 12.3791990280000004  7.5780658719999998 33.3665657040000028
 12.5273351670000004  8.2171649930000008 32.1066894530000013
 12.4589328770000005  9.6399517059999997 32.0337600710000032
 12.2498073580000000 10.2617788310000009 30.7737636569999999
  6.2165169720000000  5.9678974150000004 39.8816528320000003
  7.4264640809999998  5.2160034179999997 39.8080368039999968
  8.0570449830000008  5.0347986220000003 38.5487289430000004
  9.4815874099999995  5.0299177170000000 38.4758834840000006
 10.1133327479999995  5.2069993019999998 37.2162895199999966
 11.3283624649999997  5.9504466059999999 37.1429138179999967
 11.7733850479999997  6.4325847630000004 35.8834838869999970
 12.4177227020000007  7.7029333109999998 35.8102340699999999
 12.5436506269999999  8.3468723300000001 34.5506019589999980
 12.4259777069999995  9.7664928440000001 34.4775505069999966
 12.1955842969999999 10.3806896210000001 33.2179183960000017
 10.2352466579999994  5.2547512049999998 39.6593513489999978
 11.4239253999999999  6.0397744180000004 39.5858573909999976
 11.8519515989999995  6.5371723179999996 38.3265457150000017
 12.4523935320000003  7.8288569450000001 38.2535400390000007
 12.5559196469999996  8.4769792559999999 36.9940261839999991
 12.3893966669999998  9.8916988369999999 36.9208946230000024
 12.1377019879999999 10.4978275300000004 35.6615486150000010
 12.5637865069999997  8.6072463989999992 39.4371299740000012
 12.3483486179999993 10.0153713230000001 39.3639602659999994
 12.0758705140000000 10.6125545500000005 38.1046905520000010
 14.0700368880000006  9.2935981749999996 19.1168804170000008
