Ge Se                                   
    1.000000000000000     
     3.8000000000000003    0.0000000000000000    0.0000000000000000
     0.0000000000000000    3.6999999999999997    0.0000000000000000
     0.0000000000000000    0.0000000000000000   11.1422209999999993
   Ge   Se
     4     4
Selective dynamics
Direct
  0.0087095791211240  0.2500000000000000  0.1168355675860013   T   T   T
  0.5087095791211240  0.7500000000000000  0.3831644324140058   T   T   T
  0.9912904208788760  0.7500000000000000  0.8831644324140058   T   T   T
  0.4912904208788760  0.2500000000000000  0.6168355675860013   T   T   T
  0.0015439342339505  0.2500000000000000  0.3525704197282238   T   T   T
  0.5015439342339505  0.7500000000000000  0.1474295802717762   T   T   T
  0.9984560657660495  0.7500000000000000  0.6474295802717762   T   T   T
  0.4984560657660495  0.2500000000000000  0.8525704197282238   T   T   T
 
  0.00000000E+00  0.00000000E+00  0.00000000E+00
  0.00000000E+00  0.00000000E+00  0.00000000E+00
  0.00000000E+00  0.00000000E+00  0.00000000E+00
  0.00000000E+00  0.00000000E+00  0.00000000E+00
  0.00000000E+00  0.00000000E+00  0.00000000E+00
  0.00000000E+00  0.00000000E+00  0.00000000E+00
  0.00000000E+00  0.00000000E+00  0.00000000E+00
  0.00000000E+00  0.00000000E+00  0.00000000E+00
