Ge Se
 1.0000000000000000
     3.8000000000000003    0.0000000000000000    0.0000000000000000
     0.0000000000000000    3.6999999999999997    0.0000000000000000
     0.0000000000000000    0.0000000000000000   11.1422209999999993
 Ge  Se 
   4   4
Selective dynamics
Cartesian
  0.0330964006602718  0.9249999999999998  1.3018077147036240   T   T   T
  1.9330964006602718  2.7749999999999999  4.2693027852963787   T   T   T
  3.7669035993397277  2.7749999999999999  9.8404132852963802   T   T   T
  1.8669035993397276  0.9249999999999998  6.8729182147036241   T   T   T
  0.0058669500890169  0.9249999999999998  3.9284175346746486   T   T   T
  1.9058669500890171  2.7749999999999999  1.6426929653253539   T   T   T
  3.7941330499109824  2.7749999999999999  7.2138034653253555   T   T   T
  1.8941330499109823  0.9249999999999998  9.4995280346746522   T   T   T
