 vasp.6.4.1 05Apr23 (build Jun 14 2024 13:23:31) complex                         
 executed on    LinuxNV_CrayMPICH date 2024.10.25  22:12:07
 running  256 mpi-ranks, with    1 threads/rank, on   14 nodes
 distrk:  each k-point on   32 cores,    8 groups
 distr:  one band on NCORE=   2 cores,   16 groups


--------------------------------------------------------------------------------------------------------


 INCAR:
   SIGMA = 0.010000
   EDIFF = 1.00e-06
   ALGO = N
   GGA = PE
   PREC = Accurate
   SYSTEM = 03_BS
   ICHARG = 11
   ISMEAR = 0
   ISPIN = 1
   ISTART = 1
   KPAR = 8
   LORBIT = 11
   NBANDS = 896
   NELMIN = 5
   NPAR = 16
   IVDW = 11
   LCHARG = .TRUE.
   LWAVE = .TRUE.
   LREAL = .FALSE.

 POTCAR:   PAW_PBE C 08Apr2002                    
 POTCAR:   PAW_PBE Se 06Sep2000                   
 POTCAR:   PAW_PBE C 08Apr2002                    
   VRHFIN =C: s2p2                                                                                  
   LEXCH  = PE                                                                                      
   EATOM  =   147.1560 eV,   10.8157 Ry                                                             
                                                                                                    
   TITEL  = PAW_PBE C 08Apr2002                                                                     
   LULTRA =        F    use ultrasoft PP ?                                                          
   IUNSCR =        0    unscreen: 0-lin 1-nonlin 2-no                                               
   RPACOR =     .000    partial core radius                                                         
   POMASS =   12.011; ZVAL   =    4.000    mass and valenz                                          
   RCORE  =    1.500    outmost cutoff radius                                                       
   RWIGS  =    1.630; RWIGS  =     .863    wigner-seitz radius (au A)                               
   ENMAX  =  400.000; ENMIN  =  300.000 eV                                                          
   ICORE  =        2    local potential                                                             
   LCOR   =        T    correct aug charges                                                         
   LPAW   =        T    paw PP                                                                      
   EAUG   =  644.873                                                                                
   DEXC   =     .000                                                                                
   RMAX   =    2.266    core radius for proj-oper                                                   
   RAUG   =    1.300    factor for augmentation sphere                                              
   RDEP   =    1.501    radius for radial grids                                                     
   RDEPT  =    1.300    core radius for aug-charge                                                  
   QCUT   =   -5.516; QGAM   =   11.032    optimization parameters                                  
                                                                                                    
   Description                                                                                      
     l     E      TYP  RCUT    TYP  RCUT                                                            
     0   .000     23  1.200                                                                         
     0   .000     23  1.200                                                                         
     1   .000     23  1.500                                                                         
     1  2.500     23  1.500                                                                         
     2   .000      7  1.500                                                                         
  local pseudopotential read in
  atomic valenz-charges read in
  non local Contribution for L=            0  read in
    real space projection operators read in
  non local Contribution for L=            0  read in
    real space projection operators read in
  non local Contribution for L=            1  read in
    real space projection operators read in
  non local Contribution for L=            1  read in
    real space projection operators read in
    PAW grid and wavefunctions read in
 
   number of l-projection  operators is LMAX  =            4
   number of lm-projection operators is LMMAX =            8
 
 POTCAR:   PAW_PBE Se 06Sep2000                   
   VRHFIN =Se: s2p4                                                                                 
   LEXCH  = PE                                                                                      
   EATOM  =   256.9644 eV,   18.8864 Ry                                                             
                                                                                                    
   TITEL  = PAW_PBE Se 06Sep2000                                                                    
   LULTRA =        F    use ultrasoft PP ?                                                          
   IUNSCR =        1    unscreen: 0-lin 1-nonlin 2-no                                               
   RPACOR =    1.900    partial core radius                                                         
   POMASS =   78.960; ZVAL   =    6.000    mass and valenz                                          
   RCORE  =    2.100    outmost cutoff radius                                                       
   RWIGS  =    2.200; RWIGS  =    1.164    wigner-seitz radius (au A)                               
   ENMAX  =  211.534; ENMIN  =  158.651 eV                                                          
   ICORE  =        3    local potential                                                             
   LCOR   =        T    correct aug charges                                                         
   LPAW   =        T    paw PP                                                                      
   EAUG   =  446.842                                                                                
   DEXC   =    -.031                                                                                
   RMAX   =    3.170    core radius for proj-oper                                                   
   RAUG   =    1.300    factor for augmentation sphere                                              
   RDEP   =    2.177    radius for radial grids                                                     
   QCUT   =   -3.943; QGAM   =    7.886    optimization parameters                                  
                                                                                                    
   Description                                                                                      
     l     E      TYP  RCUT    TYP  RCUT                                                            
     0   .000     23  2.100                                                                         
     0   .000     23  2.100                                                                         
     1   .000     23  2.100                                                                         
     1   .000     23  2.100                                                                         
     2   .000     23  2.100                                                                         
     3  -.100      7  2.100                                                                         
  local pseudopotential read in
  partial core-charges read in
  atomic valenz-charges read in
  non local Contribution for L=            0  read in
    real space projection operators read in
  non local Contribution for L=            0  read in
    real space projection operators read in
  non local Contribution for L=            1  read in
    real space projection operators read in
  non local Contribution for L=            1  read in
    real space projection operators read in
  non local Contribution for L=            2  read in
    real space projection operators read in
    PAW grid and wavefunctions read in
 
   number of l-projection  operators is LMAX  =            5
   number of lm-projection operators is LMMAX =           13
 
 -----------------------------------------------------------------------------
|                                                                             |
|               ----> ADVICE to this user running VASP <----                  |
|                                                                             |
|     You have a (more or less) 'large supercell' and for larger cells it     |
|     might be more efficient to use real-space projection operators.         |
|     Therefore, try LREAL= Auto in the INCAR file.                           |
|     Mind: If you want to do very accurate calculations, keep the            |
|     reciprocal projection scheme (i.e. LREAL=.FALSE.).                      |
|                                                                             |
 -----------------------------------------------------------------------------

 PAW_PBE C 08Apr2002                    :
 energy of atom  1       EATOM= -147.1560
 kinetic energy error for atom=    0.0288 (will be added to EATOM!!)
 PAW_PBE Se 06Sep2000                   :
 energy of atom  2       EATOM= -256.9644
 kinetic energy error for atom=    0.0020 (will be added to EATOM!!)
 
 
 POSCAR:  C Se
  positions in cartesian coordinates
  No initial velocities read in
 exchange correlation table for  LEXCH =        8
   RHO(1)=    0.500       N(1)  =     2000
   RHO(2)=  100.500       N(2)  =     4000
 


--------------------------------------------------------------------------------------------------------


 ion  position               nearest neighbor table
   1  0.371  0.538  0.002-  85 1.42 363 1.42 288 1.43
   2  0.369  0.544  0.063- 108 1.42  85 1.42   3 1.43
   3  0.338  0.595  0.061-   4 1.42   8 1.42   2 1.43
   4  0.320  0.611  0.030-   3 1.42 288 1.42   5 1.43
   5  0.278  0.629  0.028- 310 1.42  10 1.42   4 1.43
   6  0.366  0.549  0.123- 131 1.42 108 1.42   7 1.43
   7  0.335  0.599  0.122-   8 1.42  16 1.42   6 1.43
   8  0.317  0.614  0.090-   7 1.42   3 1.42   9 1.43
   9  0.274  0.629  0.089-  10 1.42  18 1.42   8 1.43
  10  0.254  0.627  0.057-   9 1.42   5 1.42  11 1.43
  11  0.212  0.603  0.056-  12 1.42  20 1.42  10 1.43
  12  0.196  0.584  0.024-  11 1.42 311 1.42  13 1.43
  13  0.168  0.528  0.023- 329 1.42  22 1.42  12 1.43
  14  0.364  0.555  0.184- 154 1.42 131 1.42  15 1.43
  15  0.331  0.602  0.182-  16 1.42  28 1.42  14 1.43
  16  0.313  0.617  0.151-  15 1.42   7 1.42  17 1.43
  17  0.270  0.629  0.149-  18 1.42  30 1.42  16 1.43
  18  0.250  0.626  0.118-  17 1.42   9 1.42  19 1.43
  19  0.209  0.600  0.116-  20 1.42  32 1.42  18 1.43
  20  0.193  0.580  0.085-  19 1.42  11 1.42  21 1.43
  21  0.166  0.522  0.083-  22 1.42  34 1.42  20 1.43
  22  0.159  0.492  0.052-  21 1.42  13 1.42  23 1.43
  23  0.155  0.420  0.050-  24 1.42  36 1.42  22 1.43
  24  0.159  0.388  0.019-  23 1.42 330 1.42  25 1.43
  25  0.178  0.324  0.017- 344 1.42  38 1.42  24 1.43
  26  0.361  0.560  0.244- 177 1.42 154 1.42  27 1.43
  27  0.328  0.606  0.242-  28 1.42  45 1.42  26 1.43
  28  0.309  0.619  0.211-  27 1.42  15 1.42  29 1.43
  29  0.266  0.629  0.209-  30 1.42  47 1.42  28 1.43
  30  0.246  0.625  0.178-  29 1.42  17 1.42  31 1.43
  31  0.205  0.596  0.176-  32 1.42  49 1.42  30 1.43
  32  0.190  0.575  0.145-  31 1.42  19 1.42  33 1.43
  33  0.164  0.516  0.143-  34 1.42  51 1.42  32 1.43
  34  0.158  0.485  0.112-  33 1.42  21 1.42  35 1.43
  35  0.155  0.414  0.111-  36 1.42  53 1.42  34 1.43
  36  0.160  0.382  0.079-  35 1.42  23 1.42  37 1.43
  37  0.181  0.319  0.078-  38 1.42  55 1.42  36 1.43
  38  0.195  0.295  0.046-  37 1.42  25 1.42  39 1.43
  39  0.233  0.260  0.045-  40 1.42  57 1.42  38 1.43
  40  0.253  0.252  0.013-  39 1.42 345 1.42  41 1.43
  41  0.297  0.254  0.012- 355 1.42  59 1.42  40 1.43
  42  0.371  0.538  0.336-  64 1.42  43 1.42 199 1.42
  43  0.359  0.565  0.305- 177 1.42  42 1.42  44 1.42
  44  0.324  0.608  0.303-  45 1.42  66 1.42  43 1.42
  45  0.305  0.621  0.272-  44 1.42  27 1.42  46 1.43
  46  0.262  0.629  0.270-  47 1.42  68 1.42  45 1.43
  47  0.242  0.623  0.239-  46 1.42  29 1.42  48 1.43
  48  0.202  0.592  0.237-  49 1.42  70 1.42  47 1.43
  49  0.187  0.570  0.206-  48 1.42  31 1.42  50 1.43
  50  0.163  0.510  0.204-  51 1.42  72 1.42  49 1.43
  51  0.157  0.479  0.173-  50 1.42  33 1.42  52 1.43
  52  0.156  0.407  0.171-  53 1.42  74 1.42  51 1.43
  53  0.161  0.375  0.140-  52 1.42  35 1.42  54 1.43
  54  0.183  0.314  0.138-  55 1.42  76 1.42  53 1.43
  55  0.198  0.291  0.107-  54 1.42  37 1.42  56 1.43
  56  0.237  0.258  0.105-  57 1.42  78 1.42  55 1.43
  57  0.257  0.251  0.074-  56 1.42  39 1.42  58 1.43
  58  0.301  0.255  0.072-  59 1.42  80 1.42  57 1.43
  59  0.320  0.266  0.041-  58 1.42  41 1.42  60 1.43
  60  0.356  0.308  0.039-  61 1.42  82 1.42  59 1.43
  61  0.368  0.334  0.008-  60 1.42 356 1.42  62 1.43
  62  0.386  0.399  0.006- 362 1.42  84 1.42  61 1.43
  63  0.369  0.542  0.396- 221 1.41  64 1.42  87 1.44
  64  0.356  0.568  0.365-  42 1.42  63 1.42  65 1.42
  65  0.320  0.610  0.363-  66 1.42  89 1.42  64 1.42
  66  0.301  0.622  0.332-  65 1.42  44 1.42  67 1.43
  67  0.258  0.628  0.330-  68 1.42  91 1.42  66 1.43
  68  0.238  0.621  0.299-  67 1.42  46 1.42  69 1.43
  69  0.199  0.588  0.297-  70 1.42  93 1.42  68 1.43
  70  0.184  0.566  0.266-  69 1.42  48 1.42  71 1.43
  71  0.161  0.504  0.264-  72 1.42  95 1.42  70 1.43
  72  0.156  0.472  0.233-  71 1.42  50 1.42  73 1.43
  73  0.157  0.401  0.231-  74 1.42  97 1.42  72 1.43
  74  0.163  0.369  0.200-  73 1.42  52 1.42  75 1.43
  75  0.186  0.309  0.198-  76 1.42  99 1.42  74 1.43
  76  0.201  0.287  0.167-  75 1.42  54 1.42  77 1.43
  77  0.241  0.256  0.165- 101 1.42  78 1.42  76 1.43
  78  0.261  0.250  0.134-  77 1.42  56 1.42  79 1.43
  79  0.305  0.257  0.133-  80 1.42 103 1.42  78 1.43
  80  0.323  0.269  0.101-  79 1.42  58 1.42  81 1.43
  81  0.358  0.313  0.100-  82 1.42 105 1.42  80 1.43
  82  0.371  0.339  0.068-  81 1.42  60 1.42  83 1.43
  83  0.386  0.406  0.067-  84 1.42 107 1.42  82 1.43
  84  0.388  0.439  0.035-  83 1.42  62 1.42  85 1.43
  85  0.380  0.509  0.034-   1 1.42   2 1.42  84 1.43
  86  0.367  0.550  0.457-  87 1.40 110 1.41 243 1.47
  87  0.353  0.572  0.426-  86 1.40  88 1.43  63 1.44
  88  0.317  0.612  0.424- 112 1.42  89 1.42  87 1.43
  89  0.297  0.623  0.393-  88 1.42  65 1.42  90 1.42
  90  0.254  0.626  0.391-  91 1.42  89 1.42 114 1.42
  91  0.234  0.619  0.360-  90 1.42  67 1.42  92 1.43
  92  0.195  0.584  0.358-  93 1.42 116 1.42  91 1.43
  93  0.181  0.561  0.327-  92 1.42  69 1.42  94 1.43
  94  0.160  0.498  0.325-  95 1.42 118 1.42  93 1.43
  95  0.156  0.466  0.294-  94 1.42  71 1.42  96 1.43
  96  0.158  0.395  0.292-  97 1.42 120 1.42  95 1.43
  97  0.164  0.363  0.261-  96 1.42  73 1.42  98 1.43
  98  0.189  0.304  0.259-  99 1.42 122 1.42  97 1.43
  99  0.205  0.283  0.228-  98 1.42  75 1.42 100 1.43
 100  0.245  0.254  0.226- 124 1.42 101 1.42  99 1.43
 101  0.265  0.249  0.195-  77 1.42 100 1.42 102 1.43
 102  0.308  0.259  0.193- 103 1.42 126 1.42 101 1.43
 103  0.327  0.272  0.162- 102 1.42  79 1.42 104 1.43
 104  0.361  0.318  0.160- 128 1.42 105 1.42 103 1.43
 105  0.373  0.345  0.129- 104 1.42  81 1.42 106 1.43
 106  0.387  0.412  0.127- 107 1.42 130 1.42 105 1.43
 107  0.388  0.445  0.096- 106 1.42  83 1.42 108 1.43
 108  0.378  0.515  0.094-   2 1.42   6 1.42 107 1.43
 109  0.365  0.555  0.517- 133 1.41 110 1.43 265 1.43
 110  0.350  0.578  0.486-  86 1.41 109 1.43 111 1.43
 111  0.313  0.615  0.484- 112 1.42 135 1.42 110 1.43
 112  0.293  0.624  0.453- 111 1.42  88 1.42 113 1.43
 113  0.249  0.625  0.451- 114 1.42 137 1.42 112 1.43
 114  0.230  0.617  0.420- 113 1.42  90 1.42 115 1.43
 115  0.192  0.580  0.418- 116 1.42 139 1.42 114 1.43
 116  0.179  0.555  0.387- 115 1.42  92 1.42 117 1.43
 117  0.159  0.492  0.385- 118 1.42 141 1.42 116 1.43
 118  0.155  0.459  0.354- 117 1.42  94 1.42 119 1.43
 119  0.159  0.388  0.352- 120 1.42 143 1.42 118 1.43
 120  0.166  0.357  0.321- 119 1.42  96 1.42 121 1.43
 121  0.192  0.300  0.319- 145 1.42 122 1.42 120 1.43
 122  0.208  0.279  0.288- 121 1.42  98 1.42 123 1.43
 123  0.249  0.253  0.286- 124 1.42 147 1.42 122 1.43
 124  0.269  0.249  0.255- 123 1.42 100 1.42 125 1.43
 125  0.312  0.261  0.253- 149 1.42 126 1.42 124 1.43
 126  0.330  0.275  0.222- 102 1.42 125 1.42 127 1.43
 127  0.363  0.323  0.220- 151 1.42 128 1.42 126 1.43
 128  0.374  0.350  0.189- 104 1.42 127 1.42 129 1.43
 129  0.387  0.419  0.187- 130 1.42 153 1.42 128 1.43
 130  0.388  0.452  0.156- 129 1.42 106 1.42 131 1.43
 131  0.377  0.521  0.154-   6 1.42  14 1.42 130 1.43
 132  0.362  0.560  0.578- 156 1.42 287 1.42 133 1.42
 133  0.348  0.583  0.546- 109 1.41 132 1.42 134 1.43
 134  0.309  0.619  0.545- 135 1.42 158 1.42 133 1.43
 135  0.289  0.626  0.513- 134 1.42 111 1.42 136 1.43
 136  0.246  0.624  0.512- 160 1.42 137 1.42 135 1.43
 137  0.226  0.614  0.481- 113 1.42 136 1.42 138 1.43
 138  0.189  0.575  0.479- 139 1.42 162 1.42 137 1.43
 139  0.176  0.550  0.448- 138 1.42 115 1.42 140 1.43
 140  0.158  0.485  0.446- 141 1.42 164 1.42 139 1.43
 141  0.155  0.453  0.415- 140 1.42 117 1.42 142 1.43
 142  0.160  0.382  0.413- 143 1.42 166 1.42 141 1.43
 143  0.167  0.351  0.382- 142 1.42 119 1.42 144 1.43
 144  0.195  0.295  0.380- 145 1.42 168 1.42 143 1.43
 145  0.211  0.276  0.349- 144 1.42 121 1.42 146 1.43
 146  0.252  0.251  0.347- 147 1.42 170 1.42 145 1.43
 147  0.273  0.249  0.316- 146 1.42 123 1.42 148 1.43
 148  0.316  0.264  0.314- 172 1.42 149 1.42 147 1.43
 149  0.334  0.279  0.283- 125 1.42 148 1.42 150 1.43
 150  0.366  0.328  0.281- 174 1.42 151 1.42 149 1.43
 151  0.376  0.356  0.250- 127 1.42 150 1.42 152 1.43
 152  0.388  0.425  0.248- 176 1.42 153 1.42 151 1.43
 153  0.387  0.458  0.217- 152 1.42 129 1.42 154 1.43
 154  0.375  0.527  0.215-  14 1.42  26 1.42 153 1.43
 155  0.359  0.564  0.638- 156 1.42 179 1.42 309 1.43
 156  0.344  0.587  0.607- 132 1.42 155 1.42 157 1.43
 157  0.305  0.621  0.605- 181 1.42 158 1.42 156 1.43
 158  0.286  0.628  0.574- 134 1.42 157 1.42 159 1.43
 159  0.242  0.623  0.572- 160 1.42 183 1.42 158 1.43
 160  0.223  0.612  0.541- 159 1.42 136 1.42 161 1.43
 161  0.187  0.571  0.539- 162 1.42 185 1.42 160 1.43
 162  0.174  0.545  0.508- 161 1.42 138 1.42 163 1.43
 163  0.157  0.479  0.506- 164 1.42 187 1.42 162 1.43
 164  0.154  0.446  0.475- 163 1.42 140 1.42 165 1.43
 165  0.161  0.376  0.473- 166 1.42 189 1.42 164 1.43
 166  0.169  0.346  0.442- 165 1.42 142 1.42 167 1.43
 167  0.198  0.291  0.440- 168 1.42 191 1.42 166 1.43
 168  0.214  0.272  0.409- 167 1.42 144 1.42 169 1.43
 169  0.256  0.250  0.407- 193 1.42 170 1.42 168 1.43
 170  0.277  0.250  0.376- 146 1.42 169 1.42 171 1.43
 171  0.319  0.267  0.374- 172 1.42 195 1.42 170 1.43
 172  0.337  0.283  0.343- 171 1.42 148 1.42 173 1.43
 173  0.368  0.333  0.341- 197 1.41 174 1.42 172 1.43
 174  0.378  0.362  0.310- 150 1.42 175 1.42 173 1.42
 175  0.388  0.432  0.308- 176 1.42 199 1.42 174 1.42
 176  0.387  0.465  0.277- 175 1.42 152 1.42 177 1.43
 177  0.373  0.532  0.275-  26 1.42  43 1.42 176 1.43
 178  0.356  0.569  0.698- 201 1.42 179 1.42 328 1.43
 179  0.341  0.591  0.667- 178 1.42 155 1.42 180 1.43
 180  0.302  0.623  0.666- 203 1.42 181 1.42 179 1.43
 181  0.282  0.629  0.634- 157 1.42 180 1.42 182 1.43
 182  0.238  0.621  0.633- 183 1.42 205 1.42 181 1.43
 183  0.219  0.609  0.601- 182 1.42 159 1.42 184 1.43
 184  0.184  0.566  0.600- 185 1.42 207 1.42 183 1.43
 185  0.172  0.539  0.568- 161 1.42 184 1.42 186 1.43
 186  0.156  0.472  0.567- 187 1.42 209 1.42 185 1.43
 187  0.154  0.440  0.535- 186 1.42 163 1.42 188 1.43
 188  0.162  0.369  0.534- 189 1.42 211 1.42 187 1.43
 189  0.171  0.340  0.502- 188 1.42 165 1.42 190 1.43
 190  0.201  0.287  0.501- 191 1.42 213 1.42 189 1.43
 191  0.218  0.269  0.469- 190 1.42 167 1.42 192 1.43
 192  0.260  0.250  0.468- 193 1.42 215 1.42 191 1.43
 193  0.281  0.250  0.437- 192 1.42 169 1.42 194 1.43
 194  0.323  0.270  0.435- 195 1.42 217 1.42 193 1.43
 195  0.340  0.288  0.404- 194 1.42 171 1.42 196 1.43
 196  0.370  0.340  0.402- 219 1.41 197 1.43 195 1.43
 197  0.380  0.368  0.370- 173 1.41 196 1.43 198 1.43
 198  0.389  0.438  0.368- 221 1.41 199 1.42 197 1.43
 199  0.386  0.471  0.337- 198 1.42 175 1.42  42 1.42
 200  0.353  0.574  0.759- 201 1.42 223 1.42 343 1.43
 201  0.338  0.595  0.728- 178 1.42 200 1.42 202 1.43
 202  0.298  0.624  0.726- 203 1.42 225 1.42 201 1.43
 203  0.278  0.629  0.695- 202 1.42 180 1.42 204 1.43
 204  0.234  0.619  0.693- 227 1.42 205 1.42 203 1.43
 205  0.215  0.606  0.662- 204 1.42 182 1.42 206 1.43
 206  0.181  0.561  0.660- 207 1.42 229 1.42 205 1.43
 207  0.170  0.534  0.629- 206 1.42 184 1.42 208 1.43
 208  0.156  0.466  0.627- 209 1.42 231 1.42 207 1.43
 209  0.154  0.433  0.596- 208 1.42 186 1.42 210 1.43
 210  0.164  0.363  0.594- 211 1.42 233 1.42 209 1.43
 211  0.174  0.334  0.563- 210 1.42 188 1.42 212 1.43
 212  0.204  0.283  0.561- 213 1.42 235 1.42 211 1.43
 213  0.222  0.267  0.530- 212 1.42 190 1.42 214 1.43
 214  0.265  0.249  0.528- 215 1.42 237 1.42 213 1.43
 215  0.285  0.251  0.497- 214 1.42 216 1.42 192 1.42
 216  0.326  0.273  0.495- 217 1.42 239 1.42 215 1.42
 217  0.343  0.292  0.464- 194 1.42 216 1.42 218 1.43
 218  0.372  0.346  0.462- 219 1.40 217 1.43 241 1.44
 219  0.382  0.374  0.431- 218 1.40 196 1.41 220 1.47
 220  0.395  0.444  0.429- 221 1.46 219 1.47 243 1.49 365 2.09
 221  0.387  0.478  0.397-  63 1.41 198 1.41 220 1.46
 222  0.351  0.579  0.819- 223 1.42 245 1.42 354 1.43
 223  0.335  0.599  0.788- 222 1.42 200 1.42 224 1.43
 224  0.294  0.626  0.786- 225 1.42 247 1.42 223 1.43
 225  0.274  0.629  0.755- 224 1.42 202 1.42 226 1.43
 226  0.230  0.617  0.753- 227 1.42 249 1.42 225 1.43
 227  0.212  0.603  0.722- 226 1.42 204 1.42 228 1.43
 228  0.179  0.556  0.720- 229 1.42 251 1.42 227 1.43
 229  0.168  0.528  0.689- 228 1.42 206 1.42 230 1.43
 230  0.155  0.460  0.688- 231 1.42 253 1.42 229 1.43
 231  0.155  0.427  0.656- 230 1.42 208 1.42 232 1.43
 232  0.166  0.357  0.655- 233 1.42 255 1.42 231 1.43
 233  0.176  0.329  0.623- 232 1.42 210 1.42 234 1.43
 234  0.208  0.279  0.622- 235 1.42 257 1.42 233 1.43
 235  0.226  0.264  0.590- 234 1.42 212 1.42 236 1.43
 236  0.269  0.249  0.589- 237 1.42 259 1.42 235 1.43
 237  0.289  0.251  0.557- 236 1.42 214 1.42 238 1.43
 238  0.330  0.275  0.556- 239 1.42 261 1.42 237 1.43
 239  0.347  0.295  0.524- 238 1.42 216 1.42 240 1.42
 240  0.374  0.351  0.523- 263 1.42 241 1.42 239 1.42
 241  0.382  0.382  0.492- 242 1.41 240 1.42 218 1.44
 242  0.389  0.452  0.490- 241 1.41 265 1.41 243 1.46
 243  0.392  0.487  0.459- 242 1.46  86 1.47 220 1.49 365 2.09
 244  0.348  0.583  0.880- 245 1.42 267 1.42 361 1.43
 245  0.331  0.602  0.849- 244 1.42 222 1.42 246 1.43
 246  0.290  0.627  0.847- 247 1.42 269 1.42 245 1.43
 247  0.270  0.629  0.816- 246 1.42 224 1.42 248 1.43
 248  0.227  0.615  0.814- 249 1.42 271 1.42 247 1.43
 249  0.209  0.599  0.783- 248 1.42 226 1.42 250 1.43
 250  0.177  0.550  0.781- 251 1.42 273 1.42 249 1.43
 251  0.166  0.522  0.750- 250 1.42 228 1.42 252 1.43
 252  0.155  0.453  0.748- 253 1.42 275 1.42 251 1.43
 253  0.155  0.420  0.717- 252 1.42 230 1.42 254 1.43
 254  0.168  0.352  0.715- 255 1.42 277 1.42 253 1.43
 255  0.178  0.324  0.684- 254 1.42 232 1.42 256 1.43
 256  0.211  0.276  0.682- 257 1.42 279 1.42 255 1.43
 257  0.229  0.262  0.651- 256 1.42 234 1.42 258 1.43
 258  0.273  0.249  0.649- 259 1.42 281 1.42 257 1.43
 259  0.293  0.252  0.618- 258 1.42 236 1.42 260 1.43
 260  0.334  0.278  0.616- 261 1.42 283 1.42 259 1.43
 261  0.350  0.299  0.585- 260 1.42 238 1.42 262 1.42
 262  0.376  0.356  0.583- 263 1.42 285 1.42 261 1.42
 263  0.383  0.387  0.552- 240 1.42 262 1.42 264 1.42
 264  0.387  0.458  0.550- 265 1.42 287 1.42 263 1.42
 265  0.384  0.491  0.519- 242 1.41 264 1.42 109 1.43
 266  0.345  0.587  0.940- 267 1.42 289 1.42 364 1.43
 267  0.328  0.606  0.909- 266 1.42 244 1.42 268 1.43
 268  0.286  0.628  0.907- 269 1.42 291 1.42 267 1.43
 269  0.266  0.629  0.876- 268 1.42 246 1.42 270 1.43
 270  0.223  0.612  0.874- 271 1.42 293 1.42 269 1.43
 271  0.205  0.596  0.843- 270 1.42 248 1.42 272 1.43
 272  0.174  0.545  0.841- 273 1.42 295 1.42 271 1.43
 273  0.164  0.516  0.810- 272 1.42 250 1.42 274 1.43
 274  0.154  0.446  0.808- 275 1.42 297 1.42 273 1.43
 275  0.155  0.414  0.777- 274 1.42 252 1.42 276 1.43
 276  0.169  0.346  0.775- 277 1.42 299 1.42 275 1.43
 277  0.181  0.319  0.744- 276 1.42 254 1.42 278 1.43
 278  0.215  0.273  0.742- 279 1.42 301 1.42 277 1.43
 279  0.233  0.259  0.711- 278 1.42 256 1.42 280 1.43
 280  0.277  0.249  0.710- 281 1.42 303 1.42 279 1.43
 281  0.297  0.254  0.678- 280 1.42 258 1.42 282 1.43
 282  0.337  0.282  0.677- 283 1.42 305 1.42 281 1.43
 283  0.353  0.303  0.645- 282 1.42 260 1.42 284 1.43
 284  0.378  0.362  0.644- 285 1.42 307 1.42 283 1.43
 285  0.384  0.393  0.612- 284 1.42 262 1.42 286 1.43
 286  0.387  0.464  0.611- 287 1.42 309 1.42 285 1.43
 287  0.382  0.497  0.580- 286 1.42 264 1.42 132 1.42
 288  0.341  0.591  0.001- 289 1.42   4 1.42   1 1.43
 289  0.324  0.609  0.970- 288 1.42 266 1.42 290 1.43
 290  0.282  0.628  0.968- 291 1.42 310 1.42 289 1.43
 291  0.262  0.628  0.937- 290 1.42 268 1.42 292 1.43
 292  0.219  0.609  0.935- 293 1.42 312 1.42 291 1.43
 293  0.202  0.592  0.904- 292 1.42 270 1.42 294 1.43
 294  0.172  0.539  0.902- 295 1.42 314 1.42 293 1.43
 295  0.163  0.510  0.871- 294 1.42 272 1.42 296 1.43
 296  0.154  0.440  0.869- 297 1.42 316 1.42 295 1.43
 297  0.156  0.407  0.838- 296 1.42 274 1.42 298 1.43
 298  0.172  0.340  0.836- 299 1.42 318 1.42 297 1.43
 299  0.184  0.314  0.805- 298 1.42 276 1.42 300 1.43
 300  0.218  0.270  0.803- 301 1.42 320 1.42 299 1.43
 301  0.237  0.257  0.772- 300 1.42 278 1.42 302 1.43
 302  0.281  0.250  0.770- 303 1.42 322 1.42 301 1.43
 303  0.301  0.255  0.739- 302 1.42 280 1.42 304 1.43
 304  0.340  0.286  0.737- 305 1.42 324 1.42 303 1.43
 305  0.356  0.308  0.706- 304 1.42 282 1.42 306 1.43
 306  0.379  0.368  0.704- 307 1.42 326 1.42 305 1.43
 307  0.385  0.399  0.673- 306 1.42 284 1.42 308 1.43
 308  0.386  0.471  0.671- 309 1.42 328 1.42 307 1.43
 309  0.381  0.503  0.640- 286 1.42 308 1.42 155 1.43
 310  0.258  0.628  0.997-   5 1.42 290 1.42 311 1.43
 311  0.216  0.606  0.995- 312 1.42  12 1.42 310 1.43
 312  0.199  0.588  0.964- 311 1.42 292 1.42 313 1.43
 313  0.170  0.534  0.962- 314 1.42 329 1.42 312 1.43
 314  0.161  0.504  0.931- 313 1.42 294 1.42 315 1.43
 315  0.154  0.433  0.929- 316 1.42 331 1.42 314 1.43
 316  0.157  0.401  0.898- 315 1.42 296 1.42 317 1.43
 317  0.174  0.335  0.896- 318 1.42 333 1.42 316 1.43
 318  0.186  0.309  0.865- 317 1.42 298 1.42 319 1.43
 319  0.222  0.267  0.863- 320 1.42 335 1.42 318 1.43
 320  0.241  0.256  0.832- 319 1.42 300 1.42 321 1.43
 321  0.285  0.251  0.830- 322 1.42 337 1.42 320 1.43
 322  0.305  0.257  0.799- 321 1.42 302 1.42 323 1.43
 323  0.344  0.290  0.797- 324 1.42 339 1.42 322 1.43
 324  0.358  0.313  0.766- 323 1.42 304 1.42 325 1.43
 325  0.381  0.374  0.764- 326 1.42 341 1.42 324 1.43
 326  0.386  0.406  0.733- 325 1.42 306 1.42 327 1.43
 327  0.386  0.477  0.731- 328 1.42 343 1.42 326 1.43
 328  0.380  0.509  0.700- 327 1.42 308 1.42 178 1.43
 329  0.160  0.498  0.991-  13 1.42 313 1.42 330 1.43
 330  0.155  0.427  0.990- 331 1.42  24 1.42 329 1.43
 331  0.158  0.394  0.959- 330 1.42 315 1.42 332 1.43
 332  0.176  0.329  0.957- 333 1.42 344 1.42 331 1.43
 333  0.189  0.304  0.926- 332 1.42 317 1.42 334 1.43
 334  0.226  0.264  0.924- 335 1.42 346 1.42 333 1.43
 335  0.245  0.254  0.893- 334 1.42 319 1.42 336 1.43
 336  0.289  0.251  0.891- 337 1.42 348 1.42 335 1.43
 337  0.309  0.259  0.860- 336 1.42 321 1.42 338 1.43
 338  0.347  0.294  0.858- 339 1.42 350 1.42 337 1.43
 339  0.361  0.318  0.827- 338 1.42 323 1.42 340 1.43
 340  0.382  0.380  0.825- 341 1.42 352 1.42 339 1.43
 341  0.387  0.412  0.794- 340 1.42 325 1.42 342 1.43
 342  0.385  0.484  0.792- 343 1.42 354 1.42 341 1.43
 343  0.378  0.515  0.761- 342 1.42 327 1.42 200 1.43
 344  0.192  0.300  0.986-  25 1.42 332 1.42 345 1.43
 345  0.229  0.262  0.984- 346 1.42  40 1.42 344 1.43
 346  0.249  0.253  0.953- 345 1.42 334 1.42 347 1.43
 347  0.293  0.253  0.951- 348 1.42 355 1.42 346 1.43
 348  0.312  0.261  0.920- 347 1.42 336 1.42 349 1.43
 349  0.350  0.299  0.918- 350 1.42 357 1.42 348 1.43
 350  0.364  0.323  0.887- 349 1.42 338 1.42 351 1.43
 351  0.384  0.387  0.885- 352 1.42 359 1.42 350 1.43
 352  0.387  0.419  0.854- 351 1.42 340 1.42 353 1.43
 353  0.384  0.490  0.852- 354 1.42 361 1.42 352 1.43
 354  0.377  0.521  0.821- 353 1.42 342 1.42 222 1.43
 355  0.316  0.264  0.981-  41 1.42 347 1.42 356 1.43
 356  0.353  0.303  0.979- 357 1.42  61 1.42 355 1.43
 357  0.366  0.328  0.948- 356 1.42 349 1.42 358 1.43
 358  0.385  0.393  0.946- 359 1.42 362 1.42 357 1.43
 359  0.388  0.426  0.915- 358 1.42 351 1.42 360 1.43
 360  0.383  0.497  0.913- 361 1.42 364 1.42 359 1.43
 361  0.375  0.527  0.882- 360 1.42 353 1.42 244 1.43
 362  0.388  0.432  0.975-  62 1.42 358 1.42 363 1.43
 363  0.381  0.503  0.973- 364 1.42   1 1.42 362 1.43
 364  0.373  0.533  0.942- 363 1.42 360 1.42 266 1.43
 365  0.453  0.479  0.444- 220 2.09 243 2.09
 
  LATTYP: Found a simple orthorhombic cell.
 ALAT       =    19.9214134216
 B/A-ratio  =     1.6250001197
 C/A-ratio  =     2.0303804144
  
  Lattice vectors:
  
 A1 = (   0.0000000000, -19.9214134216,   0.0000000000)
 A2 = (  32.3722991943,   0.0000000000,   0.0000000000)
 A3 = (   0.0000000000,   0.0000000000,  40.4480476379)


Analysis of symmetry for initial positions (statically):
=====================================================================
 Subroutine PRICEL returns:
 Original cell was already a primitive cell.
 

 Routine SETGRP: Setting up the symmetry group for a 
 simple orthorhombic supercell.


 Subroutine GETGRP returns: Found  1 space group operations
 (whereof  1 operations were pure point group operations)
 out of a pool of  8 trial point group operations.


The static configuration has the point symmetry C_1 .


Analysis of symmetry for dynamics (positions and initial velocities):
=====================================================================
 Subroutine PRICEL returns:
 Original cell was already a primitive cell.
 

 Routine SETGRP: Setting up the symmetry group for a 
 simple orthorhombic supercell.


 Subroutine GETGRP returns: Found  1 space group operations
 (whereof  1 operations were pure point group operations)
 out of a pool of  8 trial point group operations.


The dynamic configuration has the point symmetry C_1 .


 Subroutine INISYM returns: Found  1 space group operations
 (whereof  1 operations are pure point group operations),
 and found     1 'primitive' translations


----------------------------------------------------------------------------------------

                                     Primitive cell                                     

  volume of cell :   26085.0250

  direct lattice vectors                    reciprocal lattice vectors
    32.372299194  0.000000000  0.000000000     0.030890608  0.000000000  0.000000000
     0.000000000 19.921413422  0.000000000     0.000000000  0.050197241  0.000000000
     0.000000000  0.000000000 40.448047638     0.000000000  0.000000000  0.024723072

  length of vectors
    32.372299194 19.921413422 40.448047638     0.030890608  0.050197241  0.024723072

  position of ions in fractional coordinates (direct lattice)
     0.370964942  0.538322942  0.002468822
     0.368788585  0.543839438  0.062902409
     0.338059995  0.595020528  0.061096176
     0.320496349  0.611430562  0.029940996
     0.277819328  0.628807467  0.028124840
     0.366468843  0.549236345  0.123327057
     0.334686064  0.598677001  0.121525732
     0.316793732  0.614093701  0.090371230
     0.273768947  0.629063540  0.088551737
     0.253555982  0.626907208  0.057403193
     0.212101195  0.602948851  0.055594875
     0.195592564  0.583867528  0.024440998
     0.168034476  0.528126375  0.022633263
     0.364006560  0.554507011  0.183747287
     0.331218575  0.602196743  0.181955293
     0.313023378  0.616581076  0.150802069
     0.269710681  0.629142106  0.148984263
     0.249560938  0.625817219  0.117829581
     0.208648871  0.599539448  0.116027019
     0.192550493  0.579546681  0.084874544
     0.166194145  0.522290328  0.083063382
     0.158942323  0.491544723  0.051916432
     0.154988891  0.420329629  0.050104828
     0.158745317  0.387963799  0.018953012
     0.178375963  0.323971098  0.017149082
     0.361437127  0.559652642  0.244168855
     0.327686786  0.605523072  0.242399009
     0.309191000  0.618888746  0.211234178
     0.265652229  0.629014362  0.209422343
     0.245586087  0.624567128  0.178264113
     0.205257852  0.595969533  0.176463484
     0.189601341  0.575066300  0.145314813
     0.164480968  0.516360423  0.143498701
     0.157891511  0.485216855  0.112346712
     0.155450648  0.413829446  0.110538103
     0.159889030  0.381691443  0.079385697
     0.180860181  0.318826861  0.077578476
     0.195017867  0.295255142  0.046429309
     0.233165858  0.259627485  0.044610521
     0.252833210  0.251626995  0.013461014
     0.296813150  0.253840114  0.011655658
     0.370755020  0.537767425  0.335687438
     0.358773722  0.564551277  0.304565291
     0.324100842  0.608409304  0.302842227
     0.305343739  0.620949779  0.271689827
     0.261592549  0.628636314  0.269881561
     0.241640842  0.623083276  0.238726249
     0.201944901  0.592211759  0.236913353
     0.186761455  0.570414772  0.205754062
     0.162924214  0.510330965  0.203931551
     0.156982227  0.478842561  0.172780464
     0.156055618  0.407351421  0.170974766
     0.161167217  0.375485292  0.139823211
     0.183454072  0.313831566  0.138010359
     0.198102505  0.291064081  0.106856420
     0.236980093  0.257587499  0.105041890
     0.256808302  0.250702637  0.073890989
     0.300716124  0.255382360  0.072085603
     0.319817074  0.266429721  0.040935635
     0.355679690  0.307851736  0.039113688
     0.368381329  0.333529460  0.007963327
     0.385551281  0.399360305  0.006156216
     0.368562300  0.541604861  0.396087943
     0.355905695  0.568272668  0.365067396
     0.320354808  0.610295163  0.363327611
     0.301448970  0.622315846  0.332224105
     0.257552466  0.627756322  0.330383826
     0.237734889  0.621243238  0.299192238
     0.198723767  0.588217198  0.297358823
     0.184000750  0.565634472  0.266194389
     0.161460805  0.504214038  0.264367919
     0.156215777  0.472414514  0.233220621
     0.156802864  0.400913098  0.231414274
     0.162590225  0.369355222  0.200257978
     0.186158326  0.308984465  0.198438670
     0.201265394  0.287036450  0.167291180
     0.240829356  0.255716058  0.165486902
     0.260791518  0.249970137  0.134325060
     0.304566705  0.257100975  0.132515281
     0.323434471  0.269220552  0.101366162
     0.358399612  0.312626805  0.099544758
     0.370553039  0.339015873  0.068397107
     0.386317532  0.405768644  0.066592582
     0.388150198  0.438581617  0.035440532
     0.379999689  0.508840585  0.033620439
     0.367452295  0.549640679  0.456699599
     0.353255962  0.572184455  0.425854802
     0.316541027  0.611704318  0.423860174
     0.297373027  0.622538437  0.392695113
     0.253540250  0.626225088  0.390831079
     0.233822206  0.619064837  0.359637485
     0.195453076  0.584052731  0.357797067
     0.181286311  0.560648187  0.326642286
     0.160086354  0.497976318  0.324813931
     0.155566347  0.465914498  0.293650532
     0.157666179  0.394511368  0.291840823
     0.164104624  0.363290907  0.260690700
     0.188934371  0.304238371  0.258869088
     0.204525656  0.283183585  0.227728792
     0.244718326  0.254062939  0.225934757
     0.264781354  0.249396905  0.194763479
     0.308390241  0.258950363  0.192953706
     0.326975348  0.272170484  0.161803517
     0.360986736  0.317541927  0.159980134
     0.372580764  0.344614023  0.128828860
     0.386901269  0.412213169  0.127019337
     0.388066463  0.445115285  0.095872106
     0.378436429  0.514884316  0.094051743
     0.364521245  0.554660400  0.517334841
     0.350462597  0.577500340  0.485848212
     0.312829282  0.614654300  0.484097673
     0.293430979  0.623966096  0.453045389
     0.249326681  0.625470002  0.451224222
     0.229876107  0.616729960  0.420120089
     0.192238482  0.579709474  0.418262262
     0.178626211  0.555466376  0.387078626
     0.158836264  0.491672782  0.385253638
     0.154985066  0.459385328  0.354090124
     0.158603051  0.388104298  0.352277734
     0.165724580  0.357291875  0.321132899
     0.191749028  0.299616774  0.319307907
     0.207813394  0.279469546  0.288156866
     0.248603801  0.252660073  0.286367017
     0.268766854  0.249058335  0.255227868
     0.312188553  0.261030053  0.253429576
     0.330459670  0.275288200  0.222243801
     0.363446007  0.322575599  0.220408838
     0.374458454  0.350298131  0.189257507
     0.387317349  0.418685176  0.187431155
     0.387790163  0.451636423  0.156296037
     0.376691618  0.520827588  0.154483263
     0.361524656  0.559539841  0.577686439
     0.347605429  0.583164620  0.546368677
     0.309209276  0.618563165  0.544549301
     0.289498291  0.625802437  0.513423896
     0.245526607  0.624166028  0.511639226
     0.226092895  0.614447315  0.480500140
     0.189298343  0.575209998  0.478680178
     0.176071723  0.550307563  0.447543010
     0.157654931  0.485265098  0.445718987
     0.154571613  0.452791014  0.414567769
     0.159696163  0.381761660  0.412742760
     0.167446196  0.351354876  0.381568783
     0.194609482  0.295136094  0.379736688
     0.211068835  0.275840484  0.348597032
     0.252470497  0.251440411  0.346804389
     0.272750339  0.249157989  0.315694639
     0.315867363  0.263640586  0.313914809
     0.333881838  0.278608303  0.282691757
     0.365895979  0.327709254  0.280847846
     0.376222066  0.356074705  0.249690462
     0.387564495  0.425157366  0.247822417
     0.387333493  0.458133019  0.216689082
     0.374796487  0.526655783  0.214894605
     0.358839201  0.564489997  0.638066597
     0.344272559  0.587392838  0.606911866
     0.305400240  0.620946445  0.605054072
     0.285602401  0.627589854  0.573821939
     0.241669576  0.622896562  0.572054742
     0.222510776  0.611907437  0.540942510
     0.186583675  0.570513827  0.539132971
     0.173877152  0.544784820  0.507997647
     0.156863739  0.478877720  0.506181400
     0.154345512  0.446207908  0.475008025
     0.160992727  0.375513709  0.473179341
     0.169259620  0.345527682  0.442031650
     0.197621256  0.290729848  0.440202018
     0.214441700  0.272439983  0.409056511
     0.256326904  0.250488195  0.407249848
     0.276656880  0.249550306  0.376111939
     0.319307218  0.267007762  0.374314654
     0.337132473  0.282524881  0.343194588
     0.368384846  0.333193017  0.341398495
     0.377982939  0.361968378  0.310081148
     0.387722651  0.431560148  0.308124619
     0.386768843  0.464578914  0.277042152
     0.372844441  0.532426750  0.275290490
     0.356193255  0.569345812  0.698491666
     0.341054448  0.591308627  0.667343718
     0.301536689  0.622694836  0.665505577
     0.281601583  0.628538356  0.634312158
     0.237786029  0.621300354  0.632520910
     0.218952891  0.609101473  0.601379512
     0.184005049  0.565658863  0.599575034
     0.171826745  0.539278706  0.568423439
     0.156153480  0.472456429  0.566619790
     0.154332683  0.439654431  0.535477209
     0.162477642  0.369371364  0.533655597
     0.171448211  0.339874247  0.502497220
     0.200929310  0.286871536  0.500678247
     0.218002695  0.269339123  0.469486532
     0.260337107  0.249865124  0.467636169
     0.280521981  0.249870519  0.436530605
     0.322787834  0.270402585  0.434699862
     0.339968494  0.287801815  0.403648960
     0.370198397  0.339835600  0.401925900
     0.380053265  0.367924295  0.370441892
     0.388537220  0.438220700  0.368380894
     0.386186988  0.470962034  0.337346617
     0.353459120  0.574072324  0.758916026
     0.337859761  0.595147821  0.727765942
     0.297659600  0.624235758  0.725951264
     0.277584125  0.628936658  0.694795074
     0.233980638  0.619300016  0.692983721
     0.215410296  0.606110700  0.661813572
     0.181420404  0.560685499  0.660012392
     0.169840371  0.533647083  0.628866789
     0.155545913  0.466006384  0.627064857
     0.154450609  0.433110321  0.595917231
     0.164095378  0.363368368  0.594095348
     0.173687705  0.334375628  0.562937421
     0.204349202  0.283067309  0.561125781
     0.221823123  0.266580966  0.529965814
     0.264526509  0.249326194  0.528123713
     0.284704736  0.250917984  0.496928665
     0.326353262  0.273420279  0.495062377
     0.343055407  0.292175374  0.463893729
     0.371993378  0.346125545  0.461923950
     0.382027467  0.373986740  0.431085261
     0.395458712  0.444499887  0.428832620
     0.386740602  0.477605075  0.397372616
     0.350594884  0.578632103  0.819346258
     0.334559773  0.598808689  0.788197743
     0.293755478  0.625569217  0.786394058
     0.273587303  0.629097244  0.755240786
     0.230218853  0.617046628  0.753425256
     0.211924974  0.602878962  0.722263931
     0.178905557  0.555586334  0.720461730
     0.167928619  0.527901276  0.689309393
     0.155060951  0.459530985  0.687502821
     0.154644161  0.426600024  0.656348490
     0.165770683  0.357415715  0.654530003
     0.176027783  0.329008071  0.623385349
     0.207778771  0.279487731  0.621581427
     0.225653422  0.264009795  0.590416282
     0.268651435  0.248941247  0.588573931
     0.288822608  0.251185425  0.557382735
     0.330246650  0.275397542  0.555546678
     0.346503697  0.295151421  0.524435160
     0.373890998  0.351031460  0.522708784
     0.381746356  0.382204768  0.491695319
     0.388841770  0.451743084  0.490405434
     0.391883037  0.487416609  0.458946478
     0.347619570  0.583017937  0.879784929
     0.331169845  0.602278287  0.848630322
     0.289821935  0.626715838  0.846829184
     0.269593906  0.629097658  0.815678006
     0.226503551  0.614612101  0.813861349
     0.208513628  0.599411293  0.782711164
     0.176509701  0.550336613  0.780909334
     0.166119922  0.522067458  0.749747492
     0.154695476  0.453013220  0.747938770
     0.154968600  0.420086214  0.716790604
     0.167542992  0.351557838  0.714977860
     0.178421688  0.323760564  0.683825816
     0.211213996  0.276098554  0.682024343
     0.229410304  0.261604289  0.650868180
     0.272718974  0.248924971  0.649042591
     0.292861258  0.252134201  0.617887611
     0.333778388  0.278444763  0.616091721
     0.349804703  0.298617391  0.584930760
     0.376042274  0.355887892  0.583205648
     0.383210773  0.386867784  0.552087885
     0.387179472  0.457929811  0.550427251
     0.384129855  0.490506863  0.519390637
     0.344531474  0.587203130  0.940222320
     0.327691174  0.605544981  0.909067414
     0.285848203  0.627652744  0.907262199
     0.265586326  0.628892719  0.876113017
     0.222835969  0.611989948  0.874295438
     0.205183397  0.595777236  0.843145498
     0.174229591  0.544960349  0.841345774
     0.164424851  0.516130844  0.810190545
     0.154468929  0.446475406  0.808378313
     0.155440782  0.413581497  0.777228485
     0.169456154  0.345807926  0.775422197
     0.180897624  0.318630653  0.744265906
     0.214700782  0.272851710  0.742464388
     0.233208922  0.259433750  0.711319910
     0.276762424  0.249257799  0.709505536
     0.296836005  0.253593288  0.678348130
     0.337152384  0.282166020  0.676551965
     0.352794420  0.302997706  0.645380416
     0.377819448  0.361803974  0.643596915
     0.384350947  0.392956758  0.612476328
     0.386690302  0.464375556  0.610727271
     0.382233862  0.496610029  0.579642057
     0.341343980  0.591197945  0.000660358
     0.324134968  0.608597326  0.969505999
     0.281848279  0.628353071  0.967694886
     0.261576502  0.628465054  0.936545575
     0.219210259  0.609179511  0.934728406
     0.201916607  0.591987194  0.903578102
     0.172062235  0.539459698  0.901778343
     0.162879793  0.510096383  0.870629385
     0.154405083  0.439937054  0.868813564
     0.156061557  0.407112109  0.837662317
     0.171507047  0.340163990  0.835861136
     0.183511308  0.313640775  0.804709451
     0.218280604  0.269816051  0.802903475
     0.237059745  0.257478544  0.771754785
     0.280799488  0.249815975  0.769943757
     0.300762648  0.255291143  0.738785250
     0.340459629  0.286116700  0.736980692
     0.355651055  0.307809091  0.705825680
     0.379464068  0.367940991  0.704013020
     0.385308607  0.399415283  0.672864181
     0.386194084  0.470887299  0.671077625
     0.381029950  0.502754130  0.639941548
     0.257568443  0.627799538  0.996975358
     0.215632963  0.606156619  0.995161412
     0.198721920  0.588012881  0.964010691
     0.169999334  0.533846027  0.962207707
     0.161452357  0.503982831  0.931059964
     0.154473571  0.433389544  0.929243649
     0.156832162  0.400683879  0.898094926
     0.173692854  0.334642116  0.896296230
     0.186256540  0.308815473  0.865145126
     0.221934169  0.266980929  0.863332063
     0.240965601  0.255716019  0.832181682
     0.284845746  0.250527893  0.830371685
     0.304675782  0.257162625  0.799217117
     0.343702611  0.290175846  0.797406863
     0.358418982  0.312748745  0.766251484
     0.380975589  0.374133007  0.764429026
     0.386190732  0.405907859  0.733271440
     0.385587925  0.477409339  0.731471191
     0.379747379  0.508941185  0.700331371
     0.160138447  0.497797317  0.991487157
     0.154666198  0.426847352  0.989672434
     0.157728275  0.394291177  0.958523889
     0.175984526  0.329236869  0.956723876
     0.189093181  0.304129022  0.925574219
     0.225641049  0.264315046  0.923756553
     0.244904918  0.254135404  0.892607492
     0.288872277  0.251415669  0.890800371
     0.308552363  0.259183925  0.859645262
     0.346855801  0.294361100  0.857830117
     0.361094426  0.317761532  0.826675840
     0.382344366  0.380370014  0.824853507
     0.386902793  0.412432606  0.793698879
     0.384794262  0.483857057  0.791892553
     0.378304045  0.515060037  0.760743079
     0.192018327  0.299613284  0.986002873
     0.229389705  0.261864953  0.984182939
     0.248863006  0.252765666  0.953033928
     0.292863552  0.252514805  0.951229216
     0.312371534  0.261393628  0.920075215
     0.349903856  0.298707759  0.918255934
     0.363644411  0.322896254  0.887103738
     0.383552320  0.386657240  0.885287138
     0.387435751  0.418971038  0.854129680
     0.383810039  0.490225953  0.852321000
     0.376685763  0.521054625  0.821167282
     0.316136089  0.263793931  0.980506817
     0.352856824  0.303194582  0.978684371
     0.366074480  0.328153310  0.947532992
     0.384625375  0.392983483  0.945721167
     0.387825630  0.425505613  0.914564904
     0.382690615  0.496518300  0.912751932
     0.374917677  0.526940871  0.881601661
     0.388068265  0.432042612  0.975003204
     0.381419840  0.502723283  0.973186377
     0.373009292  0.532695333  0.942035581
     0.453424343  0.479038473  0.443906940

  ion indices of the primitive-cell ions
   primitive index   ion index
                 1           1
                 2           2
                 3           3
                 4           4
                 5           5
                 6           6
                 7           7
                 8           8
                 9           9
                10          10
                11          11
                12          12
                13          13
                14          14
                15          15
                16          16
                17          17
                18          18
                19          19
                20          20
                21          21
                22          22
                23          23
                24          24
                25          25
                26          26
                27          27
                28          28
                29          29
                30          30
                31          31
                32          32
                33          33
                34          34
                35          35
                36          36
                37          37
                38          38
                39          39
                40          40
                41          41
                42          42
                43          43
                44          44
                45          45
                46          46
                47          47
                48          48
                49          49
                50          50
                51          51
                52          52
                53          53
                54          54
                55          55
                56          56
                57          57
                58          58
                59          59
                60          60
                61          61
                62          62
                63          63
                64          64
                65          65
                66          66
                67          67
                68          68
                69          69
                70          70
                71          71
                72          72
                73          73
                74          74
                75          75
                76          76
                77          77
                78          78
                79          79
                80          80
                81          81
                82          82
                83          83
                84          84
                85          85
                86          86
                87          87
                88          88
                89          89
                90          90
                91          91
                92          92
                93          93
                94          94
                95          95
                96          96
                97          97
                98          98
                99          99
               100         100
               101         101
               102         102
               103         103
               104         104
               105         105
               106         106
               107         107
               108         108
               109         109
               110         110
               111         111
               112         112
               113         113
               114         114
               115         115
               116         116
               117         117
               118         118
               119         119
               120         120
               121         121
               122         122
               123         123
               124         124
               125         125
               126         126
               127         127
               128         128
               129         129
               130         130
               131         131
               132         132
               133         133
               134         134
               135         135
               136         136
               137         137
               138         138
               139         139
               140         140
               141         141
               142         142
               143         143
               144         144
               145         145
               146         146
               147         147
               148         148
               149         149
               150         150
               151         151
               152         152
               153         153
               154         154
               155         155
               156         156
               157         157
               158         158
               159         159
               160         160
               161         161
               162         162
               163         163
               164         164
               165         165
               166         166
               167         167
               168         168
               169         169
               170         170
               171         171
               172         172
               173         173
               174         174
               175         175
               176         176
               177         177
               178         178
               179         179
               180         180
               181         181
               182         182
               183         183
               184         184
               185         185
               186         186
               187         187
               188         188
               189         189
               190         190
               191         191
               192         192
               193         193
               194         194
               195         195
               196         196
               197         197
               198         198
               199         199
               200         200
               201         201
               202         202
               203         203
               204         204
               205         205
               206         206
               207         207
               208         208
               209         209
               210         210
               211         211
               212         212
               213         213
               214         214
               215         215
               216         216
               217         217
               218         218
               219         219
               220         220
               221         221
               222         222
               223         223
               224         224
               225         225
               226         226
               227         227
               228         228
               229         229
               230         230
               231         231
               232         232
               233         233
               234         234
               235         235
               236         236
               237         237
               238         238
               239         239
               240         240
               241         241
               242         242
               243         243
               244         244
               245         245
               246         246
               247         247
               248         248
               249         249
               250         250
               251         251
               252         252
               253         253
               254         254
               255         255
               256         256
               257         257
               258         258
               259         259
               260         260
               261         261
               262         262
               263         263
               264         264
               265         265
               266         266
               267         267
               268         268
               269         269
               270         270
               271         271
               272         272
               273         273
               274         274
               275         275
               276         276
               277         277
               278         278
               279         279
               280         280
               281         281
               282         282
               283         283
               284         284
               285         285
               286         286
               287         287
               288         288
               289         289
               290         290
               291         291
               292         292
               293         293
               294         294
               295         295
               296         296
               297         297
               298         298
               299         299
               300         300
               301         301
               302         302
               303         303
               304         304
               305         305
               306         306
               307         307
               308         308
               309         309
               310         310
               311         311
               312         312
               313         313
               314         314
               315         315
               316         316
               317         317
               318         318
               319         319
               320         320
               321         321
               322         322
               323         323
               324         324
               325         325
               326         326
               327         327
               328         328
               329         329
               330         330
               331         331
               332         332
               333         333
               334         334
               335         335
               336         336
               337         337
               338         338
               339         339
               340         340
               341         341
               342         342
               343         343
               344         344
               345         345
               346         346
               347         347
               348         348
               349         349
               350         350
               351         351
               352         352
               353         353
               354         354
               355         355
               356         356
               357         357
               358         358
               359         359
               360         360
               361         361
               362         362
               363         363
               364         364
               365         365

----------------------------------------------------------------------------------------

 
 
 KPOINTS: KPOINTS created by Atomic Simulation Env

Read explicit list of k-points.

 Found     10 k-points:

 Following reciprocal coordinates:
            Coordinates               Weight
  0.000000  0.000000  0.000000      0.100000
  0.000000  0.000000 -0.055556      0.100000
  0.000000  0.000000 -0.111111      0.100000
  0.000000  0.000000 -0.166667      0.100000
  0.000000  0.000000 -0.222222      0.100000
  0.000000  0.000000 -0.277778      0.100000
  0.000000  0.000000 -0.333333      0.100000
  0.000000  0.000000 -0.388889      0.100000
  0.000000  0.000000 -0.444444      0.100000
  0.000000  0.000000 -0.500000      0.100000

 Following cartesian coordinates:
            Coordinates               Weight
  0.000000  0.000000  0.000000      0.100000
  0.000000  0.000000 -0.001374      0.100000
  0.000000  0.000000 -0.002747      0.100000
  0.000000  0.000000 -0.004121      0.100000
  0.000000  0.000000 -0.005494      0.100000
  0.000000  0.000000 -0.006868      0.100000
  0.000000  0.000000 -0.008241      0.100000
  0.000000  0.000000 -0.009615      0.100000
  0.000000  0.000000 -0.010988      0.100000
  0.000000  0.000000 -0.012362      0.100000
 


--------------------------------------------------------------------------------------------------------




 Dimension of arrays:
   k-points           NKPTS =     10   k-points in BZ     NKDIM =     10   number of bands    NBANDS=    896
   number of dos      NEDOS =    301   number of ions     NIONS =    365
   non local maximal  LDIM  =      5   non local SUM 2l+1 LMDIM =     13
   total plane-waves  NPLWV = ******
   max r-space proj   IRMAX =      1   max aug-charges    IRDMAX=  13848
   dimension x,y,z NGX =   216 NGY =  140 NGZ =  270
   dimension x,y,z NGXF=   432 NGYF=  280 NGZF=  540
   support grid    NGXF=   432 NGYF=  280 NGZF=  540
   ions per type =             364   1
   NGX,Y,Z   is equivalent  to a cutoff of  11.09, 11.68, 11.10 a.u.
   NGXF,Y,Z  is equivalent  to a cutoff of  22.19, 23.37, 22.19 a.u.

 SYSTEM =  03_BS                                   
 POSCAR =   C Se                                   

 Startparameter for this run:
   NWRITE =      2    write-flag & timer
   PREC   = accura    normal or accurate (medium, high low for compatibility)
   ISTART =      1    job   : 0-new  1-cont  2-samecut
   ICHARG =     11    charge: 1-file 2-atom 10-const
   ISPIN  =      1    spin polarized calculation?
   LNONCOLLINEAR =      F non collinear calculations
   LSORBIT =      F    spin-orbit coupling
   INIWAV =      1    electr: 0-lowe 1-rand  2-diag
   LASPH  =      F    aspherical Exc in radial PAW
 Electronic Relaxation 1
   ENCUT  =  400.0 eV  29.40 Ry    5.42 a.u.  52.79 32.49 65.96*2*pi/ulx,y,z
   ENINI  =  400.0     initial cutoff
   ENAUG  =  644.9 eV  augmentation charge cutoff
   NELM   =     60;   NELMIN=  5; NELMDL=  0     # of ELM steps 
   EDIFF  = 0.1E-05   stopping-criterion for ELM
   LREAL  =      F    real-space projection
   NLSPLINE    = F    spline interpolate recip. space projectors
   LCOMPAT=      F    compatible to vasp.4.4
   GGA_COMPAT  = T    GGA compatible to vasp.4.4-vasp.4.6
   LMAXPAW     = -100 max onsite density
   LMAXMIX     =    2 max onsite mixed and CHGCAR
   VOSKOWN=      0    Vosko Wilk Nusair interpolation
   ROPT   =    0.00000   0.00000
 Ionic relaxation
   EDIFFG = 0.1E-04   stopping-criterion for IOM
   NSW    =      0    number of steps for IOM
   NBLOCK =      1;   KBLOCK =      1    inner block; outer block 
   IBRION =     -1    ionic relax: 0-MD 1-quasi-New 2-CG
   NFREE  =      0    steps in history (QN), initial steepest desc. (CG)
   ISIF   =      2    stress and relaxation
   IWAVPR =     10    prediction:  0-non 1-charg 2-wave 3-comb
   ISYM   =      2    0-nonsym 1-usesym 2-fastsym
   LCORR  =      T    Harris-Foulkes like correction to forces

   POTIM  = 0.5000    time-step for ionic-motion
   TEIN   =    0.0    initial temperature
   TEBEG  =    0.0;   TEEND  =   0.0 temperature during run
   SMASS  =  -3.00    Nose mass-parameter (am)
   estimated Nose-frequenzy (Omega)   =  0.10E-29 period in steps = 0.13E+47 mass=  -0.239E-25a.u.
   SCALEE = 1.0000    scale energy and forces
   NPACO  =    256;   APACO  = 10.0  distance and # of slots for P.C.
   PSTRESS=    0.0 pullay stress

  Mass of Ions in am
   POMASS =  12.01 78.96
  Ionic Valenz
   ZVAL   =   4.00  6.00
  Atomic Wigner-Seitz radii
   RWIGS  =  -1.00 -1.00
  virtual crystal weights 
   VCA    =   1.00  1.00
   NELECT =    1462.0000    total number of electrons
   NUPDOWN=      -1.0000    fix difference up-down

 DOS related values:
   EMIN   =  10.00;   EMAX   =-10.00  energy-range for DOS
   EFERMI =   0.00;   METHOD = LEGACY      
   ISMEAR =     0;   SIGMA  =   0.01  broadening in eV -4-tet -1-fermi 0-gaus

 Electronic relaxation 2 (details)
   IALGO  =     38    algorithm
   LDIAG  =      T    sub-space diagonalisation (order eigenvalues)
   LSUBROT=      F    optimize rotation matrix (better conditioning)
   TURBO    =      0    0=normal 1=particle mesh
   IRESTART =      0    0=no restart 2=restart with 2 vectors
   NREBOOT  =      0    no. of reboots
   NMIN     =      0    reboot dimension
   EREF     =   0.00    reference energy to select bands
   IMIX   =      4    mixing-type and parameters
     AMIX     =   0.40;   BMIX     =  1.00
     AMIX_MAG =   1.60;   BMIX_MAG =  1.00
     AMIN     =   0.10
     WC   =   100.;   INIMIX=   1;  MIXPRE=   1;  MAXMIX= -45

 Intra band minimization:
   WEIMIN = 0.0000     energy-eigenvalue tresh-hold
   EBREAK =  0.28E-09  absolut break condition
   DEPER  =   0.30     relativ break condition  

   TIME   =   0.40     timestep for ELM

  volume/ion in A,a.u.               =      71.47       482.28
  Fermi-wavevector in a.u.,A,eV,Ry     =   0.626508  1.183929  5.340460  0.392513
  Thomas-Fermi vector in A             =   1.687786
 
 Write flags
   LWAVE        =      T    write WAVECAR
   LDOWNSAMPLE  =      F    k-point downsampling of WAVECAR
   LCHARG       =      T    write CHGCAR
   LVTOT        =      F    write LOCPOT, total local potential
   LVHAR        =      F    write LOCPOT, Hartree potential only
   LELF         =      F    write electronic localiz. function (ELF)
   LORBIT       =     11    0 simple, 1 ext, 2 COOP (PROOUT), +10 PAW based schemes


 Dipole corrections
   LMONO  =      F    monopole corrections only (constant potential shift)
   LDIPOL =      F    correct potential (dipole corrections)
   IDIPOL =      0    1-x, 2-y, 3-z, 4-all directions 
   EPSILON=  1.0000000 bulk dielectric constant

 Exchange correlation treatment:
   GGA     =    PE    GGA type
   LEXCH   =     8    internal setting for exchange type
   LIBXC   =     F    Libxc                    
   VOSKOWN =     0    Vosko Wilk Nusair interpolation
   LHFCALC =     F    Hartree Fock is set to
   LHFONE  =     F    Hartree Fock one center treatment
   AEXX    =    0.0000 exact exchange contribution

 Linear response parameters
   LEPSILON=     F    determine dielectric tensor
   LRPA    =     F    only Hartree local field effects (RPA)
   LNABLA  =     F    use nabla operator in PAW spheres
   LVEL    =     F    velocity operator in full k-point grid
   CSHIFT  =0.1000    complex shift for real part using Kramers Kronig
   OMEGAMAX=  -1.0    maximum frequency
   DEG_THRESHOLD= 0.2000000E-02 threshold for treating states as degnerate
   RTIME   =   -0.100 relaxation time in fs
  (WPLASMAI=    0.000 imaginary part of plasma frequency in eV, 0.658/RTIME)
   DFIELD  = 0.0000000 0.0000000 0.0000000 field for delta impulse in time
 
  Optional k-point grid parameters
   LKPOINTS_OPT  =     F    use optional k-point grid
   KPOINTS_OPT_MODE=     1    mode for optional k-point grid
 
 Orbital magnetization related:
   ORBITALMAG=     F  switch on orbital magnetization
   LCHIMAG   =     F  perturbation theory with respect to B field
   DQ        =  0.001000  dq finite difference perturbation B field
   LLRAUG    =     F  two centre corrections for induced B field
   LBONE     =     F  B-component reconstruction in AE one-centre
   LVGVCALC  =     T  calculate vGv susceptibility
   LVGVAPPL  =     F  apply vGv susceptibility instead of pGv for G=0

 Random number generation:
   RANDOM_GENERATOR = DEFAULT
   PCG_SEED         = not used


--------------------------------------------------------------------------------------------------------


 Static calculation
 charge density and potential remain constant during run
 non-spin polarized calculation
 Variant of blocked Davidson
 Davidson routine will perform the subspace rotation
 perform sub-space diagonalisation
    after iterative eigenvector-optimisation
 no mixing
 using additional bands           165
 reciprocal scheme for non local part
 use partial core corrections
 calculate Harris-corrections to forces 
   (improved forces if not selfconsistent)
 use gradient corrections 
 WARNING: stress and forces are not correct
  (second derivative of E(xc) not defined)
 use of overlap-Matrix (Vanderbilt PP)
 Gauss-broadening in eV      SIGMA  =   0.01


--------------------------------------------------------------------------------------------------------


  energy-cutoff  :      400.00
  volume of cell :    26085.03
      direct lattice vectors                 reciprocal lattice vectors
    32.372299194  0.000000000  0.000000000     0.030890608  0.000000000  0.000000000
     0.000000000 19.921413422  0.000000000     0.000000000  0.050197241  0.000000000
     0.000000000  0.000000000 40.448047638     0.000000000  0.000000000  0.024723072

  length of vectors
    32.372299194 19.921413422 40.448047638     0.030890608  0.050197241  0.024723072


 
 old parameters found on file WAVECAR:
  energy-cutoff  :      400.00
  volume of cell :    26085.03
      direct lattice vectors                 reciprocal lattice vectors
    32.372299194  0.000000000  0.000000000     0.030890608  0.000000000  0.000000000
     0.000000000 19.921413422  0.000000000     0.000000000  0.050197241  0.000000000
     0.000000000  0.000000000 40.448047638     0.000000000  0.000000000  0.024723072

  length of vectors

 
 k-points in units of 2pi/SCALE and weight: KPOINTS created by Atomic Simulation Env
   0.00000000  0.00000000  0.00000000       0.100
   0.00000000  0.00000000 -0.00137351       0.100
   0.00000000  0.00000000 -0.00274701       0.100
   0.00000000  0.00000000 -0.00412052       0.100
   0.00000000  0.00000000 -0.00549401       0.100
   0.00000000  0.00000000 -0.00686753       0.100
   0.00000000  0.00000000 -0.00824102       0.100
   0.00000000  0.00000000 -0.00961453       0.100
   0.00000000  0.00000000 -0.01098802       0.100
   0.00000000  0.00000000 -0.01236154       0.100
 
 k-points in reciprocal lattice and weights: KPOINTS created by Atomic Simulation Env
   0.00000000  0.00000000  0.00000000       0.100
   0.00000000  0.00000000 -0.05555600       0.100
   0.00000000  0.00000000 -0.11111100       0.100
   0.00000000  0.00000000 -0.16666700       0.100
   0.00000000  0.00000000 -0.22222200       0.100
   0.00000000  0.00000000 -0.27777800       0.100
   0.00000000  0.00000000 -0.33333300       0.100
   0.00000000  0.00000000 -0.38888900       0.100
   0.00000000  0.00000000 -0.44444400       0.100
   0.00000000  0.00000000 -0.50000000       0.100
 
 position of ions in fractional coordinates (direct lattice) 
   0.37096494  0.53832294  0.00246882
   0.36878858  0.54383944  0.06290241
   0.33806000  0.59502053  0.06109618
   0.32049635  0.61143056  0.02994100
   0.27781933  0.62880747  0.02812484
   0.36646884  0.54923635  0.12332706
   0.33468606  0.59867700  0.12152573
   0.31679373  0.61409370  0.09037123
   0.27376895  0.62906354  0.08855174
   0.25355598  0.62690721  0.05740319
   0.21210119  0.60294885  0.05559487
   0.19559256  0.58386753  0.02444100
   0.16803448  0.52812638  0.02263326
   0.36400656  0.55450701  0.18374729
   0.33121858  0.60219674  0.18195529
   0.31302338  0.61658108  0.15080207
   0.26971068  0.62914211  0.14898426
   0.24956094  0.62581722  0.11782958
   0.20864887  0.59953945  0.11602702
   0.19255049  0.57954668  0.08487454
   0.16619414  0.52229033  0.08306338
   0.15894232  0.49154472  0.05191643
   0.15498889  0.42032963  0.05010483
   0.15874532  0.38796380  0.01895301
   0.17837596  0.32397110  0.01714908
   0.36143713  0.55965264  0.24416886
   0.32768679  0.60552307  0.24239901
   0.30919100  0.61888875  0.21123418
   0.26565223  0.62901436  0.20942234
   0.24558609  0.62456713  0.17826411
   0.20525785  0.59596953  0.17646348
   0.18960134  0.57506630  0.14531481
   0.16448097  0.51636042  0.14349870
   0.15789151  0.48521686  0.11234671
   0.15545065  0.41382945  0.11053810
   0.15988903  0.38169144  0.07938570
   0.18086018  0.31882686  0.07757848
   0.19501787  0.29525514  0.04642931
   0.23316586  0.25962748  0.04461052
   0.25283321  0.25162699  0.01346101
   0.29681315  0.25384011  0.01165566
   0.37075502  0.53776742  0.33568744
   0.35877372  0.56455128  0.30456529
   0.32410084  0.60840930  0.30284223
   0.30534374  0.62094978  0.27168983
   0.26159255  0.62863631  0.26988156
   0.24164084  0.62308328  0.23872625
   0.20194490  0.59221176  0.23691335
   0.18676145  0.57041477  0.20575406
   0.16292421  0.51033097  0.20393155
   0.15698223  0.47884256  0.17278046
   0.15605562  0.40735142  0.17097477
   0.16116722  0.37548529  0.13982321
   0.18345407  0.31383157  0.13801036
   0.19810250  0.29106408  0.10685642
   0.23698009  0.25758750  0.10504189
   0.25680830  0.25070264  0.07389099
   0.30071612  0.25538236  0.07208560
   0.31981707  0.26642972  0.04093563
   0.35567969  0.30785174  0.03911369
   0.36838133  0.33352946  0.00796333
   0.38555128  0.39936031  0.00615622
   0.36856230  0.54160486  0.39608794
   0.35590569  0.56827267  0.36506740
   0.32035481  0.61029516  0.36332761
   0.30144897  0.62231585  0.33222411
   0.25755247  0.62775632  0.33038383
   0.23773489  0.62124324  0.29919224
   0.19872377  0.58821720  0.29735882
   0.18400075  0.56563447  0.26619439
   0.16146080  0.50421404  0.26436792
   0.15621578  0.47241451  0.23322062
   0.15680286  0.40091310  0.23141427
   0.16259022  0.36935522  0.20025798
   0.18615833  0.30898447  0.19843867
   0.20126539  0.28703645  0.16729118
   0.24082936  0.25571606  0.16548690
   0.26079152  0.24997014  0.13432506
   0.30456670  0.25710097  0.13251528
   0.32343447  0.26922055  0.10136616
   0.35839961  0.31262681  0.09954476
   0.37055304  0.33901587  0.06839711
   0.38631753  0.40576864  0.06659258
   0.38815020  0.43858162  0.03544053
   0.37999969  0.50884058  0.03362044
   0.36745230  0.54964068  0.45669960
   0.35325596  0.57218445  0.42585480
   0.31654103  0.61170432  0.42386017
   0.29737303  0.62253844  0.39269511
   0.25354025  0.62622509  0.39083108
   0.23382221  0.61906484  0.35963748
   0.19545308  0.58405273  0.35779707
   0.18128631  0.56064819  0.32664229
   0.16008635  0.49797632  0.32481393
   0.15556635  0.46591450  0.29365053
   0.15766618  0.39451137  0.29184082
   0.16410462  0.36329091  0.26069070
   0.18893437  0.30423837  0.25886909
   0.20452566  0.28318358  0.22772879
   0.24471833  0.25406294  0.22593476
   0.26478135  0.24939691  0.19476348
   0.30839024  0.25895036  0.19295371
   0.32697535  0.27217048  0.16180352
   0.36098674  0.31754193  0.15998013
   0.37258076  0.34461402  0.12882886
   0.38690127  0.41221317  0.12701934
   0.38806646  0.44511529  0.09587211
   0.37843643  0.51488432  0.09405174
   0.36452125  0.55466040  0.51733484
   0.35046260  0.57750034  0.48584821
   0.31282928  0.61465430  0.48409767
   0.29343098  0.62396610  0.45304539
   0.24932668  0.62547000  0.45122422
   0.22987611  0.61672996  0.42012009
   0.19223848  0.57970947  0.41826226
   0.17862621  0.55546638  0.38707863
   0.15883626  0.49167278  0.38525364
   0.15498507  0.45938533  0.35409012
   0.15860305  0.38810430  0.35227773
   0.16572458  0.35729188  0.32113290
   0.19174903  0.29961677  0.31930791
   0.20781339  0.27946955  0.28815687
   0.24860380  0.25266007  0.28636702
   0.26876685  0.24905834  0.25522787
   0.31218855  0.26103005  0.25342958
   0.33045967  0.27528820  0.22224380
   0.36344601  0.32257560  0.22040884
   0.37445845  0.35029813  0.18925751
   0.38731735  0.41868518  0.18743115
   0.38779016  0.45163642  0.15629604
   0.37669162  0.52082759  0.15448326
   0.36152466  0.55953984  0.57768644
   0.34760543  0.58316462  0.54636868
   0.30920928  0.61856317  0.54454930
   0.28949829  0.62580244  0.51342390
   0.24552661  0.62416603  0.51163923
   0.22609290  0.61444731  0.48050014
   0.18929834  0.57521000  0.47868018
   0.17607172  0.55030756  0.44754301
   0.15765493  0.48526510  0.44571899
   0.15457161  0.45279101  0.41456777
   0.15969616  0.38176166  0.41274276
   0.16744620  0.35135488  0.38156878
   0.19460948  0.29513609  0.37973669
   0.21106884  0.27584048  0.34859703
   0.25247050  0.25144041  0.34680439
   0.27275034  0.24915799  0.31569464
   0.31586736  0.26364059  0.31391481
   0.33388184  0.27860830  0.28269176
   0.36589598  0.32770925  0.28084785
   0.37622207  0.35607471  0.24969046
   0.38756450  0.42515737  0.24782242
   0.38733349  0.45813302  0.21668908
   0.37479649  0.52665578  0.21489461
   0.35883920  0.56449000  0.63806660
   0.34427256  0.58739284  0.60691187
   0.30540024  0.62094645  0.60505407
   0.28560240  0.62758985  0.57382194
   0.24166958  0.62289656  0.57205474
   0.22251078  0.61190744  0.54094251
   0.18658367  0.57051383  0.53913297
   0.17387715  0.54478482  0.50799765
   0.15686374  0.47887772  0.50618140
   0.15434551  0.44620791  0.47500802
   0.16099273  0.37551371  0.47317934
   0.16925962  0.34552768  0.44203165
   0.19762126  0.29072985  0.44020202
   0.21444170  0.27243998  0.40905651
   0.25632690  0.25048820  0.40724985
   0.27665688  0.24955031  0.37611194
   0.31930722  0.26700776  0.37431465
   0.33713247  0.28252488  0.34319459
   0.36838485  0.33319302  0.34139850
   0.37798294  0.36196838  0.31008115
   0.38772265  0.43156015  0.30812462
   0.38676884  0.46457891  0.27704215
   0.37284444  0.53242675  0.27529049
   0.35619326  0.56934581  0.69849167
   0.34105445  0.59130863  0.66734372
   0.30153669  0.62269484  0.66550558
   0.28160158  0.62853836  0.63431216
   0.23778603  0.62130035  0.63252091
   0.21895289  0.60910147  0.60137951
   0.18400505  0.56565886  0.59957503
   0.17182675  0.53927871  0.56842344
   0.15615348  0.47245643  0.56661979
   0.15433268  0.43965443  0.53547721
   0.16247764  0.36937136  0.53365560
   0.17144821  0.33987425  0.50249722
   0.20092931  0.28687154  0.50067825
   0.21800269  0.26933912  0.46948653
   0.26033711  0.24986512  0.46763617
   0.28052198  0.24987052  0.43653061
   0.32278783  0.27040259  0.43469986
   0.33996849  0.28780181  0.40364896
   0.37019840  0.33983560  0.40192590
   0.38005326  0.36792429  0.37044189
   0.38853722  0.43822070  0.36838089
   0.38618699  0.47096203  0.33734662
   0.35345912  0.57407232  0.75891603
   0.33785976  0.59514782  0.72776594
   0.29765960  0.62423576  0.72595126
   0.27758412  0.62893666  0.69479507
   0.23398064  0.61930002  0.69298372
   0.21541030  0.60611070  0.66181357
   0.18142040  0.56068550  0.66001239
   0.16984037  0.53364708  0.62886679
   0.15554591  0.46600638  0.62706486
   0.15445061  0.43311032  0.59591723
   0.16409538  0.36336837  0.59409535
   0.17368770  0.33437563  0.56293742
   0.20434920  0.28306731  0.56112578
   0.22182312  0.26658097  0.52996581
   0.26452651  0.24932619  0.52812371
   0.28470474  0.25091798  0.49692867
   0.32635326  0.27342028  0.49506238
   0.34305541  0.29217537  0.46389373
   0.37199338  0.34612555  0.46192395
   0.38202747  0.37398674  0.43108526
   0.39545871  0.44449989  0.42883262
   0.38674060  0.47760507  0.39737262
   0.35059488  0.57863210  0.81934626
   0.33455977  0.59880869  0.78819774
   0.29375548  0.62556922  0.78639406
   0.27358730  0.62909724  0.75524079
   0.23021885  0.61704663  0.75342526
   0.21192497  0.60287896  0.72226393
   0.17890556  0.55558633  0.72046173
   0.16792862  0.52790128  0.68930939
   0.15506095  0.45953099  0.68750282
   0.15464416  0.42660002  0.65634849
   0.16577068  0.35741572  0.65453000
   0.17602778  0.32900807  0.62338535
   0.20777877  0.27948773  0.62158143
   0.22565342  0.26400979  0.59041628
   0.26865143  0.24894125  0.58857393
   0.28882261  0.25118543  0.55738274
   0.33024665  0.27539754  0.55554668
   0.34650370  0.29515142  0.52443516
   0.37389100  0.35103146  0.52270878
   0.38174636  0.38220477  0.49169532
   0.38884177  0.45174308  0.49040543
   0.39188304  0.48741661  0.45894648
   0.34761957  0.58301794  0.87978493
   0.33116985  0.60227829  0.84863032
   0.28982194  0.62671584  0.84682918
   0.26959391  0.62909766  0.81567801
   0.22650355  0.61461210  0.81386135
   0.20851363  0.59941129  0.78271116
   0.17650970  0.55033661  0.78090933
   0.16611992  0.52206746  0.74974749
   0.15469548  0.45301322  0.74793877
   0.15496860  0.42008621  0.71679060
   0.16754299  0.35155784  0.71497786
   0.17842169  0.32376056  0.68382582
   0.21121400  0.27609855  0.68202434
   0.22941030  0.26160429  0.65086818
   0.27271897  0.24892497  0.64904259
   0.29286126  0.25213420  0.61788761
   0.33377839  0.27844476  0.61609172
   0.34980470  0.29861739  0.58493076
   0.37604227  0.35588789  0.58320565
   0.38321077  0.38686778  0.55208788
   0.38717947  0.45792981  0.55042725
   0.38412986  0.49050686  0.51939064
   0.34453147  0.58720313  0.94022232
   0.32769117  0.60554498  0.90906741
   0.28584820  0.62765274  0.90726220
   0.26558633  0.62889272  0.87611302
   0.22283597  0.61198995  0.87429544
   0.20518340  0.59577724  0.84314550
   0.17422959  0.54496035  0.84134577
   0.16442485  0.51613084  0.81019054
   0.15446893  0.44647541  0.80837831
   0.15544078  0.41358150  0.77722849
   0.16945615  0.34580793  0.77542220
   0.18089762  0.31863065  0.74426591
   0.21470078  0.27285171  0.74246439
   0.23320892  0.25943375  0.71131991
   0.27676242  0.24925780  0.70950554
   0.29683600  0.25359329  0.67834813
   0.33715238  0.28216602  0.67655197
   0.35279442  0.30299771  0.64538042
   0.37781945  0.36180397  0.64359692
   0.38435095  0.39295676  0.61247633
   0.38669030  0.46437556  0.61072727
   0.38223386  0.49661003  0.57964206
   0.34134398  0.59119794  0.00066036
   0.32413497  0.60859733  0.96950600
   0.28184828  0.62835307  0.96769489
   0.26157650  0.62846505  0.93654558
   0.21921026  0.60917951  0.93472841
   0.20191661  0.59198719  0.90357810
   0.17206224  0.53945970  0.90177834
   0.16287979  0.51009638  0.87062938
   0.15440508  0.43993705  0.86881356
   0.15606156  0.40711211  0.83766232
   0.17150705  0.34016399  0.83586114
   0.18351131  0.31364078  0.80470945
   0.21828060  0.26981605  0.80290348
   0.23705974  0.25747854  0.77175479
   0.28079949  0.24981597  0.76994376
   0.30076265  0.25529114  0.73878525
   0.34045963  0.28611670  0.73698069
   0.35565106  0.30780909  0.70582568
   0.37946407  0.36794099  0.70401302
   0.38530861  0.39941528  0.67286418
   0.38619408  0.47088730  0.67107763
   0.38102995  0.50275413  0.63994155
   0.25756844  0.62779954  0.99697536
   0.21563296  0.60615662  0.99516141
   0.19872192  0.58801288  0.96401069
   0.16999933  0.53384603  0.96220771
   0.16145236  0.50398283  0.93105996
   0.15447357  0.43338954  0.92924365
   0.15683216  0.40068388  0.89809493
   0.17369285  0.33464212  0.89629623
   0.18625654  0.30881547  0.86514513
   0.22193417  0.26698093  0.86333206
   0.24096560  0.25571602  0.83218168
   0.28484575  0.25052789  0.83037169
   0.30467578  0.25716262  0.79921712
   0.34370261  0.29017585  0.79740686
   0.35841898  0.31274874  0.76625148
   0.38097559  0.37413301  0.76442903
   0.38619073  0.40590786  0.73327144
   0.38558793  0.47740934  0.73147119
   0.37974738  0.50894118  0.70033137
   0.16013845  0.49779732  0.99148716
   0.15466620  0.42684735  0.98967243
   0.15772827  0.39429118  0.95852389
   0.17598453  0.32923687  0.95672388
   0.18909318  0.30412902  0.92557422
   0.22564105  0.26431505  0.92375655
   0.24490492  0.25413540  0.89260749
   0.28887228  0.25141567  0.89080037
   0.30855236  0.25918392  0.85964526
   0.34685580  0.29436110  0.85783012
   0.36109443  0.31776153  0.82667584
   0.38234437  0.38037001  0.82485351
   0.38690279  0.41243261  0.79369888
   0.38479426  0.48385706  0.79189255
   0.37830405  0.51506004  0.76074308
   0.19201833  0.29961328  0.98600287
   0.22938970  0.26186495  0.98418294
   0.24886301  0.25276567  0.95303393
   0.29286355  0.25251481  0.95122922
   0.31237153  0.26139363  0.92007522
   0.34990386  0.29870776  0.91825593
   0.36364441  0.32289625  0.88710374
   0.38355232  0.38665724  0.88528714
   0.38743575  0.41897104  0.85412968
   0.38381004  0.49022595  0.85232100
   0.37668576  0.52105463  0.82116728
   0.31613609  0.26379393  0.98050682
   0.35285682  0.30319458  0.97868437
   0.36607448  0.32815331  0.94753299
   0.38462538  0.39298348  0.94572117
   0.38782563  0.42550561  0.91456490
   0.38269061  0.49651830  0.91275193
   0.37491768  0.52694087  0.88160166
   0.38806827  0.43204261  0.97500320
   0.38141984  0.50272328  0.97318638
   0.37300929  0.53269533  0.94203558
   0.45342434  0.47903847  0.44390694
 
 position of ions in cartesian coordinates  (Angst):
  12.00898808 10.72415388  0.09985902
  11.93853440 10.83405027  2.54427962
  10.94377932 11.85364993  2.47122105
  10.37520369 12.18056100  1.21105482
   8.99365040 12.52673351  1.13759487
  11.86343904 10.94156430  4.98833866
  10.83455739 11.92649204  4.91547859
  10.25534146 12.23361449  3.65533980
   8.86253026 12.53183485  3.58174487
   8.20819013 12.48887767  2.32184707
   6.86620333 12.01159334  2.24870413
   6.33178101 11.63146641  0.98859065
   5.43966232 10.52102386  0.91547128
  11.78372927 11.04656342  7.43221901
  10.72230682 11.99661028  7.35973634
  10.13328646 12.28316653  6.09964927
   8.73115485 12.53340000  6.02612256
   8.07886135 12.46716354  4.76597650
   6.75444367 11.94367321  4.69306639
   6.23330217 11.54538904  3.43300958
   5.38008657 10.40476156  3.35975162
   5.14532844  9.79226564  2.09991830
   5.01734676  8.37356031  2.02664248
   5.13895088  7.72878723  0.76661232
   5.77444004  6.45396219  0.69364688
  11.70055082 11.14907165  9.87615349
  10.60797467 12.06287544  9.80456665
  10.00922356 12.32913857  8.54401011
   8.59977345 12.53085515  8.47072492
   7.95018628 12.44225997  7.21043534
   6.64466860 11.87255546  7.13760339
   6.13783132 11.45613351  5.87770046
   5.32462711 10.28662946  5.80424230
   5.11131122  9.66620557  4.54420515
   5.03229488  8.24406748  4.47105046
   5.17597553  7.60383304  3.21099647
   5.85485988  6.35148171  3.13789789
   6.31317675  5.88189974  1.87797491
   7.54811491  5.17214646  1.80440848
   8.18479232  5.01276539  0.54447174
   9.60852408  5.05685386  0.47144860
  12.00219245 10.71308719 13.57790148
  11.61433026 11.24665940 12.31907139
  10.49188942 12.12037328 12.24937683
   9.88467888 12.37019726 10.98932308
   8.46835226 12.52332390 10.91618225
   7.82246962 12.41269954  9.65601069
   6.53742077 11.79769528  9.58268260
   6.04589769 11.36346850  8.32235011
   5.27423141 10.16651414  8.24863309
   5.08187563  9.53922063  6.98863242
   5.05187915  8.11501606  6.91559546
   5.21735337  7.48019773  5.65557591
   5.93883011  6.25196838  5.58224958
   6.41303355  5.79840789  4.32213355
   7.67159049  5.13150707  4.24873936
   8.31347519  4.99435088  2.98874625
   9.73487235  5.08757756  2.91572191
  10.35321399  5.30765661  1.65576650
  11.51416933  6.13284170  1.58207233
  11.92535059  6.64437825  0.32210103
  12.48118142  7.95582175  0.24900693
  11.93120903 10.78953434 16.02098399
  11.52148564 11.32079476 14.76626341
  10.37062169 12.15794225 14.69589251
   9.75859624 12.39741125 13.43781644
   8.33756549 12.50579323 13.36338073
   7.69602496 12.37604338 12.10174190
   6.43314525 11.71811797 12.02758383
   5.95652734 11.26823817 10.76704331
   5.22685748 10.04465630 10.69316619
   5.05706388  9.41116484  9.43331877
   5.07606922  7.98675557  9.36025559
   5.26341940  7.35807808  8.10004423
   6.02637303  6.15540727  8.02645678
   6.51542356  5.71817179  6.76660163
   7.79619997  5.09422530  6.69362209
   8.44242104  4.97975845  5.43318641
   9.85952449  5.12181481  5.35998440
  10.47031745  5.36325391  4.10006334
  11.60221948  6.22796783  4.02639110
  11.99565386  6.75367536  2.76652943
  12.50598673  8.08348492  2.69353994
  12.56531435  8.73716571  1.43350034
  12.30146361 10.13682366  1.35988112
  11.89527565 10.94961921 18.47260715
  11.43570769 11.39872307 17.22499532
  10.24716085 12.18601462 17.14431651
   9.62664859 12.40184557 15.88375062
   8.20768083 12.47528888 15.80835408
   7.56936242 12.33264656 14.54663412
   6.32726547 11.63515592 14.47219281
   5.86865471 11.16890431 13.21204273
   5.18236336  9.92039211 13.13808935
   5.03604034  9.28167534 11.87759073
   5.10401672  7.85922406 11.80439152
   5.31244398  7.23726834 10.54442984
   6.11624000  6.06085837 10.47074921
   6.62096572  5.64141726  9.21118502
   7.92209486  5.06129284  9.13861979
   8.57158121  4.96833885  7.87780248
   9.98330116  5.15865724  7.80460068
  10.58494381  5.42202074  6.54463636
  11.68597062  6.32588401  6.47088407
  12.06129598  6.86519842  5.21087587
  12.52488364  8.21186896  5.13768419
  12.56260365  8.86732562  3.87783953
  12.25085731 10.25722333  3.80420938
  11.80039081 11.04961914 20.92518430
  11.34528003 11.50462303 19.65161163
  10.12700310 12.24478242 19.58080574
   9.49903544 12.43028656 18.32480147
   8.07127791 12.46024650 18.25113884
   7.44161811 12.28613250 16.99303738
   6.22320167 11.54863209 16.91789192
   5.78254115 11.06567532 15.65657472
   5.14189506  9.79481677 15.58275749
   5.01722293  9.15160503 14.32225419
   5.13434542  7.73158618 14.24894656
   5.36488568  7.11775916 12.98919880
   6.20735690  5.96878963 12.91538142
   6.72739735  5.56742836 11.65538264
   8.04787661  5.03334578 11.58298673
   8.70060102  4.96159406 10.32346898
  10.10626124  5.20008759 10.25073156
  10.69773931  5.48413004  8.98932787
  11.76558287  6.42616186  8.91510716
  12.12208112  6.97843388  7.65509667
  12.53835311  8.34080049  7.58122427
  12.55365918  8.99723590  6.32186956
  12.19437377 10.37562171  6.24854640
  11.70338432 11.14682451 23.36628859
  11.25278696 11.61746349 22.09954626
  10.00981518 12.32265254 22.02595609
   9.37172528 12.46686907 20.76699421
   7.94826078 12.43426949 20.69480777
   7.31914686 12.24065898 19.43529255
   6.12802260 11.45899617 19.36167863
   5.69984650 10.96290446 18.10224101
   5.10365260  9.66716664 18.02846283
   5.00383849  9.02023698 16.76845686
   5.16973196  7.60523186 16.69463884
   5.42061835  6.99948575 15.43371231
   6.29995638  5.87952814 15.35960764
   6.83278349  5.49513233 14.10006934
   8.17305047  5.00904838 14.02756043
   8.82955559  4.96357931 12.76923180
  10.22535278  5.25209310 12.69724116
  10.80852276  5.55027119 11.43432967
  11.84489412  6.52843153 11.35974705
  12.17917328  7.09351141 10.09949170
  12.54635380  8.46973565 10.02393295
  12.53887572  9.12665728  8.76465031
  12.13302400 10.49172759  8.69206723
  11.61644998 11.24543860 25.80854813
  11.14489429 11.70169557 24.54840006
   9.88650795 12.37013085 24.47325592
   9.24560639 12.50247693 23.20997712
   7.82339982 12.40897993 23.13849747
   7.20318540 12.19006104 21.88006842
   6.04014255 11.36544181 21.80687609
   5.62880320 10.85288362 20.54751303
   5.07803990  9.53992103 20.47404938
   4.99651908  8.88909221 19.21314720
   5.21170473  7.48076385 19.13918052
   5.47932306  6.88339980 17.87931723
   6.39745442  5.79174950 17.80531219
   6.94197087  5.42738953 16.54553725
   8.29789123  4.99007889 16.47246124
   8.95601928  4.97139482 15.21299362
  10.33670879  5.31917202 15.14029694
  10.91375330  5.62829495 13.88155103
  11.92546446  6.63767583 13.80890259
  12.23617680  7.21092170 12.54217706
  12.55147367  8.59728813 12.46303925
  12.52059671  9.25506861 11.20581416
  12.06983181 10.60669340 11.13496285
  11.53079463 11.34217331 28.25262419
  11.04071664 11.77970361 26.99275051
   9.76143590 12.40496127 26.91840129
   9.11609071 12.52137244 25.65668838
   7.69768048 12.37718121 25.58423592
   7.08800850 12.13416225 24.32462716
   5.95666650 11.26872406 24.25163955
   5.56242681 10.74319405 22.99161832
   5.05504719  9.41199984 22.91866425
   4.99610378  8.75853769 21.65900767
   5.25977484  7.35839964 21.58532701
   5.55017277  6.77077538 20.32503151
   6.50454374  5.71488646 20.25145760
   7.05724846  5.36561601 18.98981359
   8.42771072  4.97766643 18.91497006
   9.08114151  4.97777391 17.65681072
  10.44938433  5.38680169 17.58276071
  11.00556181  5.73341894 16.32681238
  11.98417328  6.77000548 16.25711795
  12.30319800  7.32957198 14.98365131
  12.57784313  8.72997573 14.90028795
  12.50176072  9.38222938 13.64501204
  11.44228438 11.43633210 30.69667157
  10.93729728 11.85618580 29.43671150
   9.63592562 12.43565861 29.36331130
   8.98603634 12.52930719 28.10310424
   7.57449122 12.33733165 28.02983856
   6.97332654 12.07458184 26.76906690
   5.87299560 11.16964762 26.69621269
   5.49812330 10.63100416 25.43643385
   5.03537884  9.28350582 25.36354923
   4.99992134  8.62816976 24.10368856
   5.31214468  7.23881149 24.02999696
   5.62267035  6.66123513 22.76971963
   6.61525349  5.63910088 22.69644232
   7.18092450  5.31066964 21.43608248
   8.56333128  4.96693018 21.36157309
   9.21654690  4.99864089 20.09979433
  10.56480545  5.44691842 20.02430659
  11.10549228  5.82054641 18.76359567
  12.04228093  6.89531008 18.68392193
  12.36710745  7.45034446 17.43655718
  12.80190774  8.85506601 17.34544223
  12.51968249  9.51456815 16.07294648
  11.34956249 11.52716934 33.14095647
  10.83046906 11.92911546 31.88105985
   9.50954022 12.46222299 31.80810433
   8.85665002 12.53250629 30.54801530
   7.45271360 12.29244098 30.47458063
   6.86049867 12.01020104 29.21416587
   5.79158423 11.06806505 29.14127038
   5.43623549 10.51653956 27.88121918
   5.01967949  9.15450673 27.80814686
   5.00618706  8.49847545 26.54801498
   5.36637815  7.12022623 26.47446075
   5.69842405  6.55430581 25.21472031
   6.72627653  5.56779063 25.14175518
   7.30492009  5.25944827 23.88118588
   8.69686462  4.95926150 23.80666638
   9.34985189  5.00396870 22.54504344
  10.69084337  5.48630830 22.47077851
  11.21712134  5.87983349 21.21237834
  12.10371124  6.99304283 21.14254979
  12.35800726  7.61405919 19.88811570
  12.58770212  8.99936074 19.83594236
  12.68615493  9.71002778 18.56348901
  11.25324472 11.61454136 35.58558274
  10.72072932 11.99823475 34.32543970
   9.38220240 12.48506530 34.25258719
   8.72737458 12.53251453 32.99258284
   7.33244071 12.24394175 32.91910260
   6.75006554 11.94112018 31.65913845
   5.71402486 10.96348320 31.58625792
   5.37768382 10.40032167 30.32582227
   5.00784824  9.02466364 30.25266298
   5.01668987  8.36871115 28.99278049
   5.42375187  7.00352903 28.91945853
   5.77592026  6.44976805 27.65941918
   6.83748266  5.50027344 27.58655310
   7.42653900  5.21152720 26.32634715
   8.82854022  4.95893725 26.25250563
   9.48059227  5.02286965 24.99234753
  10.80517385  5.54701324 24.91970726
  11.32398250  5.94888051 23.65930724
  12.17335299  7.08978982 23.58952984
  12.40541378  7.70695307 22.33087706
  12.53388970  9.12260908 22.26370766
  12.43516660  9.77159000 21.00833724
  11.15327597 11.69791632 38.03015717
  10.60811674 12.06331191 36.77000207
   9.25356355 12.50372979 36.69698466
   8.59764002 12.52843186 35.43706103
   7.21371267 12.19170477 35.36354353
   6.64225831 11.86872462 34.10358927
   5.64021246 10.85638042 34.03079395
   5.32281047 10.28205593 32.77062574
   5.00051440  8.89442114 32.69732453
   5.03197549  8.23912798 31.43737481
   5.48568533  6.88898267 31.36431397
   5.85607199  6.34757297 30.10410281
   6.95035794  5.43559172 30.03123495
   7.54950901  5.16828700 28.77150159
   8.95943600  4.96556766 28.69811373
   9.60926396  5.05193674 27.43785748
  10.91439786  5.62114594 27.36520613
  11.42076653  6.03614257 26.10437783
  12.23088420  7.20764654 26.03223868
  12.44232384  7.82825403 24.77347168
  12.51805415  9.25101743 24.70272574
  12.37378895  9.89317371 23.44538952
  11.05008945 11.77749867  0.02671020
  10.49299418 12.12411895 39.21462483
   9.12407681 12.51768129 39.14136886
   8.46783279 12.51991217 37.88144004
   7.09634008 12.13571688 37.80793908
   6.53650480 11.79322163 36.54797010
   5.57005017 10.74679966 36.47517336
   5.27279338 10.16184093 35.21525883
   4.99844756  8.76416793 35.14181243
   5.05207140  8.11024864 33.88180530
   5.55207744  6.77654747 33.80895105
   5.94068298  6.24816755 32.54892622
   7.06624500  5.37511710 32.47587801
   7.67416899  5.12933652 31.21597432
   9.09012503  4.97668731 31.14272176
   9.73637842  5.08576041 29.88242100
  11.02146098  5.69984906 29.80943013
  11.51324237  6.13199217 28.54927071
  12.28412433  7.32990459 28.47595216
  12.47332551  7.95691698 27.21604245
  12.50199044  9.38074057 27.14377976
  12.33481556 10.01557288 25.88438622
   8.33808269 12.50665414 40.32570679
   6.98053479 12.07549661 40.25233618
   6.43308545 11.71404771 38.99235037
   5.50326929 10.63496741 38.91942315
   5.22658401 10.04005033 37.65955777
   5.00066467  8.63373227 37.58609140
   5.07701766  7.98218920 36.32618636
   5.62283705  6.66654394 36.25343259
   6.02955244  6.15204071 34.99343127
   7.18451931  5.31863746 34.92009640
   7.80061052  5.09422454 33.66012430
   9.22111172  4.99086972 33.58691347
   9.86305557  5.12304296 32.32677203
  11.12644376  5.78071300 32.25355079
  11.60284653  6.23039705 30.99337652
  12.33305576  7.45325830 30.91966167
  12.50188193  8.08625826 29.65939815
  12.48236767  9.51066881 29.58658158
  12.29329576 10.13882775 28.32703665
   5.18404971  9.91682615 40.10371975
   5.00690044  8.50340256 40.03031774
   5.10602690  7.85483754 38.77041993
   5.69702373  6.55886378 38.69761290
   6.12138104  6.05867998 37.43767010
   7.30451956  5.26552931 37.36414907
   7.92813529  5.06273645 36.10423035
   9.35145979  5.00855548 36.03113583
   9.98854943  5.16331012 34.77097252
  11.22851978  5.86408916 34.69755344
  11.68945680  6.33025886 33.43742376
  12.37736622  7.57750831 33.36371394
  12.52493297  8.21624045 32.10357006
  12.45667496  9.63911646 32.03050773
  12.24657174 10.26072393 30.77057229
   6.21607473  5.96872011 39.88189118
   7.42587215  5.21672000 39.80827842
   8.05626769  5.03544934 38.54836174
   9.48066653  5.03045183 38.47536464
  10.11218477  5.20733053 37.21524613
  11.32719232  5.95068076 37.14165975
  11.77200566  6.43254977 35.88161427
  12.41647047  7.70275872 35.80813632
  12.54218604  8.34649526 34.54787798
  12.42481342  9.76599387 34.47472041
  12.19418422 10.38014461 33.21461333
  10.23405206  5.25514795 39.65958645
  11.42278667  6.04006461 39.58587205
  11.85067260  6.53727775 38.32585960
  12.45120772  7.82878644 38.25257482
  12.55480734  8.47667322 36.99236481
  12.38857507  9.89134633 36.91903361
  12.13694722 10.49740694 35.65906600
  12.56266199  8.60689948 39.43697606
  12.34743716 10.01495836 39.36348893
  12.07516840 10.61204396 38.10350007
  14.67838848  9.54312347 17.95516907
 


--------------------------------------------------------------------------------------------------------


 k-point   1 :   0.0000 0.0000 0.0000  plane waves:  473959
 k-point   2 :   0.0000 0.0000-0.0556  plane waves:  473982
 k-point   3 :   0.0000 0.0000-0.1111  plane waves:  473946
 k-point   4 :   0.0000 0.0000-0.1667  plane waves:  473914
 k-point   5 :   0.0000 0.0000-0.2222  plane waves:  473924
 k-point   6 :   0.0000 0.0000-0.2778  plane waves:  473870
 k-point   7 :   0.0000 0.0000-0.3333  plane waves:  473794
 k-point   8 :   0.0000 0.0000-0.3889  plane waves:  473802
 k-point   9 :   0.0000 0.0000-0.4444  plane waves:  473706
 k-point  10 :   0.0000 0.0000-0.5000  plane waves:  473680

 maximum and minimum number of plane-waves per node :    237032   236836

 maximum number of plane-waves:    473982
 maximum index in each direction: 
   IXMAX=   52   IYMAX=   32   IZMAX=   66
   IXMIN=  -52   IYMIN=  -32   IZMIN=  -65


 parallel 3D FFT for wavefunctions:
    minimum data exchange during FFTs selected (reduces bandwidth)
 parallel 3D FFT for charge:
    minimum data exchange during FFTs selected (reduces bandwidth)


 total amount of memory used by VASP MPI-rank0  4517745. kBytes
=======================================================================

   base      :      30000. kBytes
   nonl-proj :    1876723. kBytes
   fftplans  :     190796. kBytes
   grid      :     282392. kBytes
   one-center:       1484. kBytes
   wavefun   :    2136350. kBytes
 
     INWAV:  cpu time    231.9635: real time    232.0138
 initial charge density was supplied:
 number of electron    1462.0000014 magnetization 
 keeping initial charge density in first step


--------------------------------------------------------------------------------------------------------


 Maximum index for augmentation-charges           640 (set IRDMAX)


--------------------------------------------------------------------------------------------------------


 First call to EWALD:  gamma=   0.060
 Maximum number of real-space cells 3x 4x 2
 Maximum number of reciprocal cells 3x 2x 4

    FEWALD:  cpu time      0.3221: real time      0.3221


--------------------------------------- Ionic step        1  -------------------------------------------




--------------------------------------- Iteration      1(   1)  ---------------------------------------


    POTLOK:  cpu time      1.7092: real time      1.7095
    SETDIJ:  cpu time      0.0128: real time      0.0129
     EDDAV:  cpu time   1595.5011: real time   1595.7347
       DOS:  cpu time      0.0282: real time      0.0281
    --------------------------------------------
      LOOP:  cpu time   1597.2513: real time   1597.4851

 eigenvalue-minimisations  : 18992
 total energy-change (2. order) :-0.3308124E+04  (-0.6081863E+02)
 number of electron    1462.0000014 magnetization 
 augmentation part     1462.0000014 magnetization 

 Free energy of the ion-electron system (eV)
  ---------------------------------------------------
  alpha Z        PSCENC =       418.83067969
  Ewald energy   TEWEN  =    465413.64842331
  -Hartree energ DENC   =   -509593.24661233
  -exchange      EXHF   =         0.00000000
  -V(xc)+E(xc)   XCENC  =      5237.33744878
  PAW double counting   =     25516.27756433   -25970.62904592
  entropy T*S    EENTRO =        -0.00000000
  eigenvalues    EBANDS =    -18141.61406505
  atomic energy  EATOM  =     53811.27190059
  Solvation  Ediel_sol  =         0.00000000
  ---------------------------------------------------
  free energy    TOTEN  =     -3308.12370659 eV

  energy without entropy =    -3308.12370659  energy(sigma->0) =    -3308.12370659


--------------------------------------------------------------------------------------------------------




--------------------------------------- Iteration      1(   2)  ---------------------------------------


     EDDAV:  cpu time   1690.4351: real time   1690.6712
       DOS:  cpu time      0.1078: real time      0.1078
    --------------------------------------------
      LOOP:  cpu time   1690.5429: real time   1690.7790

 eigenvalue-minimisations  : 20240
 total energy-change (2. order) :-0.2047743E+01  (-0.2047512E+01)
 number of electron    1462.0000014 magnetization 
 augmentation part     1462.0000014 magnetization 

 Free energy of the ion-electron system (eV)
  ---------------------------------------------------
  alpha Z        PSCENC =       418.83067969
  Ewald energy   TEWEN  =    465413.64842331
  -Hartree energ DENC   =   -509593.24661233
  -exchange      EXHF   =         0.00000000
  -V(xc)+E(xc)   XCENC  =      5237.33744878
  PAW double counting   =     25516.27756433   -25970.62904592
  entropy T*S    EENTRO =        -0.00000000
  eigenvalues    EBANDS =    -18143.66180798
  atomic energy  EATOM  =     53811.27190059
  Solvation  Ediel_sol  =         0.00000000
  ---------------------------------------------------
  free energy    TOTEN  =     -3310.17144952 eV

  energy without entropy =    -3310.17144952  energy(sigma->0) =    -3310.17144952


--------------------------------------------------------------------------------------------------------




--------------------------------------- Iteration      1(   3)  ---------------------------------------


     EDDAV:  cpu time   2065.4034: real time   2065.6497
       DOS:  cpu time      0.1641: real time      0.1641
    --------------------------------------------
      LOOP:  cpu time   2065.5676: real time   2065.8138

 eigenvalue-minimisations  : 24320
 total energy-change (2. order) :-0.5934696E-01  (-0.5934402E-01)
 number of electron    1462.0000014 magnetization 
 augmentation part     1462.0000014 magnetization 

 Free energy of the ion-electron system (eV)
  ---------------------------------------------------
  alpha Z        PSCENC =       418.83067969
  Ewald energy   TEWEN  =    465413.64842331
  -Hartree energ DENC   =   -509593.24661233
  -exchange      EXHF   =         0.00000000
  -V(xc)+E(xc)   XCENC  =      5237.33744878
  PAW double counting   =     25516.27756433   -25970.62904592
  entropy T*S    EENTRO =        -0.00000000
  eigenvalues    EBANDS =    -18143.72115494
  atomic energy  EATOM  =     53811.27190059
  Solvation  Ediel_sol  =         0.00000000
  ---------------------------------------------------
  free energy    TOTEN  =     -3310.23079648 eV

  energy without entropy =    -3310.23079648  energy(sigma->0) =    -3310.23079648


--------------------------------------------------------------------------------------------------------




--------------------------------------- Iteration      1(   4)  ---------------------------------------


     EDDAV:  cpu time   1771.4083: real time   1771.6263
       DOS:  cpu time      0.1630: real time      0.1630
    --------------------------------------------
      LOOP:  cpu time   1771.5713: real time   1771.7893

 eigenvalue-minimisations  : 20592
 total energy-change (2. order) :-0.6452128E-03  (-0.6449717E-03)
 number of electron    1462.0000014 magnetization 
 augmentation part     1462.0000014 magnetization 

 Free energy of the ion-electron system (eV)
  ---------------------------------------------------
  alpha Z        PSCENC =       418.83067969
  Ewald energy   TEWEN  =    465413.64842331
  -Hartree energ DENC   =   -509593.24661233
  -exchange      EXHF   =         0.00000000
  -V(xc)+E(xc)   XCENC  =      5237.33744878
  PAW double counting   =     25516.27756433   -25970.62904592
  entropy T*S    EENTRO =        -0.00000000
  eigenvalues    EBANDS =    -18143.72180015
  atomic energy  EATOM  =     53811.27190059
  Solvation  Ediel_sol  =         0.00000000
  ---------------------------------------------------
  free energy    TOTEN  =     -3310.23144170 eV

  energy without entropy =    -3310.23144170  energy(sigma->0) =    -3310.23144170


--------------------------------------------------------------------------------------------------------




--------------------------------------- Iteration      1(   5)  ---------------------------------------


     EDDAV:  cpu time   2108.5807: real time   2108.8284
       DOS:  cpu time      0.1800: real time      0.1800
    --------------------------------------------
      LOOP:  cpu time   2108.7607: real time   2109.0084

 eigenvalue-minimisations  : 24896
 total energy-change (2. order) :-0.2931128E-04  (-0.2918372E-04)
 number of electron    1462.0000014 magnetization 
 augmentation part     1462.0000014 magnetization 

 Free energy of the ion-electron system (eV)
  ---------------------------------------------------
  alpha Z        PSCENC =       418.83067969
  Ewald energy   TEWEN  =    465413.64842331
  -Hartree energ DENC   =   -509593.24661233
  -exchange      EXHF   =         0.00000000
  -V(xc)+E(xc)   XCENC  =      5237.33744878
  PAW double counting   =     25516.27756433   -25970.62904592
  entropy T*S    EENTRO =        -0.00000000
  eigenvalues    EBANDS =    -18143.72182947
  atomic energy  EATOM  =     53811.27190059
  Solvation  Ediel_sol  =         0.00000000
  ---------------------------------------------------
  free energy    TOTEN  =     -3310.23147101 eV

  energy without entropy =    -3310.23147101  energy(sigma->0) =    -3310.23147101


--------------------------------------------------------------------------------------------------------




--------------------------------------- Iteration      1(   6)  ---------------------------------------


     EDDAV:  cpu time   1517.0689: real time   1517.2663
       DOS:  cpu time      0.1787: real time      0.1787
    --------------------------------------------
      LOOP:  cpu time   1517.2476: real time   1517.4450

 eigenvalue-minimisations  : 17584
 total energy-change (2. order) :-0.7589115E-06  (-0.6372188E-06)
 number of electron    1462.0000014 magnetization 
 augmentation part     1462.0000014 magnetization 

 Free energy of the ion-electron system (eV)
  ---------------------------------------------------
  alpha Z        PSCENC =       418.83067969
  Ewald energy   TEWEN  =    465413.64842331
  -Hartree energ DENC   =   -509593.24661233
  -exchange      EXHF   =         0.00000000
  -V(xc)+E(xc)   XCENC  =      5237.33744878
  PAW double counting   =     25516.27756433   -25970.62904592
  entropy T*S    EENTRO =        -0.00000000
  eigenvalues    EBANDS =    -18143.72183022
  atomic energy  EATOM  =     53811.27190059
  Solvation  Ediel_sol  =         0.00000000
  ---------------------------------------------------
  free energy    TOTEN  =     -3310.23147177 eV

  energy without entropy =    -3310.23147177  energy(sigma->0) =    -3310.23147177


--------------------------------------------------------------------------------------------------------




 average (electrostatic) potential at core
  the test charge radii are     0.6991  1.0808
  (the norm of the test charge is              1.0000)
       1 -58.7583       2 -58.7575       3 -58.7572       4 -58.7578       5 -58.7578
       6 -58.7580       7 -58.7582       8 -58.7573       9 -58.7570      10 -58.7572
      11 -58.7568      12 -58.7572      13 -58.7575      14 -58.7552      15 -58.7557
      16 -58.7580      17 -58.7570      18 -58.7578      19 -58.7583      20 -58.7580
      21 -58.7587      22 -58.7585      23 -58.7584      24 -58.7576      25 -58.7579
      26 -58.7531      27 -58.7509      28 -58.7566      29 -58.7590      30 -58.7590
      31 -58.7611      32 -58.7598      33 -58.7602      34 -58.7585      35 -58.7593
      36 -58.7594      37 -58.7595      38 -58.7585      39 -58.7591      40 -58.7577
      41 -58.7573      42 -58.7187      43 -58.7475      44 -58.7538      45 -58.7575
      46 -58.7627      47 -58.7609      48 -58.7608      49 -58.7604      50 -58.7601
      51 -58.7600      52 -58.7609      53 -58.7603      54 -58.7598      55 -58.7587
      56 -58.7590      57 -58.7591      58 -58.7591      59 -58.7575      60 -58.7581
      61 -58.7577      62 -58.7572      63 -58.7653      64 -58.7360      65 -58.7462
      66 -58.7603      67 -58.7612      68 -58.7648      69 -58.7645      70 -58.7623
      71 -58.7648      72 -58.7622      73 -58.7615      74 -58.7608      75 -58.7603
      76 -58.7600      77 -58.7609      78 -58.7586      79 -58.7593      80 -58.7583
      81 -58.7580      82 -58.7583      83 -58.7589      84 -58.7578      85 -58.7593
      86 -58.8003      87 -58.8130      88 -58.7528      89 -58.7540      90 -58.7630
      91 -58.7647      92 -58.7709      93 -58.7674      94 -58.7667      95 -58.7636
      96 -58.7639      97 -58.7631      98 -58.7654      99 -58.7628     100 -58.7628
     101 -58.7600     102 -58.7591     103 -58.7576     104 -58.7583     105 -58.7588
     106 -58.7589     107 -58.7589     108 -58.7580     109 -58.7487     110 -58.7667
     111 -58.7585     112 -58.7812     113 -58.7699     114 -58.7776     115 -58.7733
     116 -58.7690     117 -58.7717     118 -58.7684     119 -58.7711     120 -58.7680
     121 -58.7674     122 -58.7639     123 -58.7641     124 -58.7640     125 -58.7647
     126 -58.7595     127 -58.7606     128 -58.7570     129 -58.7543     130 -58.7560
     131 -58.7569     132 -58.7555     133 -58.7675     134 -58.7654     135 -58.7626
     136 -58.7635     137 -58.7686     138 -58.7751     139 -58.7811     140 -58.7801
     141 -58.7777     142 -58.7727     143 -58.7705     144 -58.7692     145 -58.7703
     146 -58.7738     147 -58.7672     148 -58.7681     149 -58.7620     150 -58.7561
     151 -58.7554     152 -58.7515     153 -58.7531     154 -58.7560     155 -58.7542
     156 -58.7556     157 -58.7624     158 -58.7692     159 -58.7676     160 -58.7732
     161 -58.7703     162 -58.7692     163 -58.7700     164 -58.7727     165 -58.7777
     166 -58.7807     167 -58.7818     168 -58.7760     169 -58.7694     170 -58.7633
     171 -58.7622     172 -58.7641     173 -58.7665     174 -58.7557     175 -58.7473
     176 -58.7426     177 -58.7433     178 -58.7577     179 -58.7604     180 -58.7611
     181 -58.7652     182 -58.7647     183 -58.7648     184 -58.7639     185 -58.7666
     186 -58.7674     187 -58.7705     188 -58.7691     189 -58.7723     190 -58.7700
     191 -58.7744     192 -58.7792     193 -58.7710     194 -58.7825     195 -58.7594
     196 -58.7665     197 -58.7489     198 -58.7060     199 -58.7311     200 -58.7590
     201 -58.7603     202 -58.7597     203 -58.7614     204 -58.7620     205 -58.7637
     206 -58.7639     207 -58.7662     208 -58.7639     209 -58.7642     210 -58.7647
     211 -58.7681     212 -58.7697     213 -58.7722     214 -58.7650     215 -58.7644
     216 -58.7558     217 -58.7537     218 -58.8126     219 -58.7998     220 -59.5350
     221 -58.8542     222 -58.7595     223 -58.7589     224 -58.7594     225 -58.7610
     226 -58.7608     227 -58.7626     228 -58.7619     229 -58.7616     230 -58.7609
     231 -58.7628     232 -58.7626     233 -58.7653     234 -58.7640     235 -58.7671
     236 -58.7655     237 -58.7620     238 -58.7620     239 -58.7471     240 -58.7356
     241 -58.7651     242 -58.8536     243 -59.5348     244 -58.7587     245 -58.7592
     246 -58.7588     247 -58.7602     248 -58.7594     249 -58.7597     250 -58.7590
     251 -58.7614     252 -58.7617     253 -58.7627     254 -58.7617     255 -58.7611
     256 -58.7609     257 -58.7617     258 -58.7626     259 -58.7637     260 -58.7583
     261 -58.7545     262 -58.7472     263 -58.7179     264 -58.7311     265 -58.7061
     266 -58.7587     267 -58.7589     268 -58.7582     269 -58.7583     270 -58.7582
     271 -58.7591     272 -58.7593     273 -58.7594     274 -58.7592     275 -58.7607
     276 -58.7611     277 -58.7610     278 -58.7602     279 -58.7617     280 -58.7590
     281 -58.7595     282 -58.7570     283 -58.7512     284 -58.7517     285 -58.7423
     286 -58.7428     287 -58.7483     288 -58.7581     289 -58.7585     290 -58.7584
     291 -58.7583     292 -58.7577     293 -58.7580     294 -58.7574     295 -58.7584
     296 -58.7578     297 -58.7583     298 -58.7585     299 -58.7598     300 -58.7582
     301 -58.7591     302 -58.7578     303 -58.7559     304 -58.7578     305 -58.7557
     306 -58.7556     307 -58.7561     308 -58.7536     309 -58.7509     310 -58.7582
     311 -58.7587     312 -58.7576     313 -58.7573     314 -58.7575     315 -58.7575
     316 -58.7578     317 -58.7578     318 -58.7581     319 -58.7586     320 -58.7573
     321 -58.7585     322 -58.7575     323 -58.7572     324 -58.7582     325 -58.7571
     326 -58.7569     327 -58.7565     328 -58.7553     329 -58.7585     330 -58.7588
     331 -58.7581     332 -58.7576     333 -58.7572     334 -58.7569     335 -58.7577
     336 -58.7582     337 -58.7591     338 -58.7584     339 -58.7579     340 -58.7581
     341 -58.7575     342 -58.7583     343 -58.7587     344 -58.7580     345 -58.7580
     346 -58.7574     347 -58.7576     348 -58.7577     349 -58.7591     350 -58.7586
     351 -58.7586     352 -58.7593     353 -58.7584     354 -58.7593     355 -58.7575
     356 -58.7587     357 -58.7594     358 -58.7589     359 -58.7588     360 -58.7589
     361 -58.7588     362 -58.7585     363 -58.7589     364 -58.7590     365 -61.6678
 
 
 
 E-fermi :  -3.5504     XC(G=0):  -1.6384     alpha+bet : -1.4091

 Fermi energy:        -3.5504432417

 k-point     1 :       0.0000    0.0000    0.0000
  band No.  band energies     occupation 
      1     -22.9909      2.00000
      2     -22.9281      2.00000
      3     -22.9188      2.00000
      4     -22.7857      2.00000
      5     -22.7724      2.00000
      6     -22.7323      2.00000
      7     -22.7210      2.00000
      8     -22.7162      2.00000
      9     -22.7078      2.00000
     10     -22.7068      2.00000
     11     -22.7047      2.00000
     12     -22.5234      2.00000
     13     -22.5104      2.00000
     14     -22.5096      2.00000
     15     -22.5069      2.00000
     16     -22.3977      2.00000
     17     -22.3916      2.00000
     18     -22.2008      2.00000
     19     -22.1820      2.00000
     20     -22.1802      2.00000
     21     -22.1785      2.00000
     22     -22.1538      2.00000
     23     -22.1414      2.00000
     24     -22.0945      2.00000
     25     -22.0774      2.00000
     26     -22.0760      2.00000
     27     -22.0759      2.00000
     28     -21.9394      2.00000
     29     -21.9316      2.00000
     30     -21.8977      2.00000
     31     -21.8834      2.00000
     32     -21.8805      2.00000
     33     -21.8793      2.00000
     34     -21.7352      2.00000
     35     -21.7234      2.00000
     36     -21.7218      2.00000
     37     -21.7200      2.00000
     38     -21.5729      2.00000
     39     -21.5590      2.00000
     40     -21.5552      2.00000
     41     -21.5532      2.00000
     42     -21.3528      2.00000
     43     -21.3433      2.00000
     44     -21.1775      2.00000
     45     -21.1374      2.00000
     46     -21.1369      2.00000
     47     -21.1354      2.00000
     48     -21.1328      2.00000
     49     -21.1238      2.00000
     50     -21.1113      2.00000
     51     -21.1052      2.00000
     52     -21.1016      2.00000
     53     -21.0989      2.00000
     54     -21.0750      2.00000
     55     -21.0601      2.00000
     56     -21.0594      2.00000
     57     -21.0591      2.00000
     58     -20.8890      2.00000
     59     -20.8686      2.00000
     60     -20.8668      2.00000
     61     -20.8664      2.00000
     62     -20.6446      2.00000
     63     -20.6315      2.00000
     64     -20.5780      2.00000
     65     -20.5501      2.00000
     66     -20.5472      2.00000
     67     -20.5468      2.00000
     68     -20.5335      2.00000
     69     -20.5253      2.00000
     70     -20.5235      2.00000
     71     -20.5190      2.00000
     72     -20.4408      2.00000
     73     -20.4285      2.00000
     74     -20.4269      2.00000
     75     -20.4250      2.00000
     76     -20.1303      2.00000
     77     -20.1051      2.00000
     78     -20.1026      2.00000
     79     -20.1016      2.00000
     80     -19.8675      2.00000
     81     -19.8256      2.00000
     82     -19.8240      2.00000
     83     -19.8197      2.00000
     84     -19.8086      2.00000
     85     -19.8026      2.00000
     86     -19.7851      2.00000
     87     -19.7619      2.00000
     88     -19.7264      2.00000
     89     -19.7004      2.00000
     90     -19.6992      2.00000
     91     -19.6990      2.00000
     92     -19.6224      2.00000
     93     -19.6021      2.00000
     94     -19.6015      2.00000
     95     -19.6012      2.00000
     96     -19.5629      2.00000
     97     -19.5386      2.00000
     98     -19.5368      2.00000
     99     -19.5347      2.00000
    100     -19.5252      2.00000
    101     -19.5146      2.00000
    102     -19.5127      2.00000
    103     -19.5122      2.00000
    104     -19.2371      2.00000
    105     -19.2057      2.00000
    106     -19.2035      2.00000
    107     -19.2034      2.00000
    108     -19.0377      2.00000
    109     -19.0157      2.00000
    110     -19.0125      2.00000
    111     -19.0097      2.00000
    112     -18.8997      2.00000
    113     -18.8666      2.00000
    114     -18.8637      2.00000
    115     -18.8592      2.00000
    116     -18.8572      2.00000
    117     -18.8540      2.00000
    118     -18.8010      2.00000
    119     -18.7773      2.00000
    120     -18.7745      2.00000
    121     -18.7742      2.00000
    122     -18.6888      2.00000
    123     -18.6734      2.00000
    124     -18.6720      2.00000
    125     -18.6709      2.00000
    126     -18.3388      2.00000
    127     -18.2361      2.00000
    128     -18.2347      2.00000
    129     -18.2329      2.00000
    130     -18.2057      2.00000
    131     -18.1688      2.00000
    132     -18.1519      2.00000
    133     -18.1287      2.00000
    134     -18.1285      2.00000
    135     -18.1177      2.00000
    136     -18.1177      2.00000
    137     -18.1167      2.00000
    138     -18.1084      2.00000
    139     -18.1042      2.00000
    140     -18.1001      2.00000
    141     -18.0970      2.00000
    142     -18.0937      2.00000
    143     -18.0917      2.00000
    144     -17.9765      2.00000
    145     -17.9477      2.00000
    146     -17.9309      2.00000
    147     -17.9237      2.00000
    148     -17.8497      2.00000
    149     -17.8410      2.00000
    150     -17.7287      2.00000
    151     -17.6863      2.00000
    152     -17.6824      2.00000
    153     -17.6658      2.00000
    154     -17.6650      2.00000
    155     -17.6624      2.00000
    156     -17.6397      2.00000
    157     -17.6298      2.00000
    158     -17.6211      2.00000
    159     -17.6200      2.00000
    160     -17.6089      2.00000
    161     -17.6024      2.00000
    162     -17.5464      2.00000
    163     -17.5217      2.00000
    164     -17.5130      2.00000
    165     -17.3450      2.00000
    166     -17.3417      2.00000
    167     -17.3065      2.00000
    168     -17.2714      2.00000
    169     -17.2348      2.00000
    170     -17.2252      2.00000
    171     -17.0958      2.00000
    172     -17.0721      2.00000
    173     -16.8440      2.00000
    174     -16.7856      2.00000
    175     -16.7844      2.00000
    176     -16.7769      2.00000
    177     -16.7559      2.00000
    178     -16.7522      2.00000
    179     -16.7231      2.00000
    180     -16.7222      2.00000
    181     -16.5576      2.00000
    182     -16.5015      2.00000
    183     -16.5013      2.00000
    184     -16.3933      2.00000
    185     -16.3052      2.00000
    186     -16.2749      2.00000
    187     -16.2529      2.00000
    188     -16.0735      2.00000
    189     -16.0732      2.00000
    190     -16.0578      2.00000
    191     -15.9010      2.00000
    192     -15.8959      2.00000
    193     -15.8866      2.00000
    194     -15.8731      2.00000
    195     -15.8595      2.00000
    196     -15.8412      2.00000
    197     -15.8100      2.00000
    198     -15.8034      2.00000
    199     -15.8030      2.00000
    200     -15.7866      2.00000
    201     -15.7423      2.00000
    202     -15.7246      2.00000
    203     -15.7093      2.00000
    204     -15.7070      2.00000
    205     -15.7054      2.00000
    206     -15.6958      2.00000
    207     -15.6946      2.00000
    208     -15.6770      2.00000
    209     -15.6644      2.00000
    210     -15.6555      2.00000
    211     -15.6522      2.00000
    212     -15.6492      2.00000
    213     -15.6476      2.00000
    214     -15.6172      2.00000
    215     -15.6163      2.00000
    216     -15.5028      2.00000
    217     -15.4315      2.00000
    218     -15.4236      2.00000
    219     -15.3979      2.00000
    220     -15.3852      2.00000
    221     -15.3571      2.00000
    222     -15.3445      2.00000
    223     -15.3275      2.00000
    224     -15.2816      2.00000
    225     -15.2796      2.00000
    226     -15.2386      2.00000
    227     -15.1629      2.00000
    228     -15.1597      2.00000
    229     -15.1328      2.00000
    230     -15.1083      2.00000
    231     -15.0883      2.00000
    232     -15.0457      2.00000
    233     -14.8885      2.00000
    234     -14.8740      2.00000
    235     -14.8294      2.00000
    236     -14.8268      2.00000
    237     -14.8247      2.00000
    238     -14.8037      2.00000
    239     -14.7560      2.00000
    240     -14.7453      2.00000
    241     -14.7015      2.00000
    242     -14.6812      2.00000
    243     -14.6248      2.00000
    244     -14.6081      2.00000
    245     -14.5676      2.00000
    246     -14.5534      2.00000
    247     -14.5522      2.00000
    248     -14.5357      2.00000
    249     -14.2898      2.00000
    250     -14.2760      2.00000
    251     -14.1570      2.00000
    252     -14.1513      2.00000
    253     -13.8195      2.00000
    254     -13.8082      2.00000
    255     -13.7980      2.00000
    256     -13.7874      2.00000
    257     -13.7549      2.00000
    258     -13.7487      2.00000
    259     -13.7248      2.00000
    260     -13.7132      2.00000
    261     -13.6988      2.00000
    262     -13.6917      2.00000
    263     -13.6832      2.00000
    264     -13.6804      2.00000
    265     -13.6784      2.00000
    266     -13.6781      2.00000
    267     -13.6756      2.00000
    268     -13.6675      2.00000
    269     -13.6589      2.00000
    270     -13.6543      2.00000
    271     -13.6460      2.00000
    272     -13.6410      2.00000
    273     -13.6326      2.00000
    274     -13.6253      2.00000
    275     -13.6193      2.00000
    276     -13.6138      2.00000
    277     -13.6115      2.00000
    278     -13.6031      2.00000
    279     -13.4194      2.00000
    280     -13.4177      2.00000
    281     -13.3556      2.00000
    282     -13.3497      2.00000
    283     -13.3480      2.00000
    284     -13.3449      2.00000
    285     -13.3304      2.00000
    286     -13.3257      2.00000
    287     -13.3255      2.00000
    288     -13.3219      2.00000
    289     -13.2910      2.00000
    290     -13.2900      2.00000
    291     -13.2750      2.00000
    292     -13.2710      2.00000
    293     -13.1409      2.00000
    294     -13.1384      2.00000
    295     -12.8424      2.00000
    296     -12.8417      2.00000
    297     -12.6649      2.00000
    298     -12.6639      2.00000
    299     -12.6343      2.00000
    300     -12.6334      2.00000
    301     -12.5318      2.00000
    302     -12.5282      2.00000
    303     -12.5272      2.00000
    304     -12.5267      2.00000
    305     -12.4694      2.00000
    306     -12.4647      2.00000
    307     -12.4186      2.00000
    308     -12.4172      2.00000
    309     -12.4150      2.00000
    310     -12.4087      2.00000
    311     -12.3338      2.00000
    312     -12.3323      2.00000
    313     -12.3024      2.00000
    314     -12.2928      2.00000
    315     -12.2787      2.00000
    316     -12.2749      2.00000
    317     -12.2433      2.00000
    318     -12.2432      2.00000
    319     -12.1733      2.00000
    320     -12.1709      2.00000
    321     -12.1519      2.00000
    322     -12.1482      2.00000
    323     -11.9651      2.00000
    324     -11.9611      2.00000
    325     -11.9180      2.00000
    326     -11.9163      2.00000
    327     -11.8510      2.00000
    328     -11.8505      2.00000
    329     -11.8176      2.00000
    330     -11.8167      2.00000
    331     -11.7775      2.00000
    332     -11.7678      2.00000
    333     -11.7399      2.00000
    334     -11.7368      2.00000
    335     -11.6665      2.00000
    336     -11.6661      2.00000
    337     -11.6453      2.00000
    338     -11.6349      2.00000
    339     -11.6241      2.00000
    340     -11.6231      2.00000
    341     -11.5952      2.00000
    342     -11.5893      2.00000
    343     -11.5623      2.00000
    344     -11.5555      2.00000
    345     -11.4850      2.00000
    346     -11.4819      2.00000
    347     -11.4684      2.00000
    348     -11.4601      2.00000
    349     -11.3999      2.00000
    350     -11.3905      2.00000
    351     -11.3741      2.00000
    352     -11.3681      2.00000
    353     -11.3280      2.00000
    354     -11.3251      2.00000
    355     -11.3036      2.00000
    356     -11.3023      2.00000
    357     -11.2848      2.00000
    358     -11.2816      2.00000
    359     -11.2806      2.00000
    360     -11.2748      2.00000
    361     -11.2236      2.00000
    362     -11.2131      2.00000
    363     -11.2024      2.00000
    364     -11.2010      2.00000
    365     -11.1615      2.00000
    366     -11.1598      2.00000
    367     -11.0995      2.00000
    368     -11.0683      2.00000
    369     -11.0677      2.00000
    370     -11.0260      2.00000
    371     -11.0201      2.00000
    372     -10.9966      2.00000
    373     -10.9933      2.00000
    374     -10.9050      2.00000
    375     -10.9007      2.00000
    376     -10.8622      2.00000
    377     -10.8556      2.00000
    378     -10.7990      2.00000
    379     -10.7969      2.00000
    380     -10.7924      2.00000
    381     -10.7857      2.00000
    382     -10.7850      2.00000
    383     -10.7716      2.00000
    384     -10.7673      2.00000
    385     -10.7587      2.00000
    386     -10.7405      2.00000
    387     -10.7276      2.00000
    388     -10.6976      2.00000
    389     -10.6883      2.00000
    390     -10.6752      2.00000
    391     -10.6726      2.00000
    392     -10.5820      2.00000
    393     -10.5705      2.00000
    394     -10.5667      2.00000
    395     -10.5654      2.00000
    396     -10.5563      2.00000
    397     -10.5547      2.00000
    398     -10.5535      2.00000
    399     -10.5458      2.00000
    400     -10.5177      2.00000
    401     -10.5171      2.00000
    402     -10.4725      2.00000
    403     -10.4703      2.00000
    404     -10.4262      2.00000
    405     -10.4173      2.00000
    406     -10.3605      2.00000
    407     -10.3539      2.00000
    408     -10.3380      2.00000
    409     -10.3316      2.00000
    410     -10.3309      2.00000
    411     -10.3236      2.00000
    412     -10.3181      2.00000
    413     -10.3138      2.00000
    414     -10.3004      2.00000
    415     -10.2994      2.00000
    416     -10.2971      2.00000
    417     -10.2907      2.00000
    418     -10.2620      2.00000
    419     -10.2611      2.00000
    420     -10.2536      2.00000
    421     -10.2370      2.00000
    422     -10.2358      2.00000
    423     -10.2349      2.00000
    424     -10.2333      2.00000
    425     -10.2324      2.00000
    426     -10.2259      2.00000
    427     -10.2252      2.00000
    428     -10.2204      2.00000
    429     -10.2156      2.00000
    430     -10.2054      2.00000
    431     -10.2011      2.00000
    432     -10.1916      2.00000
    433     -10.1884      2.00000
    434     -10.1426      2.00000
    435     -10.1414      2.00000
    436     -10.1330      2.00000
    437     -10.1318      2.00000
    438     -10.1266      2.00000
    439     -10.1264      2.00000
    440     -10.1187      2.00000
    441     -10.1174      2.00000
    442     -10.1053      2.00000
    443     -10.0989      2.00000
    444     -10.0797      2.00000
    445     -10.0661      2.00000
    446     -10.0568      2.00000
    447     -10.0560      2.00000
    448     -10.0429      2.00000
    449     -10.0415      2.00000
    450      -9.9536      2.00000
    451      -9.9410      2.00000
    452      -9.9390      2.00000
    453      -9.9349      2.00000
    454      -9.9203      2.00000
    455      -9.9176      2.00000
    456      -9.8310      2.00000
    457      -9.8219      2.00000
    458      -9.8096      2.00000
    459      -9.7926      2.00000
    460      -9.7754      2.00000
    461      -9.7709      2.00000
    462      -9.7665      2.00000
    463      -9.7620      2.00000
    464      -9.7444      2.00000
    465      -9.6649      2.00000
    466      -9.6515      2.00000
    467      -9.6413      2.00000
    468      -9.6360      2.00000
    469      -9.6314      2.00000
    470      -9.6251      2.00000
    471      -9.6145      2.00000
    472      -9.6091      2.00000
    473      -9.5992      2.00000
    474      -9.5982      2.00000
    475      -9.5939      2.00000
    476      -9.5895      2.00000
    477      -9.5224      2.00000
    478      -9.5207      2.00000
    479      -9.5085      2.00000
    480      -9.4963      2.00000
    481      -9.4709      2.00000
    482      -9.4588      2.00000
    483      -9.4479      2.00000
    484      -9.4463      2.00000
    485      -9.4431      2.00000
    486      -9.4392      2.00000
    487      -9.4002      2.00000
    488      -9.3886      2.00000
    489      -9.3878      2.00000
    490      -9.3651      2.00000
    491      -9.3603      2.00000
    492      -9.3527      2.00000
    493      -9.3009      2.00000
    494      -9.2980      2.00000
    495      -9.2878      2.00000
    496      -9.2870      2.00000
    497      -9.2798      2.00000
    498      -9.2793      2.00000
    499      -9.2750      2.00000
    500      -9.2643      2.00000
    501      -9.2592      2.00000
    502      -9.2591      2.00000
    503      -9.2462      2.00000
    504      -9.2451      2.00000
    505      -9.1946      2.00000
    506      -9.1928      2.00000
    507      -9.1842      2.00000
    508      -9.1825      2.00000
    509      -9.1620      2.00000
    510      -9.1537      2.00000
    511      -9.0637      2.00000
    512      -9.0464      2.00000
    513      -8.9519      2.00000
    514      -8.9419      2.00000
    515      -8.8671      2.00000
    516      -8.8545      2.00000
    517      -8.8483      2.00000
    518      -8.8462      2.00000
    519      -8.8443      2.00000
    520      -8.8324      2.00000
    521      -8.8082      2.00000
    522      -8.8040      2.00000
    523      -8.7920      2.00000
    524      -8.7918      2.00000
    525      -8.7850      2.00000
    526      -8.7839      2.00000
    527      -8.7565      2.00000
    528      -8.7539      2.00000
    529      -8.6259      2.00000
    530      -8.6162      2.00000
    531      -8.6133      2.00000
    532      -8.6091      2.00000
    533      -8.5735      2.00000
    534      -8.5667      2.00000
    535      -8.5287      2.00000
    536      -8.5196      2.00000
    537      -8.5018      2.00000
    538      -8.5010      2.00000
    539      -8.4960      2.00000
    540      -8.4904      2.00000
    541      -8.4376      2.00000
    542      -8.4366      2.00000
    543      -8.4277      2.00000
    544      -8.4226      2.00000
    545      -8.4209      2.00000
    546      -8.4154      2.00000
    547      -8.3649      2.00000
    548      -8.3545      2.00000
    549      -8.3285      2.00000
    550      -8.3258      2.00000
    551      -8.3114      2.00000
    552      -8.3031      2.00000
    553      -8.2914      2.00000
    554      -8.2907      2.00000
    555      -8.2654      2.00000
    556      -8.2593      2.00000
    557      -8.2460      2.00000
    558      -8.2450      2.00000
    559      -8.2220      2.00000
    560      -8.2198      2.00000
    561      -8.1911      2.00000
    562      -8.1887      2.00000
    563      -8.1779      2.00000
    564      -8.1692      2.00000
    565      -8.1007      2.00000
    566      -8.0968      2.00000
    567      -8.0857      2.00000
    568      -8.0811      2.00000
    569      -8.0358      2.00000
    570      -8.0232      2.00000
    571      -7.9942      2.00000
    572      -7.9925      2.00000
    573      -7.9806      2.00000
    574      -7.9769      2.00000
    575      -7.9688      2.00000
    576      -7.9676      2.00000
    577      -7.9649      2.00000
    578      -7.9622      2.00000
    579      -7.9505      2.00000
    580      -7.9446      2.00000
    581      -7.8824      2.00000
    582      -7.8808      2.00000
    583      -7.8471      2.00000
    584      -7.8438      2.00000
    585      -7.7744      2.00000
    586      -7.7740      2.00000
    587      -7.6896      2.00000
    588      -7.6788      2.00000
    589      -7.6460      2.00000
    590      -7.6357      2.00000
    591      -7.5904      2.00000
    592      -7.5845      2.00000
    593      -7.5408      2.00000
    594      -7.5389      2.00000
    595      -7.5017      2.00000
    596      -7.4987      2.00000
    597      -7.4841      2.00000
    598      -7.4818      2.00000
    599      -7.4797      2.00000
    600      -7.4745      2.00000
    601      -7.3998      2.00000
    602      -7.3817      2.00000
    603      -7.3422      2.00000
    604      -7.3383      2.00000
    605      -7.3299      2.00000
    606      -7.3179      2.00000
    607      -7.3080      2.00000
    608      -7.3039      2.00000
    609      -7.3004      2.00000
    610      -7.2977      2.00000
    611      -7.2444      2.00000
    612      -7.2252      2.00000
    613      -7.2001      2.00000
    614      -7.1979      2.00000
    615      -7.1941      2.00000
    616      -7.1769      2.00000
    617      -7.1731      2.00000
    618      -7.1718      2.00000
    619      -7.1654      2.00000
    620      -7.1572      2.00000
    621      -7.1440      2.00000
    622      -7.1409      2.00000
    623      -7.1248      2.00000
    624      -7.1206      2.00000
    625      -7.0706      2.00000
    626      -7.0660      2.00000
    627      -7.0499      2.00000
    628      -7.0492      2.00000
    629      -6.9676      2.00000
    630      -6.9543      2.00000
    631      -6.9262      2.00000
    632      -6.9216      2.00000
    633      -6.9171      2.00000
    634      -6.9062      2.00000
    635      -6.8629      2.00000
    636      -6.8569      2.00000
    637      -6.8433      2.00000
    638      -6.8388      2.00000
    639      -6.8091      2.00000
    640      -6.8008      2.00000
    641      -6.7937      2.00000
    642      -6.7843      2.00000
    643      -6.6439      2.00000
    644      -6.6172      2.00000
    645      -6.5802      2.00000
    646      -6.5634      2.00000
    647      -6.5588      2.00000
    648      -6.5450      2.00000
    649      -6.5414      2.00000
    650      -6.5349      2.00000
    651      -6.5147      2.00000
    652      -6.5130      2.00000
    653      -6.5030      2.00000
    654      -6.4986      2.00000
    655      -6.4612      2.00000
    656      -6.4489      2.00000
    657      -6.4240      2.00000
    658      -6.4119      2.00000
    659      -6.3720      2.00000
    660      -6.3423      2.00000
    661      -6.3238      2.00000
    662      -6.2915      2.00000
    663      -6.2793      2.00000
    664      -6.2420      2.00000
    665      -6.2360      2.00000
    666      -6.1985      2.00000
    667      -6.1844      2.00000
    668      -6.1753      2.00000
    669      -6.0938      2.00000
    670      -6.0866      2.00000
    671      -6.0501      2.00000
    672      -6.0461      2.00000
    673      -5.9156      2.00000
    674      -5.8730      2.00000
    675      -5.8251      2.00000
    676      -5.7790      2.00000
    677      -5.7653      2.00000
    678      -5.7633      2.00000
    679      -5.7367      2.00000
    680      -5.6953      2.00000
    681      -5.6572      2.00000
    682      -5.6486      2.00000
    683      -5.6058      2.00000
    684      -5.5912      2.00000
    685      -5.5714      2.00000
    686      -5.5684      2.00000
    687      -5.5334      2.00000
    688      -5.5330      2.00000
    689      -5.5103      2.00000
    690      -5.5047      2.00000
    691      -5.5025      2.00000
    692      -5.4688      2.00000
    693      -5.4645      2.00000
    694      -5.4114      2.00000
    695      -5.4032      2.00000
    696      -5.3827      2.00000
    697      -5.3575      2.00000
    698      -5.3446      2.00000
    699      -5.3197      2.00000
    700      -5.2957      2.00000
    701      -5.2745      2.00000
    702      -5.2512      2.00000
    703      -5.2277      2.00000
    704      -5.2146      2.00000
    705      -5.2021      2.00000
    706      -5.1973      2.00000
    707      -5.1966      2.00000
    708      -5.0823      2.00000
    709      -5.0528      2.00000
    710      -5.0116      2.00000
    711      -5.0024      2.00000
    712      -4.9325      2.00000
    713      -4.9093      2.00000
    714      -4.8591      2.00000
    715      -4.8472      2.00000
    716      -4.6987      2.00000
    717      -4.6135      2.00000
    718      -4.5970      2.00000
    719      -4.4574      2.00000
    720      -4.4158      2.00000
    721      -4.3738      2.00000
    722      -4.3505      2.00000
    723      -4.3196      2.00000
    724      -4.2945      2.00000
    725      -4.1797      2.00000
    726      -4.1128      2.00000
    727      -4.0481      2.00000
    728      -4.0106      2.00000
    729      -3.8400      2.00000
    730      -3.6773      2.00000
    731      -3.6198      2.00000
    732      -2.7778      0.00000
    733      -2.6844      0.00000
    734      -2.6269      0.00000
    735      -2.3165      0.00000
    736      -2.2960      0.00000
    737      -2.2358      0.00000
    738      -2.2021      0.00000
    739      -2.1255      0.00000
    740      -2.1240      0.00000
    741      -2.0849      0.00000
    742      -1.9949      0.00000
    743      -1.9770      0.00000
    744      -1.9696      0.00000
    745      -1.9510      0.00000
    746      -1.9220      0.00000
    747      -1.8524      0.00000
    748      -1.8333      0.00000
    749      -1.8273      0.00000
    750      -1.8127      0.00000
    751      -1.7866      0.00000
    752      -1.7440      0.00000
    753      -1.6812      0.00000
    754      -1.6514      0.00000
    755      -1.6443      0.00000
    756      -1.6214      0.00000
    757      -1.6141      0.00000
    758      -1.5936      0.00000
    759      -1.5877      0.00000
    760      -1.5724      0.00000
    761      -1.5699      0.00000
    762      -1.5414      0.00000
    763      -1.5367      0.00000
    764      -1.5354      0.00000
    765      -1.5278      0.00000
    766      -1.4817      0.00000
    767      -1.4813      0.00000
    768      -1.4735      0.00000
    769      -1.4244      0.00000
    770      -1.3975      0.00000
    771      -1.3881      0.00000
    772      -1.3731      0.00000
    773      -1.3472      0.00000
    774      -1.3307      0.00000
    775      -1.3221      0.00000
    776      -1.3107      0.00000
    777      -1.3036      0.00000
    778      -1.2972      0.00000
    779      -1.2878      0.00000
    780      -1.2715      0.00000
    781      -1.2634      0.00000
    782      -1.2216      0.00000
    783      -1.2086      0.00000
    784      -1.1864      0.00000
    785      -1.0311      0.00000
    786      -0.9584      0.00000
    787      -0.9488      0.00000
    788      -0.9470      0.00000
    789      -0.8766      0.00000
    790      -0.8663      0.00000
    791      -0.8341      0.00000
    792      -0.7845      0.00000
    793      -0.7571      0.00000
    794      -0.7290      0.00000
    795      -0.7201      0.00000
    796      -0.7000      0.00000
    797      -0.6205      0.00000
    798      -0.5324      0.00000
    799      -0.4882      0.00000
    800      -0.4531      0.00000
    801      -0.3531      0.00000
    802      -0.3458      0.00000
    803      -0.3286      0.00000
    804      -0.2737      0.00000
    805      -0.2195      0.00000
    806      -0.1743      0.00000
    807      -0.1472      0.00000
    808      -0.0934      0.00000
    809      -0.0588      0.00000
    810      -0.0455      0.00000
    811       0.0161      0.00000
    812       0.0719      0.00000
    813       0.0895      0.00000
    814       0.0963      0.00000
    815       0.1386      0.00000
    816       0.1659      0.00000
    817       0.2073      0.00000
    818       0.2084      0.00000
    819       0.2106      0.00000
    820       0.2295      0.00000
    821       0.2309      0.00000
    822       0.2384      0.00000
    823       0.2501      0.00000
    824       0.2785      0.00000
    825       0.3272      0.00000
    826       0.3427      0.00000
    827       0.3602      0.00000
    828       0.4023      0.00000
    829       0.4525      0.00000
    830       0.4736      0.00000
    831       0.5041      0.00000
    832       0.5200      0.00000
    833       0.5227      0.00000
    834       0.5348      0.00000
    835       0.5521      0.00000
    836       0.5585      0.00000
    837       0.5647      0.00000
    838       0.5787      0.00000
    839       0.5873      0.00000
    840       0.6073      0.00000
    841       0.6122      0.00000
    842       0.6189      0.00000
    843       0.6512      0.00000
    844       0.6526      0.00000
    845       0.6564      0.00000
    846       0.6624      0.00000
    847       0.8393      0.00000
    848       0.8626      0.00000
    849       0.8851      0.00000
    850       0.8895      0.00000
    851       0.8993      0.00000
    852       0.9192      0.00000
    853       0.9214      0.00000
    854       0.9218      0.00000
    855       0.9284      0.00000
    856       0.9346      0.00000
    857       0.9407      0.00000
    858       0.9688      0.00000
    859       1.0031      0.00000
    860       1.0065      0.00000
    861       1.0132      0.00000
    862       1.0272      0.00000
    863       1.0287      0.00000
    864       1.0423      0.00000
    865       1.0474      0.00000
    866       1.0821      0.00000
    867       1.0946      0.00000
    868       1.1294      0.00000
    869       1.1323      0.00000
    870       1.2002      0.00000
    871       1.2011      0.00000
    872       1.2176      0.00000
    873       1.2262      0.00000
    874       1.2368      0.00000
    875       1.2610      0.00000
    876       1.2670      0.00000
    877       1.2687      0.00000
    878       1.2767      0.00000
    879       1.2787      0.00000
    880       1.2985      0.00000
    881       1.3037      0.00000
    882       1.3080      0.00000
    883       1.3115      0.00000
    884       1.3359      0.00000
    885       1.3418      0.00000
    886       1.3519      0.00000
    887       1.3661      0.00000
    888       1.3683      0.00000
    889       1.3689      0.00000
    890       1.3748      0.00000
    891       1.4041      0.00000
    892       1.4619      0.00000
    893       1.4645      0.00000
    894       1.4902      0.00000
    895       1.4924      0.00000
    896       1.4976      0.00000

 k-point     2 :       0.0000    0.0000   -0.0556
  band No.  band energies     occupation 
      1     -22.9907      2.00000
      2     -22.9319      2.00000
      3     -22.9146      2.00000
      4     -22.7856      2.00000
      5     -22.7722      2.00000
      6     -22.7406      2.00000
      7     -22.7236      2.00000
      8     -22.7135      2.00000
      9     -22.7084      2.00000
     10     -22.7029      2.00000
     11     -22.6985      2.00000
     12     -22.5326      2.00000
     13     -22.5228      2.00000
     14     -22.5008      2.00000
     15     -22.4934      2.00000
     16     -22.4165      2.00000
     17     -22.3724      2.00000
     18     -22.2138      2.00000
     19     -22.2011      2.00000
     20     -22.1712      2.00000
     21     -22.1573      2.00000
     22     -22.1511      2.00000
     23     -22.1412      2.00000
     24     -22.0967      2.00000
     25     -22.0830      2.00000
     26     -22.0746      2.00000
     27     -22.0685      2.00000
     28     -21.9642      2.00000
     29     -21.9108      2.00000
     30     -21.9020      2.00000
     31     -21.8943      2.00000
     32     -21.8742      2.00000
     33     -21.8652      2.00000
     34     -21.7584      2.00000
     35     -21.7498      2.00000
     36     -21.6997      2.00000
     37     -21.6917      2.00000
     38     -21.5883      2.00000
     39     -21.5757      2.00000
     40     -21.5431      2.00000
     41     -21.5323      2.00000
     42     -21.3840      2.00000
     43     -21.3118      2.00000
     44     -21.1917      2.00000
     45     -21.1715      2.00000
     46     -21.1542      2.00000
     47     -21.1306      2.00000
     48     -21.1285      2.00000
     49     -21.1236      2.00000
     50     -21.1078      2.00000
     51     -21.0994      2.00000
     52     -21.0850      2.00000
     53     -21.0735      2.00000
     54     -21.0706      2.00000
     55     -21.0664      2.00000
     56     -21.0565      2.00000
     57     -21.0521      2.00000
     58     -20.8958      2.00000
     59     -20.8810      2.00000
     60     -20.8607      2.00000
     61     -20.8525      2.00000
     62     -20.6804      2.00000
     63     -20.6015      2.00000
     64     -20.5849      2.00000
     65     -20.5684      2.00000
     66     -20.5632      2.00000
     67     -20.5567      2.00000
     68     -20.5366      2.00000
     69     -20.5257      2.00000
     70     -20.4960      2.00000
     71     -20.4856      2.00000
     72     -20.4752      2.00000
     73     -20.4692      2.00000
     74     -20.3911      2.00000
     75     -20.3839      2.00000
     76     -20.1478      2.00000
     77     -20.1301      2.00000
     78     -20.0872      2.00000
     79     -20.0738      2.00000
     80     -19.8892      2.00000
     81     -19.8639      2.00000
     82     -19.8551      2.00000
     83     -19.8122      2.00000
     84     -19.7808      2.00000
     85     -19.7759      2.00000
     86     -19.7617      2.00000
     87     -19.7562      2.00000
     88     -19.7269      2.00000
     89     -19.7063      2.00000
     90     -19.6979      2.00000
     91     -19.6924      2.00000
     92     -19.6588      2.00000
     93     -19.6503      2.00000
     94     -19.5883      2.00000
     95     -19.5703      2.00000
     96     -19.5610      2.00000
     97     -19.5526      2.00000
     98     -19.5408      2.00000
     99     -19.5267      2.00000
    100     -19.5127      2.00000
    101     -19.5029      2.00000
    102     -19.4990      2.00000
    103     -19.4987      2.00000
    104     -19.2466      2.00000
    105     -19.2240      2.00000
    106     -19.1956      2.00000
    107     -19.1829      2.00000
    108     -19.0738      2.00000
    109     -19.0589      2.00000
    110     -18.9812      2.00000
    111     -18.9634      2.00000
    112     -18.9293      2.00000
    113     -18.9089      2.00000
    114     -18.8965      2.00000
    115     -18.8424      2.00000
    116     -18.8157      2.00000
    117     -18.8115      2.00000
    118     -18.8113      2.00000
    119     -18.8013      2.00000
    120     -18.7605      2.00000
    121     -18.7473      2.00000
    122     -18.7330      2.00000
    123     -18.7258      2.00000
    124     -18.6272      2.00000
    125     -18.6176      2.00000
    126     -18.3439      2.00000
    127     -18.2665      2.00000
    128     -18.2461      2.00000
    129     -18.2011      2.00000
    130     -18.1939      2.00000
    131     -18.1786      2.00000
    132     -18.1685      2.00000
    133     -18.1680      2.00000
    134     -18.1490      2.00000
    135     -18.1369      2.00000
    136     -18.1326      2.00000
    137     -18.1182      2.00000
    138     -18.1097      2.00000
    139     -18.1005      2.00000
    140     -18.0839      2.00000
    141     -18.0679      2.00000
    142     -18.0572      2.00000
    143     -18.0509      2.00000
    144     -17.9796      2.00000
    145     -17.9484      2.00000
    146     -17.9351      2.00000
    147     -17.9146      2.00000
    148     -17.9028      2.00000
    149     -17.7893      2.00000
    150     -17.7522      2.00000
    151     -17.7262      2.00000
    152     -17.7068      2.00000
    153     -17.6683      2.00000
    154     -17.6529      2.00000
    155     -17.6470      2.00000
    156     -17.6421      2.00000
    157     -17.6349      2.00000
    158     -17.6150      2.00000
    159     -17.6075      2.00000
    160     -17.5878      2.00000
    161     -17.5712      2.00000
    162     -17.5492      2.00000
    163     -17.5243      2.00000
    164     -17.5156      2.00000
    165     -17.3674      2.00000
    166     -17.3245      2.00000
    167     -17.3176      2.00000
    168     -17.2660      2.00000
    169     -17.2483      2.00000
    170     -17.2054      2.00000
    171     -17.1000      2.00000
    172     -17.0730      2.00000
    173     -16.8636      2.00000
    174     -16.8289      2.00000
    175     -16.7843      2.00000
    176     -16.7634      2.00000
    177     -16.7614      2.00000
    178     -16.7334      2.00000
    179     -16.7281      2.00000
    180     -16.6864      2.00000
    181     -16.5546      2.00000
    182     -16.5066      2.00000
    183     -16.4895      2.00000
    184     -16.3931      2.00000
    185     -16.3033      2.00000
    186     -16.2816      2.00000
    187     -16.2463      2.00000
    188     -16.0949      2.00000
    189     -16.0631      2.00000
    190     -16.0441      2.00000
    191     -15.9501      2.00000
    192     -15.9247      2.00000
    193     -15.8623      2.00000
    194     -15.8513      2.00000
    195     -15.8414      2.00000
    196     -15.8258      2.00000
    197     -15.8131      2.00000
    198     -15.8038      2.00000
    199     -15.7998      2.00000
    200     -15.7886      2.00000
    201     -15.7654      2.00000
    202     -15.7597      2.00000
    203     -15.7429      2.00000
    204     -15.7349      2.00000
    205     -15.7151      2.00000
    206     -15.6832      2.00000
    207     -15.6649      2.00000
    208     -15.6562      2.00000
    209     -15.6487      2.00000
    210     -15.6456      2.00000
    211     -15.6439      2.00000
    212     -15.6408      2.00000
    213     -15.6368      2.00000
    214     -15.6186      2.00000
    215     -15.5883      2.00000
    216     -15.5027      2.00000
    217     -15.4398      2.00000
    218     -15.4165      2.00000
    219     -15.4099      2.00000
    220     -15.3866      2.00000
    221     -15.3775      2.00000
    222     -15.3418      2.00000
    223     -15.3015      2.00000
    224     -15.2811      2.00000
    225     -15.2796      2.00000
    226     -15.2373      2.00000
    227     -15.2190      2.00000
    228     -15.1538      2.00000
    229     -15.1017      2.00000
    230     -15.1000      2.00000
    231     -15.0793      2.00000
    232     -15.0386      2.00000
    233     -14.8911      2.00000
    234     -14.8893      2.00000
    235     -14.8870      2.00000
    236     -14.8619      2.00000
    237     -14.8069      2.00000
    238     -14.7634      2.00000
    239     -14.7617      2.00000
    240     -14.7405      2.00000
    241     -14.6964      2.00000
    242     -14.6758      2.00000
    243     -14.6345      2.00000
    244     -14.6166      2.00000
    245     -14.6027      2.00000
    246     -14.5531      2.00000
    247     -14.5079      2.00000
    248     -14.4832      2.00000
    249     -14.3326      2.00000
    250     -14.2328      2.00000
    251     -14.2010      2.00000
    252     -14.1089      2.00000
    253     -13.8200      2.00000
    254     -13.8079      2.00000
    255     -13.7986      2.00000
    256     -13.7871      2.00000
    257     -13.7599      2.00000
    258     -13.7466      2.00000
    259     -13.7425      2.00000
    260     -13.7363      2.00000
    261     -13.7259      2.00000
    262     -13.7156      2.00000
    263     -13.7105      2.00000
    264     -13.7055      2.00000
    265     -13.6986      2.00000
    266     -13.6882      2.00000
    267     -13.6846      2.00000
    268     -13.6786      2.00000
    269     -13.6746      2.00000
    270     -13.6668      2.00000
    271     -13.6223      2.00000
    272     -13.6186      2.00000
    273     -13.6078      2.00000
    274     -13.6051      2.00000
    275     -13.5982      2.00000
    276     -13.5860      2.00000
    277     -13.5744      2.00000
    278     -13.5536      2.00000
    279     -13.4305      2.00000
    280     -13.4170      2.00000
    281     -13.4074      2.00000
    282     -13.3892      2.00000
    283     -13.3818      2.00000
    284     -13.3396      2.00000
    285     -13.3209      2.00000
    286     -13.3095      2.00000
    287     -13.3017      2.00000
    288     -13.2877      2.00000
    289     -13.2769      2.00000
    290     -13.2741      2.00000
    291     -13.2684      2.00000
    292     -13.2573      2.00000
    293     -13.1770      2.00000
    294     -13.0996      2.00000
    295     -12.8763      2.00000
    296     -12.8073      2.00000
    297     -12.7217      2.00000
    298     -12.6742      2.00000
    299     -12.6071      2.00000
    300     -12.5947      2.00000
    301     -12.5937      2.00000
    302     -12.5876      2.00000
    303     -12.5321      2.00000
    304     -12.4821      2.00000
    305     -12.4683      2.00000
    306     -12.4622      2.00000
    307     -12.4202      2.00000
    308     -12.4114      2.00000
    309     -12.4021      2.00000
    310     -12.3957      2.00000
    311     -12.3509      2.00000
    312     -12.3397      2.00000
    313     -12.3367      2.00000
    314     -12.2700      2.00000
    315     -12.2621      2.00000
    316     -12.2509      2.00000
    317     -12.2335      2.00000
    318     -12.2250      2.00000
    319     -12.2149      2.00000
    320     -12.1915      2.00000
    321     -12.1108      2.00000
    322     -12.1081      2.00000
    323     -11.9654      2.00000
    324     -11.9645      2.00000
    325     -11.9590      2.00000
    326     -11.8965      2.00000
    327     -11.8675      2.00000
    328     -11.8443      2.00000
    329     -11.8047      2.00000
    330     -11.7920      2.00000
    331     -11.7843      2.00000
    332     -11.7625      2.00000
    333     -11.7568      2.00000
    334     -11.7168      2.00000
    335     -11.6772      2.00000
    336     -11.6687      2.00000
    337     -11.6614      2.00000
    338     -11.6518      2.00000
    339     -11.6277      2.00000
    340     -11.6208      2.00000
    341     -11.6072      2.00000
    342     -11.5649      2.00000
    343     -11.5541      2.00000
    344     -11.5323      2.00000
    345     -11.5289      2.00000
    346     -11.4712      2.00000
    347     -11.4577      2.00000
    348     -11.4351      2.00000
    349     -11.4160      2.00000
    350     -11.4002      2.00000
    351     -11.3940      2.00000
    352     -11.3893      2.00000
    353     -11.3656      2.00000
    354     -11.3268      2.00000
    355     -11.3108      2.00000
    356     -11.3104      2.00000
    357     -11.2812      2.00000
    358     -11.2630      2.00000
    359     -11.2607      2.00000
    360     -11.2547      2.00000
    361     -11.2466      2.00000
    362     -11.2374      2.00000
    363     -11.2233      2.00000
    364     -11.1570      2.00000
    365     -11.1416      2.00000
    366     -11.1268      2.00000
    367     -11.0994      2.00000
    368     -11.0976      2.00000
    369     -11.0440      2.00000
    370     -11.0315      2.00000
    371     -11.0141      2.00000
    372     -11.0091      2.00000
    373     -10.9613      2.00000
    374     -10.9461      2.00000
    375     -10.8620      2.00000
    376     -10.8569      2.00000
    377     -10.8440      2.00000
    378     -10.8134      2.00000
    379     -10.8008      2.00000
    380     -10.7927      2.00000
    381     -10.7881      2.00000
    382     -10.7822      2.00000
    383     -10.7773      2.00000
    384     -10.7654      2.00000
    385     -10.7430      2.00000
    386     -10.7362      2.00000
    387     -10.7243      2.00000
    388     -10.7102      2.00000
    389     -10.7033      2.00000
    390     -10.6764      2.00000
    391     -10.6409      2.00000
    392     -10.6064      2.00000
    393     -10.5845      2.00000
    394     -10.5807      2.00000
    395     -10.5720      2.00000
    396     -10.5685      2.00000
    397     -10.5544      2.00000
    398     -10.5522      2.00000
    399     -10.5358      2.00000
    400     -10.5318      2.00000
    401     -10.5113      2.00000
    402     -10.4641      2.00000
    403     -10.4472      2.00000
    404     -10.4134      2.00000
    405     -10.3947      2.00000
    406     -10.3781      2.00000
    407     -10.3580      2.00000
    408     -10.3388      2.00000
    409     -10.3353      2.00000
    410     -10.3324      2.00000
    411     -10.3262      2.00000
    412     -10.3159      2.00000
    413     -10.3144      2.00000
    414     -10.3088      2.00000
    415     -10.3035      2.00000
    416     -10.2934      2.00000
    417     -10.2808      2.00000
    418     -10.2730      2.00000
    419     -10.2639      2.00000
    420     -10.2621      2.00000
    421     -10.2578      2.00000
    422     -10.2528      2.00000
    423     -10.2508      2.00000
    424     -10.2433      2.00000
    425     -10.2259      2.00000
    426     -10.2168      2.00000
    427     -10.2145      2.00000
    428     -10.2115      2.00000
    429     -10.2097      2.00000
    430     -10.2035      2.00000
    431     -10.1865      2.00000
    432     -10.1771      2.00000
    433     -10.1730      2.00000
    434     -10.1701      2.00000
    435     -10.1694      2.00000
    436     -10.1575      2.00000
    437     -10.1466      2.00000
    438     -10.1251      2.00000
    439     -10.1187      2.00000
    440     -10.1096      2.00000
    441     -10.0979      2.00000
    442     -10.0894      2.00000
    443     -10.0869      2.00000
    444     -10.0781      2.00000
    445     -10.0764      2.00000
    446     -10.0724      2.00000
    447     -10.0551      2.00000
    448     -10.0164      2.00000
    449     -10.0036      2.00000
    450      -9.9781      2.00000
    451      -9.9618      2.00000
    452      -9.9495      2.00000
    453      -9.9316      2.00000
    454      -9.9098      2.00000
    455      -9.8770      2.00000
    456      -9.8397      2.00000
    457      -9.8192      2.00000
    458      -9.8125      2.00000
    459      -9.8050      2.00000
    460      -9.7919      2.00000
    461      -9.7875      2.00000
    462      -9.7468      2.00000
    463      -9.7410      2.00000
    464      -9.7320      2.00000
    465      -9.6946      2.00000
    466      -9.6593      2.00000
    467      -9.6428      2.00000
    468      -9.6385      2.00000
    469      -9.6323      2.00000
    470      -9.6229      2.00000
    471      -9.6140      2.00000
    472      -9.6105      2.00000
    473      -9.6050      2.00000
    474      -9.6014      2.00000
    475      -9.5852      2.00000
    476      -9.5487      2.00000
    477      -9.5255      2.00000
    478      -9.5211      2.00000
    479      -9.5094      2.00000
    480      -9.4925      2.00000
    481      -9.4791      2.00000
    482      -9.4668      2.00000
    483      -9.4565      2.00000
    484      -9.4456      2.00000
    485      -9.4381      2.00000
    486      -9.4197      2.00000
    487      -9.4102      2.00000
    488      -9.3883      2.00000
    489      -9.3788      2.00000
    490      -9.3651      2.00000
    491      -9.3599      2.00000
    492      -9.3527      2.00000
    493      -9.3424      2.00000
    494      -9.3114      2.00000
    495      -9.2994      2.00000
    496      -9.2970      2.00000
    497      -9.2877      2.00000
    498      -9.2853      2.00000
    499      -9.2742      2.00000
    500      -9.2634      2.00000
    501      -9.2510      2.00000
    502      -9.2471      2.00000
    503      -9.2223      2.00000
    504      -9.2055      2.00000
    505      -9.1981      2.00000
    506      -9.1963      2.00000
    507      -9.1849      2.00000
    508      -9.1797      2.00000
    509      -9.1650      2.00000
    510      -9.1494      2.00000
    511      -9.0839      2.00000
    512      -9.0278      2.00000
    513      -8.9588      2.00000
    514      -8.9360      2.00000
    515      -8.9114      2.00000
    516      -8.8826      2.00000
    517      -8.8616      2.00000
    518      -8.8520      2.00000
    519      -8.8329      2.00000
    520      -8.8186      2.00000
    521      -8.8070      2.00000
    522      -8.7955      2.00000
    523      -8.7885      2.00000
    524      -8.7845      2.00000
    525      -8.7837      2.00000
    526      -8.7607      2.00000
    527      -8.7488      2.00000
    528      -8.7375      2.00000
    529      -8.6378      2.00000
    530      -8.6213      2.00000
    531      -8.6090      2.00000
    532      -8.6004      2.00000
    533      -8.5729      2.00000
    534      -8.5658      2.00000
    535      -8.5281      2.00000
    536      -8.5193      2.00000
    537      -8.5036      2.00000
    538      -8.4968      2.00000
    539      -8.4940      2.00000
    540      -8.4882      2.00000
    541      -8.4401      2.00000
    542      -8.4376      2.00000
    543      -8.4307      2.00000
    544      -8.4288      2.00000
    545      -8.4193      2.00000
    546      -8.4016      2.00000
    547      -8.3654      2.00000
    548      -8.3543      2.00000
    549      -8.3384      2.00000
    550      -8.3304      2.00000
    551      -8.3082      2.00000
    552      -8.3010      2.00000
    553      -8.2981      2.00000
    554      -8.2934      2.00000
    555      -8.2809      2.00000
    556      -8.2783      2.00000
    557      -8.2403      2.00000
    558      -8.2328      2.00000
    559      -8.2308      2.00000
    560      -8.2229      2.00000
    561      -8.2081      2.00000
    562      -8.2012      2.00000
    563      -8.1493      2.00000
    564      -8.1298      2.00000
    565      -8.1148      2.00000
    566      -8.1088      2.00000
    567      -8.0713      2.00000
    568      -8.0624      2.00000
    569      -8.0576      2.00000
    570      -8.0350      2.00000
    571      -8.0112      2.00000
    572      -8.0028      2.00000
    573      -7.9944      2.00000
    574      -7.9781      2.00000
    575      -7.9749      2.00000
    576      -7.9514      2.00000
    577      -7.9494      2.00000
    578      -7.9428      2.00000
    579      -7.9348      2.00000
    580      -7.9256      2.00000
    581      -7.9202      2.00000
    582      -7.8890      2.00000
    583      -7.8373      2.00000
    584      -7.8048      2.00000
    585      -7.7985      2.00000
    586      -7.7493      2.00000
    587      -7.7084      2.00000
    588      -7.6697      2.00000
    589      -7.6551      2.00000
    590      -7.6197      2.00000
    591      -7.6118      2.00000
    592      -7.5641      2.00000
    593      -7.5599      2.00000
    594      -7.5404      2.00000
    595      -7.5211      2.00000
    596      -7.4982      2.00000
    597      -7.4866      2.00000
    598      -7.4802      2.00000
    599      -7.4707      2.00000
    600      -7.4457      2.00000
    601      -7.4320      2.00000
    602      -7.3770      2.00000
    603      -7.3575      2.00000
    604      -7.3474      2.00000
    605      -7.3343      2.00000
    606      -7.3253      2.00000
    607      -7.3066      2.00000
    608      -7.2942      2.00000
    609      -7.2803      2.00000
    610      -7.2686      2.00000
    611      -7.2570      2.00000
    612      -7.2391      2.00000
    613      -7.2129      2.00000
    614      -7.2112      2.00000
    615      -7.1999      2.00000
    616      -7.1933      2.00000
    617      -7.1866      2.00000
    618      -7.1753      2.00000
    619      -7.1573      2.00000
    620      -7.1509      2.00000
    621      -7.1310      2.00000
    622      -7.1238      2.00000
    623      -7.1051      2.00000
    624      -7.0922      2.00000
    625      -7.0737      2.00000
    626      -7.0658      2.00000
    627      -7.0479      2.00000
    628      -7.0448      2.00000
    629      -6.9885      2.00000
    630      -6.9622      2.00000
    631      -6.9407      2.00000
    632      -6.9224      2.00000
    633      -6.8955      2.00000
    634      -6.8893      2.00000
    635      -6.8661      2.00000
    636      -6.8637      2.00000
    637      -6.8360      2.00000
    638      -6.8301      2.00000
    639      -6.8239      2.00000
    640      -6.8135      2.00000
    641      -6.7822      2.00000
    642      -6.7684      2.00000
    643      -6.6595      2.00000
    644      -6.6126      2.00000
    645      -6.5819      2.00000
    646      -6.5786      2.00000
    647      -6.5685      2.00000
    648      -6.5575      2.00000
    649      -6.5440      2.00000
    650      -6.5322      2.00000
    651      -6.5213      2.00000
    652      -6.4985      2.00000
    653      -6.4871      2.00000
    654      -6.4831      2.00000
    655      -6.4792      2.00000
    656      -6.4386      2.00000
    657      -6.4258      2.00000
    658      -6.4236      2.00000
    659      -6.3829      2.00000
    660      -6.3367      2.00000
    661      -6.3203      2.00000
    662      -6.2950      2.00000
    663      -6.2829      2.00000
    664      -6.2503      2.00000
    665      -6.2413      2.00000
    666      -6.1950      2.00000
    667      -6.1767      2.00000
    668      -6.1427      2.00000
    669      -6.1108      2.00000
    670      -6.0844      2.00000
    671      -6.0509      2.00000
    672      -6.0251      2.00000
    673      -5.9241      2.00000
    674      -5.8772      2.00000
    675      -5.8245      2.00000
    676      -5.7982      2.00000
    677      -5.7681      2.00000
    678      -5.7451      2.00000
    679      -5.7327      2.00000
    680      -5.6967      2.00000
    681      -5.6558      2.00000
    682      -5.6424      2.00000
    683      -5.6084      2.00000
    684      -5.5904      2.00000
    685      -5.5711      2.00000
    686      -5.5701      2.00000
    687      -5.5449      2.00000
    688      -5.5290      2.00000
    689      -5.5219      2.00000
    690      -5.5013      2.00000
    691      -5.4845      2.00000
    692      -5.4696      2.00000
    693      -5.4628      2.00000
    694      -5.4268      2.00000
    695      -5.4038      2.00000
    696      -5.3895      2.00000
    697      -5.3754      2.00000
    698      -5.3530      2.00000
    699      -5.3121      2.00000
    700      -5.2832      2.00000
    701      -5.2580      2.00000
    702      -5.2499      2.00000
    703      -5.2458      2.00000
    704      -5.2273      2.00000
    705      -5.2101      2.00000
    706      -5.1924      2.00000
    707      -5.1541      2.00000
    708      -5.0926      2.00000
    709      -5.0450      2.00000
    710      -5.0268      2.00000
    711      -4.9863      2.00000
    712      -4.9423      2.00000
    713      -4.8985      2.00000
    714      -4.8664      2.00000
    715      -4.8418      2.00000
    716      -4.6997      2.00000
    717      -4.6331      2.00000
    718      -4.5769      2.00000
    719      -4.4660      2.00000
    720      -4.4160      2.00000
    721      -4.3858      2.00000
    722      -4.3579      2.00000
    723      -4.3287      2.00000
    724      -4.2603      2.00000
    725      -4.1804      2.00000
    726      -4.1129      2.00000
    727      -4.0630      2.00000
    728      -3.9955      2.00000
    729      -3.8401      2.00000
    730      -3.6796      2.00000
    731      -3.6216      2.00000
    732      -2.7763      0.00000
    733      -2.6836      0.00000
    734      -2.6250      0.00000
    735      -2.3387      0.00000
    736      -2.2742      0.00000
    737      -2.2372      0.00000
    738      -2.2042      0.00000
    739      -2.1621      0.00000
    740      -2.0889      0.00000
    741      -2.0812      0.00000
    742      -1.9907      0.00000
    743      -1.9761      0.00000
    744      -1.9680      0.00000
    745      -1.9502      0.00000
    746      -1.9206      0.00000
    747      -1.8633      0.00000
    748      -1.8439      0.00000
    749      -1.8192      0.00000
    750      -1.7990      0.00000
    751      -1.7858      0.00000
    752      -1.7429      0.00000
    753      -1.6877      0.00000
    754      -1.6748      0.00000
    755      -1.6505      0.00000
    756      -1.6253      0.00000
    757      -1.6125      0.00000
    758      -1.5987      0.00000
    759      -1.5836      0.00000
    760      -1.5788      0.00000
    761      -1.5484      0.00000
    762      -1.5466      0.00000
    763      -1.5329      0.00000
    764      -1.5244      0.00000
    765      -1.5131      0.00000
    766      -1.5013      0.00000
    767      -1.4779      0.00000
    768      -1.4596      0.00000
    769      -1.4325      0.00000
    770      -1.4015      0.00000
    771      -1.3869      0.00000
    772      -1.3823      0.00000
    773      -1.3354      0.00000
    774      -1.3315      0.00000
    775      -1.3214      0.00000
    776      -1.3138      0.00000
    777      -1.2982      0.00000
    778      -1.2919      0.00000
    779      -1.2830      0.00000
    780      -1.2714      0.00000
    781      -1.2619      0.00000
    782      -1.2545      0.00000
    783      -1.2037      0.00000
    784      -1.1552      0.00000
    785      -1.0420      0.00000
    786      -0.9877      0.00000
    787      -0.9452      0.00000
    788      -0.9193      0.00000
    789      -0.9107      0.00000
    790      -0.8589      0.00000
    791      -0.8183      0.00000
    792      -0.7987      0.00000
    793      -0.7754      0.00000
    794      -0.7426      0.00000
    795      -0.6918      0.00000
    796      -0.6714      0.00000
    797      -0.6200      0.00000
    798      -0.5464      0.00000
    799      -0.4954      0.00000
    800      -0.4290      0.00000
    801      -0.3687      0.00000
    802      -0.3532      0.00000
    803      -0.3089      0.00000
    804      -0.2711      0.00000
    805      -0.2387      0.00000
    806      -0.1660      0.00000
    807      -0.1425      0.00000
    808      -0.0825      0.00000
    809      -0.0631      0.00000
    810      -0.0407      0.00000
    811      -0.0022      0.00000
    812       0.0533      0.00000
    813       0.0938      0.00000
    814       0.1122      0.00000
    815       0.1252      0.00000
    816       0.1635      0.00000
    817       0.1847      0.00000
    818       0.1907      0.00000
    819       0.2041      0.00000
    820       0.2267      0.00000
    821       0.2429      0.00000
    822       0.2639      0.00000
    823       0.2742      0.00000
    824       0.2934      0.00000
    825       0.3181      0.00000
    826       0.3370      0.00000
    827       0.3579      0.00000
    828       0.4234      0.00000
    829       0.4511      0.00000
    830       0.4751      0.00000
    831       0.4992      0.00000
    832       0.5121      0.00000
    833       0.5202      0.00000
    834       0.5327      0.00000
    835       0.5414      0.00000
    836       0.5602      0.00000
    837       0.5649      0.00000
    838       0.5807      0.00000
    839       0.5975      0.00000
    840       0.6010      0.00000
    841       0.6212      0.00000
    842       0.6230      0.00000
    843       0.6402      0.00000
    844       0.6447      0.00000
    845       0.6647      0.00000
    846       0.6855      0.00000
    847       0.8293      0.00000
    848       0.8395      0.00000
    849       0.8660      0.00000
    850       0.9005      0.00000
    851       0.9026      0.00000
    852       0.9165      0.00000
    853       0.9215      0.00000
    854       0.9275      0.00000
    855       0.9390      0.00000
    856       0.9428      0.00000
    857       0.9472      0.00000
    858       0.9619      0.00000
    859       0.9992      0.00000
    860       1.0199      0.00000
    861       1.0225      0.00000
    862       1.0353      0.00000
    863       1.0498      0.00000
    864       1.0584      0.00000
    865       1.0812      0.00000
    866       1.1280      0.00000
    867       1.1323      0.00000
    868       1.1752      0.00000
    869       1.1811      0.00000
    870       1.2174      0.00000
    871       1.2213      0.00000
    872       1.2298      0.00000
    873       1.2552      0.00000
    874       1.2621      0.00000
    875       1.2782      0.00000
    876       1.2816      0.00000
    877       1.2961      0.00000
    878       1.2989      0.00000
    879       1.3074      0.00000
    880       1.3136      0.00000
    881       1.3207      0.00000
    882       1.3220      0.00000
    883       1.3396      0.00000
    884       1.3461      0.00000
    885       1.3621      0.00000
    886       1.3738      0.00000
    887       1.3776      0.00000
    888       1.3987      0.00000
    889       1.4050      0.00000
    890       1.4540      0.00000
    891       1.4741      0.00000
    892       1.4851      0.00000
    893       1.4964      0.00000
    894       1.5053      0.00000
    895       1.5393      0.00000
    896       1.5805      0.00000

 k-point     3 :       0.0000    0.0000   -0.1111
  band No.  band energies     occupation 
      1     -22.9901      2.00000
      2     -22.9379      2.00000
      3     -22.9073      2.00000
      4     -22.7854      2.00000
      5     -22.7715      2.00000
      6     -22.7532      2.00000
      7     -22.7289      2.00000
      8     -22.7202      2.00000
      9     -22.6985      2.00000
     10     -22.6921      2.00000
     11     -22.6906      2.00000
     12     -22.5458      2.00000
     13     -22.5368      2.00000
     14     -22.4864      2.00000
     15     -22.4781      2.00000
     16     -22.4375      2.00000
     17     -22.3501      2.00000
     18     -22.2334      2.00000
     19     -22.2223      2.00000
     20     -22.1625      2.00000
     21     -22.1406      2.00000
     22     -22.1390      2.00000
     23     -22.1347      2.00000
     24     -22.1010      2.00000
     25     -22.0897      2.00000
     26     -22.0686      2.00000
     27     -22.0606      2.00000
     28     -21.9923      2.00000
     29     -21.9204      2.00000
     30     -21.9082      2.00000
     31     -21.8767      2.00000
     32     -21.8595      2.00000
     33     -21.8501      2.00000
     34     -21.7861      2.00000
     35     -21.7782      2.00000
     36     -21.6709      2.00000
     37     -21.6621      2.00000
     38     -21.6084      2.00000
     39     -21.5968      2.00000
     40     -21.5216      2.00000
     41     -21.5101      2.00000
     42     -21.4192      2.00000
     43     -21.2761      2.00000
     44     -21.2207      2.00000
     45     -21.2068      2.00000
     46     -21.1742      2.00000
     47     -21.1571      2.00000
     48     -21.1397      2.00000
     49     -21.1230      2.00000
     50     -21.0900      2.00000
     51     -21.0730      2.00000
     52     -21.0701      2.00000
     53     -21.0630      2.00000
     54     -21.0535      2.00000
     55     -21.0456      2.00000
     56     -21.0445      2.00000
     57     -21.0416      2.00000
     58     -20.9076      2.00000
     59     -20.8947      2.00000
     60     -20.8478      2.00000
     61     -20.8377      2.00000
     62     -20.7219      2.00000
     63     -20.6170      2.00000
     64     -20.5934      2.00000
     65     -20.5913      2.00000
     66     -20.5887      2.00000
     67     -20.5515      2.00000
     68     -20.5216      2.00000
     69     -20.5122      2.00000
     70     -20.5112      2.00000
     71     -20.5037      2.00000
     72     -20.4592      2.00000
     73     -20.4493      2.00000
     74     -20.3487      2.00000
     75     -20.3407      2.00000
     76     -20.1735      2.00000
     77     -20.1577      2.00000
     78     -20.0607      2.00000
     79     -20.0451      2.00000
     80     -19.9260      2.00000
     81     -19.9054      2.00000
     82     -19.9022      2.00000
     83     -19.8077      2.00000
     84     -19.7612      2.00000
     85     -19.7493      2.00000
     86     -19.7370      2.00000
     87     -19.7282      2.00000
     88     -19.7128      2.00000
     89     -19.7094      2.00000
     90     -19.7012      2.00000
     91     -19.6986      2.00000
     92     -19.6925      2.00000
     93     -19.6849      2.00000
     94     -19.6166      2.00000
     95     -19.6043      2.00000
     96     -19.5565      2.00000
     97     -19.5399      2.00000
     98     -19.5149      2.00000
     99     -19.5033      2.00000
    100     -19.4944      2.00000
    101     -19.4847      2.00000
    102     -19.4718      2.00000
    103     -19.4649      2.00000
    104     -19.2637      2.00000
    105     -19.2440      2.00000
    106     -19.1783      2.00000
    107     -19.1618      2.00000
    108     -19.1186      2.00000
    109     -19.1062      2.00000
    110     -18.9850      2.00000
    111     -18.9539      2.00000
    112     -18.9368      2.00000
    113     -18.9258      2.00000
    114     -18.9149      2.00000
    115     -18.8500      2.00000
    116     -18.8279      2.00000
    117     -18.7968      2.00000
    118     -18.7815      2.00000
    119     -18.7790      2.00000
    120     -18.7741      2.00000
    121     -18.7577      2.00000
    122     -18.7324      2.00000
    123     -18.7196      2.00000
    124     -18.5744      2.00000
    125     -18.5632      2.00000
    126     -18.3580      2.00000
    127     -18.2988      2.00000
    128     -18.2647      2.00000
    129     -18.2237      2.00000
    130     -18.2162      2.00000
    131     -18.1811      2.00000
    132     -18.1800      2.00000
    133     -18.1699      2.00000
    134     -18.1678      2.00000
    135     -18.1663      2.00000
    136     -18.1401      2.00000
    137     -18.1224      2.00000
    138     -18.1080      2.00000
    139     -18.0937      2.00000
    140     -18.0404      2.00000
    141     -18.0208      2.00000
    142     -18.0143      2.00000
    143     -18.0084      2.00000
    144     -17.9850      2.00000
    145     -17.9613      2.00000
    146     -17.9557      2.00000
    147     -17.9287      2.00000
    148     -17.9015      2.00000
    149     -17.8038      2.00000
    150     -17.7807      2.00000
    151     -17.7362      2.00000
    152     -17.7189      2.00000
    153     -17.6908      2.00000
    154     -17.6813      2.00000
    155     -17.6707      2.00000
    156     -17.6371      2.00000
    157     -17.5979      2.00000
    158     -17.5840      2.00000
    159     -17.5590      2.00000
    160     -17.5578      2.00000
    161     -17.5506      2.00000
    162     -17.5398      2.00000
    163     -17.5278      2.00000
    164     -17.5227      2.00000
    165     -17.3957      2.00000
    166     -17.3382      2.00000
    167     -17.3106      2.00000
    168     -17.2828      2.00000
    169     -17.2344      2.00000
    170     -17.1809      2.00000
    171     -17.1111      2.00000
    172     -17.0770      2.00000
    173     -16.9103      2.00000
    174     -16.8603      2.00000
    175     -16.8097      2.00000
    176     -16.8051      2.00000
    177     -16.7411      2.00000
    178     -16.7046      2.00000
    179     -16.6796      2.00000
    180     -16.6544      2.00000
    181     -16.5457      2.00000
    182     -16.5048      2.00000
    183     -16.4712      2.00000
    184     -16.3927      2.00000
    185     -16.3044      2.00000
    186     -16.2849      2.00000
    187     -16.2364      2.00000
    188     -16.1106      2.00000
    189     -16.0737      2.00000
    190     -16.0117      2.00000
    191     -16.0019      2.00000
    192     -15.9637      2.00000
    193     -15.8613      2.00000
    194     -15.8497      2.00000
    195     -15.8282      2.00000
    196     -15.8174      2.00000
    197     -15.8162      2.00000
    198     -15.8053      2.00000
    199     -15.7959      2.00000
    200     -15.7891      2.00000
    201     -15.7840      2.00000
    202     -15.7799      2.00000
    203     -15.7730      2.00000
    204     -15.7606      2.00000
    205     -15.7223      2.00000
    206     -15.6819      2.00000
    207     -15.6744      2.00000
    208     -15.6669      2.00000
    209     -15.6423      2.00000
    210     -15.6286      2.00000
    211     -15.6133      2.00000
    212     -15.5965      2.00000
    213     -15.5852      2.00000
    214     -15.5715      2.00000
    215     -15.5585      2.00000
    216     -15.5016      2.00000
    217     -15.4521      2.00000
    218     -15.4326      2.00000
    219     -15.4212      2.00000
    220     -15.4061      2.00000
    221     -15.3769      2.00000
    222     -15.3342      2.00000
    223     -15.2856      2.00000
    224     -15.2805      2.00000
    225     -15.2794      2.00000
    226     -15.2633      2.00000
    227     -15.2315      2.00000
    228     -15.1729      2.00000
    229     -15.1104      2.00000
    230     -15.0528      2.00000
    231     -15.0417      2.00000
    232     -15.0206      2.00000
    233     -14.9521      2.00000
    234     -14.9381      2.00000
    235     -14.8931      2.00000
    236     -14.8785      2.00000
    237     -14.8553      2.00000
    238     -14.8029      2.00000
    239     -14.7392      2.00000
    240     -14.7002      2.00000
    241     -14.6925      2.00000
    242     -14.6811      2.00000
    243     -14.6537      2.00000
    244     -14.6322      2.00000
    245     -14.5747      2.00000
    246     -14.4957      2.00000
    247     -14.4626      2.00000
    248     -14.4174      2.00000
    249     -14.3802      2.00000
    250     -14.2501      2.00000
    251     -14.1823      2.00000
    252     -14.0659      2.00000
    253     -13.8249      2.00000
    254     -13.8079      2.00000
    255     -13.8053      2.00000
    256     -13.8015      2.00000
    257     -13.7985      2.00000
    258     -13.7866      2.00000
    259     -13.7769      2.00000
    260     -13.7663      2.00000
    261     -13.7557      2.00000
    262     -13.7419      2.00000
    263     -13.7383      2.00000
    264     -13.7276      2.00000
    265     -13.7211      2.00000
    266     -13.7081      2.00000
    267     -13.7054      2.00000
    268     -13.6866      2.00000
    269     -13.6836      2.00000
    270     -13.6583      2.00000
    271     -13.6295      2.00000
    272     -13.5928      2.00000
    273     -13.5579      2.00000
    274     -13.5508      2.00000
    275     -13.5479      2.00000
    276     -13.5408      2.00000
    277     -13.5083      2.00000
    278     -13.4917      2.00000
    279     -13.4827      2.00000
    280     -13.4424      2.00000
    281     -13.4367      2.00000
    282     -13.4280      2.00000
    283     -13.3960      2.00000
    284     -13.3517      2.00000
    285     -13.3507      2.00000
    286     -13.2917      2.00000
    287     -13.2789      2.00000
    288     -13.2757      2.00000
    289     -13.2542      2.00000
    290     -13.2258      2.00000
    291     -13.2228      2.00000
    292     -13.2150      2.00000
    293     -13.2100      2.00000
    294     -13.0571      2.00000
    295     -12.9099      2.00000
    296     -12.7790      2.00000
    297     -12.7717      2.00000
    298     -12.7143      2.00000
    299     -12.6599      2.00000
    300     -12.6501      2.00000
    301     -12.5971      2.00000
    302     -12.5522      2.00000
    303     -12.5511      2.00000
    304     -12.5473      2.00000
    305     -12.4585      2.00000
    306     -12.4215      2.00000
    307     -12.4097      2.00000
    308     -12.4041      2.00000
    309     -12.4008      2.00000
    310     -12.3969      2.00000
    311     -12.3913      2.00000
    312     -12.3369      2.00000
    313     -12.2944      2.00000
    314     -12.2801      2.00000
    315     -12.2755      2.00000
    316     -12.2328      2.00000
    317     -12.2070      2.00000
    318     -12.2065      2.00000
    319     -12.2036      2.00000
    320     -12.1551      2.00000
    321     -12.0670      2.00000
    322     -12.0483      2.00000
    323     -12.0115      2.00000
    324     -11.9628      2.00000
    325     -11.9537      2.00000
    326     -11.9419      2.00000
    327     -11.8714      2.00000
    328     -11.8165      2.00000
    329     -11.8016      2.00000
    330     -11.7806      2.00000
    331     -11.7623      2.00000
    332     -11.7573      2.00000
    333     -11.7493      2.00000
    334     -11.7177      2.00000
    335     -11.7085      2.00000
    336     -11.6941      2.00000
    337     -11.6693      2.00000
    338     -11.6599      2.00000
    339     -11.6296      2.00000
    340     -11.6186      2.00000
    341     -11.5805      2.00000
    342     -11.5758      2.00000
    343     -11.5677      2.00000
    344     -11.5496      2.00000
    345     -11.4782      2.00000
    346     -11.4684      2.00000
    347     -11.4644      2.00000
    348     -11.4571      2.00000
    349     -11.4510      2.00000
    350     -11.4296      2.00000
    351     -11.4009      2.00000
    352     -11.3920      2.00000
    353     -11.3850      2.00000
    354     -11.3452      2.00000
    355     -11.3414      2.00000
    356     -11.3381      2.00000
    357     -11.3236      2.00000
    358     -11.2867      2.00000
    359     -11.2807      2.00000
    360     -11.2281      2.00000
    361     -11.2149      2.00000
    362     -11.1923      2.00000
    363     -11.1862      2.00000
    364     -11.1760      2.00000
    365     -11.1008      2.00000
    366     -11.0962      2.00000
    367     -11.0908      2.00000
    368     -11.0817      2.00000
    369     -11.0398      2.00000
    370     -11.0349      2.00000
    371     -11.0187      2.00000
    372     -11.0045      2.00000
    373     -10.9518      2.00000
    374     -10.8981      2.00000
    375     -10.8613      2.00000
    376     -10.8557      2.00000
    377     -10.8301      2.00000
    378     -10.8232      2.00000
    379     -10.8030      2.00000
    380     -10.7961      2.00000
    381     -10.7896      2.00000
    382     -10.7714      2.00000
    383     -10.7654      2.00000
    384     -10.7564      2.00000
    385     -10.7503      2.00000
    386     -10.7368      2.00000
    387     -10.7237      2.00000
    388     -10.7117      2.00000
    389     -10.7046      2.00000
    390     -10.6618      2.00000
    391     -10.6483      2.00000
    392     -10.6268      2.00000
    393     -10.6082      2.00000
    394     -10.6035      2.00000
    395     -10.5961      2.00000
    396     -10.5857      2.00000
    397     -10.5826      2.00000
    398     -10.5417      2.00000
    399     -10.5369      2.00000
    400     -10.5197      2.00000
    401     -10.4721      2.00000
    402     -10.4664      2.00000
    403     -10.4140      2.00000
    404     -10.4082      2.00000
    405     -10.3873      2.00000
    406     -10.3756      2.00000
    407     -10.3603      2.00000
    408     -10.3485      2.00000
    409     -10.3428      2.00000
    410     -10.3325      2.00000
    411     -10.3256      2.00000
    412     -10.3219      2.00000
    413     -10.3163      2.00000
    414     -10.3110      2.00000
    415     -10.3018      2.00000
    416     -10.2979      2.00000
    417     -10.2976      2.00000
    418     -10.2914      2.00000
    419     -10.2878      2.00000
    420     -10.2727      2.00000
    421     -10.2705      2.00000
    422     -10.2667      2.00000
    423     -10.2455      2.00000
    424     -10.2415      2.00000
    425     -10.2275      2.00000
    426     -10.2248      2.00000
    427     -10.2187      2.00000
    428     -10.2136      2.00000
    429     -10.2100      2.00000
    430     -10.2052      2.00000
    431     -10.1942      2.00000
    432     -10.1902      2.00000
    433     -10.1791      2.00000
    434     -10.1686      2.00000
    435     -10.1578      2.00000
    436     -10.1502      2.00000
    437     -10.1367      2.00000
    438     -10.1290      2.00000
    439     -10.1229      2.00000
    440     -10.1153      2.00000
    441     -10.1121      2.00000
    442     -10.0977      2.00000
    443     -10.0892      2.00000
    444     -10.0521      2.00000
    445     -10.0443      2.00000
    446     -10.0319      2.00000
    447     -10.0275      2.00000
    448     -10.0225      2.00000
    449      -9.9895      2.00000
    450      -9.9797      2.00000
    451      -9.9658      2.00000
    452      -9.9608      2.00000
    453      -9.9229      2.00000
    454      -9.8841      2.00000
    455      -9.8552      2.00000
    456      -9.8525      2.00000
    457      -9.8328      2.00000
    458      -9.8183      2.00000
    459      -9.8081      2.00000
    460      -9.8006      2.00000
    461      -9.7866      2.00000
    462      -9.7464      2.00000
    463      -9.7347      2.00000
    464      -9.7180      2.00000
    465      -9.6944      2.00000
    466      -9.6838      2.00000
    467      -9.6757      2.00000
    468      -9.6447      2.00000
    469      -9.6430      2.00000
    470      -9.6319      2.00000
    471      -9.6046      2.00000
    472      -9.5968      2.00000
    473      -9.5874      2.00000
    474      -9.5756      2.00000
    475      -9.5728      2.00000
    476      -9.5358      2.00000
    477      -9.5249      2.00000
    478      -9.5126      2.00000
    479      -9.5044      2.00000
    480      -9.5015      2.00000
    481      -9.4819      2.00000
    482      -9.4724      2.00000
    483      -9.4532      2.00000
    484      -9.4419      2.00000
    485      -9.4344      2.00000
    486      -9.4269      2.00000
    487      -9.4109      2.00000
    488      -9.3917      2.00000
    489      -9.3795      2.00000
    490      -9.3715      2.00000
    491      -9.3616      2.00000
    492      -9.3586      2.00000
    493      -9.3504      2.00000
    494      -9.3383      2.00000
    495      -9.3329      2.00000
    496      -9.3059      2.00000
    497      -9.2986      2.00000
    498      -9.2924      2.00000
    499      -9.2849      2.00000
    500      -9.2473      2.00000
    501      -9.2401      2.00000
    502      -9.2327      2.00000
    503      -9.2112      2.00000
    504      -9.2016      2.00000
    505      -9.1912      2.00000
    506      -9.1811      2.00000
    507      -9.1664      2.00000
    508      -9.1632      2.00000
    509      -9.1577      2.00000
    510      -9.1413      2.00000
    511      -9.1116      2.00000
    512      -9.0051      2.00000
    513      -8.9717      2.00000
    514      -8.9662      2.00000
    515      -8.9280      2.00000
    516      -8.9185      2.00000
    517      -8.9135      2.00000
    518      -8.8566      2.00000
    519      -8.8324      2.00000
    520      -8.8094      2.00000
    521      -8.7956      2.00000
    522      -8.7875      2.00000
    523      -8.7836      2.00000
    524      -8.7823      2.00000
    525      -8.7562      2.00000
    526      -8.7378      2.00000
    527      -8.7319      2.00000
    528      -8.6828      2.00000
    529      -8.6599      2.00000
    530      -8.6216      2.00000
    531      -8.6085      2.00000
    532      -8.5905      2.00000
    533      -8.5710      2.00000
    534      -8.5632      2.00000
    535      -8.5271      2.00000
    536      -8.5172      2.00000
    537      -8.5023      2.00000
    538      -8.4907      2.00000
    539      -8.4880      2.00000
    540      -8.4821      2.00000
    541      -8.4531      2.00000
    542      -8.4398      2.00000
    543      -8.4342      2.00000
    544      -8.4224      2.00000
    545      -8.4164      2.00000
    546      -8.3846      2.00000
    547      -8.3671      2.00000
    548      -8.3587      2.00000
    549      -8.3522      2.00000
    550      -8.3414      2.00000
    551      -8.3326      2.00000
    552      -8.3139      2.00000
    553      -8.3106      2.00000
    554      -8.2912      2.00000
    555      -8.2885      2.00000
    556      -8.2798      2.00000
    557      -8.2723      2.00000
    558      -8.2669      2.00000
    559      -8.2512      2.00000
    560      -8.1926      2.00000
    561      -8.1844      2.00000
    562      -8.1643      2.00000
    563      -8.1582      2.00000
    564      -8.1341      2.00000
    565      -8.1087      2.00000
    566      -8.1004      2.00000
    567      -8.0751      2.00000
    568      -8.0597      2.00000
    569      -8.0402      2.00000
    570      -8.0353      2.00000
    571      -8.0314      2.00000
    572      -8.0217      2.00000
    573      -8.0190      2.00000
    574      -8.0027      2.00000
    575      -7.9752      2.00000
    576      -7.9494      2.00000
    577      -7.9346      2.00000
    578      -7.9266      2.00000
    579      -7.9129      2.00000
    580      -7.9080      2.00000
    581      -7.9004      2.00000
    582      -7.8903      2.00000
    583      -7.8268      2.00000
    584      -7.7944      2.00000
    585      -7.7620      2.00000
    586      -7.7375      2.00000
    587      -7.7207      2.00000
    588      -7.6893      2.00000
    589      -7.6403      2.00000
    590      -7.6365      2.00000
    591      -7.6005      2.00000
    592      -7.5812      2.00000
    593      -7.5657      2.00000
    594      -7.5565      2.00000
    595      -7.5356      2.00000
    596      -7.5007      2.00000
    597      -7.4889      2.00000
    598      -7.4806      2.00000
    599      -7.4581      2.00000
    600      -7.4453      2.00000
    601      -7.4136      2.00000
    602      -7.4094      2.00000
    603      -7.3872      2.00000
    604      -7.3609      2.00000
    605      -7.3442      2.00000
    606      -7.3126      2.00000
    607      -7.3002      2.00000
    608      -7.2905      2.00000
    609      -7.2733      2.00000
    610      -7.2669      2.00000
    611      -7.2575      2.00000
    612      -7.2454      2.00000
    613      -7.2404      2.00000
    614      -7.2241      2.00000
    615      -7.2197      2.00000
    616      -7.1953      2.00000
    617      -7.1811      2.00000
    618      -7.1757      2.00000
    619      -7.1413      2.00000
    620      -7.1324      2.00000
    621      -7.1290      2.00000
    622      -7.0968      2.00000
    623      -7.0808      2.00000
    624      -7.0767      2.00000
    625      -7.0565      2.00000
    626      -7.0440      2.00000
    627      -7.0420      2.00000
    628      -7.0321      2.00000
    629      -7.0131      2.00000
    630      -6.9926      2.00000
    631      -6.9655      2.00000
    632      -6.9028      2.00000
    633      -6.8916      2.00000
    634      -6.8719      2.00000
    635      -6.8642      2.00000
    636      -6.8524      2.00000
    637      -6.8431      2.00000
    638      -6.8366      2.00000
    639      -6.8201      2.00000
    640      -6.8134      2.00000
    641      -6.7636      2.00000
    642      -6.7486      2.00000
    643      -6.6871      2.00000
    644      -6.6324      2.00000
    645      -6.5966      2.00000
    646      -6.5830      2.00000
    647      -6.5821      2.00000
    648      -6.5699      2.00000
    649      -6.5618      2.00000
    650      -6.5268      2.00000
    651      -6.5218      2.00000
    652      -6.5158      2.00000
    653      -6.4852      2.00000
    654      -6.4638      2.00000
    655      -6.4548      2.00000
    656      -6.4495      2.00000
    657      -6.4243      2.00000
    658      -6.4098      2.00000
    659      -6.3997      2.00000
    660      -6.3564      2.00000
    661      -6.3363      2.00000
    662      -6.3109      2.00000
    663      -6.2826      2.00000
    664      -6.2469      2.00000
    665      -6.2163      2.00000
    666      -6.1851      2.00000
    667      -6.1520      2.00000
    668      -6.1356      2.00000
    669      -6.1077      2.00000
    670      -6.0832      2.00000
    671      -6.0249      2.00000
    672      -6.0017      2.00000
    673      -5.9416      2.00000
    674      -5.8941      2.00000
    675      -5.8327      2.00000
    676      -5.8145      2.00000
    677      -5.7620      2.00000
    678      -5.7523      2.00000
    679      -5.7033      2.00000
    680      -5.7017      2.00000
    681      -5.6483      2.00000
    682      -5.6309      2.00000
    683      -5.6131      2.00000
    684      -5.5913      2.00000
    685      -5.5784      2.00000
    686      -5.5680      2.00000
    687      -5.5624      2.00000
    688      -5.5322      2.00000
    689      -5.5162      2.00000
    690      -5.4970      2.00000
    691      -5.4801      2.00000
    692      -5.4673      2.00000
    693      -5.4532      2.00000
    694      -5.4487      2.00000
    695      -5.4361      2.00000
    696      -5.4137      2.00000
    697      -5.3758      2.00000
    698      -5.3612      2.00000
    699      -5.2997      2.00000
    700      -5.2971      2.00000
    701      -5.2728      2.00000
    702      -5.2469      2.00000
    703      -5.2331      2.00000
    704      -5.2100      2.00000
    705      -5.1989      2.00000
    706      -5.1809      2.00000
    707      -5.1119      2.00000
    708      -5.1062      2.00000
    709      -5.0559      2.00000
    710      -5.0213      2.00000
    711      -4.9718      2.00000
    712      -4.9525      2.00000
    713      -4.8813      2.00000
    714      -4.8790      2.00000
    715      -4.8344      2.00000
    716      -4.7031      2.00000
    717      -4.6578      2.00000
    718      -4.5506      2.00000
    719      -4.4847      2.00000
    720      -4.4322      2.00000
    721      -4.4149      2.00000
    722      -4.3660      2.00000
    723      -4.3097      2.00000
    724      -4.2184      2.00000
    725      -4.1806      2.00000
    726      -4.1132      2.00000
    727      -4.0876      2.00000
    728      -3.9700      2.00000
    729      -3.8406      2.00000
    730      -3.6864      2.00000
    731      -3.6270      2.00000
    732      -2.7719      0.00000
    733      -2.6811      0.00000
    734      -2.6191      0.00000
    735      -2.3688      0.00000
    736      -2.2458      0.00000
    737      -2.2421      0.00000
    738      -2.2191      0.00000
    739      -2.1828      0.00000
    740      -2.0909      0.00000
    741      -2.0405      0.00000
    742      -1.9799      0.00000
    743      -1.9730      0.00000
    744      -1.9636      0.00000
    745      -1.9480      0.00000
    746      -1.9173      0.00000
    747      -1.8780      0.00000
    748      -1.8640      0.00000
    749      -1.8012      0.00000
    750      -1.7842      0.00000
    751      -1.7793      0.00000
    752      -1.7401      0.00000
    753      -1.7145      0.00000
    754      -1.6873      0.00000
    755      -1.6771      0.00000
    756      -1.6548      0.00000
    757      -1.6316      0.00000
    758      -1.5962      0.00000
    759      -1.5739      0.00000
    760      -1.5601      0.00000
    761      -1.5478      0.00000
    762      -1.5302      0.00000
    763      -1.5211      0.00000
    764      -1.5137      0.00000
    765      -1.5102      0.00000
    766      -1.4921      0.00000
    767      -1.4707      0.00000
    768      -1.4623      0.00000
    769      -1.4297      0.00000
    770      -1.4053      0.00000
    771      -1.3947      0.00000
    772      -1.3825      0.00000
    773      -1.3435      0.00000
    774      -1.3299      0.00000
    775      -1.3213      0.00000
    776      -1.3091      0.00000
    777      -1.2953      0.00000
    778      -1.2895      0.00000
    779      -1.2821      0.00000
    780      -1.2710      0.00000
    781      -1.2646      0.00000
    782      -1.2448      0.00000
    783      -1.2032      0.00000
    784      -1.1134      0.00000
    785      -1.0613      0.00000
    786      -1.0251      0.00000
    787      -0.9659      0.00000
    788      -0.9318      0.00000
    789      -0.8891      0.00000
    790      -0.8733      0.00000
    791      -0.8319      0.00000
    792      -0.8219      0.00000
    793      -0.7708      0.00000
    794      -0.7288      0.00000
    795      -0.6697      0.00000
    796      -0.6226      0.00000
    797      -0.6125      0.00000
    798      -0.5789      0.00000
    799      -0.4889      0.00000
    800      -0.4002      0.00000
    801      -0.3979      0.00000
    802      -0.3487      0.00000
    803      -0.3019      0.00000
    804      -0.2770      0.00000
    805      -0.2394      0.00000
    806      -0.1570      0.00000
    807      -0.1357      0.00000
    808      -0.0744      0.00000
    809      -0.0634      0.00000
    810      -0.0374      0.00000
    811      -0.0215      0.00000
    812       0.0284      0.00000
    813       0.0713      0.00000
    814       0.1035      0.00000
    815       0.1259      0.00000
    816       0.1414      0.00000
    817       0.1694      0.00000
    818       0.1717      0.00000
    819       0.2074      0.00000
    820       0.2442      0.00000
    821       0.2508      0.00000
    822       0.2817      0.00000
    823       0.2954      0.00000
    824       0.3098      0.00000
    825       0.3245      0.00000
    826       0.3470      0.00000
    827       0.3687      0.00000
    828       0.4307      0.00000
    829       0.4592      0.00000
    830       0.4722      0.00000
    831       0.4887      0.00000
    832       0.5048      0.00000
    833       0.5211      0.00000
    834       0.5354      0.00000
    835       0.5377      0.00000
    836       0.5616      0.00000
    837       0.5658      0.00000
    838       0.5805      0.00000
    839       0.5874      0.00000
    840       0.5950      0.00000
    841       0.6097      0.00000
    842       0.6346      0.00000
    843       0.6362      0.00000
    844       0.6751      0.00000
    845       0.6769      0.00000
    846       0.7148      0.00000
    847       0.7788      0.00000
    848       0.8393      0.00000
    849       0.8471      0.00000
    850       0.8827      0.00000
    851       0.8984      0.00000
    852       0.9117      0.00000
    853       0.9175      0.00000
    854       0.9291      0.00000
    855       0.9427      0.00000
    856       0.9537      0.00000
    857       0.9632      0.00000
    858       0.9859      0.00000
    859       1.0034      0.00000
    860       1.0141      0.00000
    861       1.0275      0.00000
    862       1.0394      0.00000
    863       1.0550      0.00000
    864       1.0890      0.00000
    865       1.1250      0.00000
    866       1.1615      0.00000
    867       1.1726      0.00000
    868       1.1905      0.00000
    869       1.2178      0.00000
    870       1.2193      0.00000
    871       1.2346      0.00000
    872       1.2416      0.00000
    873       1.2566      0.00000
    874       1.2623      0.00000
    875       1.2796      0.00000
    876       1.2927      0.00000
    877       1.2981      0.00000
    878       1.3133      0.00000
    879       1.3181      0.00000
    880       1.3300      0.00000
    881       1.3373      0.00000
    882       1.3422      0.00000
    883       1.3465      0.00000
    884       1.3573      0.00000
    885       1.3759      0.00000
    886       1.3852      0.00000
    887       1.4003      0.00000
    888       1.4119      0.00000
    889       1.4294      0.00000
    890       1.4498      0.00000
    891       1.4775      0.00000
    892       1.4950      0.00000
    893       1.4991      0.00000
    894       1.5207      0.00000
    895       1.5455      0.00000
    896       1.5851      0.00000

 k-point     4 :       0.0000    0.0000   -0.1667
  band No.  band energies     occupation 
      1     -22.9892      2.00000
      2     -22.9439      2.00000
      3     -22.8993      2.00000
      4     -22.7854      2.00000
      5     -22.7705      2.00000
      6     -22.7656      2.00000
      7     -22.7344      2.00000
      8     -22.7264      2.00000
      9     -22.6902      2.00000
     10     -22.6824      2.00000
     11     -22.6774      2.00000
     12     -22.5590      2.00000
     13     -22.5504      2.00000
     14     -22.4720      2.00000
     15     -22.4625      2.00000
     16     -22.4575      2.00000
     17     -22.3273      2.00000
     18     -22.2533      2.00000
     19     -22.2432      2.00000
     20     -22.1598      2.00000
     21     -22.1396      2.00000
     22     -22.1207      2.00000
     23     -22.1119      2.00000
     24     -22.1047      2.00000
     25     -22.0960      2.00000
     26     -22.0612      2.00000
     27     -22.0523      2.00000
     28     -22.0201      2.00000
     29     -21.9333      2.00000
     30     -21.9217      2.00000
     31     -21.8511      2.00000
     32     -21.8409      2.00000
     33     -21.8347      2.00000
     34     -21.8132      2.00000
     35     -21.8062      2.00000
     36     -21.6432      2.00000
     37     -21.6321      2.00000
     38     -21.6268      2.00000
     39     -21.6174      2.00000
     40     -21.4995      2.00000
     41     -21.4874      2.00000
     42     -21.4539      2.00000
     43     -21.2570      2.00000
     44     -21.2418      2.00000
     45     -21.2362      2.00000
     46     -21.1989      2.00000
     47     -21.1848      2.00000
     48     -21.1419      2.00000
     49     -21.1220      2.00000
     50     -21.0917      2.00000
     51     -21.0791      2.00000
     52     -21.0506      2.00000
     53     -21.0363      2.00000
     54     -21.0319      2.00000
     55     -21.0262      2.00000
     56     -21.0183      2.00000
     57     -21.0120      2.00000
     58     -20.9198      2.00000
     59     -20.9079      2.00000
     60     -20.8335      2.00000
     61     -20.8224      2.00000
     62     -20.7633      2.00000
     63     -20.6452      2.00000
     64     -20.6266      2.00000
     65     -20.6175      2.00000
     66     -20.6092      2.00000
     67     -20.5613      2.00000
     68     -20.5532      2.00000
     69     -20.5084      2.00000
     70     -20.4917      2.00000
     71     -20.4816      2.00000
     72     -20.4237      2.00000
     73     -20.4129      2.00000
     74     -20.3058      2.00000
     75     -20.2971      2.00000
     76     -20.1997      2.00000
     77     -20.1849      2.00000
     78     -20.0338      2.00000
     79     -20.0161      2.00000
     80     -19.9650      2.00000
     81     -19.9493      2.00000
     82     -19.9463      2.00000
     83     -19.8088      2.00000
     84     -19.7602      2.00000
     85     -19.7545      2.00000
     86     -19.7469      2.00000
     87     -19.7332      2.00000
     88     -19.7186      2.00000
     89     -19.7048      2.00000
     90     -19.6942      2.00000
     91     -19.6858      2.00000
     92     -19.6770      2.00000
     93     -19.6571      2.00000
     94     -19.6468      2.00000
     95     -19.6379      2.00000
     96     -19.5675      2.00000
     97     -19.5527      2.00000
     98     -19.4888      2.00000
     99     -19.4699      2.00000
    100     -19.4602      2.00000
    101     -19.4534      2.00000
    102     -19.4370      2.00000
    103     -19.4294      2.00000
    104     -19.2818      2.00000
    105     -19.2636      2.00000
    106     -19.1716      2.00000
    107     -19.1535      2.00000
    108     -19.1510      2.00000
    109     -19.1402      2.00000
    110     -19.0353      2.00000
    111     -18.9913      2.00000
    112     -18.9765      2.00000
    113     -18.8924      2.00000
    114     -18.8675      2.00000
    115     -18.8652      2.00000
    116     -18.8540      2.00000
    117     -18.8388      2.00000
    118     -18.8331      2.00000
    119     -18.7516      2.00000
    120     -18.7333      2.00000
    121     -18.7089      2.00000
    122     -18.6990      2.00000
    123     -18.6916      2.00000
    124     -18.5219      2.00000
    125     -18.5085      2.00000
    126     -18.3782      2.00000
    127     -18.3309      2.00000
    128     -18.2949      2.00000
    129     -18.2708      2.00000
    130     -18.2534      2.00000
    131     -18.2230      2.00000
    132     -18.2112      2.00000
    133     -18.1671      2.00000
    134     -18.1517      2.00000
    135     -18.1349      2.00000
    136     -18.1333      2.00000
    137     -18.1269      2.00000
    138     -18.1032      2.00000
    139     -18.0864      2.00000
    140     -18.0251      2.00000
    141     -18.0042      2.00000
    142     -17.9841      2.00000
    143     -17.9732      2.00000
    144     -17.9679      2.00000
    145     -17.9666      2.00000
    146     -17.9644      2.00000
    147     -17.9175      2.00000
    148     -17.8878      2.00000
    149     -17.8553      2.00000
    150     -17.8365      2.00000
    151     -17.7494      2.00000
    152     -17.7200      2.00000
    153     -17.7150      2.00000
    154     -17.6911      2.00000
    155     -17.6686      2.00000
    156     -17.6213      2.00000
    157     -17.5775      2.00000
    158     -17.5715      2.00000
    159     -17.5546      2.00000
    160     -17.5396      2.00000
    161     -17.5296      2.00000
    162     -17.5228      2.00000
    163     -17.4989      2.00000
    164     -17.4927      2.00000
    165     -17.4278      2.00000
    166     -17.3598      2.00000
    167     -17.3074      2.00000
    168     -17.3012      2.00000
    169     -17.2128      2.00000
    170     -17.1566      2.00000
    171     -17.1262      2.00000
    172     -17.0856      2.00000
    173     -16.9648      2.00000
    174     -16.8883      2.00000
    175     -16.8514      2.00000
    176     -16.8350      2.00000
    177     -16.7167      2.00000
    178     -16.6800      2.00000
    179     -16.6286      2.00000
    180     -16.6268      2.00000
    181     -16.5312      2.00000
    182     -16.4962      2.00000
    183     -16.4470      2.00000
    184     -16.3938      2.00000
    185     -16.3130      2.00000
    186     -16.2738      2.00000
    187     -16.2282      2.00000
    188     -16.1203      2.00000
    189     -16.0944      2.00000
    190     -16.0529      2.00000
    191     -15.9955      2.00000
    192     -15.9742      2.00000
    193     -15.8852      2.00000
    194     -15.8665      2.00000
    195     -15.8585      2.00000
    196     -15.8447      2.00000
    197     -15.8273      2.00000
    198     -15.8193      2.00000
    199     -15.8136      2.00000
    200     -15.7969      2.00000
    201     -15.7873      2.00000
    202     -15.7794      2.00000
    203     -15.7446      2.00000
    204     -15.7283      2.00000
    205     -15.7043      2.00000
    206     -15.6869      2.00000
    207     -15.6818      2.00000
    208     -15.6803      2.00000
    209     -15.6306      2.00000
    210     -15.6169      2.00000
    211     -15.5840      2.00000
    212     -15.5467      2.00000
    213     -15.5288      2.00000
    214     -15.5257      2.00000
    215     -15.5201      2.00000
    216     -15.4961      2.00000
    217     -15.4665      2.00000
    218     -15.4635      2.00000
    219     -15.4483      2.00000
    220     -15.3986      2.00000
    221     -15.3744      2.00000
    222     -15.3398      2.00000
    223     -15.3252      2.00000
    224     -15.2895      2.00000
    225     -15.2815      2.00000
    226     -15.2486      2.00000
    227     -15.2202      2.00000
    228     -15.1706      2.00000
    229     -15.1231      2.00000
    230     -15.0326      2.00000
    231     -15.0147      2.00000
    232     -15.0091      2.00000
    233     -14.9831      2.00000
    234     -14.9741      2.00000
    235     -14.9193      2.00000
    236     -14.8988      2.00000
    237     -14.8820      2.00000
    238     -14.8508      2.00000
    239     -14.7937      2.00000
    240     -14.7484      2.00000
    241     -14.6981      2.00000
    242     -14.6360      2.00000
    243     -14.6266      2.00000
    244     -14.5796      2.00000
    245     -14.5192      2.00000
    246     -14.4426      2.00000
    247     -14.4293      2.00000
    248     -14.4091      2.00000
    249     -14.3505      2.00000
    250     -14.3002      2.00000
    251     -14.1318      2.00000
    252     -14.0250      2.00000
    253     -13.8706      2.00000
    254     -13.8658      2.00000
    255     -13.8489      2.00000
    256     -13.8219      2.00000
    257     -13.8106      2.00000
    258     -13.8064      2.00000
    259     -13.8027      2.00000
    260     -13.7998      2.00000
    261     -13.7804      2.00000
    262     -13.7693      2.00000
    263     -13.7633      2.00000
    264     -13.7348      2.00000
    265     -13.7310      2.00000
    266     -13.7180      2.00000
    267     -13.7025      2.00000
    268     -13.6874      2.00000
    269     -13.6811      2.00000
    270     -13.6468      2.00000
    271     -13.6378      2.00000
    272     -13.5822      2.00000
    273     -13.5498      2.00000
    274     -13.5118      2.00000
    275     -13.4995      2.00000
    276     -13.4956      2.00000
    277     -13.4914      2.00000
    278     -13.4764      2.00000
    279     -13.4666      2.00000
    280     -13.4511      2.00000
    281     -13.4400      2.00000
    282     -13.4283      2.00000
    283     -13.3857      2.00000
    284     -13.3791      2.00000
    285     -13.3613      2.00000
    286     -13.2829      2.00000
    287     -13.2788      2.00000
    288     -13.2720      2.00000
    289     -13.2428      2.00000
    290     -13.2056      2.00000
    291     -13.1928      2.00000
    292     -13.1588      2.00000
    293     -13.1571      2.00000
    294     -13.0123      2.00000
    295     -12.9429      2.00000
    296     -12.8356      2.00000
    297     -12.7539      2.00000
    298     -12.7361      2.00000
    299     -12.7253      2.00000
    300     -12.7117      2.00000
    301     -12.6617      2.00000
    302     -12.6186      2.00000
    303     -12.5207      2.00000
    304     -12.5104      2.00000
    305     -12.4909      2.00000
    306     -12.4572      2.00000
    307     -12.4482      2.00000
    308     -12.4205      2.00000
    309     -12.3931      2.00000
    310     -12.3552      2.00000
    311     -12.3507      2.00000
    312     -12.3298      2.00000
    313     -12.2973      2.00000
    314     -12.2739      2.00000
    315     -12.2714      2.00000
    316     -12.2077      2.00000
    317     -12.1837      2.00000
    318     -12.1635      2.00000
    319     -12.1431      2.00000
    320     -12.0943      2.00000
    321     -12.0558      2.00000
    322     -12.0250      2.00000
    323     -11.9873      2.00000
    324     -11.9863      2.00000
    325     -11.9590      2.00000
    326     -11.9454      2.00000
    327     -11.8979      2.00000
    328     -11.8179      2.00000
    329     -11.8005      2.00000
    330     -11.7770      2.00000
    331     -11.7639      2.00000
    332     -11.7483      2.00000
    333     -11.7385      2.00000
    334     -11.7333      2.00000
    335     -11.7114      2.00000
    336     -11.6758      2.00000
    337     -11.6687      2.00000
    338     -11.6579      2.00000
    339     -11.6317      2.00000
    340     -11.6193      2.00000
    341     -11.6161      2.00000
    342     -11.5740      2.00000
    343     -11.5538      2.00000
    344     -11.5447      2.00000
    345     -11.5261      2.00000
    346     -11.5039      2.00000
    347     -11.4940      2.00000
    348     -11.4810      2.00000
    349     -11.4474      2.00000
    350     -11.4110      2.00000
    351     -11.4064      2.00000
    352     -11.4027      2.00000
    353     -11.3933      2.00000
    354     -11.3851      2.00000
    355     -11.3739      2.00000
    356     -11.3661      2.00000
    357     -11.3483      2.00000
    358     -11.3337      2.00000
    359     -11.2467      2.00000
    360     -11.2360      2.00000
    361     -11.1996      2.00000
    362     -11.1819      2.00000
    363     -11.1410      2.00000
    364     -11.1263      2.00000
    365     -11.1141      2.00000
    366     -11.0976      2.00000
    367     -11.0788      2.00000
    368     -11.0462      2.00000
    369     -11.0369      2.00000
    370     -11.0229      2.00000
    371     -10.9945      2.00000
    372     -10.9717      2.00000
    373     -10.8948      2.00000
    374     -10.8615      2.00000
    375     -10.8560      2.00000
    376     -10.8546      2.00000
    377     -10.8479      2.00000
    378     -10.8412      2.00000
    379     -10.8104      2.00000
    380     -10.8028      2.00000
    381     -10.7828      2.00000
    382     -10.7624      2.00000
    383     -10.7568      2.00000
    384     -10.7501      2.00000
    385     -10.7427      2.00000
    386     -10.7255      2.00000
    387     -10.7218      2.00000
    388     -10.7101      2.00000
    389     -10.6950      2.00000
    390     -10.6820      2.00000
    391     -10.6740      2.00000
    392     -10.6604      2.00000
    393     -10.6419      2.00000
    394     -10.6148      2.00000
    395     -10.6036      2.00000
    396     -10.5958      2.00000
    397     -10.5719      2.00000
    398     -10.5288      2.00000
    399     -10.5210      2.00000
    400     -10.5046      2.00000
    401     -10.4915      2.00000
    402     -10.4458      2.00000
    403     -10.4326      2.00000
    404     -10.4222      2.00000
    405     -10.3818      2.00000
    406     -10.3710      2.00000
    407     -10.3669      2.00000
    408     -10.3590      2.00000
    409     -10.3494      2.00000
    410     -10.3414      2.00000
    411     -10.3363      2.00000
    412     -10.3250      2.00000
    413     -10.3210      2.00000
    414     -10.3145      2.00000
    415     -10.3007      2.00000
    416     -10.2942      2.00000
    417     -10.2884      2.00000
    418     -10.2861      2.00000
    419     -10.2813      2.00000
    420     -10.2801      2.00000
    421     -10.2779      2.00000
    422     -10.2722      2.00000
    423     -10.2701      2.00000
    424     -10.2645      2.00000
    425     -10.2579      2.00000
    426     -10.2518      2.00000
    427     -10.2344      2.00000
    428     -10.2266      2.00000
    429     -10.2232      2.00000
    430     -10.2035      2.00000
    431     -10.1879      2.00000
    432     -10.1773      2.00000
    433     -10.1691      2.00000
    434     -10.1642      2.00000
    435     -10.1531      2.00000
    436     -10.1510      2.00000
    437     -10.1305      2.00000
    438     -10.1248      2.00000
    439     -10.1124      2.00000
    440     -10.1043      2.00000
    441     -10.1013      2.00000
    442     -10.0957      2.00000
    443     -10.0823      2.00000
    444     -10.0712      2.00000
    445     -10.0294      2.00000
    446     -10.0185      2.00000
    447     -10.0111      2.00000
    448      -9.9883      2.00000
    449      -9.9810      2.00000
    450      -9.9707      2.00000
    451      -9.9475      2.00000
    452      -9.9352      2.00000
    453      -9.9146      2.00000
    454      -9.8950      2.00000
    455      -9.8654      2.00000
    456      -9.8598      2.00000
    457      -9.8397      2.00000
    458      -9.8170      2.00000
    459      -9.7923      2.00000
    460      -9.7865      2.00000
    461      -9.7829      2.00000
    462      -9.7751      2.00000
    463      -9.7467      2.00000
    464      -9.7262      2.00000
    465      -9.6989      2.00000
    466      -9.6954      2.00000
    467      -9.6594      2.00000
    468      -9.6562      2.00000
    469      -9.6468      2.00000
    470      -9.6346      2.00000
    471      -9.5959      2.00000
    472      -9.5859      2.00000
    473      -9.5700      2.00000
    474      -9.5594      2.00000
    475      -9.5507      2.00000
    476      -9.5453      2.00000
    477      -9.5388      2.00000
    478      -9.5224      2.00000
    479      -9.5059      2.00000
    480      -9.4819      2.00000
    481      -9.4665      2.00000
    482      -9.4632      2.00000
    483      -9.4568      2.00000
    484      -9.4477      2.00000
    485      -9.4396      2.00000
    486      -9.4360      2.00000
    487      -9.4273      2.00000
    488      -9.4000      2.00000
    489      -9.3833      2.00000
    490      -9.3706      2.00000
    491      -9.3595      2.00000
    492      -9.3580      2.00000
    493      -9.3560      2.00000
    494      -9.3536      2.00000
    495      -9.3403      2.00000
    496      -9.3154      2.00000
    497      -9.3081      2.00000
    498      -9.3024      2.00000
    499      -9.2968      2.00000
    500      -9.2350      2.00000
    501      -9.2307      2.00000
    502      -9.2230      2.00000
    503      -9.2151      2.00000
    504      -9.2080      2.00000
    505      -9.2029      2.00000
    506      -9.1795      2.00000
    507      -9.1581      2.00000
    508      -9.1514      2.00000
    509      -9.1407      2.00000
    510      -9.1133      2.00000
    511      -9.0972      2.00000
    512      -9.0288      2.00000
    513      -8.9886      2.00000
    514      -8.9752      2.00000
    515      -8.9713      2.00000
    516      -8.9536      2.00000
    517      -8.9191      2.00000
    518      -8.8584      2.00000
    519      -8.8319      2.00000
    520      -8.8114      2.00000
    521      -8.7976      2.00000
    522      -8.7839      2.00000
    523      -8.7809      2.00000
    524      -8.7598      2.00000
    525      -8.7447      2.00000
    526      -8.7204      2.00000
    527      -8.6869      2.00000
    528      -8.6749      2.00000
    529      -8.6267      2.00000
    530      -8.6213      2.00000
    531      -8.6077      2.00000
    532      -8.5856      2.00000
    533      -8.5681      2.00000
    534      -8.5590      2.00000
    535      -8.5276      2.00000
    536      -8.5113      2.00000
    537      -8.4977      2.00000
    538      -8.4832      2.00000
    539      -8.4786      2.00000
    540      -8.4728      2.00000
    541      -8.4668      2.00000
    542      -8.4473      2.00000
    543      -8.4294      2.00000
    544      -8.4177      2.00000
    545      -8.4107      2.00000
    546      -8.3877      2.00000
    547      -8.3770      2.00000
    548      -8.3634      2.00000
    549      -8.3597      2.00000
    550      -8.3524      2.00000
    551      -8.3467      2.00000
    552      -8.3449      2.00000
    553      -8.3398      2.00000
    554      -8.3163      2.00000
    555      -8.3119      2.00000
    556      -8.2747      2.00000
    557      -8.2696      2.00000
    558      -8.2614      2.00000
    559      -8.2540      2.00000
    560      -8.1894      2.00000
    561      -8.1681      2.00000
    562      -8.1603      2.00000
    563      -8.1536      2.00000
    564      -8.1379      2.00000
    565      -8.1191      2.00000
    566      -8.1141      2.00000
    567      -8.0691      2.00000
    568      -8.0632      2.00000
    569      -8.0477      2.00000
    570      -8.0437      2.00000
    571      -8.0270      2.00000
    572      -8.0208      2.00000
    573      -8.0095      2.00000
    574      -8.0089      2.00000
    575      -7.9975      2.00000
    576      -7.9797      2.00000
    577      -7.9205      2.00000
    578      -7.9038      2.00000
    579      -7.8819      2.00000
    580      -7.8658      2.00000
    581      -7.8648      2.00000
    582      -7.8583      2.00000
    583      -7.8519      2.00000
    584      -7.7661      2.00000
    585      -7.7491      2.00000
    586      -7.7231      2.00000
    587      -7.7119      2.00000
    588      -7.6994      2.00000
    589      -7.6650      2.00000
    590      -7.6270      2.00000
    591      -7.6063      2.00000
    592      -7.5948      2.00000
    593      -7.5898      2.00000
    594      -7.5694      2.00000
    595      -7.5379      2.00000
    596      -7.5108      2.00000
    597      -7.5001      2.00000
    598      -7.4814      2.00000
    599      -7.4599      2.00000
    600      -7.4372      2.00000
    601      -7.4238      2.00000
    602      -7.4122      2.00000
    603      -7.3850      2.00000
    604      -7.3717      2.00000
    605      -7.3635      2.00000
    606      -7.3385      2.00000
    607      -7.3114      2.00000
    608      -7.3055      2.00000
    609      -7.2965      2.00000
    610      -7.2837      2.00000
    611      -7.2700      2.00000
    612      -7.2458      2.00000
    613      -7.2347      2.00000
    614      -7.1968      2.00000
    615      -7.1939      2.00000
    616      -7.1879      2.00000
    617      -7.1768      2.00000
    618      -7.1592      2.00000
    619      -7.1327      2.00000
    620      -7.1302      2.00000
    621      -7.1128      2.00000
    622      -7.0887      2.00000
    623      -7.0851      2.00000
    624      -7.0557      2.00000
    625      -7.0501      2.00000
    626      -7.0303      2.00000
    627      -7.0274      2.00000
    628      -7.0222      2.00000
    629      -7.0035      2.00000
    630      -6.9913      2.00000
    631      -6.9877      2.00000
    632      -6.9079      2.00000
    633      -6.8968      2.00000
    634      -6.8676      2.00000
    635      -6.8622      2.00000
    636      -6.8553      2.00000
    637      -6.8352      2.00000
    638      -6.8242      2.00000
    639      -6.8034      2.00000
    640      -6.7958      2.00000
    641      -6.7467      2.00000
    642      -6.7313      2.00000
    643      -6.7138      2.00000
    644      -6.6719      2.00000
    645      -6.6089      2.00000
    646      -6.5955      2.00000
    647      -6.5923      2.00000
    648      -6.5865      2.00000
    649      -6.5762      2.00000
    650      -6.5512      2.00000
    651      -6.5400      2.00000
    652      -6.5109      2.00000
    653      -6.5010      2.00000
    654      -6.4585      2.00000
    655      -6.4318      2.00000
    656      -6.4291      2.00000
    657      -6.4152      2.00000
    658      -6.4066      2.00000
    659      -6.3975      2.00000
    660      -6.3794      2.00000
    661      -6.3690      2.00000
    662      -6.3492      2.00000
    663      -6.2664      2.00000
    664      -6.2075      2.00000
    665      -6.1909      2.00000
    666      -6.1761      2.00000
    667      -6.1612      2.00000
    668      -6.1371      2.00000
    669      -6.0924      2.00000
    670      -6.0432      2.00000
    671      -5.9944      2.00000
    672      -5.9857      2.00000
    673      -5.9518      2.00000
    674      -5.9187      2.00000
    675      -5.8631      2.00000
    676      -5.8122      2.00000
    677      -5.7735      2.00000
    678      -5.7453      2.00000
    679      -5.7032      2.00000
    680      -5.6742      2.00000
    681      -5.6445      2.00000
    682      -5.6162      2.00000
    683      -5.6149      2.00000
    684      -5.6007      2.00000
    685      -5.5882      2.00000
    686      -5.5767      2.00000
    687      -5.5590      2.00000
    688      -5.5347      2.00000
    689      -5.5084      2.00000
    690      -5.5036      2.00000
    691      -5.4879      2.00000
    692      -5.4848      2.00000
    693      -5.4781      2.00000
    694      -5.4633      2.00000
    695      -5.4294      2.00000
    696      -5.4188      2.00000
    697      -5.3968      2.00000
    698      -5.3479      2.00000
    699      -5.3343      2.00000
    700      -5.3088      2.00000
    701      -5.2664      2.00000
    702      -5.2439      2.00000
    703      -5.2196      2.00000
    704      -5.1999      2.00000
    705      -5.1726      2.00000
    706      -5.1485      2.00000
    707      -5.1279      2.00000
    708      -5.0794      2.00000
    709      -5.0614      2.00000
    710      -5.0091      2.00000
    711      -4.9734      2.00000
    712      -4.9422      2.00000
    713      -4.8939      2.00000
    714      -4.8638      2.00000
    715      -4.8277      2.00000
    716      -4.7108      2.00000
    717      -4.6794      2.00000
    718      -4.5284      2.00000
    719      -4.5039      2.00000
    720      -4.4714      2.00000
    721      -4.4432      2.00000
    722      -4.3522      2.00000
    723      -4.2908      2.00000
    724      -4.1983      2.00000
    725      -4.1624      2.00000
    726      -4.1139      2.00000
    727      -4.1111      2.00000
    728      -3.9436      2.00000
    729      -3.8413      2.00000
    730      -3.6974      2.00000
    731      -3.6357      2.00000
    732      -2.7653      0.00000
    733      -2.6766      0.00000
    734      -2.6094      0.00000
    735      -2.3994      0.00000
    736      -2.2638      0.00000
    737      -2.2392      0.00000
    738      -2.2135      0.00000
    739      -2.1852      0.00000
    740      -2.0938      0.00000
    741      -1.9987      0.00000
    742      -1.9697      0.00000
    743      -1.9635      0.00000
    744      -1.9564      0.00000
    745      -1.9453      0.00000
    746      -1.9168      0.00000
    747      -1.8891      0.00000
    748      -1.8787      0.00000
    749      -1.7850      0.00000
    750      -1.7777      0.00000
    751      -1.7613      0.00000
    752      -1.7460      0.00000
    753      -1.7336      0.00000
    754      -1.7133      0.00000
    755      -1.6943      0.00000
    756      -1.6770      0.00000
    757      -1.6611      0.00000
    758      -1.6128      0.00000
    759      -1.5718      0.00000
    760      -1.5504      0.00000
    761      -1.5388      0.00000
    762      -1.5261      0.00000
    763      -1.5146      0.00000
    764      -1.5096      0.00000
    765      -1.5007      0.00000
    766      -1.4737      0.00000
    767      -1.4567      0.00000
    768      -1.4378      0.00000
    769      -1.4320      0.00000
    770      -1.4104      0.00000
    771      -1.3931      0.00000
    772      -1.3783      0.00000
    773      -1.3626      0.00000
    774      -1.3380      0.00000
    775      -1.3232      0.00000
    776      -1.3175      0.00000
    777      -1.2937      0.00000
    778      -1.2905      0.00000
    779      -1.2707      0.00000
    780      -1.2678      0.00000
    781      -1.2453      0.00000
    782      -1.2114      0.00000
    783      -1.2026      0.00000
    784      -1.1074      0.00000
    785      -1.0636      0.00000
    786      -1.0486      0.00000
    787      -1.0120      0.00000
    788      -0.9486      0.00000
    789      -0.9046      0.00000
    790      -0.8791      0.00000
    791      -0.8423      0.00000
    792      -0.8357      0.00000
    793      -0.7470      0.00000
    794      -0.7133      0.00000
    795      -0.6518      0.00000
    796      -0.6267      0.00000
    797      -0.5788      0.00000
    798      -0.5666      0.00000
    799      -0.4790      0.00000
    800      -0.4297      0.00000
    801      -0.3858      0.00000
    802      -0.3510      0.00000
    803      -0.3169      0.00000
    804      -0.2573      0.00000
    805      -0.2142      0.00000
    806      -0.1492      0.00000
    807      -0.1326      0.00000
    808      -0.0956      0.00000
    809      -0.0796      0.00000
    810      -0.0260      0.00000
    811      -0.0234      0.00000
    812       0.0244      0.00000
    813       0.0364      0.00000
    814       0.0651      0.00000
    815       0.0968      0.00000
    816       0.1383      0.00000
    817       0.1532      0.00000
    818       0.1822      0.00000
    819       0.2105      0.00000
    820       0.2361      0.00000
    821       0.2701      0.00000
    822       0.2948      0.00000
    823       0.3051      0.00000
    824       0.3193      0.00000
    825       0.3619      0.00000
    826       0.3748      0.00000
    827       0.3848      0.00000
    828       0.4160      0.00000
    829       0.4516      0.00000
    830       0.4809      0.00000
    831       0.4879      0.00000
    832       0.5217      0.00000
    833       0.5277      0.00000
    834       0.5346      0.00000
    835       0.5405      0.00000
    836       0.5607      0.00000
    837       0.5669      0.00000
    838       0.5685      0.00000
    839       0.5801      0.00000
    840       0.5865      0.00000
    841       0.6066      0.00000
    842       0.6272      0.00000
    843       0.6466      0.00000
    844       0.6865      0.00000
    845       0.7132      0.00000
    846       0.7349      0.00000
    847       0.7481      0.00000
    848       0.8259      0.00000
    849       0.8426      0.00000
    850       0.8572      0.00000
    851       0.8661      0.00000
    852       0.9030      0.00000
    853       0.9194      0.00000
    854       0.9433      0.00000
    855       0.9473      0.00000
    856       0.9648      0.00000
    857       0.9774      0.00000
    858       0.9835      0.00000
    859       0.9853      0.00000
    860       1.0055      0.00000
    861       1.0412      0.00000
    862       1.0444      0.00000
    863       1.0677      0.00000
    864       1.0973      0.00000
    865       1.1413      0.00000
    866       1.1464      0.00000
    867       1.1548      0.00000
    868       1.1721      0.00000
    869       1.2138      0.00000
    870       1.2181      0.00000
    871       1.2201      0.00000
    872       1.2436      0.00000
    873       1.2533      0.00000
    874       1.2612      0.00000
    875       1.2643      0.00000
    876       1.2672      0.00000
    877       1.2822      0.00000
    878       1.2850      0.00000
    879       1.3275      0.00000
    880       1.3382      0.00000
    881       1.3442      0.00000
    882       1.3623      0.00000
    883       1.3680      0.00000
    884       1.3776      0.00000
    885       1.3865      0.00000
    886       1.3894      0.00000
    887       1.4059      0.00000
    888       1.4339      0.00000
    889       1.4383      0.00000
    890       1.4598      0.00000
    891       1.4676      0.00000
    892       1.4979      0.00000
    893       1.4991      0.00000
    894       1.5290      0.00000
    895       1.5316      0.00000
    896       1.5719      0.00000

 k-point     5 :       0.0000    0.0000   -0.2222
  band No.  band energies     occupation 
      1     -22.9879      2.00000
      2     -22.9495      2.00000
      3     -22.8907      2.00000
      4     -22.7875      2.00000
      5     -22.7753      2.00000
      6     -22.7691      2.00000
      7     -22.7397      2.00000
      8     -22.7323      2.00000
      9     -22.6818      2.00000
     10     -22.6736      2.00000
     11     -22.6617      2.00000
     12     -22.5719      2.00000
     13     -22.5636      2.00000
     14     -22.4797      2.00000
     15     -22.4544      2.00000
     16     -22.4465      2.00000
     17     -22.3044      2.00000
     18     -22.2729      2.00000
     19     -22.2637      2.00000
     20     -22.1582      2.00000
     21     -22.1382      2.00000
     22     -22.1136      2.00000
     23     -22.1018      2.00000
     24     -22.0949      2.00000
     25     -22.0886      2.00000
     26     -22.0538      2.00000
     27     -22.0465      2.00000
     28     -22.0437      2.00000
     29     -21.9460      2.00000
     30     -21.9348      2.00000
     31     -21.8446      2.00000
     32     -21.8339      2.00000
     33     -21.8285      2.00000
     34     -21.8187      2.00000
     35     -21.8135      2.00000
     36     -21.6503      2.00000
     37     -21.6378      2.00000
     38     -21.6097      2.00000
     39     -21.6017      2.00000
     40     -21.4901      2.00000
     41     -21.4752      2.00000
     42     -21.4643      2.00000
     43     -21.2883      2.00000
     44     -21.2765      2.00000
     45     -21.2267      2.00000
     46     -21.2122      2.00000
     47     -21.1998      2.00000
     48     -21.1418      2.00000
     49     -21.1206      2.00000
     50     -21.0956      2.00000
     51     -21.0849      2.00000
     52     -21.0407      2.00000
     53     -21.0278      2.00000
     54     -21.0009      2.00000
     55     -20.9895      2.00000
     56     -20.9865      2.00000
     57     -20.9816      2.00000
     58     -20.9317      2.00000
     59     -20.9208      2.00000
     60     -20.8193      2.00000
     61     -20.8070      2.00000
     62     -20.8036      2.00000
     63     -20.6766      2.00000
     64     -20.6608      2.00000
     65     -20.6398      2.00000
     66     -20.6291      2.00000
     67     -20.6011      2.00000
     68     -20.5946      2.00000
     69     -20.4765      2.00000
     70     -20.4590      2.00000
     71     -20.4585      2.00000
     72     -20.3875      2.00000
     73     -20.3760      2.00000
     74     -20.2633      2.00000
     75     -20.2532      2.00000
     76     -20.2248      2.00000
     77     -20.2117      2.00000
     78     -20.0185      2.00000
     79     -19.9967      2.00000
     80     -19.9916      2.00000
     81     -19.9880      2.00000
     82     -19.9857      2.00000
     83     -19.8207      2.00000
     84     -19.7949      2.00000
     85     -19.7860      2.00000
     86     -19.7588      2.00000
     87     -19.7379      2.00000
     88     -19.7242      2.00000
     89     -19.6920      2.00000
     90     -19.6738      2.00000
     91     -19.6712      2.00000
     92     -19.6687      2.00000
     93     -19.6585      2.00000
     94     -19.6501      2.00000
     95     -19.6072      2.00000
     96     -19.5783      2.00000
     97     -19.5651      2.00000
     98     -19.4725      2.00000
     99     -19.4548      2.00000
    100     -19.4168      2.00000
    101     -19.4036      2.00000
    102     -19.3988      2.00000
    103     -19.3935      2.00000
    104     -19.2998      2.00000
    105     -19.2829      2.00000
    106     -19.2126      2.00000
    107     -19.1999      2.00000
    108     -19.1358      2.00000
    109     -19.1184      2.00000
    110     -19.0873      2.00000
    111     -19.0296      2.00000
    112     -19.0160      2.00000
    113     -18.9107      2.00000
    114     -18.8875      2.00000
    115     -18.8847      2.00000
    116     -18.8799      2.00000
    117     -18.8307      2.00000
    118     -18.8181      2.00000
    119     -18.7145      2.00000
    120     -18.6920      2.00000
    121     -18.6761      2.00000
    122     -18.6634      2.00000
    123     -18.6469      2.00000
    124     -18.4717      2.00000
    125     -18.4537      2.00000
    126     -18.4001      2.00000
    127     -18.3627      2.00000
    128     -18.3364      2.00000
    129     -18.3206      2.00000
    130     -18.2874      2.00000
    131     -18.2662      2.00000
    132     -18.2291      2.00000
    133     -18.1659      2.00000
    134     -18.1500      2.00000
    135     -18.1328      2.00000
    136     -18.1138      2.00000
    137     -18.1004      2.00000
    138     -18.0934      2.00000
    139     -18.0788      2.00000
    140     -18.0768      2.00000
    141     -18.0107      2.00000
    142     -17.9803      2.00000
    143     -17.9488      2.00000
    144     -17.9315      2.00000
    145     -17.9256      2.00000
    146     -17.9167      2.00000
    147     -17.9087      2.00000
    148     -17.9006      2.00000
    149     -17.8922      2.00000
    150     -17.8732      2.00000
    151     -17.7734      2.00000
    152     -17.7523      2.00000
    153     -17.7425      2.00000
    154     -17.7096      2.00000
    155     -17.6192      2.00000
    156     -17.5992      2.00000
    157     -17.5896      2.00000
    158     -17.5719      2.00000
    159     -17.5584      2.00000
    160     -17.5515      2.00000
    161     -17.4945      2.00000
    162     -17.4830      2.00000
    163     -17.4648      2.00000
    164     -17.4605      2.00000
    165     -17.4378      2.00000
    166     -17.3812      2.00000
    167     -17.3300      2.00000
    168     -17.2995      2.00000
    169     -17.1920      2.00000
    170     -17.1480      2.00000
    171     -17.1275      2.00000
    172     -17.0992      2.00000
    173     -17.0211      2.00000
    174     -16.9167      2.00000
    175     -16.8979      2.00000
    176     -16.8617      2.00000
    177     -16.6921      2.00000
    178     -16.6560      2.00000
    179     -16.6057      2.00000
    180     -16.5791      2.00000
    181     -16.5111      2.00000
    182     -16.4812      2.00000
    183     -16.4182      2.00000
    184     -16.3987      2.00000
    185     -16.3172      2.00000
    186     -16.2589      2.00000
    187     -16.2214      2.00000
    188     -16.1311      2.00000
    189     -16.1174      2.00000
    190     -16.1024      2.00000
    191     -16.0205      2.00000
    192     -15.9409      2.00000
    193     -15.9328      2.00000
    194     -15.9087      2.00000
    195     -15.8671      2.00000
    196     -15.8556      2.00000
    197     -15.8537      2.00000
    198     -15.8368      2.00000
    199     -15.8267      2.00000
    200     -15.8061      2.00000
    201     -15.7805      2.00000
    202     -15.7756      2.00000
    203     -15.7303      2.00000
    204     -15.6979      2.00000
    205     -15.6934      2.00000
    206     -15.6837      2.00000
    207     -15.6719      2.00000
    208     -15.6571      2.00000
    209     -15.6166      2.00000
    210     -15.6051      2.00000
    211     -15.5681      2.00000
    212     -15.5077      2.00000
    213     -15.5000      2.00000
    214     -15.4968      2.00000
    215     -15.4862      2.00000
    216     -15.4809      2.00000
    217     -15.4689      2.00000
    218     -15.4624      2.00000
    219     -15.4584      2.00000
    220     -15.4021      2.00000
    221     -15.3890      2.00000
    222     -15.3655      2.00000
    223     -15.3218      2.00000
    224     -15.2976      2.00000
    225     -15.2878      2.00000
    226     -15.2604      2.00000
    227     -15.1841      2.00000
    228     -15.1608      2.00000
    229     -15.1311      2.00000
    230     -15.0761      2.00000
    231     -15.0568      2.00000
    232     -15.0131      2.00000
    233     -14.9752      2.00000
    234     -14.9478      2.00000
    235     -14.9229      2.00000
    236     -14.9183      2.00000
    237     -14.9059      2.00000
    238     -14.8847      2.00000
    239     -14.8421      2.00000
    240     -14.8116      2.00000
    241     -14.7398      2.00000
    242     -14.5721      2.00000
    243     -14.5660      2.00000
    244     -14.5235      2.00000
    245     -14.4829      2.00000
    246     -14.4579      2.00000
    247     -14.3773      2.00000
    248     -14.3658      2.00000
    249     -14.3512      2.00000
    250     -14.2837      2.00000
    251     -14.0809      2.00000
    252     -13.9867      2.00000
    253     -13.9311      2.00000
    254     -13.9293      2.00000
    255     -13.9138      2.00000
    256     -13.8689      2.00000
    257     -13.8636      2.00000
    258     -13.8192      2.00000
    259     -13.8158      2.00000
    260     -13.8038      2.00000
    261     -13.8022      2.00000
    262     -13.7773      2.00000
    263     -13.7700      2.00000
    264     -13.7388      2.00000
    265     -13.7314      2.00000
    266     -13.7239      2.00000
    267     -13.6990      2.00000
    268     -13.6859      2.00000
    269     -13.6792      2.00000
    270     -13.6483      2.00000
    271     -13.6312      2.00000
    272     -13.6150      2.00000
    273     -13.5719      2.00000
    274     -13.5485      2.00000
    275     -13.5029      2.00000
    276     -13.4759      2.00000
    277     -13.4630      2.00000
    278     -13.4444      2.00000
    279     -13.4321      2.00000
    280     -13.4129      2.00000
    281     -13.4073      2.00000
    282     -13.3766      2.00000
    283     -13.3697      2.00000
    284     -13.3684      2.00000
    285     -13.3654      2.00000
    286     -13.2880      2.00000
    287     -13.2839      2.00000
    288     -13.2713      2.00000
    289     -13.2504      2.00000
    290     -13.1594      2.00000
    291     -13.1549      2.00000
    292     -13.1003      2.00000
    293     -13.0953      2.00000
    294     -12.9757      2.00000
    295     -12.9649      2.00000
    296     -12.8922      2.00000
    297     -12.7931      2.00000
    298     -12.7905      2.00000
    299     -12.7739      2.00000
    300     -12.7264      2.00000
    301     -12.6997      2.00000
    302     -12.6872      2.00000
    303     -12.5822      2.00000
    304     -12.5169      2.00000
    305     -12.5019      2.00000
    306     -12.4684      2.00000
    307     -12.4330      2.00000
    308     -12.4174      2.00000
    309     -12.4147      2.00000
    310     -12.3801      2.00000
    311     -12.3148      2.00000
    312     -12.3128      2.00000
    313     -12.2931      2.00000
    314     -12.2638      2.00000
    315     -12.2068      2.00000
    316     -12.1628      2.00000
    317     -12.1396      2.00000
    318     -12.1229      2.00000
    319     -12.0981      2.00000
    320     -12.0796      2.00000
    321     -12.0342      2.00000
    322     -12.0314      2.00000
    323     -11.9828      2.00000
    324     -11.9533      2.00000
    325     -11.9343      2.00000
    326     -11.9250      2.00000
    327     -11.9232      2.00000
    328     -11.8407      2.00000
    329     -11.8320      2.00000
    330     -11.8189      2.00000
    331     -11.7887      2.00000
    332     -11.7305      2.00000
    333     -11.7110      2.00000
    334     -11.7046      2.00000
    335     -11.6764      2.00000
    336     -11.6653      2.00000
    337     -11.6616      2.00000
    338     -11.6563      2.00000
    339     -11.6470      2.00000
    340     -11.6336      2.00000
    341     -11.6142      2.00000
    342     -11.5932      2.00000
    343     -11.5774      2.00000
    344     -11.5580      2.00000
    345     -11.5483      2.00000
    346     -11.5409      2.00000
    347     -11.5274      2.00000
    348     -11.4869      2.00000
    349     -11.4711      2.00000
    350     -11.4476      2.00000
    351     -11.4424      2.00000
    352     -11.4162      2.00000
    353     -11.4052      2.00000
    354     -11.4017      2.00000
    355     -11.3970      2.00000
    356     -11.3923      2.00000
    357     -11.3462      2.00000
    358     -11.3064      2.00000
    359     -11.2822      2.00000
    360     -11.1931      2.00000
    361     -11.1881      2.00000
    362     -11.1706      2.00000
    363     -11.1494      2.00000
    364     -11.1373      2.00000
    365     -11.0960      2.00000
    366     -11.0608      2.00000
    367     -11.0544      2.00000
    368     -11.0507      2.00000
    369     -10.9879      2.00000
    370     -10.9760      2.00000
    371     -10.9641      2.00000
    372     -10.9090      2.00000
    373     -10.8837      2.00000
    374     -10.8617      2.00000
    375     -10.8583      2.00000
    376     -10.8495      2.00000
    377     -10.8381      2.00000
    378     -10.8173      2.00000
    379     -10.8159      2.00000
    380     -10.8090      2.00000
    381     -10.8007      2.00000
    382     -10.7573      2.00000
    383     -10.7512      2.00000
    384     -10.7448      2.00000
    385     -10.7407      2.00000
    386     -10.7367      2.00000
    387     -10.7327      2.00000
    388     -10.7216      2.00000
    389     -10.7192      2.00000
    390     -10.7031      2.00000
    391     -10.6683      2.00000
    392     -10.6470      2.00000
    393     -10.6295      2.00000
    394     -10.6273      2.00000
    395     -10.6140      2.00000
    396     -10.6068      2.00000
    397     -10.5386      2.00000
    398     -10.5214      2.00000
    399     -10.5146      2.00000
    400     -10.5018      2.00000
    401     -10.4845      2.00000
    402     -10.4825      2.00000
    403     -10.4775      2.00000
    404     -10.4295      2.00000
    405     -10.4204      2.00000
    406     -10.3844      2.00000
    407     -10.3809      2.00000
    408     -10.3599      2.00000
    409     -10.3450      2.00000
    410     -10.3340      2.00000
    411     -10.3263      2.00000
    412     -10.3229      2.00000
    413     -10.3196      2.00000
    414     -10.3183      2.00000
    415     -10.3154      2.00000
    416     -10.3110      2.00000
    417     -10.3038      2.00000
    418     -10.2985      2.00000
    419     -10.2960      2.00000
    420     -10.2862      2.00000
    421     -10.2844      2.00000
    422     -10.2832      2.00000
    423     -10.2784      2.00000
    424     -10.2725      2.00000
    425     -10.2695      2.00000
    426     -10.2593      2.00000
    427     -10.2319      2.00000
    428     -10.2277      2.00000
    429     -10.2187      2.00000
    430     -10.1997      2.00000
    431     -10.1855      2.00000
    432     -10.1802      2.00000
    433     -10.1617      2.00000
    434     -10.1549      2.00000
    435     -10.1410      2.00000
    436     -10.1383      2.00000
    437     -10.1281      2.00000
    438     -10.1254      2.00000
    439     -10.1220      2.00000
    440     -10.1010      2.00000
    441     -10.0901      2.00000
    442     -10.0804      2.00000
    443     -10.0791      2.00000
    444     -10.0538      2.00000
    445     -10.0453      2.00000
    446     -10.0149      2.00000
    447      -9.9834      2.00000
    448      -9.9745      2.00000
    449      -9.9454      2.00000
    450      -9.9364      2.00000
    451      -9.9353      2.00000
    452      -9.9251      2.00000
    453      -9.9059      2.00000
    454      -9.9039      2.00000
    455      -9.8771      2.00000
    456      -9.8644      2.00000
    457      -9.8394      2.00000
    458      -9.8249      2.00000
    459      -9.8174      2.00000
    460      -9.7792      2.00000
    461      -9.7770      2.00000
    462      -9.7686      2.00000
    463      -9.7470      2.00000
    464      -9.7469      2.00000
    465      -9.7225      2.00000
    466      -9.6761      2.00000
    467      -9.6731      2.00000
    468      -9.6606      2.00000
    469      -9.6210      2.00000
    470      -9.6136      2.00000
    471      -9.5934      2.00000
    472      -9.5776      2.00000
    473      -9.5685      2.00000
    474      -9.5664      2.00000
    475      -9.5586      2.00000
    476      -9.5438      2.00000
    477      -9.5332      2.00000
    478      -9.5202      2.00000
    479      -9.5056      2.00000
    480      -9.4919      2.00000
    481      -9.4811      2.00000
    482      -9.4651      2.00000
    483      -9.4489      2.00000
    484      -9.4422      2.00000
    485      -9.4329      2.00000
    486      -9.4276      2.00000
    487      -9.4182      2.00000
    488      -9.4113      2.00000
    489      -9.3940      2.00000
    490      -9.3849      2.00000
    491      -9.3686      2.00000
    492      -9.3571      2.00000
    493      -9.3551      2.00000
    494      -9.3353      2.00000
    495      -9.3292      2.00000
    496      -9.3245      2.00000
    497      -9.3165      2.00000
    498      -9.3141      2.00000
    499      -9.3088      2.00000
    500      -9.2446      2.00000
    501      -9.2291      2.00000
    502      -9.2208      2.00000
    503      -9.2121      2.00000
    504      -9.2119      2.00000
    505      -9.1948      2.00000
    506      -9.1787      2.00000
    507      -9.1721      2.00000
    508      -9.1541      2.00000
    509      -9.1501      2.00000
    510      -9.0871      2.00000
    511      -9.0726      2.00000
    512      -9.0383      2.00000
    513      -9.0270      2.00000
    514      -8.9984      2.00000
    515      -8.9908      2.00000
    516      -8.9580      2.00000
    517      -8.9114      2.00000
    518      -8.8605      2.00000
    519      -8.8322      2.00000
    520      -8.8143      2.00000
    521      -8.7995      2.00000
    522      -8.7834      2.00000
    523      -8.7794      2.00000
    524      -8.7385      2.00000
    525      -8.7259      2.00000
    526      -8.7133      2.00000
    527      -8.6983      2.00000
    528      -8.6251      2.00000
    529      -8.6173      2.00000
    530      -8.6064      2.00000
    531      -8.5843      2.00000
    532      -8.5713      2.00000
    533      -8.5649      2.00000
    534      -8.5533      2.00000
    535      -8.5286      2.00000
    536      -8.5032      2.00000
    537      -8.4917      2.00000
    538      -8.4805      2.00000
    539      -8.4746      2.00000
    540      -8.4658      2.00000
    541      -8.4605      2.00000
    542      -8.4551      2.00000
    543      -8.4358      2.00000
    544      -8.4199      2.00000
    545      -8.4099      2.00000
    546      -8.4060      2.00000
    547      -8.3966      2.00000
    548      -8.3865      2.00000
    549      -8.3730      2.00000
    550      -8.3641      2.00000
    551      -8.3528      2.00000
    552      -8.3526      2.00000
    553      -8.3476      2.00000
    554      -8.3384      2.00000
    555      -8.3225      2.00000
    556      -8.2796      2.00000
    557      -8.2564      2.00000
    558      -8.2529      2.00000
    559      -8.2396      2.00000
    560      -8.2181      2.00000
    561      -8.1851      2.00000
    562      -8.1752      2.00000
    563      -8.1529      2.00000
    564      -8.1432      2.00000
    565      -8.1212      2.00000
    566      -8.0933      2.00000
    567      -8.0822      2.00000
    568      -8.0767      2.00000
    569      -8.0629      2.00000
    570      -8.0592      2.00000
    571      -8.0500      2.00000
    572      -8.0307      2.00000
    573      -8.0235      2.00000
    574      -7.9828      2.00000
    575      -7.9770      2.00000
    576      -7.9466      2.00000
    577      -7.8937      2.00000
    578      -7.8810      2.00000
    579      -7.8797      2.00000
    580      -7.8455      2.00000
    581      -7.8307      2.00000
    582      -7.8232      2.00000
    583      -7.8191      2.00000
    584      -7.7913      2.00000
    585      -7.7372      2.00000
    586      -7.7097      2.00000
    587      -7.6964      2.00000
    588      -7.6822      2.00000
    589      -7.6774      2.00000
    590      -7.6452      2.00000
    591      -7.6304      2.00000
    592      -7.6177      2.00000
    593      -7.5945      2.00000
    594      -7.5808      2.00000
    595      -7.5486      2.00000
    596      -7.5122      2.00000
    597      -7.4972      2.00000
    598      -7.4858      2.00000
    599      -7.4804      2.00000
    600      -7.4625      2.00000
    601      -7.4179      2.00000
    602      -7.4039      2.00000
    603      -7.3932      2.00000
    604      -7.3816      2.00000
    605      -7.3757      2.00000
    606      -7.3569      2.00000
    607      -7.3446      2.00000
    608      -7.3424      2.00000
    609      -7.3218      2.00000
    610      -7.2770      2.00000
    611      -7.2590      2.00000
    612      -7.2558      2.00000
    613      -7.2151      2.00000
    614      -7.1940      2.00000
    615      -7.1843      2.00000
    616      -7.1542      2.00000
    617      -7.1456      2.00000
    618      -7.1358      2.00000
    619      -7.1249      2.00000
    620      -7.1239      2.00000
    621      -7.0971      2.00000
    622      -7.0960      2.00000
    623      -7.0849      2.00000
    624      -7.0714      2.00000
    625      -7.0607      2.00000
    626      -7.0324      2.00000
    627      -7.0228      2.00000
    628      -7.0172      2.00000
    629      -6.9920      2.00000
    630      -6.9609      2.00000
    631      -6.9383      2.00000
    632      -6.9208      2.00000
    633      -6.9061      2.00000
    634      -6.8875      2.00000
    635      -6.8839      2.00000
    636      -6.8308      2.00000
    637      -6.8112      2.00000
    638      -6.8060      2.00000
    639      -6.7805      2.00000
    640      -6.7755      2.00000
    641      -6.7512      2.00000
    642      -6.7249      2.00000
    643      -6.7134      2.00000
    644      -6.7068      2.00000
    645      -6.6370      2.00000
    646      -6.6130      2.00000
    647      -6.6065      2.00000
    648      -6.5931      2.00000
    649      -6.5891      2.00000
    650      -6.5833      2.00000
    651      -6.5767      2.00000
    652      -6.5090      2.00000
    653      -6.5002      2.00000
    654      -6.4614      2.00000
    655      -6.4398      2.00000
    656      -6.4292      2.00000
    657      -6.4208      2.00000
    658      -6.4146      2.00000
    659      -6.3987      2.00000
    660      -6.3831      2.00000
    661      -6.3654      2.00000
    662      -6.3461      2.00000
    663      -6.2418      2.00000
    664      -6.2091      2.00000
    665      -6.1835      2.00000
    666      -6.1621      2.00000
    667      -6.1491      2.00000
    668      -6.1321      2.00000
    669      -6.0561      2.00000
    670      -6.0206      2.00000
    671      -5.9874      2.00000
    672      -5.9527      2.00000
    673      -5.9487      2.00000
    674      -5.9319      2.00000
    675      -5.8914      2.00000
    676      -5.8284      2.00000
    677      -5.7712      2.00000
    678      -5.7514      2.00000
    679      -5.6879      2.00000
    680      -5.6646      2.00000
    681      -5.6391      2.00000
    682      -5.6246      2.00000
    683      -5.6080      2.00000
    684      -5.5986      2.00000
    685      -5.5916      2.00000
    686      -5.5822      2.00000
    687      -5.5539      2.00000
    688      -5.5420      2.00000
    689      -5.5367      2.00000
    690      -5.5287      2.00000
    691      -5.5030      2.00000
    692      -5.4953      2.00000
    693      -5.4729      2.00000
    694      -5.4618      2.00000
    695      -5.4404      2.00000
    696      -5.4264      2.00000
    697      -5.3936      2.00000
    698      -5.3617      2.00000
    699      -5.3366      2.00000
    700      -5.3181      2.00000
    701      -5.2797      2.00000
    702      -5.2345      2.00000
    703      -5.1941      2.00000
    704      -5.1886      2.00000
    705      -5.1631      2.00000
    706      -5.1472      2.00000
    707      -5.1051      2.00000
    708      -5.0934      2.00000
    709      -5.0252      2.00000
    710      -5.0051      2.00000
    711      -4.9647      2.00000
    712      -4.9281      2.00000
    713      -4.9077      2.00000
    714      -4.8495      2.00000
    715      -4.8200      2.00000
    716      -4.7263      2.00000
    717      -4.6941      2.00000
    718      -4.5421      2.00000
    719      -4.5221      2.00000
    720      -4.4887      2.00000
    721      -4.4638      2.00000
    722      -4.3342      2.00000
    723      -4.2774      2.00000
    724      -4.1996      2.00000
    725      -4.1396      2.00000
    726      -4.1309      2.00000
    727      -4.1017      2.00000
    728      -3.9183      2.00000
    729      -3.8421      2.00000
    730      -3.7119      2.00000
    731      -3.6471      2.00000
    732      -2.7578      0.00000
    733      -2.6694      0.00000
    734      -2.5959      0.00000
    735      -2.4300      0.00000
    736      -2.2999      0.00000
    737      -2.2447      0.00000
    738      -2.1880      0.00000
    739      -2.1814      0.00000
    740      -2.0940      0.00000
    741      -1.9632      0.00000
    742      -1.9624      0.00000
    743      -1.9501      0.00000
    744      -1.9451      0.00000
    745      -1.9420      0.00000
    746      -1.9228      0.00000
    747      -1.9040      0.00000
    748      -1.8694      0.00000
    749      -1.7777      0.00000
    750      -1.7740      0.00000
    751      -1.7625      0.00000
    752      -1.7463      0.00000
    753      -1.7419      0.00000
    754      -1.7297      0.00000
    755      -1.7179      0.00000
    756      -1.6894      0.00000
    757      -1.6825      0.00000
    758      -1.6303      0.00000
    759      -1.5854      0.00000
    760      -1.5752      0.00000
    761      -1.5550      0.00000
    762      -1.5158      0.00000
    763      -1.4977      0.00000
    764      -1.4912      0.00000
    765      -1.4777      0.00000
    766      -1.4576      0.00000
    767      -1.4387      0.00000
    768      -1.4314      0.00000
    769      -1.4230      0.00000
    770      -1.4145      0.00000
    771      -1.3939      0.00000
    772      -1.3747      0.00000
    773      -1.3581      0.00000
    774      -1.3385      0.00000
    775      -1.3269      0.00000
    776      -1.3150      0.00000
    777      -1.2914      0.00000
    778      -1.2886      0.00000
    779      -1.2702      0.00000
    780      -1.2668      0.00000
    781      -1.2161      0.00000
    782      -1.2021      0.00000
    783      -1.1720      0.00000
    784      -1.1284      0.00000
    785      -1.1012      0.00000
    786      -1.0607      0.00000
    787      -1.0171      0.00000
    788      -0.9772      0.00000
    789      -0.9304      0.00000
    790      -0.9247      0.00000
    791      -0.8335      0.00000
    792      -0.8022      0.00000
    793      -0.7590      0.00000
    794      -0.6907      0.00000
    795      -0.6672      0.00000
    796      -0.6063      0.00000
    797      -0.5510      0.00000
    798      -0.5172      0.00000
    799      -0.4702      0.00000
    800      -0.4600      0.00000
    801      -0.3997      0.00000
    802      -0.3729      0.00000
    803      -0.2851      0.00000
    804      -0.2335      0.00000
    805      -0.1842      0.00000
    806      -0.1535      0.00000
    807      -0.1410      0.00000
    808      -0.1124      0.00000
    809      -0.0902      0.00000
    810      -0.0513      0.00000
    811      -0.0129      0.00000
    812      -0.0018      0.00000
    813       0.0205      0.00000
    814       0.0388      0.00000
    815       0.0789      0.00000
    816       0.1337      0.00000
    817       0.1537      0.00000
    818       0.1643      0.00000
    819       0.1884      0.00000
    820       0.2605      0.00000
    821       0.2926      0.00000
    822       0.2939      0.00000
    823       0.3145      0.00000
    824       0.3493      0.00000
    825       0.3554      0.00000
    826       0.3872      0.00000
    827       0.4185      0.00000
    828       0.4408      0.00000
    829       0.4549      0.00000
    830       0.4804      0.00000
    831       0.4901      0.00000
    832       0.5238      0.00000
    833       0.5301      0.00000
    834       0.5374      0.00000
    835       0.5453      0.00000
    836       0.5607      0.00000
    837       0.5687      0.00000
    838       0.5724      0.00000
    839       0.5786      0.00000
    840       0.5819      0.00000
    841       0.6059      0.00000
    842       0.6194      0.00000
    843       0.6586      0.00000
    844       0.6715      0.00000
    845       0.6984      0.00000
    846       0.7698      0.00000
    847       0.7829      0.00000
    848       0.8053      0.00000
    849       0.8167      0.00000
    850       0.8443      0.00000
    851       0.8472      0.00000
    852       0.8949      0.00000
    853       0.9117      0.00000
    854       0.9213      0.00000
    855       0.9455      0.00000
    856       0.9606      0.00000
    857       0.9673      0.00000
    858       0.9758      0.00000
    859       0.9799      0.00000
    860       0.9975      0.00000
    861       1.0064      0.00000
    862       1.0545      0.00000
    863       1.0766      0.00000
    864       1.1082      0.00000
    865       1.1161      0.00000
    866       1.1259      0.00000
    867       1.1796      0.00000
    868       1.1983      0.00000
    869       1.2154      0.00000
    870       1.2214      0.00000
    871       1.2243      0.00000
    872       1.2319      0.00000
    873       1.2538      0.00000
    874       1.2574      0.00000
    875       1.2652      0.00000
    876       1.2758      0.00000
    877       1.2858      0.00000
    878       1.3069      0.00000
    879       1.3208      0.00000
    880       1.3551      0.00000
    881       1.3590      0.00000
    882       1.3765      0.00000
    883       1.3854      0.00000
    884       1.3974      0.00000
    885       1.4051      0.00000
    886       1.4104      0.00000
    887       1.4277      0.00000
    888       1.4290      0.00000
    889       1.4514      0.00000
    890       1.4666      0.00000
    891       1.4907      0.00000
    892       1.4968      0.00000
    893       1.5018      0.00000
    894       1.5101      0.00000
    895       1.5375      0.00000
    896       1.5497      0.00000

 k-point     6 :       0.0000    0.0000   -0.2778
  band No.  band energies     occupation 
      1     -22.9862      2.00000
      2     -22.9548      2.00000
      3     -22.8817      2.00000
      4     -22.7957      2.00000
      5     -22.7784      2.00000
      6     -22.7673      2.00000
      7     -22.7445      2.00000
      8     -22.7378      2.00000
      9     -22.6729      2.00000
     10     -22.6645      2.00000
     11     -22.6455      2.00000
     12     -22.5844      2.00000
     13     -22.5764      2.00000
     14     -22.4994      2.00000
     15     -22.4385      2.00000
     16     -22.4300      2.00000
     17     -22.2946      2.00000
     18     -22.2838      2.00000
     19     -22.2788      2.00000
     20     -22.1570      2.00000
     21     -22.1364      2.00000
     22     -22.1170      2.00000
     23     -22.1073      2.00000
     24     -22.0780      2.00000
     25     -22.0706      2.00000
     26     -22.0650      2.00000
     27     -22.0433      2.00000
     28     -22.0346      2.00000
     29     -21.9583      2.00000
     30     -21.9475      2.00000
     31     -21.8694      2.00000
     32     -21.8611      2.00000
     33     -21.8140      2.00000
     34     -21.8024      2.00000
     35     -21.7835      2.00000
     36     -21.6695      2.00000
     37     -21.6576      2.00000
     38     -21.5799      2.00000
     39     -21.5709      2.00000
     40     -21.5232      2.00000
     41     -21.4530      2.00000
     42     -21.4409      2.00000
     43     -21.3214      2.00000
     44     -21.3107      2.00000
     45     -21.2524      2.00000
     46     -21.2392      2.00000
     47     -21.1649      2.00000
     48     -21.1398      2.00000
     49     -21.1188      2.00000
     50     -21.0993      2.00000
     51     -21.0902      2.00000
     52     -21.0320      2.00000
     53     -21.0189      2.00000
     54     -20.9706      2.00000
     55     -20.9543      2.00000
     56     -20.9521      2.00000
     57     -20.9490      2.00000
     58     -20.9418      2.00000
     59     -20.9332      2.00000
     60     -20.8459      2.00000
     61     -20.8024      2.00000
     62     -20.7908      2.00000
     63     -20.7087      2.00000
     64     -20.6947      2.00000
     65     -20.6613      2.00000
     66     -20.6487      2.00000
     67     -20.6402      2.00000
     68     -20.6355      2.00000
     69     -20.4521      2.00000
     70     -20.4360      2.00000
     71     -20.4163      2.00000
     72     -20.3510      2.00000
     73     -20.3388      2.00000
     74     -20.2534      2.00000
     75     -20.2382      2.00000
     76     -20.2167      2.00000
     77     -20.2089      2.00000
     78     -20.0542      2.00000
     79     -20.0380      2.00000
     80     -20.0277      2.00000
     81     -19.9727      2.00000
     82     -19.9567      2.00000
     83     -19.8560      2.00000
     84     -19.8421      2.00000
     85     -19.7973      2.00000
     86     -19.7571      2.00000
     87     -19.7414      2.00000
     88     -19.7294      2.00000
     89     -19.7134      2.00000
     90     -19.7045      2.00000
     91     -19.6736      2.00000
     92     -19.6602      2.00000
     93     -19.6192      2.00000
     94     -19.6069      2.00000
     95     -19.5891      2.00000
     96     -19.5772      2.00000
     97     -19.5562      2.00000
     98     -19.4571      2.00000
     99     -19.4393      2.00000
    100     -19.3778      2.00000
    101     -19.3581      2.00000
    102     -19.3550      2.00000
    103     -19.3528      2.00000
    104     -19.3166      2.00000
    105     -19.3017      2.00000
    106     -19.2570      2.00000
    107     -19.2463      2.00000
    108     -19.1422      2.00000
    109     -19.1142      2.00000
    110     -19.0962      2.00000
    111     -19.0665      2.00000
    112     -19.0552      2.00000
    113     -18.9527      2.00000
    114     -18.9397      2.00000
    115     -18.9188      2.00000
    116     -18.9054      2.00000
    117     -18.7851      2.00000
    118     -18.7693      2.00000
    119     -18.6785      2.00000
    120     -18.6506      2.00000
    121     -18.6434      2.00000
    122     -18.6347      2.00000
    123     -18.5921      2.00000
    124     -18.4456      2.00000
    125     -18.4028      2.00000
    126     -18.3980      2.00000
    127     -18.3941      2.00000
    128     -18.3805      2.00000
    129     -18.3705      2.00000
    130     -18.3249      2.00000
    131     -18.3093      2.00000
    132     -18.2373      2.00000
    133     -18.1644      2.00000
    134     -18.1514      2.00000
    135     -18.1379      2.00000
    136     -18.1345      2.00000
    137     -18.1002      2.00000
    138     -18.0749      2.00000
    139     -18.0676      2.00000
    140     -18.0653      2.00000
    141     -18.0184      2.00000
    142     -17.9915      2.00000
    143     -17.9662      2.00000
    144     -17.9502      2.00000
    145     -17.9102      2.00000
    146     -17.8882      2.00000
    147     -17.8846      2.00000
    148     -17.8816      2.00000
    149     -17.8671      2.00000
    150     -17.8579      2.00000
    151     -17.8017      2.00000
    152     -17.7871      2.00000
    153     -17.7629      2.00000
    154     -17.7276      2.00000
    155     -17.6156      2.00000
    156     -17.6079      2.00000
    157     -17.5855      2.00000
    158     -17.5719      2.00000
    159     -17.5489      2.00000
    160     -17.5330      2.00000
    161     -17.5021      2.00000
    162     -17.4642      2.00000
    163     -17.4407      2.00000
    164     -17.4233      2.00000
    165     -17.4009      2.00000
    166     -17.3816      2.00000
    167     -17.3532      2.00000
    168     -17.3024      2.00000
    169     -17.1859      2.00000
    170     -17.1534      2.00000
    171     -17.1195      2.00000
    172     -17.1016      2.00000
    173     -17.0779      2.00000
    174     -16.9529      2.00000
    175     -16.9383      2.00000
    176     -16.8885      2.00000
    177     -16.6683      2.00000
    178     -16.6328      2.00000
    179     -16.5898      2.00000
    180     -16.5355      2.00000
    181     -16.4850      2.00000
    182     -16.4603      2.00000
    183     -16.4113      2.00000
    184     -16.3820      2.00000
    185     -16.3140      2.00000
    186     -16.2481      2.00000
    187     -16.2113      2.00000
    188     -16.1642      2.00000
    189     -16.1509      2.00000
    190     -16.1163      2.00000
    191     -16.0438      2.00000
    192     -15.9953      2.00000
    193     -15.9493      2.00000
    194     -15.9047      2.00000
    195     -15.8889      2.00000
    196     -15.8814      2.00000
    197     -15.8553      2.00000
    198     -15.8416      2.00000
    199     -15.8312      2.00000
    200     -15.8082      2.00000
    201     -15.7733      2.00000
    202     -15.7688      2.00000
    203     -15.7279      2.00000
    204     -15.7055      2.00000
    205     -15.7012      2.00000
    206     -15.6741      2.00000
    207     -15.6184      2.00000
    208     -15.6112      2.00000
    209     -15.5977      2.00000
    210     -15.5930      2.00000
    211     -15.5675      2.00000
    212     -15.5392      2.00000
    213     -15.5027      2.00000
    214     -15.4910      2.00000
    215     -15.4689      2.00000
    216     -15.4634      2.00000
    217     -15.4580      2.00000
    218     -15.4397      2.00000
    219     -15.4127      2.00000
    220     -15.3995      2.00000
    221     -15.3768      2.00000
    222     -15.3638      2.00000
    223     -15.3222      2.00000
    224     -15.3078      2.00000
    225     -15.2957      2.00000
    226     -15.2641      2.00000
    227     -15.1705      2.00000
    228     -15.1477      2.00000
    229     -15.1379      2.00000
    230     -15.1326      2.00000
    231     -15.0890      2.00000
    232     -15.0268      2.00000
    233     -14.9991      2.00000
    234     -14.9704      2.00000
    235     -14.9291      2.00000
    236     -14.9221      2.00000
    237     -14.9080      2.00000
    238     -14.8852      2.00000
    239     -14.8647      2.00000
    240     -14.8530      2.00000
    241     -14.7796      2.00000
    242     -14.5324      2.00000
    243     -14.5077      2.00000
    244     -14.5003      2.00000
    245     -14.4647      2.00000
    246     -14.4062      2.00000
    247     -14.4015      2.00000
    248     -14.3216      2.00000
    249     -14.3140      2.00000
    250     -14.2171      2.00000
    251     -14.0303      2.00000
    252     -13.9947      2.00000
    253     -13.9905      2.00000
    254     -13.9804      2.00000
    255     -13.9494      2.00000
    256     -13.9245      2.00000
    257     -13.9189      2.00000
    258     -13.8692      2.00000
    259     -13.8172      2.00000
    260     -13.8040      2.00000
    261     -13.8020      2.00000
    262     -13.7749      2.00000
    263     -13.7744      2.00000
    264     -13.7488      2.00000
    265     -13.7382      2.00000
    266     -13.7189      2.00000
    267     -13.6962      2.00000
    268     -13.6824      2.00000
    269     -13.6810      2.00000
    270     -13.6776      2.00000
    271     -13.6557      2.00000
    272     -13.6156      2.00000
    273     -13.6023      2.00000
    274     -13.5615      2.00000
    275     -13.5345      2.00000
    276     -13.4744      2.00000
    277     -13.4456      2.00000
    278     -13.4348      2.00000
    279     -13.3908      2.00000
    280     -13.3733      2.00000
    281     -13.3701      2.00000
    282     -13.3624      2.00000
    283     -13.3472      2.00000
    284     -13.3044      2.00000
    285     -13.3032      2.00000
    286     -13.2959      2.00000
    287     -13.2939      2.00000
    288     -13.2902      2.00000
    289     -13.2280      2.00000
    290     -13.1251      2.00000
    291     -13.1029      2.00000
    292     -13.0432      2.00000
    293     -13.0324      2.00000
    294     -13.0070      2.00000
    295     -12.9487      2.00000
    296     -12.9161      2.00000
    297     -12.8556      2.00000
    298     -12.8364      2.00000
    299     -12.8319      2.00000
    300     -12.7909      2.00000
    301     -12.7558      2.00000
    302     -12.6629      2.00000
    303     -12.6433      2.00000
    304     -12.5763      2.00000
    305     -12.5563      2.00000
    306     -12.4746      2.00000
    307     -12.4264      2.00000
    308     -12.4136      2.00000
    309     -12.3736      2.00000
    310     -12.3645      2.00000
    311     -12.3540      2.00000
    312     -12.3289      2.00000
    313     -12.2367      2.00000
    314     -12.1976      2.00000
    315     -12.1434      2.00000
    316     -12.1403      2.00000
    317     -12.1371      2.00000
    318     -12.0851      2.00000
    319     -12.0773      2.00000
    320     -12.0712      2.00000
    321     -12.0160      2.00000
    322     -11.9721      2.00000
    323     -11.9503      2.00000
    324     -11.9471      2.00000
    325     -11.9389      2.00000
    326     -11.9203      2.00000
    327     -11.8977      2.00000
    328     -11.8619      2.00000
    329     -11.8540      2.00000
    330     -11.8378      2.00000
    331     -11.8311      2.00000
    332     -11.7232      2.00000
    333     -11.7008      2.00000
    334     -11.6827      2.00000
    335     -11.6744      2.00000
    336     -11.6638      2.00000
    337     -11.6562      2.00000
    338     -11.6508      2.00000
    339     -11.6366      2.00000
    340     -11.6245      2.00000
    341     -11.6219      2.00000
    342     -11.6172      2.00000
    343     -11.6093      2.00000
    344     -11.5922      2.00000
    345     -11.5811      2.00000
    346     -11.5380      2.00000
    347     -11.5341      2.00000
    348     -11.5099      2.00000
    349     -11.5070      2.00000
    350     -11.4912      2.00000
    351     -11.4764      2.00000
    352     -11.4373      2.00000
    353     -11.4346      2.00000
    354     -11.4202      2.00000
    355     -11.4093      2.00000
    356     -11.3997      2.00000
    357     -11.3671      2.00000
    358     -11.2847      2.00000
    359     -11.2373      2.00000
    360     -11.2295      2.00000
    361     -11.1963      2.00000
    362     -11.1487      2.00000
    363     -11.1404      2.00000
    364     -11.1161      2.00000
    365     -11.0938      2.00000
    366     -11.0593      2.00000
    367     -10.9962      2.00000
    368     -10.9908      2.00000
    369     -10.9745      2.00000
    370     -10.9219      2.00000
    371     -10.9119      2.00000
    372     -10.9065      2.00000
    373     -10.8749      2.00000
    374     -10.8563      2.00000
    375     -10.8502      2.00000
    376     -10.8490      2.00000
    377     -10.8453      2.00000
    378     -10.8237      2.00000
    379     -10.8157      2.00000
    380     -10.7937      2.00000
    381     -10.7866      2.00000
    382     -10.7833      2.00000
    383     -10.7800      2.00000
    384     -10.7577      2.00000
    385     -10.7507      2.00000
    386     -10.7431      2.00000
    387     -10.7398      2.00000
    388     -10.7300      2.00000
    389     -10.7049      2.00000
    390     -10.6947      2.00000
    391     -10.6441      2.00000
    392     -10.6348      2.00000
    393     -10.6208      2.00000
    394     -10.6173      2.00000
    395     -10.6120      2.00000
    396     -10.5971      2.00000
    397     -10.5435      2.00000
    398     -10.5332      2.00000
    399     -10.5181      2.00000
    400     -10.5093      2.00000
    401     -10.4963      2.00000
    402     -10.4862      2.00000
    403     -10.4834      2.00000
    404     -10.4706      2.00000
    405     -10.4654      2.00000
    406     -10.3997      2.00000
    407     -10.3888      2.00000
    408     -10.3682      2.00000
    409     -10.3625      2.00000
    410     -10.3526      2.00000
    411     -10.3430      2.00000
    412     -10.3423      2.00000
    413     -10.3357      2.00000
    414     -10.3313      2.00000
    415     -10.3282      2.00000
    416     -10.3219      2.00000
    417     -10.3139      2.00000
    418     -10.3098      2.00000
    419     -10.3046      2.00000
    420     -10.2931      2.00000
    421     -10.2877      2.00000
    422     -10.2814      2.00000
    423     -10.2662      2.00000
    424     -10.2575      2.00000
    425     -10.2512      2.00000
    426     -10.2472      2.00000
    427     -10.2360      2.00000
    428     -10.2225      2.00000
    429     -10.2183      2.00000
    430     -10.2007      2.00000
    431     -10.1899      2.00000
    432     -10.1756      2.00000
    433     -10.1612      2.00000
    434     -10.1454      2.00000
    435     -10.1415      2.00000
    436     -10.1357      2.00000
    437     -10.1339      2.00000
    438     -10.1114      2.00000
    439     -10.0996      2.00000
    440     -10.0808      2.00000
    441     -10.0765      2.00000
    442     -10.0762      2.00000
    443     -10.0741      2.00000
    444     -10.0642      2.00000
    445     -10.0144      2.00000
    446     -10.0011      2.00000
    447      -9.9936      2.00000
    448      -9.9797      2.00000
    449      -9.9396      2.00000
    450      -9.9256      2.00000
    451      -9.9026      2.00000
    452      -9.8959      2.00000
    453      -9.8928      2.00000
    454      -9.8862      2.00000
    455      -9.8818      2.00000
    456      -9.8711      2.00000
    457      -9.8632      2.00000
    458      -9.8317      2.00000
    459      -9.8229      2.00000
    460      -9.8119      2.00000
    461      -9.7738      2.00000
    462      -9.7652      2.00000
    463      -9.7486      2.00000
    464      -9.7483      2.00000
    465      -9.7076      2.00000
    466      -9.6962      2.00000
    467      -9.6721      2.00000
    468      -9.6504      2.00000
    469      -9.6115      2.00000
    470      -9.6002      2.00000
    471      -9.5855      2.00000
    472      -9.5830      2.00000
    473      -9.5769      2.00000
    474      -9.5634      2.00000
    475      -9.5598      2.00000
    476      -9.5542      2.00000
    477      -9.5439      2.00000
    478      -9.5153      2.00000
    479      -9.4990      2.00000
    480      -9.4890      2.00000
    481      -9.4850      2.00000
    482      -9.4729      2.00000
    483      -9.4578      2.00000
    484      -9.4328      2.00000
    485      -9.4277      2.00000
    486      -9.4187      2.00000
    487      -9.4160      2.00000
    488      -9.4050      2.00000
    489      -9.3904      2.00000
    490      -9.3720      2.00000
    491      -9.3681      2.00000
    492      -9.3576      2.00000
    493      -9.3551      2.00000
    494      -9.3419      2.00000
    495      -9.3313      2.00000
    496      -9.3291      2.00000
    497      -9.3234      2.00000
    498      -9.3126      2.00000
    499      -9.3013      2.00000
    500      -9.2623      2.00000
    501      -9.2450      2.00000
    502      -9.2244      2.00000
    503      -9.2110      2.00000
    504      -9.2036      2.00000
    505      -9.1994      2.00000
    506      -9.1792      2.00000
    507      -9.1756      2.00000
    508      -9.1553      2.00000
    509      -9.1515      2.00000
    510      -9.1437      2.00000
    511      -9.0851      2.00000
    512      -9.0339      2.00000
    513      -9.0281      2.00000
    514      -9.0128      2.00000
    515      -8.9747      2.00000
    516      -8.9397      2.00000
    517      -8.9038      2.00000
    518      -8.8628      2.00000
    519      -8.8342      2.00000
    520      -8.8167      2.00000
    521      -8.8013      2.00000
    522      -8.7829      2.00000
    523      -8.7782      2.00000
    524      -8.7440      2.00000
    525      -8.7173      2.00000
    526      -8.7027      2.00000
    527      -8.6738      2.00000
    528      -8.6225      2.00000
    529      -8.6057      2.00000
    530      -8.5852      2.00000
    531      -8.5657      2.00000
    532      -8.5615      2.00000
    533      -8.5464      2.00000
    534      -8.5285      2.00000
    535      -8.5215      2.00000
    536      -8.5006      2.00000
    537      -8.4908      2.00000
    538      -8.4847      2.00000
    539      -8.4744      2.00000
    540      -8.4651      2.00000
    541      -8.4640      2.00000
    542      -8.4566      2.00000
    543      -8.4467      2.00000
    544      -8.4417      2.00000
    545      -8.4123      2.00000
    546      -8.4054      2.00000
    547      -8.4042      2.00000
    548      -8.3947      2.00000
    549      -8.3865      2.00000
    550      -8.3819      2.00000
    551      -8.3758      2.00000
    552      -8.3538      2.00000
    553      -8.3452      2.00000
    554      -8.3286      2.00000
    555      -8.3184      2.00000
    556      -8.2897      2.00000
    557      -8.2490      2.00000
    558      -8.2419      2.00000
    559      -8.2384      2.00000
    560      -8.2246      2.00000
    561      -8.2120      2.00000
    562      -8.2042      2.00000
    563      -8.1887      2.00000
    564      -8.1323      2.00000
    565      -8.1223      2.00000
    566      -8.1175      2.00000
    567      -8.0916      2.00000
    568      -8.0882      2.00000
    569      -8.0827      2.00000
    570      -8.0741      2.00000
    571      -8.0710      2.00000
    572      -8.0282      2.00000
    573      -7.9860      2.00000
    574      -7.9573      2.00000
    575      -7.9478      2.00000
    576      -7.9145      2.00000
    577      -7.8941      2.00000
    578      -7.8592      2.00000
    579      -7.8553      2.00000
    580      -7.8211      2.00000
    581      -7.8109      2.00000
    582      -7.7967      2.00000
    583      -7.7829      2.00000
    584      -7.7744      2.00000
    585      -7.7602      2.00000
    586      -7.7203      2.00000
    587      -7.6846      2.00000
    588      -7.6701      2.00000
    589      -7.6686      2.00000
    590      -7.6501      2.00000
    591      -7.6467      2.00000
    592      -7.6420      2.00000
    593      -7.6266      2.00000
    594      -7.5770      2.00000
    595      -7.5387      2.00000
    596      -7.5246      2.00000
    597      -7.5155      2.00000
    598      -7.5055      2.00000
    599      -7.4817      2.00000
    600      -7.4647      2.00000
    601      -7.4409      2.00000
    602      -7.4259      2.00000
    603      -7.4170      2.00000
    604      -7.4002      2.00000
    605      -7.3955      2.00000
    606      -7.3789      2.00000
    607      -7.3510      2.00000
    608      -7.3431      2.00000
    609      -7.3097      2.00000
    610      -7.2840      2.00000
    611      -7.2591      2.00000
    612      -7.2453      2.00000
    613      -7.2024      2.00000
    614      -7.1932      2.00000
    615      -7.1776      2.00000
    616      -7.1530      2.00000
    617      -7.1177      2.00000
    618      -7.1099      2.00000
    619      -7.1036      2.00000
    620      -7.0992      2.00000
    621      -7.0951      2.00000
    622      -7.0928      2.00000
    623      -7.0891      2.00000
    624      -7.0852      2.00000
    625      -7.0698      2.00000
    626      -7.0504      2.00000
    627      -7.0171      2.00000
    628      -7.0128      2.00000
    629      -6.9541      2.00000
    630      -6.9341      2.00000
    631      -6.9295      2.00000
    632      -6.9088      2.00000
    633      -6.9067      2.00000
    634      -6.9047      2.00000
    635      -6.8850      2.00000
    636      -6.8184      2.00000
    637      -6.7977      2.00000
    638      -6.7853      2.00000
    639      -6.7624      2.00000
    640      -6.7574      2.00000
    641      -6.7556      2.00000
    642      -6.7467      2.00000
    643      -6.7068      2.00000
    644      -6.6927      2.00000
    645      -6.6730      2.00000
    646      -6.6330      2.00000
    647      -6.6249      2.00000
    648      -6.6156      2.00000
    649      -6.6100      2.00000
    650      -6.6021      2.00000
    651      -6.5946      2.00000
    652      -6.5341      2.00000
    653      -6.4919      2.00000
    654      -6.4840      2.00000
    655      -6.4647      2.00000
    656      -6.4597      2.00000
    657      -6.4367      2.00000
    658      -6.4239      2.00000
    659      -6.3930      2.00000
    660      -6.3516      2.00000
    661      -6.3271      2.00000
    662      -6.3214      2.00000
    663      -6.2343      2.00000
    664      -6.2167      2.00000
    665      -6.1930      2.00000
    666      -6.1741      2.00000
    667      -6.1149      2.00000
    668      -6.0896      2.00000
    669      -6.0481      2.00000
    670      -6.0159      2.00000
    671      -5.9808      2.00000
    672      -5.9471      2.00000
    673      -5.9271      2.00000
    674      -5.9119      2.00000
    675      -5.8956      2.00000
    676      -5.8527      2.00000
    677      -5.7820      2.00000
    678      -5.7449      2.00000
    679      -5.6809      2.00000
    680      -5.6691      2.00000
    681      -5.6431      2.00000
    682      -5.6246      2.00000
    683      -5.6103      2.00000
    684      -5.5956      2.00000
    685      -5.5924      2.00000
    686      -5.5841      2.00000
    687      -5.5760      2.00000
    688      -5.5580      2.00000
    689      -5.5474      2.00000
    690      -5.5356      2.00000
    691      -5.5116      2.00000
    692      -5.4937      2.00000
    693      -5.4821      2.00000
    694      -5.4615      2.00000
    695      -5.4493      2.00000
    696      -5.4463      2.00000
    697      -5.3818      2.00000
    698      -5.3664      2.00000
    699      -5.3419      2.00000
    700      -5.3102      2.00000
    701      -5.2962      2.00000
    702      -5.2276      2.00000
    703      -5.1882      2.00000
    704      -5.1615      2.00000
    705      -5.1553      2.00000
    706      -5.1548      2.00000
    707      -5.1286      2.00000
    708      -5.0473      2.00000
    709      -5.0303      2.00000
    710      -4.9686      2.00000
    711      -4.9509      2.00000
    712      -4.9279      2.00000
    713      -4.9043      2.00000
    714      -4.8416      2.00000
    715      -4.8086      2.00000
    716      -4.7478      2.00000
    717      -4.7031      2.00000
    718      -4.5734      2.00000
    719      -4.5704      2.00000
    720      -4.4818      2.00000
    721      -4.4615      2.00000
    722      -4.3156      2.00000
    723      -4.2736      2.00000
    724      -4.1997      2.00000
    725      -4.1593      2.00000
    726      -4.1275      2.00000
    727      -4.0678      2.00000
    728      -3.8964      2.00000
    729      -3.8420      2.00000
    730      -3.7287      2.00000
    731      -3.6608      2.00000
    732      -2.7504      0.00000
    733      -2.6588      0.00000
    734      -2.5789      0.00000
    735      -2.4601      0.00000
    736      -2.3373      0.00000
    737      -2.2491      0.00000
    738      -2.1847      0.00000
    739      -2.1555      0.00000
    740      -2.0909      0.00000
    741      -1.9659      0.00000
    742      -1.9532      0.00000
    743      -1.9410      0.00000
    744      -1.9341      0.00000
    745      -1.9295      0.00000
    746      -1.9131      0.00000
    747      -1.9042      0.00000
    748      -1.8471      0.00000
    749      -1.8008      0.00000
    750      -1.7720      0.00000
    751      -1.7694      0.00000
    752      -1.7560      0.00000
    753      -1.7467      0.00000
    754      -1.7314      0.00000
    755      -1.7151      0.00000
    756      -1.7118      0.00000
    757      -1.6831      0.00000
    758      -1.6464      0.00000
    759      -1.6105      0.00000
    760      -1.5970      0.00000
    761      -1.5780      0.00000
    762      -1.5263      0.00000
    763      -1.4841      0.00000
    764      -1.4772      0.00000
    765      -1.4588      0.00000
    766      -1.4499      0.00000
    767      -1.4410      0.00000
    768      -1.4247      0.00000
    769      -1.4183      0.00000
    770      -1.3909      0.00000
    771      -1.3710      0.00000
    772      -1.3545      0.00000
    773      -1.3532      0.00000
    774      -1.3365      0.00000
    775      -1.3241      0.00000
    776      -1.3078      0.00000
    777      -1.2919      0.00000
    778      -1.2800      0.00000
    779      -1.2696      0.00000
    780      -1.2658      0.00000
    781      -1.2063      0.00000
    782      -1.1962      0.00000
    783      -1.1459      0.00000
    784      -1.1390      0.00000
    785      -1.1239      0.00000
    786      -1.1059      0.00000
    787      -1.0379      0.00000
    788      -0.9863      0.00000
    789      -0.9757      0.00000
    790      -0.9308      0.00000
    791      -0.8304      0.00000
    792      -0.7695      0.00000
    793      -0.7603      0.00000
    794      -0.7346      0.00000
    795      -0.6243      0.00000
    796      -0.5893      0.00000
    797      -0.5244      0.00000
    798      -0.4926      0.00000
    799      -0.4660      0.00000
    800      -0.4564      0.00000
    801      -0.4428      0.00000
    802      -0.3589      0.00000
    803      -0.2529      0.00000
    804      -0.2139      0.00000
    805      -0.1915      0.00000
    806      -0.1515      0.00000
    807      -0.1364      0.00000
    808      -0.1171      0.00000
    809      -0.1000      0.00000
    810      -0.0713      0.00000
    811      -0.0449      0.00000
    812      -0.0163      0.00000
    813      -0.0037      0.00000
    814       0.0142      0.00000
    815       0.1030      0.00000
    816       0.1175      0.00000
    817       0.1286      0.00000
    818       0.1588      0.00000
    819       0.1889      0.00000
    820       0.2569      0.00000
    821       0.2964      0.00000
    822       0.3121      0.00000
    823       0.3237      0.00000
    824       0.3537      0.00000
    825       0.3754      0.00000
    826       0.4104      0.00000
    827       0.4361      0.00000
    828       0.4669      0.00000
    829       0.4721      0.00000
    830       0.4933      0.00000
    831       0.5029      0.00000
    832       0.5111      0.00000
    833       0.5259      0.00000
    834       0.5300      0.00000
    835       0.5487      0.00000
    836       0.5669      0.00000
    837       0.5708      0.00000
    838       0.5722      0.00000
    839       0.5754      0.00000
    840       0.5953      0.00000
    841       0.6086      0.00000
    842       0.6129      0.00000
    843       0.6397      0.00000
    844       0.6712      0.00000
    845       0.7107      0.00000
    846       0.7611      0.00000
    847       0.7926      0.00000
    848       0.8060      0.00000
    849       0.8296      0.00000
    850       0.8320      0.00000
    851       0.8466      0.00000
    852       0.8646      0.00000
    853       0.8876      0.00000
    854       0.9136      0.00000
    855       0.9276      0.00000
    856       0.9476      0.00000
    857       0.9677      0.00000
    858       0.9842      0.00000
    859       0.9907      0.00000
    860       0.9969      0.00000
    861       1.0281      0.00000
    862       1.0666      0.00000
    863       1.0799      0.00000
    864       1.0894      0.00000
    865       1.1076      0.00000
    866       1.1510      0.00000
    867       1.1786      0.00000
    868       1.2014      0.00000
    869       1.2071      0.00000
    870       1.2236      0.00000
    871       1.2247      0.00000
    872       1.2346      0.00000
    873       1.2613      0.00000
    874       1.2650      0.00000
    875       1.2706      0.00000
    876       1.2957      0.00000
    877       1.3071      0.00000
    878       1.3139      0.00000
    879       1.3420      0.00000
    880       1.3679      0.00000
    881       1.3768      0.00000
    882       1.3801      0.00000
    883       1.4014      0.00000
    884       1.4072      0.00000
    885       1.4122      0.00000
    886       1.4195      0.00000
    887       1.4395      0.00000
    888       1.4482      0.00000
    889       1.4675      0.00000
    890       1.4820      0.00000
    891       1.4980      0.00000
    892       1.5013      0.00000
    893       1.5090      0.00000
    894       1.5214      0.00000
    895       1.5274      0.00000
    896       1.5421      0.00000

 k-point     7 :       0.0000    0.0000   -0.3333
  band No.  band energies     occupation 
      1     -22.9843      2.00000
      2     -22.9595      2.00000
      3     -22.8723      2.00000
      4     -22.8069      2.00000
      5     -22.7780      2.00000
      6     -22.7651      2.00000
      7     -22.7487      2.00000
      8     -22.7429      2.00000
      9     -22.6637      2.00000
     10     -22.6549      2.00000
     11     -22.6290      2.00000
     12     -22.5964      2.00000
     13     -22.5888      2.00000
     14     -22.5190      2.00000
     15     -22.4220      2.00000
     16     -22.4131      2.00000
     17     -22.3129      2.00000
     18     -22.3035      2.00000
     19     -22.2559      2.00000
     20     -22.1559      2.00000
     21     -22.1341      2.00000
     22     -22.1206      2.00000
     23     -22.1123      2.00000
     24     -22.1017      2.00000
     25     -22.0518      2.00000
     26     -22.0409      2.00000
     27     -22.0326      2.00000
     28     -22.0250      2.00000
     29     -21.9702      2.00000
     30     -21.9598      2.00000
     31     -21.8956      2.00000
     32     -21.8880      2.00000
     33     -21.7977      2.00000
     34     -21.7857      2.00000
     35     -21.7526      2.00000
     36     -21.6885      2.00000
     37     -21.6771      2.00000
     38     -21.5592      2.00000
     39     -21.5469      2.00000
     40     -21.5397      2.00000
     41     -21.4298      2.00000
     42     -21.4171      2.00000
     43     -21.3542      2.00000
     44     -21.3446      2.00000
     45     -21.2784      2.00000
     46     -21.2657      2.00000
     47     -21.1451      2.00000
     48     -21.1213      2.00000
     49     -21.1166      2.00000
     50     -21.1024      2.00000
     51     -21.0952      2.00000
     52     -21.0233      2.00000
     53     -21.0095      2.00000
     54     -20.9590      2.00000
     55     -20.9454      2.00000
     56     -20.9339      2.00000
     57     -20.9218      2.00000
     58     -20.9166      2.00000
     59     -20.9121      2.00000
     60     -20.8857      2.00000
     61     -20.7873      2.00000
     62     -20.7744      2.00000
     63     -20.7406      2.00000
     64     -20.7281      2.00000
     65     -20.6879      2.00000
     66     -20.6765      2.00000
     67     -20.6729      2.00000
     68     -20.6677      2.00000
     69     -20.4287      2.00000
     70     -20.4126      2.00000
     71     -20.3726      2.00000
     72     -20.3149      2.00000
     73     -20.3013      2.00000
     74     -20.2767      2.00000
     75     -20.2642      2.00000
     76     -20.1743      2.00000
     77     -20.1643      2.00000
     78     -20.0981      2.00000
     79     -20.0788      2.00000
     80     -20.0678      2.00000
     81     -19.9461      2.00000
     82     -19.9266      2.00000
     83     -19.8985      2.00000
     84     -19.8891      2.00000
     85     -19.8018      2.00000
     86     -19.7550      2.00000
     87     -19.7472      2.00000
     88     -19.7392      2.00000
     89     -19.7357      2.00000
     90     -19.7340      2.00000
     91     -19.6669      2.00000
     92     -19.6512      2.00000
     93     -19.6032      2.00000
     94     -19.5890      2.00000
     95     -19.5732      2.00000
     96     -19.5630      2.00000
     97     -19.5063      2.00000
     98     -19.4417      2.00000
     99     -19.4235      2.00000
    100     -19.3518      2.00000
    101     -19.3246      2.00000
    102     -19.3209      2.00000
    103     -19.3203      2.00000
    104     -19.3092      2.00000
    105     -19.3026      2.00000
    106     -19.2981      2.00000
    107     -19.2921      2.00000
    108     -19.1936      2.00000
    109     -19.1134      2.00000
    110     -19.0942      2.00000
    111     -19.0850      2.00000
    112     -19.0736      2.00000
    113     -19.0020      2.00000
    114     -18.9923      2.00000
    115     -18.9451      2.00000
    116     -18.9305      2.00000
    117     -18.7387      2.00000
    118     -18.7202      2.00000
    119     -18.6447      2.00000
    120     -18.6106      2.00000
    121     -18.6069      2.00000
    122     -18.6054      2.00000
    123     -18.5373      2.00000
    124     -18.4662      2.00000
    125     -18.4277      2.00000
    126     -18.4254      2.00000
    127     -18.4200      2.00000
    128     -18.3722      2.00000
    129     -18.3525      2.00000
    130     -18.3494      2.00000
    131     -18.3422      2.00000
    132     -18.2417      2.00000
    133     -18.1905      2.00000
    134     -18.1625      2.00000
    135     -18.1521      2.00000
    136     -18.1417      2.00000
    137     -18.0941      2.00000
    138     -18.0640      2.00000
    139     -18.0440      2.00000
    140     -18.0322      2.00000
    141     -18.0245      2.00000
    142     -18.0172      2.00000
    143     -18.0060      2.00000
    144     -18.0007      2.00000
    145     -17.8934      2.00000
    146     -17.8557      2.00000
    147     -17.8452      2.00000
    148     -17.8432      2.00000
    149     -17.8398      2.00000
    150     -17.8299      2.00000
    151     -17.8229      2.00000
    152     -17.8168      2.00000
    153     -17.7798      2.00000
    154     -17.7450      2.00000
    155     -17.6405      2.00000
    156     -17.6306      2.00000
    157     -17.6118      2.00000
    158     -17.5602      2.00000
    159     -17.5426      2.00000
    160     -17.5135      2.00000
    161     -17.4907      2.00000
    162     -17.4384      2.00000
    163     -17.4271      2.00000
    164     -17.3956      2.00000
    165     -17.3798      2.00000
    166     -17.3749      2.00000
    167     -17.3263      2.00000
    168     -17.3101      2.00000
    169     -17.2056      2.00000
    170     -17.1534      2.00000
    171     -17.1357      2.00000
    172     -17.1253      2.00000
    173     -17.0765      2.00000
    174     -17.0016      2.00000
    175     -16.9672      2.00000
    176     -16.9153      2.00000
    177     -16.6463      2.00000
    178     -16.6107      2.00000
    179     -16.5796      2.00000
    180     -16.5032      2.00000
    181     -16.4522      2.00000
    182     -16.4341      2.00000
    183     -16.4203      2.00000
    184     -16.3448      2.00000
    185     -16.3082      2.00000
    186     -16.2442      2.00000
    187     -16.2109      2.00000
    188     -16.1991      2.00000
    189     -16.1818      2.00000
    190     -16.1077      2.00000
    191     -16.0703      2.00000
    192     -16.0472      2.00000
    193     -15.9856      2.00000
    194     -15.9424      2.00000
    195     -15.9077      2.00000
    196     -15.8564      2.00000
    197     -15.8428      2.00000
    198     -15.8403      2.00000
    199     -15.8333      2.00000
    200     -15.8083      2.00000
    201     -15.7657      2.00000
    202     -15.7597      2.00000
    203     -15.7267      2.00000
    204     -15.7138      2.00000
    205     -15.7037      2.00000
    206     -15.6681      2.00000
    207     -15.5867      2.00000
    208     -15.5829      2.00000
    209     -15.5770      2.00000
    210     -15.5720      2.00000
    211     -15.5624      2.00000
    212     -15.5528      2.00000
    213     -15.5184      2.00000
    214     -15.5113      2.00000
    215     -15.4994      2.00000
    216     -15.4527      2.00000
    217     -15.4410      2.00000
    218     -15.3974      2.00000
    219     -15.3717      2.00000
    220     -15.3584      2.00000
    221     -15.3563      2.00000
    222     -15.3359      2.00000
    223     -15.3196      2.00000
    224     -15.3162      2.00000
    225     -15.2995      2.00000
    226     -15.2621      2.00000
    227     -15.2007      2.00000
    228     -15.1933      2.00000
    229     -15.1663      2.00000
    230     -15.1044      2.00000
    231     -15.0913      2.00000
    232     -15.0674      2.00000
    233     -15.0231      2.00000
    234     -14.9914      2.00000
    235     -14.9712      2.00000
    236     -14.9467      2.00000
    237     -14.9309      2.00000
    238     -14.9006      2.00000
    239     -14.8563      2.00000
    240     -14.8131      2.00000
    241     -14.7992      2.00000
    242     -14.5766      2.00000
    243     -14.4604      2.00000
    244     -14.4438      2.00000
    245     -14.4384      2.00000
    246     -14.4065      2.00000
    247     -14.3443      2.00000
    248     -14.2711      2.00000
    249     -14.2579      2.00000
    250     -14.1506      2.00000
    251     -14.0594      2.00000
    252     -14.0513      2.00000
    253     -14.0461      2.00000
    254     -13.9883      2.00000
    255     -13.9767      2.00000
    256     -13.9682      2.00000
    257     -13.9211      2.00000
    258     -13.9154      2.00000
    259     -13.8178      2.00000
    260     -13.8052      2.00000
    261     -13.8000      2.00000
    262     -13.7795      2.00000
    263     -13.7723      2.00000
    264     -13.7632      2.00000
    265     -13.7473      2.00000
    266     -13.7432      2.00000
    267     -13.7123      2.00000
    268     -13.6919      2.00000
    269     -13.6787      2.00000
    270     -13.6746      2.00000
    271     -13.6650      2.00000
    272     -13.6549      2.00000
    273     -13.5977      2.00000
    274     -13.5642      2.00000
    275     -13.5504      2.00000
    276     -13.4858      2.00000
    277     -13.4626      2.00000
    278     -13.4153      2.00000
    279     -13.3748      2.00000
    280     -13.3543      2.00000
    281     -13.3361      2.00000
    282     -13.3178      2.00000
    283     -13.3065      2.00000
    284     -13.3015      2.00000
    285     -13.2992      2.00000
    286     -13.2826      2.00000
    287     -13.2391      2.00000
    288     -13.2356      2.00000
    289     -13.2041      2.00000
    290     -13.0903      2.00000
    291     -13.0494      2.00000
    292     -13.0379      2.00000
    293     -13.0051      2.00000
    294     -12.9857      2.00000
    295     -12.9698      2.00000
    296     -12.9203      2.00000
    297     -12.8993      2.00000
    298     -12.8705      2.00000
    299     -12.8655      2.00000
    300     -12.8549      2.00000
    301     -12.8243      2.00000
    302     -12.7038      2.00000
    303     -12.6354      2.00000
    304     -12.6257      2.00000
    305     -12.6121      2.00000
    306     -12.5333      2.00000
    307     -12.4080      2.00000
    308     -12.3939      2.00000
    309     -12.3835      2.00000
    310     -12.3475      2.00000
    311     -12.3420      2.00000
    312     -12.3149      2.00000
    313     -12.1813      2.00000
    314     -12.1760      2.00000
    315     -12.1320      2.00000
    316     -12.1222      2.00000
    317     -12.1173      2.00000
    318     -12.0764      2.00000
    319     -12.0488      2.00000
    320     -12.0043      2.00000
    321     -11.9764      2.00000
    322     -11.9572      2.00000
    323     -11.9519      2.00000
    324     -11.9374      2.00000
    325     -11.9106      2.00000
    326     -11.9033      2.00000
    327     -11.8973      2.00000
    328     -11.8770      2.00000
    329     -11.8746      2.00000
    330     -11.8544      2.00000
    331     -11.7995      2.00000
    332     -11.7380      2.00000
    333     -11.7321      2.00000
    334     -11.7130      2.00000
    335     -11.6879      2.00000
    336     -11.6826      2.00000
    337     -11.6523      2.00000
    338     -11.6472      2.00000
    339     -11.6386      2.00000
    340     -11.6356      2.00000
    341     -11.6088      2.00000
    342     -11.6024      2.00000
    343     -11.5995      2.00000
    344     -11.5972      2.00000
    345     -11.5839      2.00000
    346     -11.5727      2.00000
    347     -11.5702      2.00000
    348     -11.5391      2.00000
    349     -11.5300      2.00000
    350     -11.4990      2.00000
    351     -11.4865      2.00000
    352     -11.4661      2.00000
    353     -11.4466      2.00000
    354     -11.4325      2.00000
    355     -11.4280      2.00000
    356     -11.4143      2.00000
    357     -11.4034      2.00000
    358     -11.2853      2.00000
    359     -11.2549      2.00000
    360     -11.2230      2.00000
    361     -11.1762      2.00000
    362     -11.1156      2.00000
    363     -11.1002      2.00000
    364     -11.0911      2.00000
    365     -11.0830      2.00000
    366     -11.0651      2.00000
    367     -10.9647      2.00000
    368     -10.9421      2.00000
    369     -10.9323      2.00000
    370     -10.9275      2.00000
    371     -10.8892      2.00000
    372     -10.8835      2.00000
    373     -10.8671      2.00000
    374     -10.8542      2.00000
    375     -10.8502      2.00000
    376     -10.8498      2.00000
    377     -10.8470      2.00000
    378     -10.8439      2.00000
    379     -10.8314      2.00000
    380     -10.8262      2.00000
    381     -10.8180      2.00000
    382     -10.7844      2.00000
    383     -10.7590      2.00000
    384     -10.7463      2.00000
    385     -10.7309      2.00000
    386     -10.7277      2.00000
    387     -10.7196      2.00000
    388     -10.7030      2.00000
    389     -10.6907      2.00000
    390     -10.6823      2.00000
    391     -10.6572      2.00000
    392     -10.6473      2.00000
    393     -10.6309      2.00000
    394     -10.5912      2.00000
    395     -10.5866      2.00000
    396     -10.5733      2.00000
    397     -10.5709      2.00000
    398     -10.5570      2.00000
    399     -10.5540      2.00000
    400     -10.5418      2.00000
    401     -10.5212      2.00000
    402     -10.4923      2.00000
    403     -10.4677      2.00000
    404     -10.4654      2.00000
    405     -10.4471      2.00000
    406     -10.4221      2.00000
    407     -10.4173      2.00000
    408     -10.4102      2.00000
    409     -10.4060      2.00000
    410     -10.4028      2.00000
    411     -10.3821      2.00000
    412     -10.3543      2.00000
    413     -10.3407      2.00000
    414     -10.3377      2.00000
    415     -10.3252      2.00000
    416     -10.3217      2.00000
    417     -10.3179      2.00000
    418     -10.3154      2.00000
    419     -10.2948      2.00000
    420     -10.2912      2.00000
    421     -10.2747      2.00000
    422     -10.2694      2.00000
    423     -10.2575      2.00000
    424     -10.2569      2.00000
    425     -10.2445      2.00000
    426     -10.2403      2.00000
    427     -10.2347      2.00000
    428     -10.2243      2.00000
    429     -10.2136      2.00000
    430     -10.2024      2.00000
    431     -10.1993      2.00000
    432     -10.1965      2.00000
    433     -10.1593      2.00000
    434     -10.1535      2.00000
    435     -10.1252      2.00000
    436     -10.1193      2.00000
    437     -10.1008      2.00000
    438     -10.0914      2.00000
    439     -10.0825      2.00000
    440     -10.0741      2.00000
    441     -10.0726      2.00000
    442     -10.0665      2.00000
    443     -10.0614      2.00000
    444     -10.0497      2.00000
    445     -10.0227      2.00000
    446     -10.0024      2.00000
    447      -9.9875      2.00000
    448      -9.9761      2.00000
    449      -9.9365      2.00000
    450      -9.9168      2.00000
    451      -9.9083      2.00000
    452      -9.9046      2.00000
    453      -9.9004      2.00000
    454      -9.8856      2.00000
    455      -9.8568      2.00000
    456      -9.8544      2.00000
    457      -9.8405      2.00000
    458      -9.8354      2.00000
    459      -9.8351      2.00000
    460      -9.8195      2.00000
    461      -9.7763      2.00000
    462      -9.7704      2.00000
    463      -9.7532      2.00000
    464      -9.7499      2.00000
    465      -9.7218      2.00000
    466      -9.6851      2.00000
    467      -9.6661      2.00000
    468      -9.6389      2.00000
    469      -9.6310      2.00000
    470      -9.6246      2.00000
    471      -9.6081      2.00000
    472      -9.5768      2.00000
    473      -9.5559      2.00000
    474      -9.5552      2.00000
    475      -9.5482      2.00000
    476      -9.5441      2.00000
    477      -9.5377      2.00000
    478      -9.5348      2.00000
    479      -9.5065      2.00000
    480      -9.5021      2.00000
    481      -9.4876      2.00000
    482      -9.4566      2.00000
    483      -9.4408      2.00000
    484      -9.4320      2.00000
    485      -9.4218      2.00000
    486      -9.4141      2.00000
    487      -9.4007      2.00000
    488      -9.3918      2.00000
    489      -9.3895      2.00000
    490      -9.3750      2.00000
    491      -9.3669      2.00000
    492      -9.3547      2.00000
    493      -9.3507      2.00000
    494      -9.3467      2.00000
    495      -9.3378      2.00000
    496      -9.3320      2.00000
    497      -9.3235      2.00000
    498      -9.3020      2.00000
    499      -9.2813      2.00000
    500      -9.2787      2.00000
    501      -9.2647      2.00000
    502      -9.2334      2.00000
    503      -9.2320      2.00000
    504      -9.2064      2.00000
    505      -9.2045      2.00000
    506      -9.1891      2.00000
    507      -9.1792      2.00000
    508      -9.1671      2.00000
    509      -9.1532      2.00000
    510      -9.1487      2.00000
    511      -9.1369      2.00000
    512      -9.0695      2.00000
    513      -9.0307      2.00000
    514      -8.9906      2.00000
    515      -8.9286      2.00000
    516      -8.9095      2.00000
    517      -8.8958      2.00000
    518      -8.8652      2.00000
    519      -8.8389      2.00000
    520      -8.8177      2.00000
    521      -8.8028      2.00000
    522      -8.7825      2.00000
    523      -8.7774      2.00000
    524      -8.7743      2.00000
    525      -8.6959      2.00000
    526      -8.6809      2.00000
    527      -8.6466      2.00000
    528      -8.6228      2.00000
    529      -8.6040      2.00000
    530      -8.5867      2.00000
    531      -8.5574      2.00000
    532      -8.5544      2.00000
    533      -8.5372      2.00000
    534      -8.5241      2.00000
    535      -8.5145      2.00000
    536      -8.5039      2.00000
    537      -8.4995      2.00000
    538      -8.4876      2.00000
    539      -8.4715      2.00000
    540      -8.4665      2.00000
    541      -8.4559      2.00000
    542      -8.4552      2.00000
    543      -8.4311      2.00000
    544      -8.4300      2.00000
    545      -8.4263      2.00000
    546      -8.4213      2.00000
    547      -8.4133      2.00000
    548      -8.4000      2.00000
    549      -8.3915      2.00000
    550      -8.3861      2.00000
    551      -8.3625      2.00000
    552      -8.3535      2.00000
    553      -8.3432      2.00000
    554      -8.3311      2.00000
    555      -8.2999      2.00000
    556      -8.2968      2.00000
    557      -8.2756      2.00000
    558      -8.2533      2.00000
    559      -8.2336      2.00000
    560      -8.2249      2.00000
    561      -8.2215      2.00000
    562      -8.2184      2.00000
    563      -8.2055      2.00000
    564      -8.1782      2.00000
    565      -8.1500      2.00000
    566      -8.1298      2.00000
    567      -8.1095      2.00000
    568      -8.1041      2.00000
    569      -8.0966      2.00000
    570      -8.0928      2.00000
    571      -8.0506      2.00000
    572      -7.9840      2.00000
    573      -7.9470      2.00000
    574      -7.9385      2.00000
    575      -7.9316      2.00000
    576      -7.9181      2.00000
    577      -7.8643      2.00000
    578      -7.8438      2.00000
    579      -7.8336      2.00000
    580      -7.8167      2.00000
    581      -7.7839      2.00000
    582      -7.7774      2.00000
    583      -7.7631      2.00000
    584      -7.7482      2.00000
    585      -7.7402      2.00000
    586      -7.7295      2.00000
    587      -7.7098      2.00000
    588      -7.7068      2.00000
    589      -7.6729      2.00000
    590      -7.6686      2.00000
    591      -7.6333      2.00000
    592      -7.6290      2.00000
    593      -7.6124      2.00000
    594      -7.5773      2.00000
    595      -7.5551      2.00000
    596      -7.5425      2.00000
    597      -7.5278      2.00000
    598      -7.5067      2.00000
    599      -7.4918      2.00000
    600      -7.4859      2.00000
    601      -7.4632      2.00000
    602      -7.4486      2.00000
    603      -7.4433      2.00000
    604      -7.4346      2.00000
    605      -7.4303      2.00000
    606      -7.3746      2.00000
    607      -7.3452      2.00000
    608      -7.3237      2.00000
    609      -7.3055      2.00000
    610      -7.2774      2.00000
    611      -7.2503      2.00000
    612      -7.2342      2.00000
    613      -7.2019      2.00000
    614      -7.1972      2.00000
    615      -7.1659      2.00000
    616      -7.1639      2.00000
    617      -7.1207      2.00000
    618      -7.1203      2.00000
    619      -7.1024      2.00000
    620      -7.0962      2.00000
    621      -7.0910      2.00000
    622      -7.0794      2.00000
    623      -7.0754      2.00000
    624      -7.0615      2.00000
    625      -7.0480      2.00000
    626      -7.0433      2.00000
    627      -7.0090      2.00000
    628      -7.0003      2.00000
    629      -6.9537      2.00000
    630      -6.9382      2.00000
    631      -6.9300      2.00000
    632      -6.9278      2.00000
    633      -6.9028      2.00000
    634      -6.8732      2.00000
    635      -6.8436      2.00000
    636      -6.8275      2.00000
    637      -6.8006      2.00000
    638      -6.7746      2.00000
    639      -6.7578      2.00000
    640      -6.7569      2.00000
    641      -6.7340      2.00000
    642      -6.7264      2.00000
    643      -6.7105      2.00000
    644      -6.6886      2.00000
    645      -6.6737      2.00000
    646      -6.6568      2.00000
    647      -6.6497      2.00000
    648      -6.6372      2.00000
    649      -6.6358      2.00000
    650      -6.6117      2.00000
    651      -6.6030      2.00000
    652      -6.5654      2.00000
    653      -6.5296      2.00000
    654      -6.5085      2.00000
    655      -6.4961      2.00000
    656      -6.4811      2.00000
    657      -6.4396      2.00000
    658      -6.4110      2.00000
    659      -6.3721      2.00000
    660      -6.3217      2.00000
    661      -6.3016      2.00000
    662      -6.2868      2.00000
    663      -6.2466      2.00000
    664      -6.2233      2.00000
    665      -6.2089      2.00000
    666      -6.1627      2.00000
    667      -6.0875      2.00000
    668      -6.0740      2.00000
    669      -6.0468      2.00000
    670      -6.0198      2.00000
    671      -5.9693      2.00000
    672      -5.9479      2.00000
    673      -5.9060      2.00000
    674      -5.8911      2.00000
    675      -5.8715      2.00000
    676      -5.8580      2.00000
    677      -5.7988      2.00000
    678      -5.7369      2.00000
    679      -5.7008      2.00000
    680      -5.6761      2.00000
    681      -5.6516      2.00000
    682      -5.6386      2.00000
    683      -5.6171      2.00000
    684      -5.6113      2.00000
    685      -5.5938      2.00000
    686      -5.5868      2.00000
    687      -5.5716      2.00000
    688      -5.5541      2.00000
    689      -5.5446      2.00000
    690      -5.5337      2.00000
    691      -5.5232      2.00000
    692      -5.5197      2.00000
    693      -5.4888      2.00000
    694      -5.4685      2.00000
    695      -5.4546      2.00000
    696      -5.4348      2.00000
    697      -5.3936      2.00000
    698      -5.3648      2.00000
    699      -5.3334      2.00000
    700      -5.3136      2.00000
    701      -5.2939      2.00000
    702      -5.2225      2.00000
    703      -5.1980      2.00000
    704      -5.1589      2.00000
    705      -5.1518      2.00000
    706      -5.1465      2.00000
    707      -5.1254      2.00000
    708      -5.0517      2.00000
    709      -4.9958      2.00000
    710      -4.9612      2.00000
    711      -4.9272      2.00000
    712      -4.9142      2.00000
    713      -4.8899      2.00000
    714      -4.8405      2.00000
    715      -4.7938      2.00000
    716      -4.7707      2.00000
    717      -4.7098      2.00000
    718      -4.6234      2.00000
    719      -4.6031      2.00000
    720      -4.4949      2.00000
    721      -4.4340      2.00000
    722      -4.2993      2.00000
    723      -4.2796      2.00000
    724      -4.1952      2.00000
    725      -4.1784      2.00000
    726      -4.1296      2.00000
    727      -4.0285      2.00000
    728      -3.8833      2.00000
    729      -3.8376      2.00000
    730      -3.7460      2.00000
    731      -3.6757      2.00000
    732      -2.7444      0.00000
    733      -2.6444      0.00000
    734      -2.5592      0.00000
    735      -2.4891      0.00000
    736      -2.3738      0.00000
    737      -2.2527      0.00000
    738      -2.1846      0.00000
    739      -2.1276      0.00000
    740      -2.0844      0.00000
    741      -1.9806      0.00000
    742      -1.9623      0.00000
    743      -1.9418      0.00000
    744      -1.9206      0.00000
    745      -1.9138      0.00000
    746      -1.8943      0.00000
    747      -1.8766      0.00000
    748      -1.8272      0.00000
    749      -1.8177      0.00000
    750      -1.7947      0.00000
    751      -1.7828      0.00000
    752      -1.7637      0.00000
    753      -1.7433      0.00000
    754      -1.7371      0.00000
    755      -1.7117      0.00000
    756      -1.7018      0.00000
    757      -1.6840      0.00000
    758      -1.6561      0.00000
    759      -1.6447      0.00000
    760      -1.6124      0.00000
    761      -1.5965      0.00000
    762      -1.5470      0.00000
    763      -1.5202      0.00000
    764      -1.4759      0.00000
    765      -1.4453      0.00000
    766      -1.4296      0.00000
    767      -1.4175      0.00000
    768      -1.4044      0.00000
    769      -1.4035      0.00000
    770      -1.3673      0.00000
    771      -1.3580      0.00000
    772      -1.3493      0.00000
    773      -1.3393      0.00000
    774      -1.3192      0.00000
    775      -1.3112      0.00000
    776      -1.2987      0.00000
    777      -1.2923      0.00000
    778      -1.2706      0.00000
    779      -1.2689      0.00000
    780      -1.2574      0.00000
    781      -1.2104      0.00000
    782      -1.2037      0.00000
    783      -1.1777      0.00000
    784      -1.1528      0.00000
    785      -1.1311      0.00000
    786      -1.0806      0.00000
    787      -1.0737      0.00000
    788      -1.0280      0.00000
    789      -1.0104      0.00000
    790      -0.9072      0.00000
    791      -0.8368      0.00000
    792      -0.7882      0.00000
    793      -0.7409      0.00000
    794      -0.7285      0.00000
    795      -0.6088      0.00000
    796      -0.5654      0.00000
    797      -0.5275      0.00000
    798      -0.4989      0.00000
    799      -0.4870      0.00000
    800      -0.4324      0.00000
    801      -0.4095      0.00000
    802      -0.3384      0.00000
    803      -0.2580      0.00000
    804      -0.2137      0.00000
    805      -0.1763      0.00000
    806      -0.1590      0.00000
    807      -0.1361      0.00000
    808      -0.1103      0.00000
    809      -0.1047      0.00000
    810      -0.0925      0.00000
    811      -0.0718      0.00000
    812      -0.0387      0.00000
    813      -0.0193      0.00000
    814       0.0139      0.00000
    815       0.0845      0.00000
    816       0.0993      0.00000
    817       0.1168      0.00000
    818       0.1660      0.00000
    819       0.2049      0.00000
    820       0.2384      0.00000
    821       0.2779      0.00000
    822       0.3355      0.00000
    823       0.3434      0.00000
    824       0.3783      0.00000
    825       0.3963      0.00000
    826       0.4215      0.00000
    827       0.4489      0.00000
    828       0.4666      0.00000
    829       0.4840      0.00000
    830       0.4999      0.00000
    831       0.5134      0.00000
    832       0.5290      0.00000
    833       0.5296      0.00000
    834       0.5377      0.00000
    835       0.5516      0.00000
    836       0.5637      0.00000
    837       0.5677      0.00000
    838       0.5716      0.00000
    839       0.5744      0.00000
    840       0.5810      0.00000
    841       0.6054      0.00000
    842       0.6095      0.00000
    843       0.6688      0.00000
    844       0.6849      0.00000
    845       0.7160      0.00000
    846       0.7239      0.00000
    847       0.7750      0.00000
    848       0.8085      0.00000
    849       0.8133      0.00000
    850       0.8375      0.00000
    851       0.8496      0.00000
    852       0.8550      0.00000
    853       0.8807      0.00000
    854       0.8902      0.00000
    855       0.9269      0.00000
    856       0.9499      0.00000
    857       0.9548      0.00000
    858       0.9651      0.00000
    859       0.9849      0.00000
    860       0.9990      0.00000
    861       1.0180      0.00000
    862       1.0443      0.00000
    863       1.0508      0.00000
    864       1.0803      0.00000
    865       1.0907      0.00000
    866       1.1026      0.00000
    867       1.1573      0.00000
    868       1.1707      0.00000
    869       1.1886      0.00000
    870       1.1982      0.00000
    871       1.2158      0.00000
    872       1.2271      0.00000
    873       1.2597      0.00000
    874       1.2695      0.00000
    875       1.2732      0.00000
    876       1.3048      0.00000
    877       1.3074      0.00000
    878       1.3310      0.00000
    879       1.3344      0.00000
    880       1.3806      0.00000
    881       1.3838      0.00000
    882       1.3917      0.00000
    883       1.4053      0.00000
    884       1.4151      0.00000
    885       1.4175      0.00000
    886       1.4266      0.00000
    887       1.4327      0.00000
    888       1.4462      0.00000
    889       1.4617      0.00000
    890       1.4827      0.00000
    891       1.4955      0.00000
    892       1.5049      0.00000
    893       1.5080      0.00000
    894       1.5122      0.00000
    895       1.5335      0.00000
    896       1.5364      0.00000

 k-point     8 :       0.0000    0.0000   -0.3889
  band No.  band energies     occupation 
      1     -22.9822      2.00000
      2     -22.9636      2.00000
      3     -22.8626      2.00000
      4     -22.8182      2.00000
      5     -22.7770      2.00000
      6     -22.7624      2.00000
      7     -22.7520      2.00000
      8     -22.7476      2.00000
      9     -22.6542      2.00000
     10     -22.6449      2.00000
     11     -22.6137      2.00000
     12     -22.6060      2.00000
     13     -22.6008      2.00000
     14     -22.5382      2.00000
     15     -22.4051      2.00000
     16     -22.3959      2.00000
     17     -22.3316      2.00000
     18     -22.3227      2.00000
     19     -22.2317      2.00000
     20     -22.1554      2.00000
     21     -22.1315      2.00000
     22     -22.1282      2.00000
     23     -22.1224      2.00000
     24     -22.1170      2.00000
     25     -22.0342      2.00000
     26     -22.0178      2.00000
     27     -22.0169      2.00000
     28     -22.0144      2.00000
     29     -21.9813      2.00000
     30     -21.9717      2.00000
     31     -21.9215      2.00000
     32     -21.9144      2.00000
     33     -21.7810      2.00000
     34     -21.7686      2.00000
     35     -21.7218      2.00000
     36     -21.7066      2.00000
     37     -21.6962      2.00000
     38     -21.5910      2.00000
     39     -21.5175      2.00000
     40     -21.5082      2.00000
     41     -21.4076      2.00000
     42     -21.3929      2.00000
     43     -21.3854      2.00000
     44     -21.3780      2.00000
     45     -21.3040      2.00000
     46     -21.2919      2.00000
     47     -21.1426      2.00000
     48     -21.1141      2.00000
     49     -21.1053      2.00000
     50     -21.0998      2.00000
     51     -21.0848      2.00000
     52     -21.0146      2.00000
     53     -20.9998      2.00000
     54     -20.9677      2.00000
     55     -20.9570      2.00000
     56     -20.9276      2.00000
     57     -20.9031      2.00000
     58     -20.8903      2.00000
     59     -20.8793      2.00000
     60     -20.8739      2.00000
     61     -20.7799      2.00000
     62     -20.7644      2.00000
     63     -20.7612      2.00000
     64     -20.7575      2.00000
     65     -20.7242      2.00000
     66     -20.7166      2.00000
     67     -20.6947      2.00000
     68     -20.6865      2.00000
     69     -20.4055      2.00000
     70     -20.3888      2.00000
     71     -20.3289      2.00000
     72     -20.3045      2.00000
     73     -20.2899      2.00000
     74     -20.2736      2.00000
     75     -20.2632      2.00000
     76     -20.1485      2.00000
     77     -20.1286      2.00000
     78     -20.1195      2.00000
     79     -20.1152      2.00000
     80     -20.1074      2.00000
     81     -19.9491      2.00000
     82     -19.9359      2.00000
     83     -19.9125      2.00000
     84     -19.8960      2.00000
     85     -19.8090      2.00000
     86     -19.7710      2.00000
     87     -19.7646      2.00000
     88     -19.7525      2.00000
     89     -19.7437      2.00000
     90     -19.7386      2.00000
     91     -19.6598      2.00000
     92     -19.6418      2.00000
     93     -19.6114      2.00000
     94     -19.6003      2.00000
     95     -19.5320      2.00000
     96     -19.5188      2.00000
     97     -19.4568      2.00000
     98     -19.4258      2.00000
     99     -19.4072      2.00000
    100     -19.3631      2.00000
    101     -19.3422      2.00000
    102     -19.3385      2.00000
    103     -19.3376      2.00000
    104     -19.2963      2.00000
    105     -19.2839      2.00000
    106     -19.2594      2.00000
    107     -19.2514      2.00000
    108     -19.2438      2.00000
    109     -19.1469      2.00000
    110     -19.1327      2.00000
    111     -19.0700      2.00000
    112     -19.0515      2.00000
    113     -19.0495      2.00000
    114     -19.0446      2.00000
    115     -18.9695      2.00000
    116     -18.9552      2.00000
    117     -18.6932      2.00000
    118     -18.6709      2.00000
    119     -18.6138      2.00000
    120     -18.5770      2.00000
    121     -18.5720      2.00000
    122     -18.5655      2.00000
    123     -18.5024      2.00000
    124     -18.4761      2.00000
    125     -18.4730      2.00000
    126     -18.4657      2.00000
    127     -18.4562      2.00000
    128     -18.4081      2.00000
    129     -18.3953      2.00000
    130     -18.3065      2.00000
    131     -18.2877      2.00000
    132     -18.2561      2.00000
    133     -18.2296      2.00000
    134     -18.1605      2.00000
    135     -18.1531      2.00000
    136     -18.1457      2.00000
    137     -18.0929      2.00000
    138     -18.0708      2.00000
    139     -18.0624      2.00000
    140     -18.0550      2.00000
    141     -18.0341      2.00000
    142     -18.0133      2.00000
    143     -18.0039      2.00000
    144     -17.9975      2.00000
    145     -17.8891      2.00000
    146     -17.8593      2.00000
    147     -17.8544      2.00000
    148     -17.8313      2.00000
    149     -17.8110      2.00000
    150     -17.8053      2.00000
    151     -17.8005      2.00000
    152     -17.7919      2.00000
    153     -17.7698      2.00000
    154     -17.7618      2.00000
    155     -17.6698      2.00000
    156     -17.6597      2.00000
    157     -17.6438      2.00000
    158     -17.5856      2.00000
    159     -17.5424      2.00000
    160     -17.4929      2.00000
    161     -17.4513      2.00000
    162     -17.4308      2.00000
    163     -17.4070      2.00000
    164     -17.4000      2.00000
    165     -17.3613      2.00000
    166     -17.3351      2.00000
    167     -17.3226      2.00000
    168     -17.2712      2.00000
    169     -17.2318      2.00000
    170     -17.1957      2.00000
    171     -17.1763      2.00000
    172     -17.1064      2.00000
    173     -17.0536      2.00000
    174     -17.0505      2.00000
    175     -16.9933      2.00000
    176     -16.9421      2.00000
    177     -16.6274      2.00000
    178     -16.5911      2.00000
    179     -16.5735      2.00000
    180     -16.4908      2.00000
    181     -16.4259      2.00000
    182     -16.4066      2.00000
    183     -16.4029      2.00000
    184     -16.3146      2.00000
    185     -16.2986      2.00000
    186     -16.2520      2.00000
    187     -16.2449      2.00000
    188     -16.2293      2.00000
    189     -16.1637      2.00000
    190     -16.1104      2.00000
    191     -16.0951      2.00000
    192     -16.0825      2.00000
    193     -16.0179      2.00000
    194     -15.9791      2.00000
    195     -15.9260      2.00000
    196     -15.8534      2.00000
    197     -15.8427      2.00000
    198     -15.8391      2.00000
    199     -15.8086      2.00000
    200     -15.7895      2.00000
    201     -15.7576      2.00000
    202     -15.7493      2.00000
    203     -15.7256      2.00000
    204     -15.7225      2.00000
    205     -15.6993      2.00000
    206     -15.6667      2.00000
    207     -15.6083      2.00000
    208     -15.5888      2.00000
    209     -15.5756      2.00000
    210     -15.5654      2.00000
    211     -15.5606      2.00000
    212     -15.5283      2.00000
    213     -15.5192      2.00000
    214     -15.5009      2.00000
    215     -15.4960      2.00000
    216     -15.4517      2.00000
    217     -15.4156      2.00000
    218     -15.3872      2.00000
    219     -15.3464      2.00000
    220     -15.3425      2.00000
    221     -15.3335      2.00000
    222     -15.3089      2.00000
    223     -15.3012      2.00000
    224     -15.2885      2.00000
    225     -15.2749      2.00000
    226     -15.2664      2.00000
    227     -15.2584      2.00000
    228     -15.2256      2.00000
    229     -15.1868      2.00000
    230     -15.1332      2.00000
    231     -15.0857      2.00000
    232     -15.0644      2.00000
    233     -15.0582      2.00000
    234     -15.0241      2.00000
    235     -15.0059      2.00000
    236     -14.9700      2.00000
    237     -14.9442      2.00000
    238     -14.9131      2.00000
    239     -14.8677      2.00000
    240     -14.7967      2.00000
    241     -14.7438      2.00000
    242     -14.6224      2.00000
    243     -14.5151      2.00000
    244     -14.3800      2.00000
    245     -14.3746      2.00000
    246     -14.3485      2.00000
    247     -14.2857      2.00000
    248     -14.2220      2.00000
    249     -14.2009      2.00000
    250     -14.1233      2.00000
    251     -14.1135      2.00000
    252     -14.1110      2.00000
    253     -14.0824      2.00000
    254     -14.0458      2.00000
    255     -14.0210      2.00000
    256     -13.9757      2.00000
    257     -13.9236      2.00000
    258     -13.8847      2.00000
    259     -13.8232      2.00000
    260     -13.8109      2.00000
    261     -13.8062      2.00000
    262     -13.7978      2.00000
    263     -13.7830      2.00000
    264     -13.7810      2.00000
    265     -13.7668      2.00000
    266     -13.7476      2.00000
    267     -13.7117      2.00000
    268     -13.7051      2.00000
    269     -13.6885      2.00000
    270     -13.6797      2.00000
    271     -13.6727      2.00000
    272     -13.6618      2.00000
    273     -13.5900      2.00000
    274     -13.5787      2.00000
    275     -13.5401      2.00000
    276     -13.4975      2.00000
    277     -13.4872      2.00000
    278     -13.3896      2.00000
    279     -13.3735      2.00000
    280     -13.3440      2.00000
    281     -13.3358      2.00000
    282     -13.3144      2.00000
    283     -13.3075      2.00000
    284     -13.2812      2.00000
    285     -13.2419      2.00000
    286     -13.2185      2.00000
    287     -13.1796      2.00000
    288     -13.1751      2.00000
    289     -13.1674      2.00000
    290     -13.0681      2.00000
    291     -13.0607      2.00000
    292     -13.0549      2.00000
    293     -12.9947      2.00000
    294     -12.9851      2.00000
    295     -12.9628      2.00000
    296     -12.9288      2.00000
    297     -12.9187      2.00000
    298     -12.9093      2.00000
    299     -12.9077      2.00000
    300     -12.8919      2.00000
    301     -12.8132      2.00000
    302     -12.7636      2.00000
    303     -12.6944      2.00000
    304     -12.6693      2.00000
    305     -12.5921      2.00000
    306     -12.5872      2.00000
    307     -12.4335      2.00000
    308     -12.4003      2.00000
    309     -12.3575      2.00000
    310     -12.3406      2.00000
    311     -12.3243      2.00000
    312     -12.2561      2.00000
    313     -12.2111      2.00000
    314     -12.1664      2.00000
    315     -12.1268      2.00000
    316     -12.0962      2.00000
    317     -12.0642      2.00000
    318     -12.0228      2.00000
    319     -12.0122      2.00000
    320     -12.0106      2.00000
    321     -11.9987      2.00000
    322     -11.9380      2.00000
    323     -11.9269      2.00000
    324     -11.9235      2.00000
    325     -11.8982      2.00000
    326     -11.8884      2.00000
    327     -11.8840      2.00000
    328     -11.8701      2.00000
    329     -11.8542      2.00000
    330     -11.8486      2.00000
    331     -11.7966      2.00000
    332     -11.7721      2.00000
    333     -11.7517      2.00000
    334     -11.7373      2.00000
    335     -11.7100      2.00000
    336     -11.6877      2.00000
    337     -11.6799      2.00000
    338     -11.6685      2.00000
    339     -11.6480      2.00000
    340     -11.6400      2.00000
    341     -11.6349      2.00000
    342     -11.6170      2.00000
    343     -11.6047      2.00000
    344     -11.5996      2.00000
    345     -11.5885      2.00000
    346     -11.5746      2.00000
    347     -11.5439      2.00000
    348     -11.5259      2.00000
    349     -11.5236      2.00000
    350     -11.5035      2.00000
    351     -11.4967      2.00000
    352     -11.4895      2.00000
    353     -11.4738      2.00000
    354     -11.4694      2.00000
    355     -11.4291      2.00000
    356     -11.4197      2.00000
    357     -11.4073      2.00000
    358     -11.3332      2.00000
    359     -11.3133      2.00000
    360     -11.1612      2.00000
    361     -11.1224      2.00000
    362     -11.0892      2.00000
    363     -11.0855      2.00000
    364     -11.0705      2.00000
    365     -11.0554      2.00000
    366     -11.0497      2.00000
    367     -10.9707      2.00000
    368     -10.9528      2.00000
    369     -10.9212      2.00000
    370     -10.9082      2.00000
    371     -10.9020      2.00000
    372     -10.9009      2.00000
    373     -10.8753      2.00000
    374     -10.8719      2.00000
    375     -10.8644      2.00000
    376     -10.8503      2.00000
    377     -10.8452      2.00000
    378     -10.8339      2.00000
    379     -10.8248      2.00000
    380     -10.8098      2.00000
    381     -10.7935      2.00000
    382     -10.7629      2.00000
    383     -10.7492      2.00000
    384     -10.7198      2.00000
    385     -10.7195      2.00000
    386     -10.7095      2.00000
    387     -10.6818      2.00000
    388     -10.6758      2.00000
    389     -10.6713      2.00000
    390     -10.6663      2.00000
    391     -10.6571      2.00000
    392     -10.6535      2.00000
    393     -10.6433      2.00000
    394     -10.6369      2.00000
    395     -10.6117      2.00000
    396     -10.6051      2.00000
    397     -10.5830      2.00000
    398     -10.5702      2.00000
    399     -10.5591      2.00000
    400     -10.5472      2.00000
    401     -10.5022      2.00000
    402     -10.4797      2.00000
    403     -10.4704      2.00000
    404     -10.4617      2.00000
    405     -10.4592      2.00000
    406     -10.4498      2.00000
    407     -10.4414      2.00000
    408     -10.4339      2.00000
    409     -10.4280      2.00000
    410     -10.4222      2.00000
    411     -10.4149      2.00000
    412     -10.3729      2.00000
    413     -10.3486      2.00000
    414     -10.3419      2.00000
    415     -10.3372      2.00000
    416     -10.3233      2.00000
    417     -10.3212      2.00000
    418     -10.3152      2.00000
    419     -10.2987      2.00000
    420     -10.2915      2.00000
    421     -10.2793      2.00000
    422     -10.2738      2.00000
    423     -10.2587      2.00000
    424     -10.2479      2.00000
    425     -10.2415      2.00000
    426     -10.2363      2.00000
    427     -10.2278      2.00000
    428     -10.2244      2.00000
    429     -10.2119      2.00000
    430     -10.2054      2.00000
    431     -10.1958      2.00000
    432     -10.1717      2.00000
    433     -10.1636      2.00000
    434     -10.1507      2.00000
    435     -10.1323      2.00000
    436     -10.1058      2.00000
    437     -10.1035      2.00000
    438     -10.0744      2.00000
    439     -10.0715      2.00000
    440     -10.0582      2.00000
    441     -10.0561      2.00000
    442     -10.0466      2.00000
    443     -10.0428      2.00000
    444     -10.0362      2.00000
    445     -10.0253      2.00000
    446     -10.0126      2.00000
    447      -9.9744      2.00000
    448      -9.9585      2.00000
    449      -9.9453      2.00000
    450      -9.9418      2.00000
    451      -9.9372      2.00000
    452      -9.9180      2.00000
    453      -9.8956      2.00000
    454      -9.8774      2.00000
    455      -9.8679      2.00000
    456      -9.8455      2.00000
    457      -9.8381      2.00000
    458      -9.8169      2.00000
    459      -9.8056      2.00000
    460      -9.8020      2.00000
    461      -9.7859      2.00000
    462      -9.7676      2.00000
    463      -9.7514      2.00000
    464      -9.7482      2.00000
    465      -9.7404      2.00000
    466      -9.6945      2.00000
    467      -9.6709      2.00000
    468      -9.6617      2.00000
    469      -9.6338      2.00000
    470      -9.6179      2.00000
    471      -9.6065      2.00000
    472      -9.5975      2.00000
    473      -9.5768      2.00000
    474      -9.5500      2.00000
    475      -9.5477      2.00000
    476      -9.5411      2.00000
    477      -9.5261      2.00000
    478      -9.5149      2.00000
    479      -9.5085      2.00000
    480      -9.4928      2.00000
    481      -9.4818      2.00000
    482      -9.4632      2.00000
    483      -9.4301      2.00000
    484      -9.4151      2.00000
    485      -9.4059      2.00000
    486      -9.3975      2.00000
    487      -9.3910      2.00000
    488      -9.3881      2.00000
    489      -9.3779      2.00000
    490      -9.3749      2.00000
    491      -9.3686      2.00000
    492      -9.3637      2.00000
    493      -9.3535      2.00000
    494      -9.3514      2.00000
    495      -9.3464      2.00000
    496      -9.3368      2.00000
    497      -9.3063      2.00000
    498      -9.2920      2.00000
    499      -9.2847      2.00000
    500      -9.2786      2.00000
    501      -9.2647      2.00000
    502      -9.2603      2.00000
    503      -9.2550      2.00000
    504      -9.2409      2.00000
    505      -9.1997      2.00000
    506      -9.1952      2.00000
    507      -9.1852      2.00000
    508      -9.1817      2.00000
    509      -9.1690      2.00000
    510      -9.1522      2.00000
    511      -9.1284      2.00000
    512      -9.1096      2.00000
    513      -9.0483      2.00000
    514      -8.9518      2.00000
    515      -8.9156      2.00000
    516      -8.8868      2.00000
    517      -8.8676      2.00000
    518      -8.8511      2.00000
    519      -8.8449      2.00000
    520      -8.8177      2.00000
    521      -8.8071      2.00000
    522      -8.8037      2.00000
    523      -8.7821      2.00000
    524      -8.7765      2.00000
    525      -8.6731      2.00000
    526      -8.6601      2.00000
    527      -8.6297      2.00000
    528      -8.6139      2.00000
    529      -8.6053      2.00000
    530      -8.6021      2.00000
    531      -8.5873      2.00000
    532      -8.5522      2.00000
    533      -8.5443      2.00000
    534      -8.5283      2.00000
    535      -8.5170      2.00000
    536      -8.5156      2.00000
    537      -8.5012      2.00000
    538      -8.4724      2.00000
    539      -8.4681      2.00000
    540      -8.4624      2.00000
    541      -8.4475      2.00000
    542      -8.4459      2.00000
    543      -8.4414      2.00000
    544      -8.4219      2.00000
    545      -8.4176      2.00000
    546      -8.4117      2.00000
    547      -8.4031      2.00000
    548      -8.3981      2.00000
    549      -8.3899      2.00000
    550      -8.3655      2.00000
    551      -8.3521      2.00000
    552      -8.3435      2.00000
    553      -8.3434      2.00000
    554      -8.3304      2.00000
    555      -8.3100      2.00000
    556      -8.3011      2.00000
    557      -8.2850      2.00000
    558      -8.2734      2.00000
    559      -8.2583      2.00000
    560      -8.2554      2.00000
    561      -8.2295      2.00000
    562      -8.2085      2.00000
    563      -8.2019      2.00000
    564      -8.1900      2.00000
    565      -8.1864      2.00000
    566      -8.1681      2.00000
    567      -8.1294      2.00000
    568      -8.1251      2.00000
    569      -8.1131      2.00000
    570      -8.0732      2.00000
    571      -8.0173      2.00000
    572      -7.9682      2.00000
    573      -7.9361      2.00000
    574      -7.9117      2.00000
    575      -7.9023      2.00000
    576      -7.8896      2.00000
    577      -7.8824      2.00000
    578      -7.8265      2.00000
    579      -7.8113      2.00000
    580      -7.8061      2.00000
    581      -7.7800      2.00000
    582      -7.7675      2.00000
    583      -7.7518      2.00000
    584      -7.7460      2.00000
    585      -7.7376      2.00000
    586      -7.7243      2.00000
    587      -7.7051      2.00000
    588      -7.7020      2.00000
    589      -7.6908      2.00000
    590      -7.6821      2.00000
    591      -7.6215      2.00000
    592      -7.6013      2.00000
    593      -7.5960      2.00000
    594      -7.5832      2.00000
    595      -7.5754      2.00000
    596      -7.5525      2.00000
    597      -7.5375      2.00000
    598      -7.5360      2.00000
    599      -7.5130      2.00000
    600      -7.4944      2.00000
    601      -7.4922      2.00000
    602      -7.4819      2.00000
    603      -7.4675      2.00000
    604      -7.4593      2.00000
    605      -7.4153      2.00000
    606      -7.3920      2.00000
    607      -7.3278      2.00000
    608      -7.3230      2.00000
    609      -7.2936      2.00000
    610      -7.2589      2.00000
    611      -7.2345      2.00000
    612      -7.2233      2.00000
    613      -7.2057      2.00000
    614      -7.2026      2.00000
    615      -7.1810      2.00000
    616      -7.1679      2.00000
    617      -7.1374      2.00000
    618      -7.1256      2.00000
    619      -7.1084      2.00000
    620      -7.1013      2.00000
    621      -7.0982      2.00000
    622      -7.0726      2.00000
    623      -7.0525      2.00000
    624      -7.0359      2.00000
    625      -7.0146      2.00000
    626      -7.0007      2.00000
    627      -6.9963      2.00000
    628      -6.9825      2.00000
    629      -6.9690      2.00000
    630      -6.9520      2.00000
    631      -6.9485      2.00000
    632      -6.9432      2.00000
    633      -6.8829      2.00000
    634      -6.8640      2.00000
    635      -6.8421      2.00000
    636      -6.8175      2.00000
    637      -6.7871      2.00000
    638      -6.7764      2.00000
    639      -6.7527      2.00000
    640      -6.7354      2.00000
    641      -6.7310      2.00000
    642      -6.7060      2.00000
    643      -6.7032      2.00000
    644      -6.6800      2.00000
    645      -6.6741      2.00000
    646      -6.6659      2.00000
    647      -6.6584      2.00000
    648      -6.6542      2.00000
    649      -6.6540      2.00000
    650      -6.6233      2.00000
    651      -6.6141      2.00000
    652      -6.5961      2.00000
    653      -6.5747      2.00000
    654      -6.5556      2.00000
    655      -6.5311      2.00000
    656      -6.4730      2.00000
    657      -6.4437      2.00000
    658      -6.3910      2.00000
    659      -6.3522      2.00000
    660      -6.2970      2.00000
    661      -6.2906      2.00000
    662      -6.2633      2.00000
    663      -6.2413      2.00000
    664      -6.2329      2.00000
    665      -6.2229      2.00000
    666      -6.1480      2.00000
    667      -6.1042      2.00000
    668      -6.0668      2.00000
    669      -6.0461      2.00000
    670      -6.0023      2.00000
    671      -5.9723      2.00000
    672      -5.9258      2.00000
    673      -5.9062      2.00000
    674      -5.8718      2.00000
    675      -5.8546      2.00000
    676      -5.8301      2.00000
    677      -5.7949      2.00000
    678      -5.7494      2.00000
    679      -5.7269      2.00000
    680      -5.6904      2.00000
    681      -5.6857      2.00000
    682      -5.6462      2.00000
    683      -5.6176      2.00000
    684      -5.6088      2.00000
    685      -5.5925      2.00000
    686      -5.5906      2.00000
    687      -5.5691      2.00000
    688      -5.5614      2.00000
    689      -5.5495      2.00000
    690      -5.5386      2.00000
    691      -5.5279      2.00000
    692      -5.5181      2.00000
    693      -5.4941      2.00000
    694      -5.4759      2.00000
    695      -5.4519      2.00000
    696      -5.4257      2.00000
    697      -5.3973      2.00000
    698      -5.3803      2.00000
    699      -5.3313      2.00000
    700      -5.3094      2.00000
    701      -5.2756      2.00000
    702      -5.2202      2.00000
    703      -5.2127      2.00000
    704      -5.1820      2.00000
    705      -5.1470      2.00000
    706      -5.1364      2.00000
    707      -5.0947      2.00000
    708      -5.0689      2.00000
    709      -4.9834      2.00000
    710      -4.9543      2.00000
    711      -4.9008      2.00000
    712      -4.8811      2.00000
    713      -4.8723      2.00000
    714      -4.8440      2.00000
    715      -4.7941      2.00000
    716      -4.7782      2.00000
    717      -4.7145      2.00000
    718      -4.6728      2.00000
    719      -4.6350      2.00000
    720      -4.5046      2.00000
    721      -4.4062      2.00000
    722      -4.3044      2.00000
    723      -4.2730      2.00000
    724      -4.2007      2.00000
    725      -4.1836      2.00000
    726      -4.1332      2.00000
    727      -3.9907      2.00000
    728      -3.8847      2.00000
    729      -3.8260      2.00000
    730      -3.7613      2.00000
    731      -3.6904      2.00000
    732      -2.7402      0.00000
    733      -2.6262      0.00000
    734      -2.5408      0.00000
    735      -2.5128      0.00000
    736      -2.4087      0.00000
    737      -2.2555      0.00000
    738      -2.1850      0.00000
    739      -2.1008      0.00000
    740      -2.0755      0.00000
    741      -1.9972      0.00000
    742      -1.9844      0.00000
    743      -1.9284      0.00000
    744      -1.9048      0.00000
    745      -1.8970      0.00000
    746      -1.8821      0.00000
    747      -1.8492      0.00000
    748      -1.8419      0.00000
    749      -1.8220      0.00000
    750      -1.8089      0.00000
    751      -1.7910      0.00000
    752      -1.7549      0.00000
    753      -1.7511      0.00000
    754      -1.7345      0.00000
    755      -1.7009      0.00000
    756      -1.6966      0.00000
    757      -1.6867      0.00000
    758      -1.6756      0.00000
    759      -1.6511      0.00000
    760      -1.6276      0.00000
    761      -1.6121      0.00000
    762      -1.5790      0.00000
    763      -1.5550      0.00000
    764      -1.4681      0.00000
    765      -1.4393      0.00000
    766      -1.4355      0.00000
    767      -1.3867      0.00000
    768      -1.3768      0.00000
    769      -1.3674      0.00000
    770      -1.3641      0.00000
    771      -1.3565      0.00000
    772      -1.3425      0.00000
    773      -1.3211      0.00000
    774      -1.3086      0.00000
    775      -1.2942      0.00000
    776      -1.2906      0.00000
    777      -1.2695      0.00000
    778      -1.2685      0.00000
    779      -1.2665      0.00000
    780      -1.2492      0.00000
    781      -1.2175      0.00000
    782      -1.2137      0.00000
    783      -1.2108      0.00000
    784      -1.1896      0.00000
    785      -1.1377      0.00000
    786      -1.0947      0.00000
    787      -1.0740      0.00000
    788      -1.0359      0.00000
    789      -1.0337      0.00000
    790      -0.9090      0.00000
    791      -0.8415      0.00000
    792      -0.8131      0.00000
    793      -0.7141      0.00000
    794      -0.6952      0.00000
    795      -0.6258      0.00000
    796      -0.5619      0.00000
    797      -0.5415      0.00000
    798      -0.5167      0.00000
    799      -0.4665      0.00000
    800      -0.4002      0.00000
    801      -0.3606      0.00000
    802      -0.3197      0.00000
    803      -0.2928      0.00000
    804      -0.2193      0.00000
    805      -0.1697      0.00000
    806      -0.1523      0.00000
    807      -0.1408      0.00000
    808      -0.1333      0.00000
    809      -0.1190      0.00000
    810      -0.1083      0.00000
    811      -0.0524      0.00000
    812      -0.0429      0.00000
    813      -0.0315      0.00000
    814       0.0237      0.00000
    815       0.0485      0.00000
    816       0.0814      0.00000
    817       0.1036      0.00000
    818       0.1704      0.00000
    819       0.1948      0.00000
    820       0.2570      0.00000
    821       0.2696      0.00000
    822       0.3557      0.00000
    823       0.3607      0.00000
    824       0.3952      0.00000
    825       0.4104      0.00000
    826       0.4370      0.00000
    827       0.4486      0.00000
    828       0.4593      0.00000
    829       0.4738      0.00000
    830       0.4975      0.00000
    831       0.5239      0.00000
    832       0.5250      0.00000
    833       0.5319      0.00000
    834       0.5563      0.00000
    835       0.5590      0.00000
    836       0.5697      0.00000
    837       0.5740      0.00000
    838       0.5777      0.00000
    839       0.5852      0.00000
    840       0.5865      0.00000
    841       0.5996      0.00000
    842       0.6196      0.00000
    843       0.6644      0.00000
    844       0.6981      0.00000
    845       0.7153      0.00000
    846       0.7371      0.00000
    847       0.7539      0.00000
    848       0.7605      0.00000
    849       0.7942      0.00000
    850       0.7984      0.00000
    851       0.8426      0.00000
    852       0.8527      0.00000
    853       0.8716      0.00000
    854       0.8754      0.00000
    855       0.9285      0.00000
    856       0.9358      0.00000
    857       0.9530      0.00000
    858       0.9571      0.00000
    859       0.9788      0.00000
    860       1.0084      0.00000
    861       1.0134      0.00000
    862       1.0261      0.00000
    863       1.0406      0.00000
    864       1.0740      0.00000
    865       1.0745      0.00000
    866       1.0961      0.00000
    867       1.1165      0.00000
    868       1.1353      0.00000
    869       1.1559      0.00000
    870       1.1692      0.00000
    871       1.1807      0.00000
    872       1.2301      0.00000
    873       1.2544      0.00000
    874       1.2608      0.00000
    875       1.2742      0.00000
    876       1.3012      0.00000
    877       1.3280      0.00000
    878       1.3535      0.00000
    879       1.3545      0.00000
    880       1.3760      0.00000
    881       1.3949      0.00000
    882       1.4127      0.00000
    883       1.4172      0.00000
    884       1.4275      0.00000
    885       1.4291      0.00000
    886       1.4374      0.00000
    887       1.4435      0.00000
    888       1.4454      0.00000
    889       1.4553      0.00000
    890       1.4594      0.00000
    891       1.5075      0.00000
    892       1.5094      0.00000
    893       1.5304      0.00000
    894       1.5435      0.00000
    895       1.5477      0.00000
    896       1.5507      0.00000

 k-point     9 :       0.0000    0.0000   -0.4444
  band No.  band energies     occupation 
      1     -22.9803      2.00000
      2     -22.9667      2.00000
      3     -22.8528      2.00000
      4     -22.8291      2.00000
      5     -22.7761      2.00000
      6     -22.7595      2.00000
      7     -22.7543      2.00000
      8     -22.7517      2.00000
      9     -22.6450      2.00000
     10     -22.6346      2.00000
     11     -22.6193      2.00000
     12     -22.6123      2.00000
     13     -22.5934      2.00000
     14     -22.5569      2.00000
     15     -22.3882      2.00000
     16     -22.3782      2.00000
     17     -22.3497      2.00000
     18     -22.3416      2.00000
     19     -22.2073      2.00000
     20     -22.1603      2.00000
     21     -22.1474      2.00000
     22     -22.1285      2.00000
     23     -22.1249      2.00000
     24     -22.1212      2.00000
     25     -22.0228      2.00000
     26     -22.0051      2.00000
     27     -21.9973      2.00000
     28     -21.9914      2.00000
     29     -21.9902      2.00000
     30     -21.9832      2.00000
     31     -21.9469      2.00000
     32     -21.9405      2.00000
     33     -21.7643      2.00000
     34     -21.7512      2.00000
     35     -21.7255      2.00000
     36     -21.7149      2.00000
     37     -21.6889      2.00000
     38     -21.6238      2.00000
     39     -21.4865      2.00000
     40     -21.4763      2.00000
     41     -21.4211      2.00000
     42     -21.4112      2.00000
     43     -21.3802      2.00000
     44     -21.3682      2.00000
     45     -21.3290      2.00000
     46     -21.3177      2.00000
     47     -21.1418      2.00000
     48     -21.1111      2.00000
     49     -21.1068      2.00000
     50     -21.1039      2.00000
     51     -21.0474      2.00000
     52     -21.0068      2.00000
     53     -20.9897      2.00000
     54     -20.9767      2.00000
     55     -20.9683      2.00000
     56     -20.9653      2.00000
     57     -20.8735      2.00000
     58     -20.8586      2.00000
     59     -20.8423      2.00000
     60     -20.8352      2.00000
     61     -20.8063      2.00000
     62     -20.7941      2.00000
     63     -20.7649      2.00000
     64     -20.7565      2.00000
     65     -20.7503      2.00000
     66     -20.7404      2.00000
     67     -20.7128      2.00000
     68     -20.7048      2.00000
     69     -20.3830      2.00000
     70     -20.3647      2.00000
     71     -20.3284      2.00000
     72     -20.3152      2.00000
     73     -20.2824      2.00000
     74     -20.2378      2.00000
     75     -20.2250      2.00000
     76     -20.1902      2.00000
     77     -20.1586      2.00000
     78     -20.1470      2.00000
     79     -20.0831      2.00000
     80     -20.0739      2.00000
     81     -19.9919      2.00000
     82     -19.9822      2.00000
     83     -19.8880      2.00000
     84     -19.8651      2.00000
     85     -19.8239      2.00000
     86     -19.8024      2.00000
     87     -19.7775      2.00000
     88     -19.7496      2.00000
     89     -19.7453      2.00000
     90     -19.7426      2.00000
     91     -19.6536      2.00000
     92     -19.6320      2.00000
     93     -19.6187      2.00000
     94     -19.6112      2.00000
     95     -19.4905      2.00000
     96     -19.4743      2.00000
     97     -19.4229      2.00000
     98     -19.3989      2.00000
     99     -19.3917      2.00000
    100     -19.3898      2.00000
    101     -19.3841      2.00000
    102     -19.3653      2.00000
    103     -19.3561      2.00000
    104     -19.2991      2.00000
    105     -19.2605      2.00000
    106     -19.2466      2.00000
    107     -19.2089      2.00000
    108     -19.2003      2.00000
    109     -19.1818      2.00000
    110     -19.1709      2.00000
    111     -19.1051      2.00000
    112     -19.0968      2.00000
    113     -19.0454      2.00000
    114     -19.0273      2.00000
    115     -18.9920      2.00000
    116     -18.9796      2.00000
    117     -18.6513      2.00000
    118     -18.6215      2.00000
    119     -18.5872      2.00000
    120     -18.5472      2.00000
    121     -18.5395      2.00000
    122     -18.5270      2.00000
    123     -18.5242      2.00000
    124     -18.5205      2.00000
    125     -18.4997      2.00000
    126     -18.4868      2.00000
    127     -18.4499      2.00000
    128     -18.4381      2.00000
    129     -18.4218      2.00000
    130     -18.3129      2.00000
    131     -18.2644      2.00000
    132     -18.2328      2.00000
    133     -18.2194      2.00000
    134     -18.1586      2.00000
    135     -18.1534      2.00000
    136     -18.1491      2.00000
    137     -18.1305      2.00000
    138     -18.1191      2.00000
    139     -18.0801      2.00000
    140     -18.0489      2.00000
    141     -18.0367      2.00000
    142     -18.0221      2.00000
    143     -17.9750      2.00000
    144     -17.9630      2.00000
    145     -17.9088      2.00000
    146     -17.8933      2.00000
    147     -17.8546      2.00000
    148     -17.8202      2.00000
    149     -17.8050      2.00000
    150     -17.7795      2.00000
    151     -17.7725      2.00000
    152     -17.7652      2.00000
    153     -17.7584      2.00000
    154     -17.7226      2.00000
    155     -17.7012      2.00000
    156     -17.6917      2.00000
    157     -17.6790      2.00000
    158     -17.6298      2.00000
    159     -17.5258      2.00000
    160     -17.4781      2.00000
    161     -17.4605      2.00000
    162     -17.4227      2.00000
    163     -17.3832      2.00000
    164     -17.3734      2.00000
    165     -17.3402      2.00000
    166     -17.3285      2.00000
    167     -17.2935      2.00000
    168     -17.2618      2.00000
    169     -17.2505      2.00000
    170     -17.2163      2.00000
    171     -17.2087      2.00000
    172     -17.1073      2.00000
    173     -17.0827      2.00000
    174     -17.0300      2.00000
    175     -17.0127      2.00000
    176     -16.9685      2.00000
    177     -16.6133      2.00000
    178     -16.5813      2.00000
    179     -16.5652      2.00000
    180     -16.4963      2.00000
    181     -16.4101      2.00000
    182     -16.3689      2.00000
    183     -16.3666      2.00000
    184     -16.3221      2.00000
    185     -16.2906      2.00000
    186     -16.2856      2.00000
    187     -16.2572      2.00000
    188     -16.2176      2.00000
    189     -16.1620      2.00000
    190     -16.1453      2.00000
    191     -16.1066      2.00000
    192     -16.0693      2.00000
    193     -16.0461      2.00000
    194     -16.0129      2.00000
    195     -15.9366      2.00000
    196     -15.8515      2.00000
    197     -15.8429      2.00000
    198     -15.8418      2.00000
    199     -15.8076      2.00000
    200     -15.7519      2.00000
    201     -15.7409      2.00000
    202     -15.7376      2.00000
    203     -15.7304      2.00000
    204     -15.7232      2.00000
    205     -15.6889      2.00000
    206     -15.6682      2.00000
    207     -15.6376      2.00000
    208     -15.6290      2.00000
    209     -15.5938      2.00000
    210     -15.5558      2.00000
    211     -15.5419      2.00000
    212     -15.5319      2.00000
    213     -15.5212      2.00000
    214     -15.4852      2.00000
    215     -15.4462      2.00000
    216     -15.4373      2.00000
    217     -15.3942      2.00000
    218     -15.3851      2.00000
    219     -15.3526      2.00000
    220     -15.3358      2.00000
    221     -15.3197      2.00000
    222     -15.3166      2.00000
    223     -15.3065      2.00000
    224     -15.2888      2.00000
    225     -15.2602      2.00000
    226     -15.2446      2.00000
    227     -15.2314      2.00000
    228     -15.2111      2.00000
    229     -15.2032      2.00000
    230     -15.1751      2.00000
    231     -15.1316      2.00000
    232     -15.0952      2.00000
    233     -15.0743      2.00000
    234     -15.0280      2.00000
    235     -15.0085      2.00000
    236     -14.9719      2.00000
    237     -14.9519      2.00000
    238     -14.9374      2.00000
    239     -14.8845      2.00000
    240     -14.7594      2.00000
    241     -14.6867      2.00000
    242     -14.6662      2.00000
    243     -14.5711      2.00000
    244     -14.3163      2.00000
    245     -14.3100      2.00000
    246     -14.2900      2.00000
    247     -14.2276      2.00000
    248     -14.1884      2.00000
    249     -14.1796      2.00000
    250     -14.1750      2.00000
    251     -14.1671      2.00000
    252     -14.1427      2.00000
    253     -14.1049      2.00000
    254     -14.0712      2.00000
    255     -14.0302      2.00000
    256     -14.0157      2.00000
    257     -13.8842      2.00000
    258     -13.8717      2.00000
    259     -13.8559      2.00000
    260     -13.8178      2.00000
    261     -13.8070      2.00000
    262     -13.8036      2.00000
    263     -13.7928      2.00000
    264     -13.7862      2.00000
    265     -13.7666      2.00000
    266     -13.7619      2.00000
    267     -13.7502      2.00000
    268     -13.6985      2.00000
    269     -13.6870      2.00000
    270     -13.6829      2.00000
    271     -13.6766      2.00000
    272     -13.6493      2.00000
    273     -13.6129      2.00000
    274     -13.5582      2.00000
    275     -13.5295      2.00000
    276     -13.5140      2.00000
    277     -13.5058      2.00000
    278     -13.3691      2.00000
    279     -13.3666      2.00000
    280     -13.3502      2.00000
    281     -13.3343      2.00000
    282     -13.3286      2.00000
    283     -13.3159      2.00000
    284     -13.2267      2.00000
    285     -13.1782      2.00000
    286     -13.1553      2.00000
    287     -13.1519      2.00000
    288     -13.1172      2.00000
    289     -13.1112      2.00000
    290     -13.0992      2.00000
    291     -13.0970      2.00000
    292     -13.0497      2.00000
    293     -13.0269      2.00000
    294     -13.0183      2.00000
    295     -12.9838      2.00000
    296     -12.9619      2.00000
    297     -12.9455      2.00000
    298     -12.9380      2.00000
    299     -12.8699      2.00000
    300     -12.8469      2.00000
    301     -12.8226      2.00000
    302     -12.7602      2.00000
    303     -12.7524      2.00000
    304     -12.7273      2.00000
    305     -12.6485      2.00000
    306     -12.5499      2.00000
    307     -12.4726      2.00000
    308     -12.3914      2.00000
    309     -12.3698      2.00000
    310     -12.3005      2.00000
    311     -12.2974      2.00000
    312     -12.2436      2.00000
    313     -12.2103      2.00000
    314     -12.1970      2.00000
    315     -12.0790      2.00000
    316     -12.0739      2.00000
    317     -12.0723      2.00000
    318     -12.0245      2.00000
    319     -11.9993      2.00000
    320     -11.9813      2.00000
    321     -11.9719      2.00000
    322     -11.9466      2.00000
    323     -11.9257      2.00000
    324     -11.9144      2.00000
    325     -11.8876      2.00000
    326     -11.8700      2.00000
    327     -11.8618      2.00000
    328     -11.8589      2.00000
    329     -11.8250      2.00000
    330     -11.8167      2.00000
    331     -11.8113      2.00000
    332     -11.8036      2.00000
    333     -11.7866      2.00000
    334     -11.7382      2.00000
    335     -11.7235      2.00000
    336     -11.7008      2.00000
    337     -11.6978      2.00000
    338     -11.6907      2.00000
    339     -11.6751      2.00000
    340     -11.6630      2.00000
    341     -11.6469      2.00000
    342     -11.6420      2.00000
    343     -11.6010      2.00000
    344     -11.5922      2.00000
    345     -11.5870      2.00000
    346     -11.5521      2.00000
    347     -11.5494      2.00000
    348     -11.5276      2.00000
    349     -11.5212      2.00000
    350     -11.5081      2.00000
    351     -11.4985      2.00000
    352     -11.4866      2.00000
    353     -11.4761      2.00000
    354     -11.4573      2.00000
    355     -11.4317      2.00000
    356     -11.4206      2.00000
    357     -11.4111      2.00000
    358     -11.3809      2.00000
    359     -11.3714      2.00000
    360     -11.0997      2.00000
    361     -11.0853      2.00000
    362     -11.0752      2.00000
    363     -11.0684      2.00000
    364     -11.0566      2.00000
    365     -11.0166      2.00000
    366     -11.0120      2.00000
    367     -10.9984      2.00000
    368     -10.9750      2.00000
    369     -10.9574      2.00000
    370     -10.9480      2.00000
    371     -10.9406      2.00000
    372     -10.9208      2.00000
    373     -10.9138      2.00000
    374     -10.8477      2.00000
    375     -10.8436      2.00000
    376     -10.8388      2.00000
    377     -10.8291      2.00000
    378     -10.8136      2.00000
    379     -10.7992      2.00000
    380     -10.7650      2.00000
    381     -10.7589      2.00000
    382     -10.7501      2.00000
    383     -10.7373      2.00000
    384     -10.7083      2.00000
    385     -10.6991      2.00000
    386     -10.6970      2.00000
    387     -10.6871      2.00000
    388     -10.6781      2.00000
    389     -10.6729      2.00000
    390     -10.6657      2.00000
    391     -10.6558      2.00000
    392     -10.6541      2.00000
    393     -10.6485      2.00000
    394     -10.6436      2.00000
    395     -10.6288      2.00000
    396     -10.6177      2.00000
    397     -10.6044      2.00000
    398     -10.5995      2.00000
    399     -10.5354      2.00000
    400     -10.5310      2.00000
    401     -10.5180      2.00000
    402     -10.5128      2.00000
    403     -10.5065      2.00000
    404     -10.4719      2.00000
    405     -10.4683      2.00000
    406     -10.4518      2.00000
    407     -10.4460      2.00000
    408     -10.4357      2.00000
    409     -10.4282      2.00000
    410     -10.4088      2.00000
    411     -10.3957      2.00000
    412     -10.3913      2.00000
    413     -10.3687      2.00000
    414     -10.3448      2.00000
    415     -10.3394      2.00000
    416     -10.3298      2.00000
    417     -10.3258      2.00000
    418     -10.3243      2.00000
    419     -10.3235      2.00000
    420     -10.3120      2.00000
    421     -10.3010      2.00000
    422     -10.2675      2.00000
    423     -10.2572      2.00000
    424     -10.2425      2.00000
    425     -10.2278      2.00000
    426     -10.2204      2.00000
    427     -10.2147      2.00000
    428     -10.2098      2.00000
    429     -10.2044      2.00000
    430     -10.1960      2.00000
    431     -10.1905      2.00000
    432     -10.1847      2.00000
    433     -10.1721      2.00000
    434     -10.1582      2.00000
    435     -10.1131      2.00000
    436     -10.1036      2.00000
    437     -10.0928      2.00000
    438     -10.0899      2.00000
    439     -10.0736      2.00000
    440     -10.0623      2.00000
    441     -10.0475      2.00000
    442     -10.0266      2.00000
    443     -10.0181      2.00000
    444     -10.0110      2.00000
    445     -10.0075      2.00000
    446     -10.0003      2.00000
    447      -9.9771      2.00000
    448      -9.9694      2.00000
    449      -9.9643      2.00000
    450      -9.9556      2.00000
    451      -9.9353      2.00000
    452      -9.9301      2.00000
    453      -9.9043      2.00000
    454      -9.8755      2.00000
    455      -9.8681      2.00000
    456      -9.8509      2.00000
    457      -9.8406      2.00000
    458      -9.8323      2.00000
    459      -9.7813      2.00000
    460      -9.7716      2.00000
    461      -9.7706      2.00000
    462      -9.7642      2.00000
    463      -9.7526      2.00000
    464      -9.7425      2.00000
    465      -9.7269      2.00000
    466      -9.7043      2.00000
    467      -9.6998      2.00000
    468      -9.6945      2.00000
    469      -9.6412      2.00000
    470      -9.6284      2.00000
    471      -9.6025      2.00000
    472      -9.5867      2.00000
    473      -9.5830      2.00000
    474      -9.5460      2.00000
    475      -9.5442      2.00000
    476      -9.5426      2.00000
    477      -9.5374      2.00000
    478      -9.5199      2.00000
    479      -9.5144      2.00000
    480      -9.4806      2.00000
    481      -9.4524      2.00000
    482      -9.4334      2.00000
    483      -9.4265      2.00000
    484      -9.4176      2.00000
    485      -9.4012      2.00000
    486      -9.3948      2.00000
    487      -9.3896      2.00000
    488      -9.3797      2.00000
    489      -9.3754      2.00000
    490      -9.3659      2.00000
    491      -9.3555      2.00000
    492      -9.3523      2.00000
    493      -9.3500      2.00000
    494      -9.3477      2.00000
    495      -9.3447      2.00000
    496      -9.3338      2.00000
    497      -9.3269      2.00000
    498      -9.3211      2.00000
    499      -9.3093      2.00000
    500      -9.2909      2.00000
    501      -9.2746      2.00000
    502      -9.2522      2.00000
    503      -9.2479      2.00000
    504      -9.2374      2.00000
    505      -9.2300      2.00000
    506      -9.2003      2.00000
    507      -9.1901      2.00000
    508      -9.1847      2.00000
    509      -9.1647      2.00000
    510      -9.1549      2.00000
    511      -9.1505      2.00000
    512      -9.1081      2.00000
    513      -9.0670      2.00000
    514      -8.9145      2.00000
    515      -8.9083      2.00000
    516      -8.8767      2.00000
    517      -8.8690      2.00000
    518      -8.8550      2.00000
    519      -8.8417      2.00000
    520      -8.8174      2.00000
    521      -8.8049      2.00000
    522      -8.7885      2.00000
    523      -8.7813      2.00000
    524      -8.7761      2.00000
    525      -8.6666      2.00000
    526      -8.6540      2.00000
    527      -8.6368      2.00000
    528      -8.6319      2.00000
    529      -8.6009      2.00000
    530      -8.5917      2.00000
    531      -8.5789      2.00000
    532      -8.5736      2.00000
    533      -8.5460      2.00000
    534      -8.5305      2.00000
    535      -8.5232      2.00000
    536      -8.5105      2.00000
    537      -8.5075      2.00000
    538      -8.5024      2.00000
    539      -8.4733      2.00000
    540      -8.4553      2.00000
    541      -8.4498      2.00000
    542      -8.4356      2.00000
    543      -8.4280      2.00000
    544      -8.4243      2.00000
    545      -8.4137      2.00000
    546      -8.3947      2.00000
    547      -8.3846      2.00000
    548      -8.3733      2.00000
    549      -8.3537      2.00000
    550      -8.3503      2.00000
    551      -8.3440      2.00000
    552      -8.3358      2.00000
    553      -8.3298      2.00000
    554      -8.3266      2.00000
    555      -8.3231      2.00000
    556      -8.3152      2.00000
    557      -8.3124      2.00000
    558      -8.2904      2.00000
    559      -8.2827      2.00000
    560      -8.2755      2.00000
    561      -8.2495      2.00000
    562      -8.2357      2.00000
    563      -8.2002      2.00000
    564      -8.1916      2.00000
    565      -8.1845      2.00000
    566      -8.1713      2.00000
    567      -8.1474      2.00000
    568      -8.1440      2.00000
    569      -8.1325      2.00000
    570      -8.0479      2.00000
    571      -7.9975      2.00000
    572      -7.9807      2.00000
    573      -7.9180      2.00000
    574      -7.8903      2.00000
    575      -7.8827      2.00000
    576      -7.8661      2.00000
    577      -7.8587      2.00000
    578      -7.8340      2.00000
    579      -7.8067      2.00000
    580      -7.8039      2.00000
    581      -7.7966      2.00000
    582      -7.7841      2.00000
    583      -7.7722      2.00000
    584      -7.7359      2.00000
    585      -7.7342      2.00000
    586      -7.7178      2.00000
    587      -7.6947      2.00000
    588      -7.6890      2.00000
    589      -7.6522      2.00000
    590      -7.6489      2.00000
    591      -7.6348      2.00000
    592      -7.6171      2.00000
    593      -7.5941      2.00000
    594      -7.5905      2.00000
    595      -7.5638      2.00000
    596      -7.5608      2.00000
    597      -7.5511      2.00000
    598      -7.5484      2.00000
    599      -7.5396      2.00000
    600      -7.5265      2.00000
    601      -7.5050      2.00000
    602      -7.4974      2.00000
    603      -7.4883      2.00000
    604      -7.4572      2.00000
    605      -7.4135      2.00000
    606      -7.3923      2.00000
    607      -7.3484      2.00000
    608      -7.2990      2.00000
    609      -7.2744      2.00000
    610      -7.2473      2.00000
    611      -7.2219      2.00000
    612      -7.2166      2.00000
    613      -7.2043      2.00000
    614      -7.2019      2.00000
    615      -7.1949      2.00000
    616      -7.1879      2.00000
    617      -7.1472      2.00000
    618      -7.1307      2.00000
    619      -7.1238      2.00000
    620      -7.1025      2.00000
    621      -7.1016      2.00000
    622      -7.0521      2.00000
    623      -7.0284      2.00000
    624      -7.0179      2.00000
    625      -7.0019      2.00000
    626      -6.9849      2.00000
    627      -6.9776      2.00000
    628      -6.9714      2.00000
    629      -6.9659      2.00000
    630      -6.9596      2.00000
    631      -6.9548      2.00000
    632      -6.9365      2.00000
    633      -6.9108      2.00000
    634      -6.8866      2.00000
    635      -6.8333      2.00000
    636      -6.8201      2.00000
    637      -6.7789      2.00000
    638      -6.7460      2.00000
    639      -6.7358      2.00000
    640      -6.7272      2.00000
    641      -6.7194      2.00000
    642      -6.7048      2.00000
    643      -6.6920      2.00000
    644      -6.6812      2.00000
    645      -6.6787      2.00000
    646      -6.6663      2.00000
    647      -6.6625      2.00000
    648      -6.6509      2.00000
    649      -6.6417      2.00000
    650      -6.6334      2.00000
    651      -6.6272      2.00000
    652      -6.6211      2.00000
    653      -6.6149      2.00000
    654      -6.5979      2.00000
    655      -6.5659      2.00000
    656      -6.4659      2.00000
    657      -6.4483      2.00000
    658      -6.3712      2.00000
    659      -6.3387      2.00000
    660      -6.2959      2.00000
    661      -6.2802      2.00000
    662      -6.2639      2.00000
    663      -6.2389      2.00000
    664      -6.2294      2.00000
    665      -6.2012      2.00000
    666      -6.1537      2.00000
    667      -6.1227      2.00000
    668      -6.0796      2.00000
    669      -6.0225      2.00000
    670      -6.0110      2.00000
    671      -5.9530      2.00000
    672      -5.9339      2.00000
    673      -5.8802      2.00000
    674      -5.8668      2.00000
    675      -5.8263      2.00000
    676      -5.8085      2.00000
    677      -5.7850      2.00000
    678      -5.7658      2.00000
    679      -5.7519      2.00000
    680      -5.7293      2.00000
    681      -5.6753      2.00000
    682      -5.6706      2.00000
    683      -5.6163      2.00000
    684      -5.6063      2.00000
    685      -5.5992      2.00000
    686      -5.5876      2.00000
    687      -5.5792      2.00000
    688      -5.5686      2.00000
    689      -5.5598      2.00000
    690      -5.5340      2.00000
    691      -5.5120      2.00000
    692      -5.5115      2.00000
    693      -5.4996      2.00000
    694      -5.4856      2.00000
    695      -5.4485      2.00000
    696      -5.4224      2.00000
    697      -5.3968      2.00000
    698      -5.3878      2.00000
    699      -5.3481      2.00000
    700      -5.2877      2.00000
    701      -5.2553      2.00000
    702      -5.2316      2.00000
    703      -5.2153      2.00000
    704      -5.2073      2.00000
    705      -5.1439      2.00000
    706      -5.1219      2.00000
    707      -5.0871      2.00000
    708      -5.0642      2.00000
    709      -5.0077      2.00000
    710      -4.9225      2.00000
    711      -4.8907      2.00000
    712      -4.8560      2.00000
    713      -4.8498      2.00000
    714      -4.8360      2.00000
    715      -4.8137      2.00000
    716      -4.7700      2.00000
    717      -4.7285      2.00000
    718      -4.7023      2.00000
    719      -4.6646      2.00000
    720      -4.5104      2.00000
    721      -4.3790      2.00000
    722      -4.3254      2.00000
    723      -4.2559      2.00000
    724      -4.2177      2.00000
    725      -4.1773      2.00000
    726      -4.1368      2.00000
    727      -3.9568      2.00000
    728      -3.8978      2.00000
    729      -3.8135      2.00000
    730      -3.7718      2.00000
    731      -3.7023      2.00000
    732      -2.7379      0.00000
    733      -2.6054      0.00000
    734      -2.5512      0.00000
    735      -2.5036      0.00000
    736      -2.4413      0.00000
    737      -2.2572      0.00000
    738      -2.1855      0.00000
    739      -2.0781      0.00000
    740      -2.0642      0.00000
    741      -2.0162      0.00000
    742      -2.0014      0.00000
    743      -1.9134      0.00000
    744      -1.8882      0.00000
    745      -1.8797      0.00000
    746      -1.8755      0.00000
    747      -1.8625      0.00000
    748      -1.8455      0.00000
    749      -1.8336      0.00000
    750      -1.8106      0.00000
    751      -1.7902      0.00000
    752      -1.7500      0.00000
    753      -1.7335      0.00000
    754      -1.7325      0.00000
    755      -1.7149      0.00000
    756      -1.7025      0.00000
    757      -1.6782      0.00000
    758      -1.6713      0.00000
    759      -1.6525      0.00000
    760      -1.6364      0.00000
    761      -1.6254      0.00000
    762      -1.6144      0.00000
    763      -1.5775      0.00000
    764      -1.4610      0.00000
    765      -1.4420      0.00000
    766      -1.4345      0.00000
    767      -1.3746      0.00000
    768      -1.3628      0.00000
    769      -1.3548      0.00000
    770      -1.3460      0.00000
    771      -1.3339      0.00000
    772      -1.3293      0.00000
    773      -1.3126      0.00000
    774      -1.2975      0.00000
    775      -1.2936      0.00000
    776      -1.2692      0.00000
    777      -1.2685      0.00000
    778      -1.2656      0.00000
    779      -1.2641      0.00000
    780      -1.2543      0.00000
    781      -1.2455      0.00000
    782      -1.2237      0.00000
    783      -1.2051      0.00000
    784      -1.1877      0.00000
    785      -1.1671      0.00000
    786      -1.1256      0.00000
    787      -1.1053      0.00000
    788      -1.0366      0.00000
    789      -0.9865      0.00000
    790      -0.9273      0.00000
    791      -0.8875      0.00000
    792      -0.7820      0.00000
    793      -0.6950      0.00000
    794      -0.6620      0.00000
    795      -0.6422      0.00000
    796      -0.5917      0.00000
    797      -0.5800      0.00000
    798      -0.4806      0.00000
    799      -0.4449      0.00000
    800      -0.3724      0.00000
    801      -0.3486      0.00000
    802      -0.3074      0.00000
    803      -0.2838      0.00000
    804      -0.2445      0.00000
    805      -0.2007      0.00000
    806      -0.1745      0.00000
    807      -0.1307      0.00000
    808      -0.1277      0.00000
    809      -0.1200      0.00000
    810      -0.1009      0.00000
    811      -0.0757      0.00000
    812      -0.0356      0.00000
    813      -0.0002      0.00000
    814       0.0162      0.00000
    815       0.0389      0.00000
    816       0.0654      0.00000
    817       0.0807      0.00000
    818       0.1478      0.00000
    819       0.2044      0.00000
    820       0.2488      0.00000
    821       0.3046      0.00000
    822       0.3686      0.00000
    823       0.3835      0.00000
    824       0.4045      0.00000
    825       0.4082      0.00000
    826       0.4297      0.00000
    827       0.4340      0.00000
    828       0.4491      0.00000
    829       0.4719      0.00000
    830       0.5055      0.00000
    831       0.5213      0.00000
    832       0.5339      0.00000
    833       0.5427      0.00000
    834       0.5549      0.00000
    835       0.5714      0.00000
    836       0.5737      0.00000
    837       0.5797      0.00000
    838       0.5823      0.00000
    839       0.5945      0.00000
    840       0.5954      0.00000
    841       0.6141      0.00000
    842       0.6279      0.00000
    843       0.6537      0.00000
    844       0.6910      0.00000
    845       0.7117      0.00000
    846       0.7319      0.00000
    847       0.7428      0.00000
    848       0.7512      0.00000
    849       0.7562      0.00000
    850       0.7787      0.00000
    851       0.7814      0.00000
    852       0.8563      0.00000
    853       0.8693      0.00000
    854       0.9050      0.00000
    855       0.9295      0.00000
    856       0.9354      0.00000
    857       0.9502      0.00000
    858       0.9555      0.00000
    859       0.9731      0.00000
    860       0.9752      0.00000
    861       0.9985      0.00000
    862       1.0278      0.00000
    863       1.0582      0.00000
    864       1.0645      0.00000
    865       1.0977      0.00000
    866       1.1087      0.00000
    867       1.1118      0.00000
    868       1.1305      0.00000
    869       1.1394      0.00000
    870       1.1462      0.00000
    871       1.1626      0.00000
    872       1.2330      0.00000
    873       1.2501      0.00000
    874       1.2760      0.00000
    875       1.2880      0.00000
    876       1.3021      0.00000
    877       1.3691      0.00000
    878       1.3785      0.00000
    879       1.3953      0.00000
    880       1.4010      0.00000
    881       1.4090      0.00000
    882       1.4146      0.00000
    883       1.4172      0.00000
    884       1.4197      0.00000
    885       1.4337      0.00000
    886       1.4474      0.00000
    887       1.4494      0.00000
    888       1.4587      0.00000
    889       1.4669      0.00000
    890       1.4789      0.00000
    891       1.4876      0.00000
    892       1.5124      0.00000
    893       1.5196      0.00000
    894       1.5621      0.00000
    895       1.5799      0.00000
    896       1.5883      0.00000

 k-point    10 :       0.0000    0.0000   -0.5000
  band No.  band energies     occupation 
      1     -22.9794      2.00000
      2     -22.9680      2.00000
      3     -22.8459      2.00000
      4     -22.8363      2.00000
      5     -22.7757      2.00000
      6     -22.7570      2.00000
      7     -22.7551      2.00000
      8     -22.7546      2.00000
      9     -22.6393      2.00000
     10     -22.6256      2.00000
     11     -22.6250      2.00000
     12     -22.6219      2.00000
     13     -22.5781      2.00000
     14     -22.5728      2.00000
     15     -22.3757      2.00000
     16     -22.3626      2.00000
     17     -22.3612      2.00000
     18     -22.3590      2.00000
     19     -22.1868      2.00000
     20     -22.1778      2.00000
     21     -22.1505      2.00000
     22     -22.1256      2.00000
     23     -22.1251      2.00000
     24     -22.1250      2.00000
     25     -22.0176      2.00000
     26     -21.9967      2.00000
     27     -21.9946      2.00000
     28     -21.9940      2.00000
     29     -21.9753      2.00000
     30     -21.9686      2.00000
     31     -21.9670      2.00000
     32     -21.9652      2.00000
     33     -21.7526      2.00000
     34     -21.7376      2.00000
     35     -21.7340      2.00000
     36     -21.7324      2.00000
     37     -21.6600      2.00000
     38     -21.6533      2.00000
     39     -21.4615      2.00000
     40     -21.4460      2.00000
     41     -21.4450      2.00000
     42     -21.4428      2.00000
     43     -21.3620      2.00000
     44     -21.3481      2.00000
     45     -21.3443      2.00000
     46     -21.3419      2.00000
     47     -21.1415      2.00000
     48     -21.1082      2.00000
     49     -21.1073      2.00000
     50     -21.1072      2.00000
     51     -21.0181      2.00000
     52     -21.0023      2.00000
     53     -20.9970      2.00000
     54     -20.9802      2.00000
     55     -20.9790      2.00000
     56     -20.9788      2.00000
     57     -20.8508      2.00000
     58     -20.8313      2.00000
     59     -20.8281      2.00000
     60     -20.8250      2.00000
     61     -20.8075      2.00000
     62     -20.7982      2.00000
     63     -20.7965      2.00000
     64     -20.7938      2.00000
     65     -20.7410      2.00000
     66     -20.7252      2.00000
     67     -20.7229      2.00000
     68     -20.7218      2.00000
     69     -20.3684      2.00000
     70     -20.3431      2.00000
     71     -20.3402      2.00000
     72     -20.3398      2.00000
     73     -20.2440      2.00000
     74     -20.2314      2.00000
     75     -20.2047      2.00000
     76     -20.1899      2.00000
     77     -20.1886      2.00000
     78     -20.1836      2.00000
     79     -20.0472      2.00000
     80     -20.0292      2.00000
     81     -20.0282      2.00000
     82     -20.0273      2.00000
     83     -19.8727      2.00000
     84     -19.8368      2.00000
     85     -19.8345      2.00000
     86     -19.8330      2.00000
     87     -19.7807      2.00000
     88     -19.7469      2.00000
     89     -19.7458      2.00000
     90     -19.7457      2.00000
     91     -19.6508      2.00000
     92     -19.6232      2.00000
     93     -19.6213      2.00000
     94     -19.6210      2.00000
     95     -19.4605      2.00000
     96     -19.4336      2.00000
     97     -19.4311      2.00000
     98     -19.4275      2.00000
     99     -19.3992      2.00000
    100     -19.3754      2.00000
    101     -19.3735      2.00000
    102     -19.3731      2.00000
    103     -19.3530      2.00000
    104     -19.3467      2.00000
    105     -19.2342      2.00000
    106     -19.2122      2.00000
    107     -19.2106      2.00000
    108     -19.2068      2.00000
    109     -19.1631      2.00000
    110     -19.1490      2.00000
    111     -19.1484      2.00000
    112     -19.1481      2.00000
    113     -19.0325      2.00000
    114     -19.0061      2.00000
    115     -19.0035      2.00000
    116     -19.0035      2.00000
    117     -18.6282      2.00000
    118     -18.5768      2.00000
    119     -18.5719      2.00000
    120     -18.5712      2.00000
    121     -18.5504      2.00000
    122     -18.5200      2.00000
    123     -18.5175      2.00000
    124     -18.5166      2.00000
    125     -18.4948      2.00000
    126     -18.4836      2.00000
    127     -18.4827      2.00000
    128     -18.4788      2.00000
    129     -18.3718      2.00000
    130     -18.3623      2.00000
    131     -18.2569      2.00000
    132     -18.1819      2.00000
    133     -18.1813      2.00000
    134     -18.1744      2.00000
    135     -18.1735      2.00000
    136     -18.1577      2.00000
    137     -18.1529      2.00000
    138     -18.1508      2.00000
    139     -18.0793      2.00000
    140     -18.0472      2.00000
    141     -18.0344      2.00000
    142     -18.0284      2.00000
    143     -17.9530      2.00000
    144     -17.9319      2.00000
    145     -17.9274      2.00000
    146     -17.9267      2.00000
    147     -17.8508      2.00000
    148     -17.8200      2.00000
    149     -17.7988      2.00000
    150     -17.7905      2.00000
    151     -17.7454      2.00000
    152     -17.7366      2.00000
    153     -17.7287      2.00000
    154     -17.7237      2.00000
    155     -17.7171      2.00000
    156     -17.7132      2.00000
    157     -17.6760      2.00000
    158     -17.6744      2.00000
    159     -17.5169      2.00000
    160     -17.4814      2.00000
    161     -17.4494      2.00000
    162     -17.4398      2.00000
    163     -17.3606      2.00000
    164     -17.3594      2.00000
    165     -17.3282      2.00000
    166     -17.3096      2.00000
    167     -17.2973      2.00000
    168     -17.2832      2.00000
    169     -17.2529      2.00000
    170     -17.2431      2.00000
    171     -17.1623      2.00000
    172     -17.1584      2.00000
    173     -17.0698      2.00000
    174     -17.0358      2.00000
    175     -16.9991      2.00000
    176     -16.9907      2.00000
    177     -16.6077      2.00000
    178     -16.5806      2.00000
    179     -16.5585      2.00000
    180     -16.5019      2.00000
    181     -16.4011      2.00000
    182     -16.3330      2.00000
    183     -16.3313      2.00000
    184     -16.3295      2.00000
    185     -16.3255      2.00000
    186     -16.3228      2.00000
    187     -16.2216      2.00000
    188     -16.2091      2.00000
    189     -16.1956      2.00000
    190     -16.1521      2.00000
    191     -16.1006      2.00000
    192     -16.0653      2.00000
    193     -16.0427      2.00000
    194     -16.0418      2.00000
    195     -15.9401      2.00000
    196     -15.8507      2.00000
    197     -15.8429      2.00000
    198     -15.8429      2.00000
    199     -15.8073      2.00000
    200     -15.7452      2.00000
    201     -15.7380      2.00000
    202     -15.7375      2.00000
    203     -15.7223      2.00000
    204     -15.6843      2.00000
    205     -15.6834      2.00000
    206     -15.6822      2.00000
    207     -15.6631      2.00000
    208     -15.6569      2.00000
    209     -15.5957      2.00000
    210     -15.5468      2.00000
    211     -15.5410      2.00000
    212     -15.5336      2.00000
    213     -15.5180      2.00000
    214     -15.4897      2.00000
    215     -15.4326      2.00000
    216     -15.3852      2.00000
    217     -15.3791      2.00000
    218     -15.3756      2.00000
    219     -15.3707      2.00000
    220     -15.3693      2.00000
    221     -15.3394      2.00000
    222     -15.3266      2.00000
    223     -15.3141      2.00000
    224     -15.2501      2.00000
    225     -15.2458      2.00000
    226     -15.2432      2.00000
    227     -15.2264      2.00000
    228     -15.2019      2.00000
    229     -15.1865      2.00000
    230     -15.1762      2.00000
    231     -15.1462      2.00000
    232     -15.1440      2.00000
    233     -15.1041      2.00000
    234     -15.0073      2.00000
    235     -14.9952      2.00000
    236     -14.9800      2.00000
    237     -14.9599      2.00000
    238     -14.9494      2.00000
    239     -14.8901      2.00000
    240     -14.7282      2.00000
    241     -14.7005      2.00000
    242     -14.6302      2.00000
    243     -14.6255      2.00000
    244     -14.2569      2.00000
    245     -14.2492      2.00000
    246     -14.2489      2.00000
    247     -14.2419      2.00000
    248     -14.2329      2.00000
    249     -14.2261      2.00000
    250     -14.1727      2.00000
    251     -14.1607      2.00000
    252     -14.1272      2.00000
    253     -14.1167      2.00000
    254     -14.0901      2.00000
    255     -14.0795      2.00000
    256     -13.9534      2.00000
    257     -13.9460      2.00000
    258     -13.8380      2.00000
    259     -13.8252      2.00000
    260     -13.8215      2.00000
    261     -13.8173      2.00000
    262     -13.8130      2.00000
    263     -13.8053      2.00000
    264     -13.7923      2.00000
    265     -13.7857      2.00000
    266     -13.7627      2.00000
    267     -13.7521      2.00000
    268     -13.6935      2.00000
    269     -13.6890      2.00000
    270     -13.6845      2.00000
    271     -13.6777      2.00000
    272     -13.6349      2.00000
    273     -13.6306      2.00000
    274     -13.5368      2.00000
    275     -13.5365      2.00000
    276     -13.5199      2.00000
    277     -13.5158      2.00000
    278     -13.3622      2.00000
    279     -13.3608      2.00000
    280     -13.3483      2.00000
    281     -13.3441      2.00000
    282     -13.3258      2.00000
    283     -13.3237      2.00000
    284     -13.1736      2.00000
    285     -13.1701      2.00000
    286     -13.1259      2.00000
    287     -13.1255      2.00000
    288     -13.1151      2.00000
    289     -13.1131      2.00000
    290     -13.0919      2.00000
    291     -13.0885      2.00000
    292     -13.0511      2.00000
    293     -13.0447      2.00000
    294     -13.0338      2.00000
    295     -13.0267      2.00000
    296     -12.9827      2.00000
    297     -12.9822      2.00000
    298     -12.8820      2.00000
    299     -12.8798      2.00000
    300     -12.8143      2.00000
    301     -12.8091      2.00000
    302     -12.7905      2.00000
    303     -12.7826      2.00000
    304     -12.7057      2.00000
    305     -12.7033      2.00000
    306     -12.5126      2.00000
    307     -12.5103      2.00000
    308     -12.3812      2.00000
    309     -12.3812      2.00000
    310     -12.2741      2.00000
    311     -12.2729      2.00000
    312     -12.2540      2.00000
    313     -12.2539      2.00000
    314     -12.1383      2.00000
    315     -12.1374      2.00000
    316     -12.0490      2.00000
    317     -12.0487      2.00000
    318     -12.0244      2.00000
    319     -12.0198      2.00000
    320     -11.9622      2.00000
    321     -11.9474      2.00000
    322     -11.9292      2.00000
    323     -11.9281      2.00000
    324     -11.9036      2.00000
    325     -11.9000      2.00000
    326     -11.8829      2.00000
    327     -11.8794      2.00000
    328     -11.8350      2.00000
    329     -11.8313      2.00000
    330     -11.8077      2.00000
    331     -11.7973      2.00000
    332     -11.7703      2.00000
    333     -11.7651      2.00000
    334     -11.7614      2.00000
    335     -11.7613      2.00000
    336     -11.7266      2.00000
    337     -11.7235      2.00000
    338     -11.6975      2.00000
    339     -11.6938      2.00000
    340     -11.6466      2.00000
    341     -11.6429      2.00000
    342     -11.6138      2.00000
    343     -11.6127      2.00000
    344     -11.5991      2.00000
    345     -11.5932      2.00000
    346     -11.5596      2.00000
    347     -11.5555      2.00000
    348     -11.5263      2.00000
    349     -11.5253      2.00000
    350     -11.5163      2.00000
    351     -11.5103      2.00000
    352     -11.4505      2.00000
    353     -11.4371      2.00000
    354     -11.4313      2.00000
    355     -11.4299      2.00000
    356     -11.4274      2.00000
    357     -11.4265      2.00000
    358     -11.4186      2.00000
    359     -11.4133      2.00000
    360     -11.0835      2.00000
    361     -11.0775      2.00000
    362     -11.0413      2.00000
    363     -11.0395      2.00000
    364     -11.0272      2.00000
    365     -11.0259      2.00000
    366     -11.0120      2.00000
    367     -11.0118      2.00000
    368     -10.9855      2.00000
    369     -10.9794      2.00000
    370     -10.9672      2.00000
    371     -10.9625      2.00000
    372     -10.9303      2.00000
    373     -10.9256      2.00000
    374     -10.8448      2.00000
    375     -10.8426      2.00000
    376     -10.8419      2.00000
    377     -10.8301      2.00000
    378     -10.7719      2.00000
    379     -10.7541      2.00000
    380     -10.7525      2.00000
    381     -10.7505      2.00000
    382     -10.7420      2.00000
    383     -10.7307      2.00000
    384     -10.7135      2.00000
    385     -10.7008      2.00000
    386     -10.6981      2.00000
    387     -10.6919      2.00000
    388     -10.6904      2.00000
    389     -10.6869      2.00000
    390     -10.6791      2.00000
    391     -10.6749      2.00000
    392     -10.6651      2.00000
    393     -10.6570      2.00000
    394     -10.6279      2.00000
    395     -10.6176      2.00000
    396     -10.5948      2.00000
    397     -10.5935      2.00000
    398     -10.5665      2.00000
    399     -10.5652      2.00000
    400     -10.5587      2.00000
    401     -10.5528      2.00000
    402     -10.5073      2.00000
    403     -10.4975      2.00000
    404     -10.4921      2.00000
    405     -10.4810      2.00000
    406     -10.4527      2.00000
    407     -10.4467      2.00000
    408     -10.4191      2.00000
    409     -10.4088      2.00000
    410     -10.3955      2.00000
    411     -10.3948      2.00000
    412     -10.3822      2.00000
    413     -10.3786      2.00000
    414     -10.3620      2.00000
    415     -10.3594      2.00000
    416     -10.3395      2.00000
    417     -10.3395      2.00000
    418     -10.3250      2.00000
    419     -10.3243      2.00000
    420     -10.3111      2.00000
    421     -10.3028      2.00000
    422     -10.2625      2.00000
    423     -10.2613      2.00000
    424     -10.2371      2.00000
    425     -10.2302      2.00000
    426     -10.2176      2.00000
    427     -10.2091      2.00000
    428     -10.2025      2.00000
    429     -10.1958      2.00000
    430     -10.1886      2.00000
    431     -10.1863      2.00000
    432     -10.1802      2.00000
    433     -10.1783      2.00000
    434     -10.1542      2.00000
    435     -10.1520      2.00000
    436     -10.0925      2.00000
    437     -10.0875      2.00000
    438     -10.0745      2.00000
    439     -10.0649      2.00000
    440     -10.0522      2.00000
    441     -10.0513      2.00000
    442     -10.0379      2.00000
    443     -10.0310      2.00000
    444      -9.9965      2.00000
    445      -9.9919      2.00000
    446      -9.9864      2.00000
    447      -9.9842      2.00000
    448      -9.9752      2.00000
    449      -9.9691      2.00000
    450      -9.9496      2.00000
    451      -9.9412      2.00000
    452      -9.9241      2.00000
    453      -9.9175      2.00000
    454      -9.8719      2.00000
    455      -9.8676      2.00000
    456      -9.8655      2.00000
    457      -9.8550      2.00000
    458      -9.8076      2.00000
    459      -9.8020      2.00000
    460      -9.7663      2.00000
    461      -9.7534      2.00000
    462      -9.7511      2.00000
    463      -9.7377      2.00000
    464      -9.7328      2.00000
    465      -9.7304      2.00000
    466      -9.7168      2.00000
    467      -9.7090      2.00000
    468      -9.6867      2.00000
    469      -9.6831      2.00000
    470      -9.6231      2.00000
    471      -9.6153      2.00000
    472      -9.5698      2.00000
    473      -9.5593      2.00000
    474      -9.5531      2.00000
    475      -9.5476      2.00000
    476      -9.5417      2.00000
    477      -9.5414      2.00000
    478      -9.5348      2.00000
    479      -9.5232      2.00000
    480      -9.4595      2.00000
    481      -9.4428      2.00000
    482      -9.4311      2.00000
    483      -9.4267      2.00000
    484      -9.4071      2.00000
    485      -9.3992      2.00000
    486      -9.3885      2.00000
    487      -9.3868      2.00000
    488      -9.3749      2.00000
    489      -9.3701      2.00000
    490      -9.3679      2.00000
    491      -9.3543      2.00000
    492      -9.3536      2.00000
    493      -9.3508      2.00000
    494      -9.3507      2.00000
    495      -9.3454      2.00000
    496      -9.3353      2.00000
    497      -9.3288      2.00000
    498      -9.3235      2.00000
    499      -9.3125      2.00000
    500      -9.3005      2.00000
    501      -9.2896      2.00000
    502      -9.2650      2.00000
    503      -9.2598      2.00000
    504      -9.2193      2.00000
    505      -9.2119      2.00000
    506      -9.1972      2.00000
    507      -9.1919      2.00000
    508      -9.1859      2.00000
    509      -9.1849      2.00000
    510      -9.1598      2.00000
    511      -9.1586      2.00000
    512      -9.0915      2.00000
    513      -9.0830      2.00000
    514      -8.9070      2.00000
    515      -8.8785      2.00000
    516      -8.8758      2.00000
    517      -8.8709      2.00000
    518      -8.8662      2.00000
    519      -8.8631      2.00000
    520      -8.8172      2.00000
    521      -8.8053      2.00000
    522      -8.7821      2.00000
    523      -8.7760      2.00000
    524      -8.7317      2.00000
    525      -8.7217      2.00000
    526      -8.6451      2.00000
    527      -8.6370      2.00000
    528      -8.6086      2.00000
    529      -8.6079      2.00000
    530      -8.5970      2.00000
    531      -8.5919      2.00000
    532      -8.5468      2.00000
    533      -8.5449      2.00000
    534      -8.5406      2.00000
    535      -8.5319      2.00000
    536      -8.5201      2.00000
    537      -8.5160      2.00000
    538      -8.4887      2.00000
    539      -8.4885      2.00000
    540      -8.4513      2.00000
    541      -8.4469      2.00000
    542      -8.4313      2.00000
    543      -8.4304      2.00000
    544      -8.4263      2.00000
    545      -8.4203      2.00000
    546      -8.3696      2.00000
    547      -8.3639      2.00000
    548      -8.3531      2.00000
    549      -8.3472      2.00000
    550      -8.3449      2.00000
    551      -8.3410      2.00000
    552      -8.3337      2.00000
    553      -8.3332      2.00000
    554      -8.3230      2.00000
    555      -8.3218      2.00000
    556      -8.3185      2.00000
    557      -8.3143      2.00000
    558      -8.3012      2.00000
    559      -8.2989      2.00000
    560      -8.2877      2.00000
    561      -8.2836      2.00000
    562      -8.2260      2.00000
    563      -8.2236      2.00000
    564      -8.1843      2.00000
    565      -8.1725      2.00000
    566      -8.1600      2.00000
    567      -8.1580      2.00000
    568      -8.1516      2.00000
    569      -8.1491      2.00000
    570      -8.0228      2.00000
    571      -8.0213      2.00000
    572      -7.9552      2.00000
    573      -7.9432      2.00000
    574      -7.8649      2.00000
    575      -7.8546      2.00000
    576      -7.8486      2.00000
    577      -7.8465      2.00000
    578      -7.8308      2.00000
    579      -7.8276      2.00000
    580      -7.8239      2.00000
    581      -7.8228      2.00000
    582      -7.7739      2.00000
    583      -7.7705      2.00000
    584      -7.7501      2.00000
    585      -7.7443      2.00000
    586      -7.6910      2.00000
    587      -7.6840      2.00000
    588      -7.6568      2.00000
    589      -7.6507      2.00000
    590      -7.6449      2.00000
    591      -7.6422      2.00000
    592      -7.6073      2.00000
    593      -7.6071      2.00000
    594      -7.5893      2.00000
    595      -7.5860      2.00000
    596      -7.5742      2.00000
    597      -7.5665      2.00000
    598      -7.5379      2.00000
    599      -7.5244      2.00000
    600      -7.5184      2.00000
    601      -7.5156      2.00000
    602      -7.5137      2.00000
    603      -7.5126      2.00000
    604      -7.4416      2.00000
    605      -7.4293      2.00000
    606      -7.3738      2.00000
    607      -7.3668      2.00000
    608      -7.2802      2.00000
    609      -7.2784      2.00000
    610      -7.2293      2.00000
    611      -7.2241      2.00000
    612      -7.2214      2.00000
    613      -7.2123      2.00000
    614      -7.2014      2.00000
    615      -7.1957      2.00000
    616      -7.1763      2.00000
    617      -7.1700      2.00000
    618      -7.1299      2.00000
    619      -7.1273      2.00000
    620      -7.1031      2.00000
    621      -7.1026      2.00000
    622      -7.0394      2.00000
    623      -7.0200      2.00000
    624      -7.0054      2.00000
    625      -7.0018      2.00000
    626      -6.9913      2.00000
    627      -6.9892      2.00000
    628      -6.9655      2.00000
    629      -6.9608      2.00000
    630      -6.9499      2.00000
    631      -6.9354      2.00000
    632      -6.9294      2.00000
    633      -6.9269      2.00000
    634      -6.8870      2.00000
    635      -6.8800      2.00000
    636      -6.7884      2.00000
    637      -6.7717      2.00000
    638      -6.7528      2.00000
    639      -6.7410      2.00000
    640      -6.7126      2.00000
    641      -6.6997      2.00000
    642      -6.6930      2.00000
    643      -6.6854      2.00000
    644      -6.6845      2.00000
    645      -6.6809      2.00000
    646      -6.6704      2.00000
    647      -6.6677      2.00000
    648      -6.6469      2.00000
    649      -6.6445      2.00000
    650      -6.6391      2.00000
    651      -6.6333      2.00000
    652      -6.6280      2.00000
    653      -6.6264      2.00000
    654      -6.6004      2.00000
    655      -6.5986      2.00000
    656      -6.4623      2.00000
    657      -6.4511      2.00000
    658      -6.3599      2.00000
    659      -6.3383      2.00000
    660      -6.2897      2.00000
    661      -6.2874      2.00000
    662      -6.2610      2.00000
    663      -6.2463      2.00000
    664      -6.2175      2.00000
    665      -6.1806      2.00000
    666      -6.1616      2.00000
    667      -6.1421      2.00000
    668      -6.0753      2.00000
    669      -6.0314      2.00000
    670      -5.9926      2.00000
    671      -5.9678      2.00000
    672      -5.9195      2.00000
    673      -5.8855      2.00000
    674      -5.8308      2.00000
    675      -5.8296      2.00000
    676      -5.8022      2.00000
    677      -5.7859      2.00000
    678      -5.7733      2.00000
    679      -5.7697      2.00000
    680      -5.7239      2.00000
    681      -5.6961      2.00000
    682      -5.6589      2.00000
    683      -5.6361      2.00000
    684      -5.6075      2.00000
    685      -5.5920      2.00000
    686      -5.5788      2.00000
    687      -5.5748      2.00000
    688      -5.5746      2.00000
    689      -5.5740      2.00000
    690      -5.5287      2.00000
    691      -5.5107      2.00000
    692      -5.5050      2.00000
    693      -5.4962      2.00000
    694      -5.4947      2.00000
    695      -5.4490      2.00000
    696      -5.4165      2.00000
    697      -5.4075      2.00000
    698      -5.3792      2.00000
    699      -5.3583      2.00000
    700      -5.2765      2.00000
    701      -5.2420      2.00000
    702      -5.2316      2.00000
    703      -5.2315      2.00000
    704      -5.2148      2.00000
    705      -5.1430      2.00000
    706      -5.1094      2.00000
    707      -5.1002      2.00000
    708      -5.0411      2.00000
    709      -5.0292      2.00000
    710      -4.9064      2.00000
    711      -4.8918      2.00000
    712      -4.8529      2.00000
    713      -4.8382      2.00000
    714      -4.8332      2.00000
    715      -4.7997      2.00000
    716      -4.7790      2.00000
    717      -4.7492      2.00000
    718      -4.6941      2.00000
    719      -4.6851      2.00000
    720      -4.5124      2.00000
    721      -4.3580      2.00000
    722      -4.3448      2.00000
    723      -4.2425      2.00000
    724      -4.2310      2.00000
    725      -4.1744      2.00000
    726      -4.1384      2.00000
    727      -3.9358      2.00000
    728      -3.9120      2.00000
    729      -3.8082      2.00000
    730      -3.7755      2.00000
    731      -3.7071      2.00000
    732      -2.7371      0.00000
    733      -2.5899      0.00000
    734      -2.5675      0.00000
    735      -2.4847      0.00000
    736      -2.4637      0.00000
    737      -2.2578      0.00000
    738      -2.1857      0.00000
    739      -2.0697      0.00000
    740      -2.0514      0.00000
    741      -2.0318      0.00000
    742      -2.0075      0.00000
    743      -1.9012      0.00000
    744      -1.8901      0.00000
    745      -1.8684      0.00000
    746      -1.8654      0.00000
    747      -1.8620      0.00000
    748      -1.8599      0.00000
    749      -1.8512      0.00000
    750      -1.8062      0.00000
    751      -1.7687      0.00000
    752      -1.7685      0.00000
    753      -1.7338      0.00000
    754      -1.7313      0.00000
    755      -1.7130      0.00000
    756      -1.6942      0.00000
    757      -1.6682      0.00000
    758      -1.6634      0.00000
    759      -1.6624      0.00000
    760      -1.6520      0.00000
    761      -1.6366      0.00000
    762      -1.6162      0.00000
    763      -1.5886      0.00000
    764      -1.4571      0.00000
    765      -1.4455      0.00000
    766      -1.4331      0.00000
    767      -1.3710      0.00000
    768      -1.3624      0.00000
    769      -1.3520      0.00000
    770      -1.3467      0.00000
    771      -1.3084      0.00000
    772      -1.2966      0.00000
    773      -1.2950      0.00000
    774      -1.2949      0.00000
    775      -1.2946      0.00000
    776      -1.2907      0.00000
    777      -1.2836      0.00000
    778      -1.2754      0.00000
    779      -1.2685      0.00000
    780      -1.2684      0.00000
    781      -1.2322      0.00000
    782      -1.2208      0.00000
    783      -1.1977      0.00000
    784      -1.1768      0.00000
    785      -1.1658      0.00000
    786      -1.1626      0.00000
    787      -1.1220      0.00000
    788      -1.0305      0.00000
    789      -0.9469      0.00000
    790      -0.9374      0.00000
    791      -0.9270      0.00000
    792      -0.7632      0.00000
    793      -0.6961      0.00000
    794      -0.6433      0.00000
    795      -0.6291      0.00000
    796      -0.6210      0.00000
    797      -0.5996      0.00000
    798      -0.4681      0.00000
    799      -0.4183      0.00000
    800      -0.3956      0.00000
    801      -0.3331      0.00000
    802      -0.3010      0.00000
    803      -0.2604      0.00000
    804      -0.2430      0.00000
    805      -0.2396      0.00000
    806      -0.1937      0.00000
    807      -0.1261      0.00000
    808      -0.1208      0.00000
    809      -0.1109      0.00000
    810      -0.0946      0.00000
    811      -0.0870      0.00000
    812      -0.0423      0.00000
    813       0.0058      0.00000
    814       0.0323      0.00000
    815       0.0508      0.00000
    816       0.0528      0.00000
    817       0.0543      0.00000
    818       0.1380      0.00000
    819       0.2106      0.00000
    820       0.2430      0.00000
    821       0.3251      0.00000
    822       0.3815      0.00000
    823       0.3994      0.00000
    824       0.4057      0.00000
    825       0.4079      0.00000
    826       0.4079      0.00000
    827       0.4148      0.00000
    828       0.4425      0.00000
    829       0.4795      0.00000
    830       0.5201      0.00000
    831       0.5307      0.00000
    832       0.5357      0.00000
    833       0.5472      0.00000
    834       0.5534      0.00000
    835       0.5716      0.00000
    836       0.5727      0.00000
    837       0.5734      0.00000
    838       0.5830      0.00000
    839       0.5917      0.00000
    840       0.5957      0.00000
    841       0.6230      0.00000
    842       0.6300      0.00000
    843       0.6689      0.00000
    844       0.6827      0.00000
    845       0.6988      0.00000
    846       0.7182      0.00000
    847       0.7250      0.00000
    848       0.7322      0.00000
    849       0.7646      0.00000
    850       0.7672      0.00000
    851       0.8104      0.00000
    852       0.8583      0.00000
    853       0.8660      0.00000
    854       0.8719      0.00000
    855       0.9331      0.00000
    856       0.9393      0.00000
    857       0.9398      0.00000
    858       0.9490      0.00000
    859       0.9565      0.00000
    860       0.9730      0.00000
    861       1.0411      0.00000
    862       1.0432      0.00000
    863       1.0447      0.00000
    864       1.0872      0.00000
    865       1.0885      0.00000
    866       1.1207      0.00000
    867       1.1221      0.00000
    868       1.1235      0.00000
    869       1.1254      0.00000
    870       1.1424      0.00000
    871       1.1500      0.00000
    872       1.2344      0.00000
    873       1.2481      0.00000
    874       1.2773      0.00000
    875       1.2931      0.00000
    876       1.3317      0.00000
    877       1.3918      0.00000
    878       1.4029      0.00000
    879       1.4068      0.00000
    880       1.4124      0.00000
    881       1.4187      0.00000
    882       1.4243      0.00000
    883       1.4287      0.00000
    884       1.4341      0.00000
    885       1.4460      0.00000
    886       1.4544      0.00000
    887       1.4628      0.00000
    888       1.4698      0.00000
    889       1.4838      0.00000
    890       1.5010      0.00000
    891       1.5045      0.00000
    892       1.5160      0.00000
    893       1.5222      0.00000
    894       1.5326      0.00000
    895       1.5751      0.00000
    896       1.5991      0.00000


--------------------------------------------------------------------------------------------------------


 soft charge-density along one line, spin component            1
         0         1         2         3         4         5         6         7         8         9
 total charge-density along one line
 
 pseudopotential strength for first ion, spin component:            1
 10.262   0.020  -0.000  -0.000  -0.000   0.000  -0.000   0.000
  0.020  -0.001  -0.000   0.000  -0.000   0.000  -0.000   0.000
 -0.000  -0.000  -4.372  -0.000   0.003  -0.017  -0.000   0.001
 -0.000   0.000  -0.000  -4.375  -0.000  -0.000  -0.018  -0.000
 -0.000  -0.000   0.003  -0.000  -4.371   0.001  -0.000  -0.016
  0.000   0.000  -0.017  -0.000   0.001  -0.773  -0.000   0.000
 -0.000  -0.000  -0.000  -0.018  -0.000  -0.000  -0.773  -0.000
  0.000   0.000   0.001  -0.000  -0.016   0.000  -0.000  -0.773
 total augmentation occupancy for first ion, spin component:            1
  2.000   0.000   0.000   0.000   0.000   0.000   0.000   0.000
  0.000   0.000   0.000   0.000   0.000   0.000   0.000   0.000
  0.000   0.000   0.667   0.000   0.000   0.000   0.000   0.000
  0.000   0.000   0.000   0.667   0.000   0.000   0.000   0.000
  0.000   0.000   0.000   0.000   0.667   0.000   0.000   0.000
  0.000   0.000   0.000   0.000   0.000   0.000   0.000   0.000
  0.000   0.000   0.000   0.000   0.000   0.000   0.000   0.000
  0.000   0.000   0.000   0.000   0.000   0.000   0.000   0.000


------------------------ aborting loop because EDIFF is reached ----------------------------------------





 total charge

# of ion       s       p       d       tot
------------------------------------------
    1        0.868   1.790   0.000   2.658
    2        0.868   1.790   0.000   2.658
    3        0.868   1.790   0.000   2.658
    4        0.868   1.790   0.000   2.658
    5        0.868   1.791   0.000   2.658
    6        0.868   1.790   0.000   2.658
    7        0.868   1.790   0.000   2.658
    8        0.868   1.790   0.000   2.658
    9        0.868   1.790   0.000   2.658
   10        0.868   1.791   0.000   2.658
   11        0.868   1.790   0.000   2.658
   12        0.868   1.790   0.000   2.658
   13        0.868   1.790   0.000   2.658
   14        0.868   1.791   0.000   2.659
   15        0.868   1.790   0.000   2.658
   16        0.868   1.791   0.000   2.659
   17        0.868   1.791   0.000   2.659
   18        0.868   1.791   0.000   2.659
   19        0.868   1.790   0.000   2.658
   20        0.868   1.790   0.000   2.658
   21        0.868   1.790   0.000   2.658
   22        0.868   1.791   0.000   2.658
   23        0.868   1.790   0.000   2.658
   24        0.868   1.790   0.000   2.658
   25        0.868   1.791   0.000   2.659
   26        0.868   1.791   0.000   2.659
   27        0.868   1.791   0.000   2.658
   28        0.868   1.790   0.000   2.658
   29        0.868   1.790   0.000   2.658
   30        0.868   1.790   0.000   2.658
   31        0.868   1.790   0.000   2.658
   32        0.868   1.790   0.000   2.658
   33        0.868   1.790   0.000   2.658
   34        0.868   1.790   0.000   2.658
   35        0.868   1.790   0.000   2.658
   36        0.868   1.790   0.000   2.658
   37        0.868   1.790   0.000   2.658
   38        0.868   1.791   0.000   2.659
   39        0.868   1.791   0.000   2.658
   40        0.868   1.791   0.000   2.658
   41        0.868   1.790   0.000   2.658
   42        0.869   1.795   0.000   2.663
   43        0.868   1.791   0.000   2.660
   44        0.868   1.790   0.000   2.658
   45        0.868   1.790   0.000   2.658
   46        0.868   1.789   0.000   2.657
   47        0.868   1.790   0.000   2.657
   48        0.868   1.790   0.000   2.658
   49        0.868   1.790   0.000   2.658
   50        0.868   1.790   0.000   2.658
   51        0.868   1.790   0.000   2.658
   52        0.868   1.790   0.000   2.658
   53        0.868   1.790   0.000   2.658
   54        0.868   1.790   0.000   2.658
   55        0.868   1.790   0.000   2.658
   56        0.868   1.790   0.000   2.658
   57        0.868   1.790   0.000   2.658
   58        0.868   1.791   0.000   2.659
   59        0.868   1.790   0.000   2.658
   60        0.868   1.790   0.000   2.658
   61        0.868   1.790   0.000   2.658
   62        0.868   1.790   0.000   2.658
   63        0.868   1.793   0.000   2.661
   64        0.868   1.792   0.000   2.660
   65        0.868   1.791   0.000   2.659
   66        0.868   1.789   0.000   2.656
   67        0.868   1.790   0.000   2.657
   68        0.868   1.789   0.000   2.657
   69        0.868   1.790   0.000   2.658
   70        0.868   1.790   0.000   2.658
   71        0.868   1.790   0.000   2.658
   72        0.868   1.790   0.000   2.658
   73        0.868   1.790   0.000   2.658
   74        0.868   1.790   0.000   2.658
   75        0.868   1.790   0.000   2.658
   76        0.868   1.790   0.000   2.658
   77        0.868   1.790   0.000   2.658
   78        0.868   1.790   0.000   2.658
   79        0.868   1.790   0.000   2.658
   80        0.868   1.791   0.000   2.658
   81        0.868   1.790   0.000   2.658
   82        0.868   1.790   0.000   2.658
   83        0.868   1.790   0.000   2.658
   84        0.868   1.790   0.000   2.658
   85        0.868   1.790   0.000   2.658
   86        0.865   1.783   0.000   2.648
   87        0.868   1.787   0.000   2.655
   88        0.868   1.792   0.000   2.660
   89        0.868   1.791   0.000   2.659
   90        0.868   1.791   0.000   2.659
   91        0.868   1.790   0.000   2.658
   92        0.868   1.790   0.000   2.658
   93        0.868   1.790   0.000   2.658
   94        0.868   1.790   0.000   2.658
   95        0.868   1.790   0.000   2.658
   96        0.868   1.790   0.000   2.658
   97        0.868   1.790   0.000   2.658
   98        0.868   1.790   0.000   2.658
   99        0.868   1.790   0.000   2.658
  100        0.868   1.790   0.000   2.658
  101        0.868   1.790   0.000   2.658
  102        0.868   1.790   0.000   2.658
  103        0.868   1.790   0.000   2.658
  104        0.868   1.790   0.000   2.658
  105        0.868   1.790   0.000   2.658
  106        0.868   1.791   0.000   2.659
  107        0.868   1.790   0.000   2.658
  108        0.868   1.790   0.000   2.658
  109        0.867   1.789   0.000   2.656
  110        0.867   1.790   0.000   2.657
  111        0.868   1.792   0.000   2.660
  112        0.869   1.791   0.000   2.660
  113        0.868   1.791   0.000   2.659
  114        0.868   1.791   0.000   2.659
  115        0.868   1.791   0.000   2.659
  116        0.868   1.791   0.000   2.658
  117        0.868   1.790   0.000   2.658
  118        0.868   1.790   0.000   2.658
  119        0.868   1.790   0.000   2.658
  120        0.868   1.790   0.000   2.658
  121        0.868   1.790   0.000   2.658
  122        0.868   1.790   0.000   2.658
  123        0.868   1.790   0.000   2.658
  124        0.868   1.790   0.000   2.657
  125        0.868   1.789   0.000   2.657
  126        0.868   1.790   0.000   2.658
  127        0.868   1.790   0.000   2.658
  128        0.868   1.791   0.000   2.658
  129        0.868   1.791   0.000   2.659
  130        0.868   1.791   0.000   2.659
  131        0.868   1.791   0.000   2.659
  132        0.868   1.790   0.000   2.658
  133        0.868   1.789   0.000   2.656
  134        0.867   1.789   0.000   2.657
  135        0.868   1.791   0.000   2.659
  136        0.868   1.791   0.000   2.659
  137        0.868   1.791   0.000   2.659
  138        0.868   1.790   0.000   2.658
  139        0.868   1.790   0.000   2.658
  140        0.868   1.789   0.000   2.657
  141        0.868   1.790   0.000   2.657
  142        0.868   1.790   0.000   2.658
  143        0.868   1.790   0.000   2.658
  144        0.868   1.790   0.000   2.658
  145        0.868   1.790   0.000   2.658
  146        0.868   1.790   0.000   2.658
  147        0.868   1.790   0.000   2.658
  148        0.868   1.789   0.000   2.656
  149        0.868   1.789   0.000   2.657
  150        0.868   1.790   0.000   2.658
  151        0.868   1.791   0.000   2.658
  152        0.868   1.792   0.000   2.660
  153        0.868   1.791   0.000   2.660
  154        0.868   1.791   0.000   2.659
  155        0.868   1.791   0.000   2.659
  156        0.868   1.791   0.000   2.659
  157        0.868   1.789   0.000   2.657
  158        0.868   1.789   0.000   2.656
  159        0.868   1.790   0.000   2.658
  160        0.868   1.790   0.000   2.658
  161        0.868   1.790   0.000   2.658
  162        0.868   1.790   0.000   2.658
  163        0.868   1.790   0.000   2.658
  164        0.868   1.790   0.000   2.658
  165        0.868   1.790   0.000   2.657
  166        0.868   1.789   0.000   2.657
  167        0.868   1.789   0.000   2.657
  168        0.868   1.790   0.000   2.658
  169        0.868   1.791   0.000   2.659
  170        0.868   1.791   0.000   2.659
  171        0.868   1.791   0.000   2.658
  172        0.867   1.789   0.000   2.657
  173        0.868   1.788   0.000   2.656
  174        0.868   1.790   0.000   2.658
  175        0.869   1.793   0.000   2.662
  176        0.868   1.793   0.000   2.661
  177        0.868   1.792   0.000   2.660
  178        0.868   1.791   0.000   2.659
  179        0.868   1.791   0.000   2.659
  180        0.868   1.790   0.000   2.658
  181        0.868   1.789   0.000   2.657
  182        0.868   1.790   0.000   2.657
  183        0.868   1.790   0.000   2.658
  184        0.868   1.790   0.000   2.658
  185        0.868   1.790   0.000   2.658
  186        0.868   1.790   0.000   2.658
  187        0.868   1.790   0.000   2.658
  188        0.868   1.790   0.000   2.658
  189        0.868   1.790   0.000   2.658
  190        0.868   1.790   0.000   2.658
  191        0.868   1.790   0.000   2.658
  192        0.868   1.790   0.000   2.659
  193        0.868   1.791   0.000   2.659
  194        0.869   1.791   0.000   2.660
  195        0.868   1.791   0.000   2.660
  196        0.867   1.790   0.000   2.657
  197        0.867   1.788   0.000   2.656
  198        0.869   1.799   0.000   2.668
  199        0.870   1.795   0.000   2.665
  200        0.868   1.790   0.000   2.658
  201        0.868   1.791   0.000   2.659
  202        0.868   1.790   0.000   2.658
  203        0.868   1.790   0.000   2.658
  204        0.868   1.790   0.000   2.658
  205        0.868   1.790   0.000   2.658
  206        0.868   1.790   0.000   2.658
  207        0.868   1.790   0.000   2.658
  208        0.868   1.790   0.000   2.658
  209        0.868   1.790   0.000   2.658
  210        0.868   1.790   0.000   2.658
  211        0.868   1.790   0.000   2.658
  212        0.868   1.790   0.000   2.658
  213        0.868   1.789   0.000   2.657
  214        0.868   1.790   0.000   2.658
  215        0.868   1.791   0.000   2.659
  216        0.868   1.791   0.000   2.659
  217        0.868   1.792   0.000   2.660
  218        0.868   1.787   0.000   2.655
  219        0.865   1.783   0.000   2.648
  220        0.844   1.719   0.000   2.563
  221        0.870   1.783   0.000   2.654
  222        0.868   1.790   0.000   2.658
  223        0.868   1.790   0.000   2.658
  224        0.868   1.790   0.000   2.658
  225        0.868   1.790   0.000   2.658
  226        0.868   1.790   0.000   2.658
  227        0.868   1.790   0.000   2.658
  228        0.868   1.790   0.000   2.658
  229        0.868   1.790   0.000   2.658
  230        0.868   1.790   0.000   2.658
  231        0.868   1.790   0.000   2.658
  232        0.868   1.790   0.000   2.658
  233        0.868   1.790   0.000   2.658
  234        0.868   1.790   0.000   2.658
  235        0.868   1.790   0.000   2.658
  236        0.868   1.789   0.000   2.657
  237        0.868   1.789   0.000   2.657
  238        0.868   1.789   0.000   2.656
  239        0.868   1.791   0.000   2.659
  240        0.868   1.792   0.000   2.660
  241        0.868   1.793   0.000   2.661
  242        0.870   1.783   0.000   2.654
  243        0.844   1.719   0.000   2.563
  244        0.868   1.790   0.000   2.658
  245        0.868   1.790   0.000   2.658
  246        0.868   1.790   0.000   2.658
  247        0.868   1.790   0.000   2.658
  248        0.868   1.790   0.000   2.658
  249        0.868   1.790   0.000   2.658
  250        0.868   1.790   0.000   2.658
  251        0.868   1.790   0.000   2.658
  252        0.868   1.790   0.000   2.658
  253        0.868   1.790   0.000   2.658
  254        0.868   1.790   0.000   2.658
  255        0.868   1.790   0.000   2.658
  256        0.868   1.790   0.000   2.658
  257        0.868   1.790   0.000   2.658
  258        0.868   1.790   0.000   2.658
  259        0.868   1.789   0.000   2.657
  260        0.868   1.790   0.000   2.657
  261        0.868   1.790   0.000   2.658
  262        0.868   1.791   0.000   2.660
  263        0.869   1.795   0.000   2.663
  264        0.870   1.795   0.000   2.665
  265        0.869   1.799   0.000   2.669
  266        0.868   1.790   0.000   2.658
  267        0.868   1.790   0.000   2.658
  268        0.868   1.790   0.000   2.658
  269        0.868   1.790   0.000   2.658
  270        0.868   1.790   0.000   2.658
  271        0.868   1.790   0.000   2.658
  272        0.868   1.790   0.000   2.658
  273        0.868   1.790   0.000   2.658
  274        0.868   1.790   0.000   2.658
  275        0.868   1.790   0.000   2.658
  276        0.868   1.790   0.000   2.658
  277        0.868   1.790   0.000   2.658
  278        0.868   1.790   0.000   2.658
  279        0.868   1.790   0.000   2.658
  280        0.868   1.790   0.000   2.658
  281        0.868   1.790   0.000   2.658
  282        0.868   1.790   0.000   2.658
  283        0.868   1.790   0.000   2.658
  284        0.868   1.791   0.000   2.659
  285        0.868   1.792   0.000   2.660
  286        0.868   1.793   0.000   2.661
  287        0.869   1.794   0.000   2.663
  288        0.868   1.790   0.000   2.658
  289        0.868   1.790   0.000   2.658
  290        0.868   1.790   0.000   2.658
  291        0.868   1.790   0.000   2.658
  292        0.868   1.790   0.000   2.658
  293        0.868   1.790   0.000   2.658
  294        0.868   1.790   0.000   2.658
  295        0.868   1.791   0.000   2.658
  296        0.868   1.790   0.000   2.658
  297        0.868   1.790   0.000   2.658
  298        0.868   1.790   0.000   2.658
  299        0.868   1.790   0.000   2.658
  300        0.868   1.790   0.000   2.658
  301        0.868   1.791   0.000   2.659
  302        0.868   1.790   0.000   2.658
  303        0.868   1.791   0.000   2.658
  304        0.868   1.791   0.000   2.659
  305        0.868   1.790   0.000   2.658
  306        0.868   1.791   0.000   2.659
  307        0.868   1.791   0.000   2.659
  308        0.868   1.791   0.000   2.660
  309        0.868   1.792   0.000   2.660
  310        0.868   1.791   0.000   2.658
  311        0.868   1.790   0.000   2.658
  312        0.868   1.790   0.000   2.658
  313        0.868   1.791   0.000   2.659
  314        0.868   1.791   0.000   2.659
  315        0.868   1.791   0.000   2.659
  316        0.868   1.790   0.000   2.658
  317        0.868   1.790   0.000   2.658
  318        0.868   1.790   0.000   2.658
  319        0.868   1.791   0.000   2.659
  320        0.868   1.791   0.000   2.659
  321        0.868   1.791   0.000   2.659
  322        0.868   1.790   0.000   2.658
  323        0.868   1.791   0.000   2.659
  324        0.868   1.790   0.000   2.658
  325        0.868   1.791   0.000   2.658
  326        0.868   1.791   0.000   2.659
  327        0.868   1.791   0.000   2.659
  328        0.868   1.791   0.000   2.659
  329        0.868   1.791   0.000   2.659
  330        0.868   1.791   0.000   2.658
  331        0.868   1.791   0.000   2.659
  332        0.868   1.791   0.000   2.659
  333        0.868   1.790   0.000   2.658
  334        0.868   1.791   0.000   2.658
  335        0.868   1.791   0.000   2.659
  336        0.868   1.791   0.000   2.658
  337        0.868   1.791   0.000   2.658
  338        0.868   1.791   0.000   2.659
  339        0.868   1.791   0.000   2.658
  340        0.868   1.790   0.000   2.658
  341        0.868   1.790   0.000   2.658
  342        0.868   1.790   0.000   2.658
  343        0.868   1.790   0.000   2.658
  344        0.868   1.791   0.000   2.659
  345        0.868   1.791   0.000   2.659
  346        0.868   1.791   0.000   2.658
  347        0.868   1.790   0.000   2.658
  348        0.868   1.790   0.000   2.658
  349        0.868   1.791   0.000   2.659
  350        0.868   1.791   0.000   2.658
  351        0.868   1.790   0.000   2.658
  352        0.868   1.790   0.000   2.658
  353        0.868   1.790   0.000   2.658
  354        0.868   1.790   0.000   2.658
  355        0.868   1.790   0.000   2.658
  356        0.868   1.790   0.000   2.658
  357        0.868   1.791   0.000   2.659
  358        0.868   1.790   0.000   2.658
  359        0.868   1.790   0.000   2.658
  360        0.868   1.790   0.000   2.658
  361        0.868   1.790   0.000   2.658
  362        0.868   1.790   0.000   2.658
  363        0.868   1.790   0.000   2.658
  364        0.868   1.790   0.000   2.658
  365        1.488   2.242   0.042   3.772
--------------------------------------------------
tot        317.373 653.793   0.042 971.207
 
    CHARGE:  cpu time     13.4707: real time     13.4726
    FORLOC:  cpu time      1.3381: real time      1.3382
    FORNL :  cpu time    360.3703: real time    360.3974
    STRESS:  cpu time   2472.9114: real time   2473.1433
    FORCOR:  cpu time      1.5269: real time      1.5265
    FORHAR:  cpu time      1.6523: real time      1.6524
    OFIELD:  cpu time      0.0060: real time      0.0060

 ---------------------------------------------------------------------------------------------

         DFTD3 V3.0 Rev 1        
 IVDW         = 11
 DF pbe       
 parameters
 VDW_S6       =    1.0000
 VDW_S8       =    0.7220
 VDW_SR       =    1.2170
 rs18     =    1.0000
 alpha6   =   14.0000
 alpha8   =   16.0000
 k1-k3    =   16.0000    1.3333   -4.0000
 VDW_RADIUS   =   50.2022 A
 VDW_CNRADIUS =   21.1671 A
 Edisp (eV)  -14.08312

 E6    (eV) :    -8.0814
 E8    (eV) :    -6.0018
 % E8        : 42.62
    FORVDW:  cpu time      2.5032: real time      7.6666

  FORCE on cell =-STRESS in cart. coord.  units (eV):
  Direction    XX          YY          ZZ          XY          YZ          ZX
  --------------------------------------------------------------------------------------
  Alpha Z   418.83068   418.83068   418.83068
  Ewald  ************202288.31396514336.39837   373.39404    17.71923    -2.27352
  Hartree************226541.44847507407.95834   324.75541     5.97485    -0.77884
  E(xc)   -5437.81471 -5439.27423 -5335.97798     0.21952     0.09707    -0.01236
  Local  458401.39287************************  -694.19791   -18.77042     2.39558
  n-local -1172.20490 -1170.34928 -1246.65832    -0.25524    -0.82285     0.11598
  augment  -137.34618  -138.85997  -144.50283     0.20673     0.36221    -0.04741
  Kinetic 23454.03227 23480.05834 22092.18950    -3.89437    -4.55252     0.55867
  Fock        0.00000     0.00000     0.00000     0.00000     0.00000     0.00000
  vdW        -3.05428    -3.17655    -2.39339    -0.00075     0.00341    -0.00049
  -------------------------------------------------------------------------------------
  Total     -43.59001   -45.36980   128.09872     0.22742     0.01098    -0.04239
  in kB      -2.67736    -2.78667     7.86800     0.01397     0.00067    -0.00260
  external pressure =        0.80 kB  Pullay stress =        0.00 kB


 VOLUME and BASIS-vectors are now :
 -----------------------------------------------------------------------------
  energy-cutoff  :      400.00
  volume of cell :    26085.03
      direct lattice vectors                 reciprocal lattice vectors
    32.372299194  0.000000000  0.000000000     0.030890608  0.000000000  0.000000000
     0.000000000 19.921413422  0.000000000     0.000000000  0.050197241  0.000000000
     0.000000000  0.000000000 40.448047638     0.000000000  0.000000000  0.024723072

  length of vectors
    32.372299194 19.921413422 40.448047638     0.030890608  0.050197241  0.024723072


 FORCES acting on ions
    electron-ion (+dipol)            ewald-force                    non-local-force                 convergence-correction
 -----------------------------------------------------------------------------------------------
   -.416E+03 -.205E+03 0.847E+00   0.416E+03 0.206E+03 -.842E+00   -.286E+00 -.126E+00 -.869E-02   -.356E-02 0.454E-03 0.101E-02
   -.407E+03 -.217E+03 0.142E+01   0.407E+03 0.217E+03 -.142E+01   -.282E+00 -.137E+00 -.887E-02   -.546E-02 0.301E-02 0.231E-02
   -.285E+03 -.313E+03 0.601E+00   0.285E+03 0.313E+03 -.609E+00   -.144E+00 -.277E+00 0.658E-02   -.653E-03 -.466E-02 0.548E-03
   -.206E+03 -.347E+03 0.105E+01   0.206E+03 0.348E+03 -.104E+01   -.169E+00 -.262E+00 -.128E-01   0.819E-03 -.326E-02 0.314E-03
   -.310E+02 -.378E+03 0.236E+00   0.310E+02 0.379E+03 -.242E+00   0.201E-01 -.313E+00 0.117E-01   0.205E-02 -.211E-02 0.159E-02
   -.397E+03 -.227E+03 0.208E+01   0.398E+03 0.227E+03 -.207E+01   -.282E+00 -.146E+00 -.388E-02   -.218E-02 0.299E-02 -.401E-02
   -.271E+03 -.320E+03 0.113E+01   0.271E+03 0.320E+03 -.113E+01   -.136E+00 -.281E+00 0.676E-02   0.112E-02 -.117E-02 -.699E-02
   -.190E+03 -.352E+03 0.161E+01   0.190E+03 0.353E+03 -.160E+01   -.160E+00 -.270E+00 -.123E-01   -.415E-03 -.458E-02 -.323E-02
   -.136E+02 -.379E+03 0.717E+00   0.136E+02 0.379E+03 -.720E+00   0.327E-01 -.311E+00 0.158E-01   -.143E-02 -.396E-02 -.553E-02
   0.792E+02 -.375E+03 0.128E+01   -.792E+02 0.375E+03 -.128E+01   0.884E-02 -.312E+00 -.997E-02   -.521E-03 -.339E-02 0.399E-02
   0.248E+03 -.331E+03 0.408E+00   -.249E+03 0.332E+03 -.419E+00   0.193E+00 -.247E+00 0.916E-02   0.114E-02 -.491E-02 0.153E-02
   0.322E+03 -.291E+03 0.941E+00   -.322E+03 0.291E+03 -.937E+00   0.169E+00 -.265E+00 -.114E-01   0.225E-03 -.510E-02 0.465E-02
   0.431E+03 -.185E+03 0.104E+00   -.431E+03 0.185E+03 -.113E+00   0.292E+00 -.110E+00 0.102E-01   0.971E-02 0.422E-02 0.367E-02
   -.387E+03 -.238E+03 0.303E+01   0.387E+03 0.238E+03 -.303E+01   -.275E+00 -.158E+00 -.322E-02   -.141E-02 -.277E-02 0.261E-02
   -.257E+03 -.327E+03 0.174E+01   0.257E+03 0.327E+03 -.175E+01   -.126E+00 -.292E+00 0.324E-02   -.124E-02 -.249E-02 0.473E-02
   -.174E+03 -.357E+03 0.233E+01   0.174E+03 0.357E+03 -.232E+01   -.152E+00 -.274E+00 -.171E-01   0.356E-02 -.108E-02 0.101E-02
   0.398E+01 -.379E+03 0.123E+01   -.402E+01 0.380E+03 -.124E+01   0.431E-01 -.313E+00 0.139E-01   -.947E-03 0.838E-03 0.157E-02
   0.963E+02 -.372E+03 0.173E+01   -.964E+02 0.373E+03 -.171E+01   0.172E-01 -.313E+00 -.640E-02   -.217E-02 -.709E-03 -.962E-02
   0.263E+03 -.325E+03 0.756E+00   -.263E+03 0.325E+03 -.760E+00   0.198E+00 -.240E+00 0.969E-02   0.436E-03 -.205E-03 -.593E-02
   0.335E+03 -.282E+03 0.131E+01   -.335E+03 0.283E+03 -.130E+01   0.177E+00 -.259E+00 -.975E-02   0.373E-02 -.308E-02 -.545E-02
   0.438E+03 -.173E+03 0.459E+00   -.438E+03 0.173E+03 -.466E+00   0.295E+00 -.974E-01 0.128E-01   0.302E-02 -.889E-03 -.581E-04
   0.470E+03 -.104E+03 0.107E+01   -.470E+03 0.105E+03 -.107E+01   0.288E+00 -.127E+00 -.120E-01   0.656E-02 0.105E-02 0.402E-02
   0.485E+03 0.355E+02 0.291E+00   -.485E+03 -.356E+02 -.302E+00   0.304E+00 0.708E-01 0.125E-01   0.302E-02 0.340E-03 0.977E-03
   0.468E+03 0.108E+03 0.786E+00   -.469E+03 -.108E+03 -.780E+00   0.310E+00 0.435E-01 -.852E-02   0.396E-02 0.118E-02 0.345E-02
   0.392E+03 0.232E+03 0.714E-01   -.393E+03 -.232E+03 -.776E-01   0.219E+00 0.219E+00 0.838E-02   0.878E-03 0.422E-02 0.556E-04
   -.376E+03 -.249E+03 0.479E+01   0.376E+03 0.249E+03 -.477E+01   -.261E+00 -.169E+00 -.188E-01   0.112E-02 -.734E-03 -.449E-02
   -.241E+03 -.334E+03 0.274E+01   0.241E+03 0.335E+03 -.273E+01   -.116E+00 -.304E+00 0.917E-03   -.785E-02 0.343E-02 -.539E-02
   -.158E+03 -.362E+03 0.287E+01   0.158E+03 0.362E+03 -.286E+01   -.144E+00 -.281E+00 -.190E-01   -.258E-02 -.718E-03 0.169E-02
   0.220E+02 -.380E+03 0.153E+01   -.220E+02 0.380E+03 -.154E+01   0.516E-01 -.313E+00 0.159E-01   0.186E-02 0.623E-03 0.653E-02
   0.114E+03 -.370E+03 0.210E+01   -.114E+03 0.371E+03 -.210E+01   0.241E-01 -.316E+00 -.463E-02   0.574E-03 0.299E-03 0.480E-02
   0.278E+03 -.318E+03 0.105E+01   -.278E+03 0.319E+03 -.107E+01   0.207E+00 -.232E+00 0.732E-02   -.313E-03 -.259E-02 0.546E-02
   0.347E+03 -.273E+03 0.171E+01   -.347E+03 0.274E+03 -.170E+01   0.188E+00 -.252E+00 -.131E-01   0.195E-03 -.339E-03 -.289E-02
   0.445E+03 -.161E+03 0.852E+00   -.446E+03 0.161E+03 -.858E+00   0.302E+00 -.893E-01 0.145E-01   -.102E-02 -.202E-02 -.274E-02
   0.474E+03 -.915E+02 0.138E+01   -.474E+03 0.916E+02 -.136E+01   0.290E+00 -.115E+00 -.818E-02   -.181E-02 0.976E-04 -.528E-02
   0.483E+03 0.489E+02 0.608E+00   -.483E+03 -.490E+02 -.621E+00   0.302E+00 0.793E-01 0.115E-01   -.170E-02 0.591E-02 0.601E-03
   0.464E+03 0.121E+03 0.117E+01   -.464E+03 -.121E+03 -.116E+01   0.306E+00 0.534E-01 -.771E-02   -.362E-04 0.490E-02 -.280E-02
   0.382E+03 0.242E+03 0.498E+00   -.383E+03 -.243E+03 -.506E+00   0.213E+00 0.229E+00 0.924E-02   -.310E-03 0.160E-02 0.143E-02
   0.320E+03 0.294E+03 0.100E+01   -.320E+03 -.294E+03 -.991E+00   0.234E+00 0.208E+00 -.135E-01   -.522E-03 0.312E-02 -.180E-02
   0.166E+03 0.359E+03 0.389E+00   -.166E+03 -.359E+03 -.392E+00   0.628E-01 0.306E+00 0.157E-01   0.159E-02 0.199E-02 -.646E-02
   0.757E+02 0.375E+03 0.826E+00   -.758E+02 -.376E+03 -.816E+00   0.865E-01 0.300E+00 -.676E-02   0.427E-02 0.110E-02 -.390E-02
   -.106E+03 0.371E+03 0.170E+00   0.106E+03 -.372E+03 -.175E+00   -.110E+00 0.294E+00 0.809E-02   0.406E-02 0.113E-02 -.260E-02
   -.411E+03 -.204E+03 0.107E+02   0.412E+03 0.204E+03 -.107E+02   -.326E+00 -.299E+00 0.430E-02   -.769E-03 -.155E-03 0.172E-02
   -.363E+03 -.260E+03 0.659E+01   0.363E+03 0.260E+03 -.659E+01   -.260E+00 -.195E+00 -.499E-02   0.190E-03 -.154E-02 0.638E-02
   -.224E+03 -.342E+03 0.318E+01   0.224E+03 0.342E+03 -.320E+01   -.119E+00 -.320E+00 0.139E-01   -.270E-02 0.132E-02 0.834E-02
   -.140E+03 -.367E+03 0.325E+01   0.140E+03 0.367E+03 -.324E+01   -.142E+00 -.290E+00 -.946E-02   -.596E-02 0.202E-02 -.282E-02
   0.400E+02 -.380E+03 0.161E+01   -.400E+02 0.380E+03 -.162E+01   0.631E-01 -.310E+00 0.203E-01   -.475E-02 0.198E-02 -.628E-02
   0.131E+03 -.368E+03 0.253E+01   -.131E+03 0.368E+03 -.252E+01   0.332E-01 -.316E+00 -.852E-02   0.141E-02 0.202E-02 0.453E-02
   0.292E+03 -.311E+03 0.143E+01   -.292E+03 0.312E+03 -.144E+01   0.214E+00 -.226E+00 0.850E-02   0.305E-02 0.163E-02 0.420E-02
   0.359E+03 -.264E+03 0.193E+01   -.359E+03 0.264E+03 -.192E+01   0.196E+00 -.244E+00 -.155E-01   0.301E-02 -.260E-02 0.273E-03
   0.452E+03 -.149E+03 0.109E+01   -.452E+03 0.149E+03 -.110E+01   0.300E+00 -.800E-01 0.190E-01   0.186E-02 -.517E-02 -.253E-02
   0.477E+03 -.783E+02 0.165E+01   -.478E+03 0.784E+02 -.165E+01   0.294E+00 -.105E+00 -.647E-02   0.100E-02 -.563E-02 0.666E-02
   0.481E+03 0.622E+02 0.909E+00   -.481E+03 -.623E+02 -.920E+00   0.298E+00 0.923E-01 0.907E-02   0.115E-02 0.173E-02 0.116E-02
   0.459E+03 0.134E+03 0.154E+01   -.459E+03 -.134E+03 -.154E+01   0.306E+00 0.649E-01 -.999E-02   0.124E-02 0.182E-02 0.559E-02
   0.372E+03 0.252E+03 0.902E+00   -.372E+03 -.253E+03 -.914E+00   0.206E+00 0.235E+00 0.125E-01   0.315E-02 -.568E-03 0.469E-02
   0.307E+03 0.302E+03 0.135E+01   -.307E+03 -.302E+03 -.135E+01   0.224E+00 0.217E+00 -.105E-01   -.238E-02 0.183E-02 0.568E-02
   0.150E+03 0.363E+03 0.820E+00   -.150E+03 -.363E+03 -.837E+00   0.508E-01 0.308E+00 0.127E-01   -.589E-03 0.233E-02 0.716E-02
   0.588E+02 0.377E+03 0.129E+01   -.589E+02 -.377E+03 -.128E+01   0.776E-01 0.304E+00 -.661E-02   0.348E-02 0.333E-03 -.126E-02
   -.122E+03 0.369E+03 0.734E+00   0.122E+03 -.369E+03 -.735E+00   -.122E+00 0.288E+00 0.806E-02   0.498E-02 0.819E-03 -.559E-02
   -.209E+03 0.346E+03 0.110E+01   0.209E+03 -.346E+03 -.109E+01   -.926E-01 0.297E+00 -.130E-01   0.342E-02 0.110E-02 -.597E-02
   -.353E+03 0.269E+03 0.499E+00   0.353E+03 -.269E+03 -.504E+00   -.253E+00 0.184E+00 0.166E-01   -.110E-02 0.228E-03 -.452E-02
   -.409E+03 0.213E+03 0.885E+00   0.409E+03 -.213E+03 -.888E+00   -.235E+00 0.202E+00 -.839E-02   0.762E-03 0.187E-02 0.744E-02
   -.475E+03 0.851E+02 0.191E+00   0.476E+03 -.852E+02 -.206E+00   -.313E+00 0.242E-01 0.724E-02   0.209E-02 0.981E-03 0.681E-02
   -.376E+03 -.217E+03 0.891E+01   0.376E+03 0.217E+03 -.901E+01   -.294E+00 -.331E+00 0.104E+00   0.681E-03 0.203E-02 -.713E-02
   -.341E+03 -.271E+03 0.717E+01   0.342E+03 0.271E+03 -.720E+01   -.260E+00 -.207E+00 0.292E-01   -.332E-03 -.100E-02 -.151E-02
   -.205E+03 -.347E+03 0.272E+01   0.205E+03 0.347E+03 -.274E+01   -.129E+00 -.341E+00 0.415E-01   -.138E-02 0.956E-03 -.555E-02
   -.122E+03 -.371E+03 0.373E+01   0.122E+03 0.371E+03 -.371E+01   -.150E+00 -.303E+00 -.264E-01   0.679E-03 0.995E-04 0.246E-02
   0.579E+02 -.379E+03 0.187E+01   -.579E+02 0.380E+03 -.188E+01   0.612E-01 -.299E+00 0.121E-01   0.601E-02 0.112E-02 -.885E-03
   0.148E+03 -.365E+03 0.245E+01   -.148E+03 0.365E+03 -.244E+01   0.393E-01 -.321E+00 -.833E-02   -.158E-02 0.174E-02 -.340E-02
   0.306E+03 -.304E+03 0.139E+01   -.306E+03 0.304E+03 -.139E+01   0.211E+00 -.222E+00 0.171E-01   -.185E-02 0.130E-02 -.462E-02
   0.371E+03 -.255E+03 0.206E+01   -.371E+03 0.255E+03 -.206E+01   0.201E+00 -.245E+00 -.860E-02   0.132E-02 0.427E-02 0.265E-02
   0.458E+03 -.137E+03 0.119E+01   -.459E+03 0.137E+03 -.121E+01   0.303E+00 -.704E-01 0.188E-01   0.474E-03 0.734E-03 0.151E-02
   0.481E+03 -.651E+02 0.200E+01   -.481E+03 0.652E+02 -.199E+01   0.297E+00 -.949E-01 -.379E-02   -.298E-03 -.434E-02 -.282E-02
   0.478E+03 0.754E+02 0.125E+01   -.479E+03 -.755E+02 -.126E+01   0.294E+00 0.102E+00 0.766E-02   -.175E-03 0.264E-02 -.327E-03
   0.453E+03 0.146E+03 0.180E+01   -.454E+03 -.146E+03 -.179E+01   0.302E+00 0.764E-01 -.124E-01   0.287E-02 0.337E-02 -.187E-02
   0.361E+03 0.262E+03 0.114E+01   -.361E+03 -.262E+03 -.115E+01   0.197E+00 0.240E+00 0.186E-01   0.486E-02 0.284E-02 -.498E-02
   0.294E+03 0.309E+03 0.182E+01   -.294E+03 -.310E+03 -.182E+01   0.218E+00 0.221E+00 -.829E-02   0.247E-02 0.516E-02 0.821E-03
   0.134E+03 0.366E+03 0.134E+01   -.134E+03 -.367E+03 -.135E+01   0.399E-01 0.309E+00 0.654E-02   0.966E-03 0.451E-02 0.627E-03
   0.421E+02 0.378E+03 0.171E+01   -.421E+02 -.378E+03 -.171E+01   0.682E-01 0.309E+00 -.856E-02   -.897E-03 0.305E-02 0.712E-02
   -.138E+03 0.365E+03 0.132E+01   0.138E+03 -.366E+03 -.133E+01   -.129E+00 0.283E+00 0.846E-02   0.287E-02 0.236E-02 0.751E-02
   -.224E+03 0.340E+03 0.157E+01   0.224E+03 -.340E+03 -.156E+01   -.105E+00 0.295E+00 -.138E-01   0.661E-02 0.123E-02 0.201E-02
   -.364E+03 0.260E+03 0.110E+01   0.364E+03 -.260E+03 -.111E+01   -.261E+00 0.176E+00 0.170E-01   -.214E-02 -.332E-02 -.117E-02
   -.417E+03 0.202E+03 0.142E+01   0.418E+03 -.202E+03 -.141E+01   -.241E+00 0.196E+00 -.657E-02   -.146E-02 -.161E-02 -.484E-02
   -.478E+03 0.720E+02 0.771E+00   0.479E+03 -.720E+02 -.767E+00   -.314E+00 0.164E-01 0.806E-02   -.161E-02 -.214E-02 -.998E-02
   -.486E+03 -.203E+01 0.113E+01   0.487E+03 0.199E+01 -.112E+01   -.313E+00 0.412E-01 -.146E-01   -.101E-02 -.517E-02 -.686E-02
   -.455E+03 -.140E+03 0.417E+00   0.455E+03 0.140E+03 -.425E+00   -.274E+00 -.151E+00 0.143E-01   -.395E-02 -.265E-02 0.124E-02
   -.372E+03 -.228E+03 -.528E+01   0.372E+03 0.228E+03 0.525E+01   0.187E+00 -.463E+00 0.296E-01   0.116E-02 0.445E-02 -.109E-02
   -.316E+03 -.277E+03 0.951E+01   0.316E+03 0.277E+03 -.940E+01   -.299E+00 -.299E+00 -.112E+00   0.674E-03 0.539E-02 -.564E-02
   -.184E+03 -.346E+03 0.255E+01   0.184E+03 0.346E+03 -.257E+01   -.844E-01 -.270E+00 0.268E-01   0.114E-02 0.492E-02 -.151E-02
   -.103E+03 -.369E+03 0.208E+01   0.103E+03 0.369E+03 -.209E+01   -.137E+00 -.330E+00 0.121E-01   -.121E-02 0.354E-02 -.384E-02
   0.763E+02 -.376E+03 0.813E+00   -.763E+02 0.377E+03 -.844E+00   0.422E-01 -.322E+00 0.328E-01   0.170E-02 0.195E-02 -.222E-02
   0.166E+03 -.362E+03 0.189E+01   -.166E+03 0.362E+03 -.191E+01   0.437E-01 -.323E+00 0.156E-01   0.231E-02 -.603E-03 0.211E-02
   0.320E+03 -.297E+03 0.841E+00   -.321E+03 0.297E+03 -.855E+00   0.233E+00 -.219E+00 0.197E-01   0.107E-03 -.202E-02 -.218E-02
   0.383E+03 -.245E+03 0.241E+01   -.383E+03 0.245E+03 -.241E+01   0.209E+00 -.231E+00 -.601E-02   0.209E-02 0.942E-03 -.505E-03
   0.464E+03 -.124E+03 0.125E+01   -.465E+03 0.124E+03 -.126E+01   0.306E+00 -.531E-01 0.155E-01   0.491E-02 0.474E-02 -.433E-03
   0.483E+03 -.519E+02 0.206E+01   -.484E+03 0.520E+02 -.205E+01   0.301E+00 -.836E-01 -.249E-02   0.313E-02 0.348E-02 -.665E-02
   0.475E+03 0.886E+02 0.122E+01   -.475E+03 -.887E+02 -.123E+01   0.290E+00 0.108E+00 0.127E-01   0.407E-03 0.247E-02 -.566E-02
   0.447E+03 0.159E+03 0.202E+01   -.448E+03 -.159E+03 -.200E+01   0.305E+00 0.825E-01 -.107E-01   -.167E-02 0.471E-02 -.584E-02
   0.351E+03 0.271E+03 0.143E+01   -.351E+03 -.272E+03 -.144E+01   0.185E+00 0.249E+00 0.196E-01   0.299E-02 0.138E-02 -.227E-02
   0.281E+03 0.317E+03 0.226E+01   -.281E+03 -.317E+03 -.226E+01   0.203E+00 0.228E+00 -.376E-02   0.388E-02 0.611E-03 -.422E-02
   0.117E+03 0.370E+03 0.174E+01   -.118E+03 -.370E+03 -.175E+01   0.228E-01 0.312E+00 0.779E-02   0.709E-02 0.695E-03 -.277E-02
   0.253E+02 0.379E+03 0.206E+01   -.254E+02 -.380E+03 -.206E+01   0.556E-01 0.312E+00 -.689E-02   0.195E-02 0.275E-02 0.431E-02
   -.154E+03 0.363E+03 0.185E+01   0.154E+03 -.363E+03 -.186E+01   -.141E+00 0.283E+00 0.105E-01   -.242E-02 0.227E-02 0.120E-02
   -.239E+03 0.335E+03 0.222E+01   0.239E+03 -.335E+03 -.221E+01   -.111E+00 0.293E+00 -.166E-01   0.291E-03 0.254E-02 0.107E-03
   -.375E+03 0.250E+03 0.199E+01   0.375E+03 -.250E+03 -.200E+01   -.267E+00 0.165E+00 0.119E-01   -.441E-02 -.326E-02 0.122E-02
   -.425E+03 0.191E+03 0.199E+01   0.426E+03 -.191E+03 -.198E+01   -.250E+00 0.188E+00 -.625E-02   -.298E-02 -.353E-02 0.358E-02
   -.481E+03 0.588E+02 0.146E+01   0.481E+03 -.588E+02 -.147E+01   -.313E+00 0.528E-02 0.838E-02   0.255E-02 0.120E-02 0.579E-02
   -.486E+03 -.156E+02 0.170E+01   0.486E+03 0.155E+02 -.169E+01   -.314E+00 0.273E-01 -.133E-01   0.241E-02 0.434E-02 -.626E-03
   -.449E+03 -.152E+03 0.961E+00   0.449E+03 0.152E+03 -.964E+00   -.269E+00 -.161E+00 0.178E-01   -.736E-03 0.651E-02 -.541E-02
   -.382E+03 -.241E+03 -.947E+01   0.382E+03 0.242E+03 0.949E+01   -.425E+00 -.411E+00 -.236E-01   0.250E-02 0.304E-02 -.688E-03
   -.309E+03 -.286E+03 -.732E+01   0.309E+03 0.286E+03 0.733E+01   -.174E+00 -.162E+00 -.168E-01   -.153E-02 0.626E-02 0.393E-02
   -.169E+03 -.351E+03 -.372E+01   0.169E+03 0.351E+03 0.374E+01   -.725E-01 -.204E+00 -.483E-02   0.228E-02 0.540E-02 -.399E-02
   -.832E+02 -.373E+03 0.522E+00   0.833E+02 0.373E+03 -.519E+00   -.134E+00 -.238E+00 -.631E-02   0.191E-02 0.458E-02 0.208E-02
   0.930E+02 -.378E+03 -.710E+00   -.932E+02 0.378E+03 0.709E+00   0.138E+00 -.339E+00 -.147E-03   -.170E-02 0.377E-02 0.987E-03
   0.183E+03 -.358E+03 0.190E+01   -.183E+03 0.358E+03 -.189E+01   0.607E-01 -.305E+00 -.159E-01   0.186E-02 0.357E-02 -.123E-02
   0.335E+03 -.289E+03 0.441E+00   -.335E+03 0.289E+03 -.455E+00   0.267E+00 -.206E+00 0.210E-01   0.630E-02 0.733E-02 -.107E-02
   0.394E+03 -.235E+03 0.167E+01   -.394E+03 0.235E+03 -.167E+01   0.217E+00 -.215E+00 0.101E-02   0.380E-02 0.312E-02 -.112E-01
   0.470E+03 -.110E+03 0.421E+00   -.470E+03 0.111E+03 -.432E+00   0.308E+00 -.510E-01 0.223E-01   0.979E-03 0.230E-04 -.987E-02
   0.486E+03 -.382E+02 0.167E+01   -.486E+03 0.383E+02 -.166E+01   0.302E+00 -.793E-01 -.769E-03   0.311E-02 0.321E-02 0.261E-03
   0.472E+03 0.102E+03 0.816E+00   -.472E+03 -.102E+03 -.824E+00   0.283E+00 0.121E+00 0.105E-01   0.175E-02 0.313E-03 -.976E-03
   0.441E+03 0.171E+03 0.210E+01   -.442E+03 -.171E+03 -.210E+01   0.297E+00 0.924E-01 -.130E-01   -.705E-03 -.200E-04 0.558E-03
   0.340E+03 0.281E+03 0.167E+01   -.340E+03 -.281E+03 -.168E+01   0.177E+00 0.256E+00 0.197E-01   0.971E-03 -.105E-02 0.980E-03
   0.268E+03 0.324E+03 0.224E+01   -.268E+03 -.324E+03 -.224E+01   0.195E+00 0.238E+00 -.188E-02   0.510E-02 -.170E-02 -.369E-02
   0.101E+03 0.373E+03 0.162E+01   -.101E+03 -.373E+03 -.163E+01   0.149E-01 0.310E+00 0.184E-01   0.394E-03 0.133E-02 -.558E-02
   0.848E+01 0.380E+03 0.256E+01   -.853E+01 -.381E+03 -.255E+01   0.482E-01 0.310E+00 -.129E-01   0.133E-02 0.243E-02 -.565E-02
   -.170E+03 0.360E+03 0.263E+01   0.170E+03 -.360E+03 -.262E+01   -.159E+00 0.276E+00 0.356E-02   -.553E-02 0.117E-02 -.485E-02
   -.253E+03 0.329E+03 0.276E+01   0.253E+03 -.329E+03 -.275E+01   -.123E+00 0.297E+00 -.111E-01   -.758E-02 -.179E-02 -.252E-02
   -.384E+03 0.241E+03 0.308E+01   0.385E+03 -.241E+03 -.309E+01   -.270E+00 0.157E+00 0.113E-01   -.258E-02 -.513E-02 -.187E-02
   -.433E+03 0.179E+03 0.285E+01   0.433E+03 -.179E+03 -.283E+01   -.256E+00 0.178E+00 -.648E-02   0.119E-02 -.218E-02 -.701E-02
   -.482E+03 0.457E+02 0.261E+01   0.483E+03 -.457E+02 -.262E+01   -.315E+00 -.730E-02 0.130E-01   0.497E-02 0.267E-02 -.250E-02
   -.484E+03 -.290E+02 0.264E+01   0.485E+03 0.290E+02 -.263E+01   -.314E+00 0.165E-01 -.147E-01   0.233E-02 0.642E-03 0.312E-02
   -.442E+03 -.164E+03 0.180E+01   0.442E+03 0.165E+03 -.181E+01   -.261E+00 -.169E+00 0.105E-01   -.581E-03 -.324E-02 0.385E-02
   -.377E+03 -.246E+03 -.704E+01   0.377E+03 0.246E+03 0.701E+01   -.248E+00 -.269E+00 0.196E-01   -.886E-03 0.138E-02 0.652E-02
   -.312E+03 -.300E+03 -.776E+01   0.312E+03 0.300E+03 0.770E+01   -.235E+00 -.188E+00 0.568E-01   0.280E-02 0.256E-02 -.885E-03
   -.161E+03 -.361E+03 -.403E+01   0.161E+03 0.362E+03 0.402E+01   -.460E-01 -.311E+00 0.133E-01   0.394E-02 0.369E-02 0.229E-02
   -.697E+02 -.375E+03 -.104E+01   0.698E+02 0.375E+03 0.108E+01   -.968E-01 -.268E+00 -.382E-01   0.142E-02 0.512E-02 -.432E-02
   0.110E+03 -.373E+03 -.168E+01   -.110E+03 0.373E+03 0.168E+01   0.846E-01 -.295E+00 -.266E-04   -.877E-02 0.387E-02 -.161E-02
   0.199E+03 -.353E+03 -.977E+00   -.199E+03 0.354E+03 0.996E+00   0.746E-01 -.301E+00 -.278E-01   -.189E-02 0.442E-02 0.159E-02
   0.347E+03 -.280E+03 -.139E+01   -.347E+03 0.280E+03 0.138E+01   0.258E+00 -.197E+00 0.943E-02   0.321E-02 0.596E-02 0.518E-02
   0.405E+03 -.225E+03 0.390E+00   -.405E+03 0.225E+03 -.384E+00   0.216E+00 -.218E+00 -.112E-01   0.494E-03 0.517E-02 0.338E-02
   0.475E+03 -.981E+02 -.485E+00   -.475E+03 0.981E+02 0.475E+00   0.314E+00 -.154E-01 0.606E-02   -.449E-02 0.491E-02 0.199E-02
   0.488E+03 -.247E+02 0.127E+01   -.488E+03 0.248E+02 -.125E+01   0.295E+00 -.596E-01 -.943E-02   -.376E-02 0.394E-03 -.610E-02
   0.468E+03 0.115E+03 0.349E+00   -.468E+03 -.115E+03 -.356E+00   0.273E+00 0.131E+00 0.156E-01   -.140E-02 -.360E-02 -.668E-02
   0.435E+03 0.182E+03 0.131E+01   -.435E+03 -.182E+03 -.130E+01   0.292E+00 0.107E+00 -.107E-01   0.354E-02 -.267E-02 -.366E-02
   0.329E+03 0.290E+03 0.807E+00   -.329E+03 -.291E+03 -.826E+00   0.176E+00 0.255E+00 0.275E-01   0.443E-02 -.131E-02 -.309E-02
   0.255E+03 0.332E+03 0.198E+01   -.255E+03 -.332E+03 -.198E+01   0.208E+00 0.247E+00 -.512E-02   -.129E-02 0.291E-02 0.550E-02
   0.859E+02 0.376E+03 0.156E+01   -.859E+02 -.377E+03 -.158E+01   -.296E-02 0.313E+00 0.178E-01   0.165E-02 0.215E-02 0.541E-02
   -.786E+01 0.380E+03 0.285E+01   0.783E+01 -.381E+03 -.285E+01   0.218E-01 0.292E+00 -.103E-01   0.388E-02 0.457E-03 -.499E-02
   -.184E+03 0.355E+03 0.291E+01   0.184E+03 -.355E+03 -.291E+01   -.171E+00 0.262E+00 0.534E-02   0.380E-02 -.487E-03 -.102E-02
   -.266E+03 0.324E+03 0.307E+01   0.267E+03 -.324E+03 -.307E+01   -.141E+00 0.307E+00 -.244E-02   -.104E-02 0.151E-02 0.354E-03
   -.393E+03 0.232E+03 0.463E+01   0.393E+03 -.233E+03 -.463E+01   -.281E+00 0.153E+00 0.581E-02   0.702E-03 0.362E-02 -.129E-03
   -.439E+03 0.168E+03 0.463E+01   0.439E+03 -.168E+03 -.462E+01   -.259E+00 0.172E+00 -.263E-01   0.221E-02 0.179E-03 0.927E-02
   -.482E+03 0.327E+02 0.509E+01   0.483E+03 -.327E+02 -.511E+01   -.304E+00 -.198E-01 0.104E-01   0.606E-02 0.318E-02 0.801E-02
   -.482E+03 -.424E+02 0.408E+01   0.482E+03 0.424E+02 -.408E+01   -.316E+00 0.419E-02 -.399E-02   0.680E-02 0.339E-02 -.252E-02
   -.434E+03 -.176E+03 0.303E+01   0.434E+03 0.177E+03 -.303E+01   -.255E+00 -.179E+00 0.929E-02   0.357E-02 -.112E-02 -.605E-02
   -.369E+03 -.253E+03 -.465E+01   0.369E+03 0.253E+03 0.464E+01   -.204E+00 -.234E+00 0.288E-01   0.350E-02 -.112E-02 -.786E-02
   -.303E+03 -.304E+03 -.455E+01   0.304E+03 0.304E+03 0.456E+01   -.228E+00 -.224E+00 -.863E-02   0.145E-02 -.139E-02 -.926E-03
   -.146E+03 -.365E+03 -.300E+01   0.146E+03 0.365E+03 0.299E+01   -.540E-01 -.334E+00 0.694E-02   0.561E-02 0.405E-03 -.174E-03
   -.550E+02 -.378E+03 -.277E+01   0.551E+02 0.378E+03 0.276E+01   -.957E-01 -.300E+00 0.487E-02   0.528E-02 0.187E-02 0.109E-02
   0.125E+03 -.369E+03 -.275E+01   -.125E+03 0.370E+03 0.275E+01   0.997E-01 -.274E+00 0.218E-02   -.674E-02 0.154E-02 -.553E-03
   0.213E+03 -.347E+03 -.142E+01   -.213E+03 0.347E+03 0.145E+01   0.772E-01 -.300E+00 -.267E-01   -.368E-02 0.483E-02 -.441E-02
   0.357E+03 -.270E+03 -.185E+01   -.357E+03 0.271E+03 0.185E+01   0.266E+00 -.185E+00 0.126E-01   -.161E-02 0.324E-02 -.315E-03
   0.413E+03 -.213E+03 -.714E+00   -.413E+03 0.214E+03 0.733E+00   0.238E+00 -.195E+00 -.210E-01   0.796E-04 0.410E-02 0.165E-02
   0.478E+03 -.844E+02 -.126E+01   -.478E+03 0.844E+02 0.124E+01   0.310E+00 -.239E-01 0.412E-02   -.496E-02 0.231E-02 0.721E-02
   0.488E+03 -.111E+02 -.357E+00   -.489E+03 0.112E+02 0.367E+00   0.300E+00 -.522E-01 -.174E-01   -.745E-02 0.284E-02 0.587E-02
   0.463E+03 0.127E+03 -.128E+01   -.463E+03 -.128E+03 0.126E+01   0.268E+00 0.137E+00 0.131E-01   -.672E-02 -.385E-03 0.610E-02
   0.428E+03 0.195E+03 0.506E+00   -.428E+03 -.195E+03 -.495E+00   0.296E+00 0.958E-01 -.730E-02   -.332E-02 -.555E-02 -.551E-02
   0.317E+03 0.299E+03 -.348E+00   -.318E+03 -.299E+03 0.338E+00   0.150E+00 0.271E+00 0.140E-01   0.845E-03 -.597E-02 -.356E-02
   0.241E+03 0.339E+03 0.146E+01   -.242E+03 -.339E+03 -.144E+01   0.197E+00 0.255E+00 -.215E-02   0.109E-04 -.184E-02 -.847E-02
   0.696E+02 0.380E+03 0.106E+01   -.696E+02 -.380E+03 -.107E+01   -.723E-02 0.312E+00 0.222E-01   -.190E-02 -.148E-02 -.636E-02
   -.239E+02 0.381E+03 0.178E+01   0.239E+02 -.381E+03 -.177E+01   0.152E-02 0.308E+00 -.894E-02   -.332E-02 -.992E-04 -.223E-02
   -.197E+03 0.349E+03 0.118E+01   0.197E+03 -.349E+03 -.121E+01   -.164E+00 0.231E+00 0.486E-01   0.348E-02 -.219E-02 -.537E-02
   -.278E+03 0.318E+03 0.409E+01   0.278E+03 -.318E+03 -.408E+01   -.125E+00 0.287E+00 -.534E-02   0.548E-02 -.345E-03 -.280E-02
   -.399E+03 0.226E+03 0.778E+01   0.400E+03 -.227E+03 -.772E+01   -.273E+00 0.118E+00 -.641E-01   0.150E-02 0.371E-03 0.196E-02
   -.443E+03 0.159E+03 0.697E+01   0.444E+03 -.159E+03 -.695E+01   -.311E+00 0.195E+00 -.245E-01   0.242E-03 0.521E-02 -.107E-02
   -.480E+03 0.202E+02 0.963E+01   0.480E+03 -.202E+02 -.967E+01   -.313E+00 -.985E-02 0.524E-01   -.117E-02 0.173E-02 -.431E-02
   -.478E+03 -.560E+02 0.725E+01   0.478E+03 0.560E+02 -.727E+01   -.297E+00 -.263E-01 0.122E-01   0.253E-02 -.461E-02 0.520E-02
   -.425E+03 -.189E+03 0.543E+01   0.425E+03 0.189E+03 -.544E+01   -.266E+00 -.204E+00 0.443E-02   0.566E-02 -.809E-02 0.584E-02
   -.359E+03 -.262E+03 -.282E+01   0.360E+03 0.262E+03 0.282E+01   -.201E+00 -.239E+00 0.124E-01   0.701E-02 -.147E-02 -.186E-02
   -.292E+03 -.310E+03 -.296E+01   0.292E+03 0.310E+03 0.298E+01   -.219E+00 -.220E+00 -.108E-01   0.591E-02 -.132E-02 -.836E-02
   -.131E+03 -.367E+03 -.267E+01   0.131E+03 0.367E+03 0.267E+01   -.407E-01 -.321E+00 0.117E-01   -.428E-02 0.186E-02 -.977E-02
   -.390E+02 -.380E+03 -.249E+01   0.391E+02 0.380E+03 0.249E+01   -.804E-01 -.311E+00 0.288E-02   -.232E-02 0.228E-02 -.111E-02
   0.141E+03 -.366E+03 -.245E+01   -.141E+03 0.367E+03 0.244E+01   0.129E+00 -.282E+00 0.734E-02   -.865E-03 0.260E-02 0.193E-02
   0.227E+03 -.341E+03 -.146E+01   -.227E+03 0.341E+03 0.148E+01   0.965E-01 -.292E+00 -.249E-01   -.431E-02 0.176E-02 -.108E-02
   0.366E+03 -.260E+03 -.210E+01   -.367E+03 0.260E+03 0.210E+01   0.255E+00 -.180E+00 0.116E-01   -.248E-02 -.242E-04 -.292E-02
   0.420E+03 -.202E+03 -.155E+01   -.420E+03 0.202E+03 0.155E+01   0.237E+00 -.198E+00 -.115E-01   -.338E-02 -.371E-03 0.316E-02
   0.480E+03 -.716E+02 -.204E+01   -.481E+03 0.716E+02 0.203E+01   0.313E+00 -.143E-01 0.410E-02   -.119E-02 0.796E-02 -.178E-02
   0.488E+03 0.245E+01 -.835E+00   -.488E+03 -.241E+01 0.850E+00   0.303E+00 -.423E-01 -.190E-01   -.500E-02 0.772E-02 -.449E-03
   0.457E+03 0.140E+03 -.166E+01   -.457E+03 -.140E+03 0.166E+01   0.269E+00 0.153E+00 0.858E-02   -.563E-02 0.509E-02 -.584E-02
   0.419E+03 0.205E+03 -.442E+00   -.419E+03 -.205E+03 0.456E+00   0.284E+00 0.131E+00 -.200E-01   -.311E-02 0.117E-02 0.254E-02
   0.302E+03 0.307E+03 -.169E+01   -.303E+03 -.307E+03 0.169E+01   0.154E+00 0.268E+00 -.180E-02   0.411E-02 -.493E-02 0.399E-02
   0.227E+03 0.345E+03 -.461E+00   -.227E+03 -.345E+03 0.480E+00   0.205E+00 0.269E+00 -.162E-01   0.395E-03 -.446E-02 -.276E-03
   0.524E+02 0.381E+03 -.189E+01   -.524E+02 -.381E+03 0.188E+01   -.192E-01 0.313E+00 0.120E-01   -.116E-02 -.353E-02 0.379E-02
   -.416E+02 0.382E+03 0.752E+00   0.416E+02 -.383E+03 -.746E+00   0.420E-01 0.365E+00 -.574E-02   -.438E-03 -.490E-02 -.491E-02
   -.209E+03 0.345E+03 -.412E+00   0.209E+03 -.345E+03 0.407E+00   -.192E+00 0.195E+00 0.150E-01   0.420E-02 -.445E-02 -.422E-02
   -.283E+03 0.306E+03 0.376E+01   0.283E+03 -.306E+03 -.377E+01   -.123E+00 0.174E+00 0.149E-01   0.800E-02 -.315E-02 -.401E-02
   -.392E+03 0.215E+03 0.732E+01   0.392E+03 -.215E+03 -.732E+01   -.212E+00 0.110E+00 0.825E-02   0.809E-02 -.370E-02 -.554E-02
   -.446E+03 0.154E+03 0.938E+01   0.447E+03 -.155E+03 -.940E+01   -.519E+00 0.286E+00 0.170E-01   0.404E-02 -.102E-02 -.502E-02
   -.472E+03 0.131E+02 0.195E+02   0.473E+03 -.131E+02 -.196E+02   -.496E+00 0.329E-01 0.136E+00   0.130E-02 -.177E-02 -.337E-02
   -.469E+03 -.685E+02 0.153E+02   0.469E+03 0.685E+02 -.153E+02   -.262E+00 -.560E-01 -.141E-01   -.321E-04 -.131E-02 -.346E-02
   -.349E+03 -.272E+03 -.193E+01   0.349E+03 0.272E+03 0.193E+01   -.192E+00 -.250E+00 0.130E-01   0.270E-02 -.946E-03 0.226E-02
   -.279E+03 -.317E+03 -.186E+01   0.279E+03 0.317E+03 0.186E+01   -.213E+00 -.227E+00 -.889E-02   0.146E-02 -.457E-04 0.523E-02
   -.115E+03 -.370E+03 -.215E+01   0.115E+03 0.370E+03 0.213E+01   -.306E-01 -.315E+00 0.102E-01   -.775E-03 0.123E-02 0.507E-02
   -.229E+02 -.379E+03 -.174E+01   0.229E+02 0.380E+03 0.175E+01   -.604E-01 -.311E+00 -.126E-01   -.320E-02 0.121E-02 -.262E-02
   0.157E+03 -.362E+03 -.194E+01   -.157E+03 0.362E+03 0.194E+01   0.138E+00 -.284E+00 0.781E-02   -.532E-02 0.809E-03 -.719E-02
   0.241E+03 -.334E+03 -.159E+01   -.241E+03 0.335E+03 0.160E+01   0.108E+00 -.293E+00 -.118E-01   -.523E-03 0.148E-02 -.382E-02
   0.376E+03 -.250E+03 -.214E+01   -.377E+03 0.250E+03 0.213E+01   0.260E+00 -.164E+00 0.866E-02   0.154E-02 0.481E-02 0.122E-02
   0.427E+03 -.190E+03 -.131E+01   -.428E+03 0.191E+03 0.133E+01   0.243E+00 -.189E+00 -.945E-02   0.188E-03 0.208E-02 -.705E-02
   0.482E+03 -.586E+02 -.195E+01   -.483E+03 0.586E+02 0.195E+01   0.317E+00 -.118E-02 0.491E-02   -.263E-02 0.215E-02 -.368E-02
   0.487E+03 0.157E+02 -.121E+01   -.487E+03 -.157E+02 0.122E+01   0.309E+00 -.265E-01 -.209E-01   -.317E-02 0.660E-02 0.170E-02
   0.450E+03 0.152E+03 -.203E+01   -.450E+03 -.153E+03 0.202E+01   0.267E+00 0.158E+00 0.130E-01   -.345E-02 0.278E-02 0.645E-02
   0.409E+03 0.217E+03 -.131E+01   -.409E+03 -.217E+03 0.131E+01   0.282E+00 0.133E+00 -.902E-02   -.310E-02 -.299E-03 0.643E-03
   0.288E+03 0.314E+03 -.248E+01   -.288E+03 -.314E+03 0.248E+01   0.138E+00 0.281E+00 0.184E-02   0.391E-02 -.297E-02 -.619E-02
   0.210E+03 0.350E+03 -.922E+00   -.210E+03 -.350E+03 0.943E+00   0.163E+00 0.270E+00 -.199E-01   0.608E-02 -.299E-02 -.481E-02
   0.342E+02 0.382E+03 -.197E+01   -.342E+02 -.382E+03 0.199E+01   -.438E-01 0.325E+00 -.144E-01   -.156E-02 0.886E-03 -.133E-03
   -.576E+02 0.378E+03 -.815E+00   0.577E+02 -.379E+03 0.841E+00   -.454E-01 0.323E+00 -.354E-01   -.417E-02 -.162E-02 0.442E-02
   -.226E+03 0.337E+03 -.208E+01   0.227E+03 -.337E+03 0.208E+01   -.219E+00 0.283E+00 -.100E-01   0.359E-02 0.102E-02 0.801E-02
   -.295E+03 0.298E+03 -.255E+01   0.295E+03 -.299E+03 0.257E+01   -.152E+00 0.240E+00 -.181E-01   0.970E-02 0.612E-03 -.468E-03
   -.395E+03 0.204E+03 -.956E+01   0.395E+03 -.204E+03 0.946E+01   -.364E+00 0.210E+00 0.105E+00   0.836E-02 -.401E-02 0.120E-02
   -.432E+03 0.144E+03 0.518E+01   0.432E+03 -.144E+03 -.515E+01   0.576E-01 0.498E+00 -.380E-01   0.698E-02 -.616E-02 -.126E-02
   -.480E+03 0.177E+02 0.162E+02   0.477E+03 -.193E+02 -.177E+02   0.233E+01 0.157E+01 0.142E+01   0.176E-02 -.358E-02 -.571E-02
   -.440E+03 -.781E+02 0.175E+02   0.440E+03 0.783E+02 -.178E+02   0.901E-01 -.258E+00 0.317E+00   -.761E-03 0.223E-02 -.899E-02
   -.337E+03 -.281E+03 -.133E+01   0.337E+03 0.281E+03 0.131E+01   -.182E+00 -.256E+00 0.144E-01   -.701E-03 -.168E-04 0.579E-02
   -.265E+03 -.324E+03 -.966E+00   0.265E+03 0.324E+03 0.977E+00   -.202E+00 -.237E+00 -.764E-02   -.215E-03 0.100E-02 -.200E-02
   -.989E+02 -.372E+03 -.150E+01   0.989E+02 0.372E+03 0.150E+01   -.207E-01 -.314E+00 0.559E-02   0.651E-02 0.120E-02 0.328E-04
   -.619E+01 -.379E+03 -.122E+01   0.623E+01 0.380E+03 0.123E+01   -.494E-01 -.309E+00 -.129E-01   0.594E-02 0.236E-02 -.219E-02
   0.172E+03 -.358E+03 -.166E+01   -.172E+03 0.358E+03 0.165E+01   0.150E+00 -.277E+00 0.106E-01   -.403E-02 0.162E-02 0.572E-03
   0.255E+03 -.328E+03 -.122E+01   -.255E+03 0.328E+03 0.123E+01   0.119E+00 -.291E+00 -.739E-02   -.699E-02 0.106E-02 -.429E-02
   0.386E+03 -.240E+03 -.174E+01   -.387E+03 0.240E+03 0.173E+01   0.270E+00 -.155E+00 0.850E-02   -.863E-02 0.280E-02 -.433E-02
   0.434E+03 -.179E+03 -.108E+01   -.435E+03 0.179E+03 0.109E+01   0.252E+00 -.179E+00 -.147E-01   -.527E-02 0.290E-02 0.252E-02
   0.484E+03 -.452E+02 -.178E+01   -.484E+03 0.452E+02 0.177E+01   0.315E+00 0.424E-02 0.721E-02   -.535E-02 -.645E-03 -.140E-02
   0.486E+03 0.292E+02 -.125E+01   -.486E+03 -.292E+02 0.125E+01   0.312E+00 -.199E-01 -.176E-01   -.354E-02 -.205E-02 0.484E-02
   0.443E+03 0.164E+03 -.199E+01   -.443E+03 -.165E+03 0.199E+01   0.260E+00 0.170E+00 0.133E-01   -.518E-02 -.312E-02 0.155E-02
   0.399E+03 0.227E+03 -.125E+01   -.399E+03 -.227E+03 0.125E+01   0.274E+00 0.145E+00 -.105E-01   -.551E-02 0.720E-03 0.795E-02
   0.273E+03 0.320E+03 -.217E+01   -.273E+03 -.320E+03 0.216E+01   0.129E+00 0.288E+00 0.182E-03   -.209E-02 -.141E-02 0.742E-02
   0.193E+03 0.353E+03 -.153E+01   -.193E+03 -.353E+03 0.155E+01   0.144E+00 0.270E+00 -.226E-01   0.675E-02 -.326E-02 0.872E-03
   0.158E+02 0.381E+03 -.259E+01   -.158E+02 -.381E+03 0.258E+01   -.467E-01 0.324E+00 0.163E-01   0.648E-02 -.340E-03 -.175E-02
   -.764E+02 0.377E+03 -.195E+01   0.764E+02 -.378E+03 0.196E+01   -.198E-01 0.306E+00 -.105E-01   0.210E-02 0.217E-02 -.802E-03
   -.245E+03 0.335E+03 -.383E+01   0.245E+03 -.335E+03 0.381E+01   -.224E+00 0.253E+00 0.253E-01   -.588E-03 0.129E-02 -.281E-02
   -.315E+03 0.295E+03 -.276E+01   0.315E+03 -.295E+03 0.280E+01   -.216E+00 0.296E+00 -.362E-01   0.736E-03 0.275E-02 0.297E-02
   -.417E+03 0.192E+03 -.730E+01   0.418E+03 -.192E+03 0.733E+01   -.303E+00 0.133E+00 -.323E-01   0.273E-02 0.255E-02 -.127E-03
   -.432E+03 0.132E+03 -.897E+01   0.432E+03 -.133E+03 0.908E+01   -.370E+00 0.241E+00 -.111E+00   0.482E-02 -.197E-02 0.741E-02
   -.449E+03 -.162E+02 -.176E+02   0.449E+03 0.160E+02 0.179E+02   0.161E-01 0.275E+00 -.314E+00   0.198E-02 -.123E-02 0.783E-02
   -.459E+03 -.118E+03 -.163E+02   0.457E+03 0.119E+03 0.178E+02   0.267E+01 -.894E+00 -.141E+01   0.211E-02 0.119E-02 0.594E-02
   -.325E+03 -.289E+03 -.792E+00   0.325E+03 0.289E+03 0.782E+00   -.175E+00 -.264E+00 0.118E-01   -.408E-02 -.112E-03 0.442E-03
   -.251E+03 -.330E+03 -.414E+00   0.251E+03 0.330E+03 0.416E+00   -.194E+00 -.244E+00 -.791E-02   -.164E-02 -.378E-03 0.817E-02
   -.822E+02 -.374E+03 -.106E+01   0.822E+02 0.375E+03 0.105E+01   -.121E-01 -.313E+00 0.298E-02   0.209E-02 -.183E-02 0.880E-02
   0.108E+02 -.379E+03 -.698E+00   -.108E+02 0.379E+03 0.702E+00   -.388E-01 -.311E+00 -.161E-01   0.110E-02 0.514E-03 0.710E-02
   0.188E+03 -.353E+03 -.124E+01   -.188E+03 0.354E+03 0.123E+01   0.158E+00 -.270E+00 0.141E-01   -.621E-02 0.110E-02 0.651E-02
   0.269E+03 -.321E+03 -.758E+00   -.269E+03 0.322E+03 0.763E+00   0.134E+00 -.283E+00 -.872E-02   -.103E-01 -.438E-03 0.407E-02
   0.396E+03 -.229E+03 -.134E+01   -.396E+03 0.229E+03 0.133E+01   0.277E+00 -.147E+00 0.339E-02   -.998E-02 -.200E-02 0.581E-02
   0.441E+03 -.167E+03 -.875E+00   -.442E+03 0.167E+03 0.881E+00   0.256E+00 -.174E+00 -.128E-01   -.672E-02 0.491E-02 0.606E-02
   0.485E+03 -.319E+02 -.157E+01   -.486E+03 0.318E+02 0.156E+01   0.313E+00 0.156E-01 0.990E-02   -.431E-02 0.840E-02 0.107E-02
   0.484E+03 0.425E+02 -.872E+00   -.485E+03 -.425E+02 0.889E+00   0.313E+00 -.114E-01 -.143E-01   -.672E-02 0.287E-02 -.950E-02
   0.436E+03 0.176E+03 -.164E+01   -.436E+03 -.176E+03 0.164E+01   0.256E+00 0.181E+00 0.124E-01   -.602E-02 -.409E-02 -.760E-02
   0.389E+03 0.237E+03 -.111E+01   -.389E+03 -.238E+03 0.112E+01   0.270E+00 0.156E+00 -.106E-01   -.699E-02 -.274E-02 -.407E-02
   0.258E+03 0.327E+03 -.205E+01   -.258E+03 -.327E+03 0.204E+01   0.122E+00 0.286E+00 0.752E-02   -.363E-02 -.400E-02 -.377E-03
   0.176E+03 0.357E+03 -.158E+01   -.176E+03 -.358E+03 0.159E+01   0.148E+00 0.274E+00 -.176E-01   -.178E-02 -.157E-02 0.190E-02
   -.178E+01 0.380E+03 -.270E+01   0.183E+01 -.381E+03 0.269E+01   -.507E-01 0.315E+00 0.176E-01   -.159E-02 -.187E-02 -.365E-03
   -.940E+02 0.374E+03 -.172E+01   0.940E+02 -.375E+03 0.173E+01   -.228E-01 0.316E+00 -.112E-01   0.738E-03 -.201E-02 -.565E-02
   -.261E+03 0.328E+03 -.341E+01   0.261E+03 -.328E+03 0.341E+01   -.215E+00 0.240E+00 0.448E-02   0.179E-02 -.343E-02 -.396E-02
   -.331E+03 0.286E+03 -.327E+01   0.331E+03 -.286E+03 0.329E+01   -.201E+00 0.278E+00 -.143E-01   0.219E-03 -.412E-03 -.398E-02
   -.434E+03 0.176E+03 -.673E+01   0.435E+03 -.177E+03 0.674E+01   -.302E+00 0.120E+00 0.737E-02   0.336E-02 0.164E-03 -.465E-02
   -.462E+03 0.110E+03 -.107E+02   0.462E+03 -.111E+03 0.107E+02   -.393E+00 0.203E+00 -.662E-02   0.163E-02 -.248E-02 -.368E-02
   -.474E+03 -.333E+02 -.154E+02   0.474E+03 0.333E+02 0.154E+02   -.266E+00 -.115E-01 0.141E-01   0.364E-02 -.403E-02 -.826E-03
   -.452E+03 -.112E+03 -.195E+02   0.453E+03 0.112E+03 0.197E+02   -.467E+00 -.161E+00 -.130E+00   0.263E-02 -.241E-02 -.423E-02
   -.312E+03 -.297E+03 -.341E+00   0.312E+03 0.298E+03 0.331E+00   -.163E+00 -.269E+00 0.120E-01   0.621E-03 0.313E-02 0.300E-03
   -.236E+03 -.336E+03 0.766E-01   0.237E+03 0.337E+03 -.696E-01   -.183E+00 -.250E+00 -.746E-02   -.118E-02 0.208E-03 0.152E-02
   -.653E+02 -.376E+03 -.618E+00   0.653E+02 0.376E+03 0.610E+00   -.192E-04 -.314E+00 0.796E-02   -.653E-03 -.225E-02 0.126E-02
   0.279E+02 -.379E+03 -.154E+00   -.278E+02 0.379E+03 0.160E+00   -.231E-01 -.313E+00 -.162E-01   0.164E-02 -.258E-02 0.370E-02
   0.203E+03 -.348E+03 -.800E+00   -.203E+03 0.349E+03 0.788E+00   0.163E+00 -.264E+00 0.139E-01   -.134E-02 -.984E-03 0.523E-02
   0.283E+03 -.314E+03 -.355E+00   -.283E+03 0.314E+03 0.358E+00   0.141E+00 -.278E+00 -.775E-02   -.897E-03 0.275E-02 0.442E-02
   0.405E+03 -.219E+03 -.995E+00   -.406E+03 0.219E+03 0.987E+00   0.282E+00 -.138E+00 0.496E-02   -.586E-02 0.153E-03 -.840E-03
   0.448E+03 -.155E+03 -.506E+00   -.448E+03 0.155E+03 0.521E+00   0.267E+00 -.164E+00 -.124E-01   -.648E-02 0.323E-04 -.375E-02
   0.486E+03 -.185E+02 -.120E+01   -.487E+03 0.184E+02 0.119E+01   0.312E+00 0.288E-01 0.113E-01   -.460E-02 0.568E-02 0.638E-02
   0.482E+03 0.558E+02 -.583E+00   -.482E+03 -.558E+02 0.581E+00   0.313E+00 0.128E-02 -.135E-01   -.516E-02 0.644E-02 0.108E-01
   0.428E+03 0.188E+03 -.140E+01   -.428E+03 -.188E+03 0.139E+01   0.248E+00 0.188E+00 0.889E-02   -.230E-02 -.495E-02 0.727E-02
   0.378E+03 0.248E+03 -.871E+00   -.378E+03 -.248E+03 0.881E+00   0.267E+00 0.163E+00 -.899E-02   -.348E-02 -.870E-02 -.171E-02
   0.244E+03 0.333E+03 -.182E+01   -.244E+03 -.333E+03 0.181E+01   0.116E+00 0.292E+00 0.849E-02   -.315E-02 -.759E-02 0.191E-02
   0.160E+03 0.361E+03 -.118E+01   -.160E+03 -.361E+03 0.120E+01   0.140E+00 0.281E+00 -.171E-01   -.229E-02 -.545E-02 -.345E-02
   -.195E+02 0.379E+03 -.225E+01   0.196E+02 -.380E+03 0.224E+01   -.624E-01 0.311E+00 0.127E-01   0.409E-02 -.355E-02 -.115E-02
   -.111E+03 0.371E+03 -.167E+01   0.111E+03 -.371E+03 0.168E+01   -.353E-01 0.317E+00 -.885E-02   0.249E-02 -.166E-02 0.471E-02
   -.276E+03 0.319E+03 -.307E+01   0.276E+03 -.319E+03 0.306E+01   -.217E+00 0.229E+00 0.100E-01   0.668E-02 -.846E-03 0.217E-02
   -.345E+03 0.275E+03 -.283E+01   0.346E+03 -.275E+03 0.283E+01   -.195E+00 0.264E+00 -.505E-02   0.730E-02 -.205E-02 0.520E-02
   -.443E+03 0.162E+03 -.492E+01   0.443E+03 -.162E+03 0.490E+01   -.295E+00 0.957E-01 0.258E-01   0.561E-02 -.172E-03 -.861E-03
   -.471E+03 0.929E+02 -.542E+01   0.471E+03 -.930E+02 0.542E+01   -.308E+00 0.127E+00 -.320E-02   0.472E-02 0.248E-02 0.271E-02
   -.479E+03 -.477E+02 -.732E+01   0.479E+03 0.478E+02 0.733E+01   -.292E+00 -.515E-01 -.150E-01   0.266E-02 0.248E-02 0.364E-02
   -.457E+03 -.121E+03 -.963E+01   0.457E+03 0.121E+03 0.968E+01   -.303E+00 -.739E-01 -.500E-01   0.139E-02 0.936E-03 0.415E-02
   -.299E+03 -.305E+03 0.957E-01   0.299E+03 0.305E+03 -.110E+00   -.154E+00 -.273E+00 0.832E-02   -.194E-02 0.321E-03 0.460E-02
   -.221E+03 -.342E+03 0.559E+00   0.222E+03 0.342E+03 -.549E+00   -.178E+00 -.256E+00 -.105E-01   0.131E-02 0.123E-02 0.973E-03
   -.482E+02 -.377E+03 -.175E+00   0.482E+02 0.378E+03 0.169E+00   0.905E-02 -.314E+00 0.110E-01   0.459E-02 -.145E-02 0.460E-03
   0.450E+02 -.378E+03 0.313E+00   -.449E+02 0.378E+03 -.301E+00   -.125E-01 -.314E+00 -.139E-01   -.264E-02 -.294E-02 -.469E-02
   0.218E+03 -.343E+03 -.398E+00   -.219E+03 0.343E+03 0.390E+00   0.173E+00 -.258E+00 0.150E-01   -.961E-03 -.486E-02 -.112E-02
   0.296E+03 -.307E+03 0.776E-01   -.296E+03 0.307E+03 -.743E-01   0.152E+00 -.274E+00 -.670E-02   -.975E-03 -.233E-02 0.394E-02
   0.414E+03 -.208E+03 -.649E+00   -.414E+03 0.208E+03 0.637E+00   0.284E+00 -.127E+00 0.626E-02   0.233E-02 -.280E-03 0.532E-02
   0.454E+03 -.142E+03 -.113E+00   -.454E+03 0.143E+03 0.117E+00   0.271E+00 -.154E+00 -.166E-01   -.317E-02 -.194E-02 0.511E-02
   0.487E+03 -.495E+01 -.823E+00   -.487E+03 0.492E+01 0.815E+00   0.311E+00 0.387E-01 0.145E-01   -.213E-02 -.403E-02 -.105E-02
   0.479E+03 0.691E+02 -.296E+00   -.480E+03 -.691E+02 0.296E+00   0.313E+00 0.131E-01 -.923E-02   -.451E-02 0.126E-02 0.640E-02
   0.420E+03 0.199E+03 -.113E+01   -.420E+03 -.200E+03 0.111E+01   0.243E+00 0.196E+00 0.653E-02   -.238E-02 -.543E-03 0.559E-02
   0.367E+03 0.258E+03 -.498E+00   -.368E+03 -.258E+03 0.498E+00   0.262E+00 0.175E+00 -.137E-01   0.661E-03 -.515E-02 0.101E-01
   0.228E+03 0.339E+03 -.143E+01   -.228E+03 -.339E+03 0.142E+01   0.103E+00 0.296E+00 0.868E-02   -.563E-02 -.244E-02 0.820E-02
   0.143E+03 0.365E+03 -.825E+00   -.143E+03 -.365E+03 0.833E+00   0.130E+00 0.285E+00 -.141E-01   -.244E-02 -.569E-02 0.944E-03
   -.371E+02 0.378E+03 -.184E+01   0.372E+02 -.379E+03 0.183E+01   -.677E-01 0.307E+00 0.127E-01   0.632E-02 -.367E-02 -.840E-03
   -.129E+03 0.367E+03 -.137E+01   0.129E+03 -.367E+03 0.137E+01   -.389E-01 0.314E+00 -.564E-02   0.162E-02 -.304E-02 0.267E-02
   -.290E+03 0.311E+03 -.248E+01   0.290E+03 -.311E+03 0.247E+01   -.217E+00 0.224E+00 0.947E-02   -.214E-02 -.348E-02 -.286E-03
   -.357E+03 0.265E+03 -.184E+01   0.358E+03 -.265E+03 0.185E+01   -.198E+00 0.247E+00 -.115E-01   0.129E-02 -.282E-02 -.611E-02
   -.450E+03 0.149E+03 -.313E+01   0.451E+03 -.149E+03 0.313E+01   -.307E+00 0.787E-01 0.119E-01   0.428E-03 -.403E-02 -.252E-02
   -.475E+03 0.787E+02 -.296E+01   0.475E+03 -.788E+02 0.296E+01   -.295E+00 0.105E+00 -.148E-02   0.145E-02 -.313E-02 -.437E-02
   -.478E+03 -.619E+02 -.412E+01   0.479E+03 0.620E+02 0.413E+01   -.302E+00 -.885E-01 -.711E-04   0.366E-02 0.256E-03 -.721E-02
   -.455E+03 -.134E+03 -.504E+01   0.456E+03 0.134E+03 0.506E+01   -.297E+00 -.613E-01 -.123E-01   0.248E-02 0.932E-03 -.746E-02
   0.621E+02 -.376E+03 0.777E+00   -.621E+02 0.377E+03 -.780E+00   -.551E-02 -.315E+00 -.130E-01   0.451E-02 -.295E-02 0.637E-02
   0.234E+03 -.337E+03 -.175E-01   -.234E+03 0.338E+03 0.356E-02   0.181E+00 -.250E+00 0.115E-01   -.213E-02 -.582E-02 0.526E-02
   0.309E+03 -.299E+03 0.543E+00   -.310E+03 0.299E+03 -.529E+00   0.160E+00 -.269E+00 -.684E-02   -.361E-03 -.480E-02 -.688E-02
   0.422E+03 -.197E+03 -.242E+00   -.423E+03 0.197E+03 0.241E+00   0.288E+00 -.119E+00 0.841E-02   0.748E-02 0.278E-02 -.525E-02
   0.460E+03 -.130E+03 0.272E+00   -.460E+03 0.130E+03 -.260E+00   0.277E+00 -.145E+00 -.149E-01   0.625E-02 0.346E-02 -.440E-02
   0.486E+03 0.854E+01 -.483E+00   -.487E+03 -.859E+01 0.481E+00   0.310E+00 0.501E-01 0.161E-01   0.189E-02 -.148E-02 -.632E-02
   0.476E+03 0.823E+02 0.852E-01   -.477E+03 -.824E+02 -.798E-01   0.312E+00 0.228E-01 -.663E-02   0.586E-03 -.210E-02 -.971E-04
   0.411E+03 0.211E+03 -.743E+00   -.411E+03 -.211E+03 0.735E+00   0.235E+00 0.203E+00 0.522E-02   -.212E-02 0.224E-02 0.140E-02
   0.356E+03 0.267E+03 -.135E+00   -.356E+03 -.267E+03 0.143E+00   0.255E+00 0.183E+00 -.146E-01   -.663E-02 0.378E-02 0.168E-02
   0.213E+03 0.344E+03 -.101E+01   -.213E+03 -.345E+03 0.100E+01   0.953E-01 0.297E+00 0.118E-01   -.584E-02 0.346E-03 0.232E-02
   0.126E+03 0.368E+03 -.427E+00   -.126E+03 -.368E+03 0.439E+00   0.119E+00 0.288E+00 -.106E-01   -.819E-02 -.112E-02 -.463E-02
   -.545E+02 0.377E+03 -.135E+01   0.546E+02 -.377E+03 0.134E+01   -.765E-01 0.304E+00 0.104E-01   -.148E-02 -.328E-02 -.665E-02
   -.145E+03 0.363E+03 -.768E+00   0.145E+03 -.364E+03 0.781E+00   -.515E-01 0.308E+00 -.701E-02   0.228E-02 -.272E-02 -.376E-02
   -.303E+03 0.303E+03 -.171E+01   0.304E+03 -.304E+03 0.171E+01   -.227E+00 0.218E+00 0.634E-02   0.218E-02 -.624E-03 -.369E-02
   -.369E+03 0.255E+03 -.117E+01   0.369E+03 -.255E+03 0.117E+01   -.205E+00 0.235E+00 -.140E-01   0.155E-02 0.144E-02 0.706E-02
   -.457E+03 0.137E+03 -.212E+01   0.457E+03 -.137E+03 0.211E+01   -.309E+00 0.648E-01 0.131E-01   0.296E-03 0.274E-02 0.536E-02
   -.479E+03 0.651E+02 -.176E+01   0.479E+03 -.652E+02 0.176E+01   -.297E+00 0.948E-01 -.344E-02   0.305E-03 0.225E-03 0.682E-02
   -.477E+03 -.754E+02 -.267E+01   0.477E+03 0.755E+02 0.266E+01   -.296E+00 -.102E+00 0.432E-02   0.255E-02 0.189E-02 0.609E-02
   -.451E+03 -.146E+03 -.254E+01   0.452E+03 0.147E+03 0.255E+01   -.306E+00 -.734E-01 -.197E-01   0.529E-02 0.232E-02 0.209E-02
   0.465E+03 -.117E+03 0.671E+00   -.465E+03 0.117E+03 -.667E+00   0.280E+00 -.136E+00 -.146E-01   0.788E-02 0.198E-02 0.275E-02
   0.486E+03 0.220E+02 -.932E-01   -.486E+03 -.221E+02 0.791E-01   0.308E+00 0.631E-01 0.141E-01   0.544E-02 -.816E-03 0.481E-02
   0.473E+03 0.955E+02 0.460E+00   -.473E+03 -.955E+02 -.449E+00   0.311E+00 0.354E-01 -.503E-02   0.367E-02 -.360E-02 -.556E-02
   0.402E+03 0.222E+03 -.327E+00   -.402E+03 -.222E+03 0.325E+00   0.226E+00 0.214E+00 0.786E-02   0.143E-02 -.174E-02 -.462E-02
   0.344E+03 0.276E+03 0.223E+00   -.344E+03 -.277E+03 -.214E+00   0.248E+00 0.194E+00 -.142E-01   0.648E-03 0.739E-03 -.345E-03
   0.197E+03 0.350E+03 -.569E+00   -.197E+03 -.350E+03 0.562E+00   0.817E-01 0.301E+00 0.146E-01   0.137E-02 0.872E-04 -.246E-03
   0.109E+03 0.371E+03 0.145E-01   -.110E+03 -.371E+03 -.214E-01   0.108E+00 0.293E+00 -.990E-02   -.402E-02 0.331E-03 0.131E-01
   -.718E+02 0.376E+03 -.823E+00   0.719E+02 -.376E+03 0.803E+00   -.889E-01 0.302E+00 0.521E-02   -.186E-02 -.319E-02 0.117E-01
   -.162E+03 0.360E+03 -.280E+00   0.162E+03 -.360E+03 0.286E+00   -.618E-01 0.306E+00 -.110E-01   0.406E-02 -.271E-02 0.444E-02
   -.317E+03 0.295E+03 -.110E+01   0.317E+03 -.296E+03 0.109E+01   -.235E+00 0.212E+00 0.921E-02   0.287E-02 -.237E-02 0.132E-02
   -.380E+03 0.245E+03 -.589E+00   0.380E+03 -.245E+03 0.602E+00   -.213E+00 0.226E+00 -.123E-01   0.531E-02 -.773E-03 -.530E-02
   -.462E+03 0.124E+03 -.140E+01   0.463E+03 -.124E+03 0.140E+01   -.310E+00 0.564E-01 0.141E-01   0.423E-02 0.524E-03 -.642E-02
   -.482E+03 0.517E+02 -.897E+00   0.482E+03 -.518E+02 0.907E+00   -.301E+00 0.846E-01 -.678E-02   0.529E-03 -.370E-02 -.195E-02
   -.474E+03 -.886E+02 -.168E+01   0.474E+03 0.888E+02 0.168E+01   -.295E+00 -.110E+00 0.579E-02   0.251E-02 -.394E-02 -.492E-02
   -.446E+03 -.159E+03 -.138E+01   0.446E+03 0.159E+03 0.140E+01   -.304E+00 -.863E-01 -.172E-01   0.394E-02 -.329E-02 0.208E-03
   0.332E+03 0.285E+03 0.616E+00   -.332E+03 -.285E+03 -.605E+00   0.240E+00 0.200E+00 -.156E-01   0.328E-02 0.199E-03 -.315E-02
   0.182E+03 0.354E+03 -.872E-01   -.182E+03 -.355E+03 0.822E-01   0.688E-01 0.305E+00 0.155E-01   0.225E-02 0.450E-04 -.291E-02
   0.926E+02 0.373E+03 0.441E+00   -.927E+02 -.374E+03 -.435E+00   0.986E-01 0.297E+00 -.594E-02   0.263E-02 -.129E-02 -.155E-02
   -.888E+02 0.374E+03 -.337E+00   0.889E+02 -.374E+03 0.328E+00   -.987E-01 0.298E+00 0.526E-02   -.541E-02 -.327E-02 0.288E-02
   -.178E+03 0.355E+03 0.171E+00   0.178E+03 -.356E+03 -.164E+00   -.696E-01 0.304E+00 -.135E-01   -.942E-02 -.638E-02 0.383E-02
   -.329E+03 0.287E+03 -.569E+00   0.329E+03 -.287E+03 0.560E+00   -.240E+00 0.203E+00 0.126E-01   -.148E-02 -.399E-02 0.498E-03
   -.390E+03 0.234E+03 -.450E-01   0.390E+03 -.234E+03 0.553E-01   -.222E+00 0.220E+00 -.102E-01   0.357E-02 -.345E-03 -.193E-02
   -.467E+03 0.111E+03 -.785E+00   0.467E+03 -.111E+03 0.773E+00   -.309E+00 0.462E-01 0.897E-02   0.265E-02 0.929E-03 0.159E-02
   -.484E+03 0.383E+02 -.334E+00   0.484E+03 -.384E+02 0.345E+00   -.305E+00 0.719E-01 -.756E-02   0.120E-02 0.282E-02 -.189E-02
   -.470E+03 -.102E+03 -.108E+01   0.470E+03 0.102E+03 0.107E+01   -.286E+00 -.123E+00 0.612E-02   -.175E-02 0.166E-02 0.127E-02
   -.439E+03 -.171E+03 -.682E+00   0.439E+03 0.171E+03 0.684E+00   -.298E+00 -.960E-01 -.145E-01   0.459E-03 -.232E-02 0.518E-02
   -.194E+03 0.351E+03 0.644E+00   0.194E+03 -.351E+03 -.641E+00   -.836E-01 0.302E+00 -.161E-01   -.396E-02 -.315E-02 0.520E-02
   -.341E+03 0.278E+03 -.538E-01   0.342E+03 -.278E+03 0.379E-01   -.249E+00 0.194E+00 0.128E-01   -.316E-02 -.403E-02 0.107E-01
   -.400E+03 0.224E+03 0.431E+00   0.400E+03 -.224E+03 -.429E+00   -.227E+00 0.211E+00 -.954E-02   0.395E-02 0.607E-03 0.487E-02
   -.471E+03 0.982E+02 -.283E+00   0.472E+03 -.982E+02 0.269E+00   -.312E+00 0.363E-01 0.855E-02   0.477E-02 0.134E-02 0.486E-02
   -.485E+03 0.249E+02 0.154E+00   0.486E+03 -.250E+02 -.144E+00   -.307E+00 0.618E-01 -.102E-01   0.213E-03 -.689E-03 -.278E-04
   -.466E+03 -.115E+03 -.564E+00   0.466E+03 0.115E+03 0.556E+00   -.284E+00 -.133E+00 0.112E-01   -.352E-02 0.422E-02 0.175E-03
   -.432E+03 -.183E+03 -.105E+00   0.432E+03 0.183E+03 0.115E+00   -.294E+00 -.109E+00 -.140E-01   -.425E-02 0.130E-02 -.112E-02
   -.486E+03 0.114E+02 0.653E+00   0.486E+03 -.115E+02 -.653E+00   -.310E+00 0.519E-01 -.150E-01   0.320E-02 -.310E-02 0.932E-02
   -.461E+03 -.127E+03 -.619E-01   0.461E+03 0.127E+03 0.473E-01   -.279E+00 -.142E+00 0.123E-01   -.519E-03 0.145E-02 0.703E-02
   -.424E+03 -.194E+03 0.374E+00   0.424E+03 0.194E+03 -.366E+00   -.290E+00 -.117E+00 -.113E-01   -.183E-02 0.671E-02 -.118E-02
   -.991E+03 -.108E+03 -.174E+00   0.994E+03 0.109E+03 0.176E+00   -.346E+01 -.465E+00 -.174E-02   0.878E-02 0.164E-02 -.588E-03
 -----------------------------------------------------------------------------------------------
   -.175E+01 -.280E+00 -.190E-02   -.341E-11 -.347E-11 0.306E-11   0.162E+01 0.247E+00 0.206E-03   0.120E+00 0.365E-01 0.832E-03
 
 
 POSITION                                       TOTAL-FORCE (eV/Angst)
 -----------------------------------------------------------------------------------
     12.00899     10.72415      0.09986        -0.000011      0.000591     -0.002583
     11.93853     10.83405      2.54428        -0.000861      0.001394     -0.003048
     10.94378     11.85365      2.47122        -0.000211      0.000294     -0.000547
     10.37520     12.18056      1.21105         0.002909      0.001119     -0.002928
      8.99365     12.52673      1.13759        -0.004487     -0.000113      0.007074
     11.86344     10.94156      4.98834        -0.002491      0.000298      0.002404
     10.83456     11.92649      4.91548        -0.001074     -0.000408     -0.000661
     10.25534     12.23361      3.65534         0.001574      0.000618     -0.004847
      8.86253     12.53183      3.58174        -0.001523      0.001180      0.007222
      8.20819     12.48888      2.32185         0.003621      0.000871     -0.004535
      6.86620     12.01159      2.24870        -0.002132      0.000171      0.000022
      6.33178     11.63147      0.98859         0.000122     -0.000735     -0.002612
      5.43966     10.52102      0.91547         0.000096      0.000826      0.004394
     11.78373     11.04656      7.43222        -0.001833      0.001032      0.002675
     10.72231     11.99661      7.35974         0.000669     -0.000026      0.000140
     10.13329     12.28317      6.09965        -0.001761      0.001720     -0.005269
      8.73115     12.53340      6.02612        -0.002281      0.000864      0.005683
      8.07886     12.46716      4.76598         0.002577      0.001438      0.001415
      6.75444     11.94367      4.69307        -0.005992      0.000231     -0.000526
      6.23330     11.54539      3.43301        -0.000329      0.001636     -0.000974
      5.38009     10.40476      3.35975        -0.001449      0.001539      0.005834
      5.14533      9.79227      2.09992         0.000256     -0.001885     -0.006134
      5.01735      8.37356      2.02664         0.000620     -0.001424      0.003273
      5.13895      7.72879      0.76661        -0.000468     -0.000366      0.000277
      5.77444      6.45396      0.69365        -0.003241     -0.000715      0.002240
     11.70055     11.14907      9.87615        -0.000399      0.000289      0.002374
     10.60797     12.06288      9.80457         0.002830     -0.000802      0.003863
     10.00922     12.32914      8.54401         0.000683      0.001071     -0.006437
      8.59977     12.53086      8.47072        -0.001348      0.000259      0.005535
      7.95019     12.44226      7.21044         0.001321      0.000587      0.001690
      6.64467     11.87256      7.13760        -0.003123      0.001523     -0.003150
      6.13783     11.45613      5.87770         0.001982      0.000903     -0.003436
      5.32463     10.28663      5.80424         0.000384     -0.002545      0.005954
      5.11131      9.66621      4.54421         0.000285      0.001128     -0.001137
      5.03229      8.24407      4.47105         0.001306     -0.003810     -0.000331
      5.17598      7.60383      3.21100        -0.002651      0.003125      0.002109
      5.85486      6.35148      3.13790        -0.000291      0.000096      0.003133
      6.31318      5.88190      1.87797        -0.000256     -0.000104     -0.006533
      7.54811      5.17215      1.80441         0.001915     -0.000402      0.006190
      8.18479      5.01277      0.54447        -0.002772      0.000137     -0.000459
      9.60852      5.05685      0.47145         0.000149      0.000150      0.000498
     12.00219     10.71309     13.57790         0.005378      0.000634     -0.000951
     11.61433     11.24666     12.31907         0.001955     -0.000180     -0.000985
     10.49189     12.12037     12.24938         0.002854     -0.003560      0.003706
      9.88468     12.37020     10.98932        -0.000730      0.000306     -0.004180
      8.46835     12.52332     10.91618         0.004011     -0.001702      0.006528
      7.82247     12.41270      9.65601        -0.001875     -0.000432      0.002612
      6.53742     11.79770      9.58268        -0.000224      0.000830     -0.000230
      6.04590     11.36347      8.32235         0.000324      0.002240     -0.003934
      5.27423     10.16651      8.24863        -0.001384      0.000040      0.006760
      5.08188      9.53922      6.98863        -0.000760      0.004140     -0.001678
      5.05188      8.11502      6.91560         0.000680     -0.002196     -0.001239
      5.21735      7.48020      5.65558        -0.000650      0.002216     -0.001311
      5.93883      6.25197      5.58225         0.002035     -0.001268      0.004278
      6.41303      5.79841      4.32213        -0.004001      0.000725     -0.003280
      7.67159      5.13151      4.24874         0.002108     -0.002834      0.002266
      8.31348      4.99435      2.98875        -0.003619      0.000308      0.002817
      9.73487      5.08758      2.91572        -0.001630     -0.001399      0.001950
     10.35321      5.30766      1.65577         0.000517     -0.001180     -0.005948
     11.51417      6.13284      1.58207         0.000694     -0.000522      0.007841
     11.92535      6.64438      0.32210        -0.001249     -0.005133     -0.003475
     12.48118      7.95582      0.24901         0.000330      0.002604     -0.000218
     11.93121     10.78953     16.02098         0.006447      0.000495     -0.001562
     11.52149     11.32079     14.76626         0.004272     -0.000699     -0.004457
     10.37062     12.15794     14.69589         0.004465     -0.004295      0.007896
      9.75860     12.39741     13.43782        -0.002057     -0.002511     -0.003915
      8.33757     12.50579     13.36338        -0.001556     -0.004771      0.002358
      7.69602     12.37604     12.10174        -0.002231     -0.001178      0.002605
      6.43315     11.71812     12.02758         0.000843      0.000205      0.003964
      5.95653     11.26824     10.76704        -0.000815     -0.002530     -0.005891
      5.22686     10.04466     10.69317        -0.000253     -0.000100      0.004770
      5.05706      9.41116      9.43332        -0.000175      0.003111      0.002300
      5.07607      7.98676      9.36026         0.000022     -0.001994     -0.001903
      5.26342      7.35808      8.10004        -0.001406      0.001028     -0.004428
      6.02637      6.15541      8.02646         0.000309     -0.000876      0.007273
      6.51542      5.71817      6.76660        -0.003888     -0.000363     -0.002689
      7.79620      5.09423      6.69362         0.006083     -0.003933     -0.001483
      8.44242      4.97976      5.43319        -0.003536     -0.000200      0.001589
      9.85952      5.12181      5.35998         0.000650     -0.002700      0.001069
     10.47032      5.36325      4.10006        -0.002050     -0.000804     -0.005574
     11.60222      6.22797      4.02639         0.001182      0.000818      0.006514
     11.99565      6.75368      2.76653        -0.001667     -0.005108      0.001321
     12.50599      8.08348      2.69354         0.000368      0.007077      0.001960
     12.56531      8.73717      1.43350        -0.001798     -0.003538     -0.006660
     12.30146     10.13682      1.35988        -0.000346      0.002660      0.006928
     11.89528     10.94962     18.47261         0.007015      0.001856     -0.000360
     11.43571     11.39872     17.22500         0.002610     -0.002421     -0.005770
     10.24716     12.18601     17.14432         0.000025     -0.004549      0.007770
      9.62665     12.40185     15.88375         0.001353     -0.005731     -0.003154
      8.20768     12.47529     15.80835        -0.001022     -0.006405      0.000208
      7.56936     12.33265     14.54663         0.003308     -0.004423     -0.001452
      6.32727     11.63516     14.47219         0.002281     -0.001249      0.003836
      5.86865     11.16890     13.21204        -0.002726     -0.000832     -0.004906
      5.18236      9.92039     13.13809        -0.004121      0.001779      0.003134
      5.03604      9.28168     11.87759        -0.001792     -0.000391      0.003359
      5.10402      7.85922     11.80439        -0.002137     -0.000001     -0.000421
      5.31244      7.23727     10.54443         0.000193     -0.000909     -0.004409
      6.11624      6.06086     10.47075        -0.001040      0.001486      0.008329
      6.62097      5.64142      9.21119        -0.003708     -0.000249     -0.001463
      7.92209      5.06129      9.13862         0.000284     -0.000369     -0.000074
      8.57158      4.96834      7.87780        -0.003323     -0.000076     -0.000632
      9.98330      5.15866      7.80460         0.001125     -0.001355      0.001910
     10.58494      5.42202      6.54464         0.002332     -0.000887     -0.002896
     11.68597      6.32588      6.47088        -0.000650     -0.001711      0.002111
     12.06130      6.86520      5.21088        -0.002501     -0.004613      0.001478
     12.52488      8.21187      5.13768        -0.000842      0.005060     -0.000212
     12.56260      8.86733      3.87784        -0.002423     -0.006408     -0.007649
     12.25086     10.25722      3.80421        -0.002520      0.001850      0.009193
     11.80039     11.04962     20.92518         0.005851      0.003369      0.001196
     11.34528     11.50462     19.65161         0.008569     -0.005138     -0.006910
     10.12700     12.24478     19.58081         0.001185     -0.005034      0.007183
      9.49904     12.43029     18.32480         0.002049     -0.007855     -0.001759
      8.07128     12.46025     18.25114         0.002732     -0.007969     -0.000152
      7.44162     12.28613     16.99304        -0.000087     -0.005794     -0.004663
      6.22320     11.54863     16.91789        -0.001824     -0.002776      0.005947
      5.78254     11.06568     15.65657        -0.005243     -0.001187     -0.000742
      5.14190      9.79482     15.58276        -0.003946     -0.001674      0.001651
      5.01722      9.15161     14.32225        -0.003039     -0.001666      0.001862
      5.13435      7.73159     14.24895        -0.002530     -0.000550      0.001516
      5.36489      7.11776     12.98920        -0.001362     -0.002551     -0.006489
      6.20736      5.96879     12.91538        -0.002531      0.002645      0.007386
      6.72740      5.56743     11.65538        -0.000442     -0.000458      0.000145
      8.04788      5.03335     11.58299         0.000606      0.002350      0.002572
      8.70060      4.96159     10.32347        -0.000339      0.001620     -0.004502
     10.10626      5.20009     10.25073         0.001257     -0.000727      0.007933
     10.69774      5.48413      8.98933         0.004258      0.001325     -0.001703
     11.76558      6.42616      8.91511        -0.001894     -0.001466     -0.000184
     12.12208      6.97843      7.65510         0.000226     -0.000290      0.002659
     12.53835      8.34080      7.58122        -0.001951     -0.001172      0.000369
     12.55366      8.99724      6.32187        -0.002055     -0.003324     -0.004979
     12.19437     10.37562      6.24855         0.000314      0.001291      0.002569
     11.70338     11.14682     23.36629         0.003319      0.002585      0.001754
     11.25279     11.61746     22.09955         0.002836     -0.002635     -0.005897
     10.00982     12.32265     22.02596        -0.001891     -0.003352      0.003918
      9.37173     12.46687     20.76699         0.002519     -0.006382      0.001403
      7.94826     12.43427     20.69481         0.001253     -0.006464     -0.002187
      7.31915     12.24066     19.43529         0.000860     -0.006566     -0.006512
      6.12802     11.45900     19.36168         0.001400     -0.003080      0.005386
      5.69985     10.96290     18.10224        -0.003247      0.000327     -0.001268
      5.10365      9.66717     18.02846        -0.005402     -0.005610     -0.001765
      5.00384      9.02024     16.76846        -0.004400      0.000889      0.001680
      5.16973      7.60523     16.69464        -0.006345     -0.000240      0.002116
      5.42062      6.99949     15.43371        -0.004143      0.000885     -0.004596
      6.29996      5.87953     15.35961        -0.004454      0.002898      0.005202
      6.83278      5.49513     14.10007        -0.001599      0.000107     -0.000291
      8.17305      5.00905     14.02756         0.000968      0.004667      0.000455
      8.82956      4.96358     12.76923        -0.001567      0.004134     -0.007144
     10.22535      5.25209     12.69724         0.000971      0.002562      0.008471
     10.80852      5.55027     11.43433         0.003749      0.002146     -0.002001
     11.84489      6.52843     11.35975        -0.001769     -0.003137     -0.001188
     12.17917      7.09351     10.09949         0.001893      0.001653     -0.001168
     12.54635      8.46974     10.02393        -0.000785     -0.003417      0.001506
     12.53888      9.12666      8.76465        -0.001860      0.002369     -0.002843
     12.13302     10.49173      8.69207         0.000398     -0.000902      0.003689
     11.61645     11.24544     25.80855         0.003627     -0.001530      0.005882
     11.14489     11.70170     24.54840         0.002205      0.000187     -0.003473
      9.88651     12.37013     24.47326         0.000044      0.000750      0.001856
      9.24561     12.50248     23.20998         0.002264     -0.003797      0.002538
      7.82340     12.40898     23.13850        -0.000376     -0.003358      0.001491
      7.20319     12.19006     21.88007        -0.002852     -0.004861     -0.007383
      6.04014     11.36544     21.80688         0.000474     -0.001482      0.006986
      5.62880     10.85288     20.54751        -0.001334      0.001862     -0.000420
      5.07804      9.53992     20.47405        -0.004957     -0.003349     -0.003364
      4.99652      8.88909     19.21315        -0.004326      0.001367     -0.001967
      5.21170      7.48076     19.13918        -0.005462     -0.000726      0.004352
      5.47932      6.88340     17.87932        -0.005005     -0.001407     -0.001905
      6.39745      5.79175     17.80531        -0.004557      0.002685      0.000281
      6.94197      5.42739     16.54554        -0.001513      0.002479      0.003282
      8.29789      4.99008     16.47246         0.000244      0.007185      0.004002
      8.95602      4.97139     15.21299        -0.000757      0.007227     -0.006219
     10.33671      5.31917     15.14030         0.001738      0.004661      0.007775
     10.91375      5.62829     13.88155         0.001122      0.003417      0.000118
     11.92546      6.63768     13.80890         0.004388      0.001923     -0.000906
     12.23618      7.21092     12.54218         0.004940      0.001265     -0.003573
     12.55147      8.59729     12.46304         0.003602     -0.001784      0.006118
     12.52060      9.25507     11.20581         0.002787      0.000603     -0.002793
     12.06983     10.60669     11.13496        -0.000042      0.001915      0.000257
     11.53079     11.34217     28.25262         0.001977     -0.002877      0.006179
     11.04072     11.77970     26.99275        -0.002869      0.003612     -0.003742
      9.76144     12.40496     26.91840         0.001904     -0.000157      0.000072
      9.11609     12.52137     25.65669         0.000656     -0.001557     -0.000150
      7.69768     12.37718     25.58424        -0.000512      0.001317      0.001610
      7.08801     12.13416     24.32463        -0.000987     -0.002266     -0.007737
      5.95667     11.26872     24.25164         0.002599     -0.000518      0.007420
      5.56243     10.74319     22.99162        -0.000634      0.003288     -0.001214
      5.05505      9.41200     22.91866        -0.002984     -0.005925     -0.000465
      4.99610      8.75854     21.65901        -0.003361     -0.000204     -0.005197
      5.25977      7.35840     21.58533        -0.004800     -0.002250      0.007009
      5.55017      6.77078     20.32503        -0.001436     -0.001812     -0.003015
      6.50454      5.71489     20.25146        -0.003978      0.001412     -0.002743
      7.05725      5.36562     18.98981        -0.001580      0.003317      0.001971
      8.42771      4.97767     18.91497         0.001540      0.008368      0.001990
      9.08114      4.97777     17.65681        -0.001324      0.009415     -0.004244
     10.44938      5.38680     17.58276         0.001984      0.008527      0.005543
     11.00556      5.73342     16.32681         0.000117      0.003421      0.001790
     11.98417      6.77001     16.25712         0.005467      0.007073     -0.000981
     12.30320      7.32957     14.98365         0.006308      0.000408     -0.004913
     12.57784      8.72998     14.90029         0.006995      0.000311      0.007948
     12.50176      9.38223     13.64501         0.006534     -0.000434     -0.003080
     11.44228     11.43633     30.69667        -0.000456     -0.003313      0.006557
     10.93730     11.85619     29.43671        -0.002103      0.003338     -0.002462
      9.63593     12.43566     29.36331        -0.000348     -0.000494     -0.003794
      8.98604     12.52931     28.10310         0.001271      0.000138     -0.001905
      7.57449     12.33733     28.02984        -0.000217      0.001495      0.002466
      6.97333     12.07458     26.76907         0.000012     -0.000486     -0.005279
      5.87300     11.16965     26.69621        -0.000857      0.001038      0.002255
      5.49812     10.63100     25.43643        -0.000252      0.003107      0.001049
      5.03538      9.28351     25.36355         0.000029     -0.003803      0.001994
      4.99992      8.62817     24.10369        -0.001086      0.001900     -0.007073
      5.31214      7.23881     24.03000        -0.002299     -0.002161      0.005444
      5.62267      6.66124     22.76972        -0.001005     -0.002620     -0.000570
      6.61525      5.63910     22.69644        -0.004828      0.002334     -0.000954
      7.18092      5.31067     21.43608        -0.002678     -0.000451     -0.003154
      8.56333      4.96693     21.36157         0.002006      0.005823      0.004282
      9.21655      4.99864     20.09979        -0.004072      0.007339     -0.004590
     10.56481      5.44692     20.02431         0.003728      0.007768      0.000180
     11.10549      5.82055     18.76360        -0.000503      0.004827      0.002622
     12.04228      6.89531     18.68392         0.004116      0.004019      0.000406
     12.36711      7.45034     17.43656         0.006656      0.002008     -0.006017
     12.80191      8.85507     17.34544         0.008085      0.000819      0.003409
     12.51968      9.51457     16.07295         0.010641      0.000851      0.000492
     11.34956     11.52717     33.14096        -0.001741     -0.000008      0.003403
     10.83047     11.92912     31.88106         0.003550      0.000362      0.001386
      9.50954     12.46222     31.80810        -0.000853      0.000077     -0.002373
      8.85665     12.53251     30.54802        -0.001941      0.000558     -0.002426
      7.45271     12.29244     30.47458         0.001516      0.001664      0.003080
      6.86050     12.01020     29.21417        -0.002271     -0.001677     -0.001873
      5.79158     11.06807     29.14127        -0.000476      0.000724      0.000161
      5.43624     10.51654     27.88122        -0.000351      0.000658     -0.001960
      5.01968      9.15451     27.80815         0.001954     -0.002151      0.002775
      5.00619      8.49848     26.54801         0.000712      0.001441     -0.008682
      5.36638      7.12023     26.47446        -0.001165     -0.001352      0.006814
      5.69842      6.55431     25.21472         0.000904     -0.003379      0.000317
      6.72628      5.56779     25.14176        -0.002139      0.001356     -0.002090
      7.30492      5.25945     23.88119        -0.001702      0.000070     -0.006682
      8.69686      4.95926     23.80667        -0.001019      0.002923      0.005718
      9.34985      5.00397     22.54504        -0.002672      0.004353     -0.004174
     10.69084      5.48631     22.47078         0.003794      0.004682     -0.000135
     11.21712      5.87983     21.21238         0.000845      0.004454      0.000469
     12.10371      6.99304     21.14255         0.004627      0.004883      0.004159
     12.35801      7.61406     19.88812         0.006948      0.001047     -0.006082
     12.58770      8.99936     19.83594         0.008359      0.004350     -0.000783
     12.68615      9.71003     18.56349         0.009250      0.001809      0.003885
     11.25324     11.61454     35.58558        -0.004418      0.000733      0.002693
     10.72073     11.99823     34.32544         0.004079     -0.001130      0.002683
      9.38220     12.48507     34.25259        -0.005775      0.000680     -0.002672
      8.72737     12.53251     32.99258        -0.001328     -0.000061     -0.004989
      7.33244     12.24394     32.91910        -0.000945      0.000599      0.003454
      6.75007     11.94112     31.65914         0.000423     -0.000110      0.000409
      5.71402     10.96348     31.58626         0.000663      0.001860     -0.004209
      5.37768     10.40032     30.32582        -0.001874      0.000562     -0.001611
      5.00785      9.02466     30.25266         0.001051     -0.001941      0.005434
      5.01669      8.36871     28.99278         0.001726     -0.001642     -0.007008
      5.42375      7.00353     28.91946        -0.000086     -0.001148      0.004546
      5.77592      6.44977     27.65942         0.000861     -0.002103     -0.000359
      6.83748      5.50027     27.58655        -0.004188     -0.000125      0.000082
      7.42654      5.21153     26.32635         0.000454     -0.002244     -0.007625
      8.82854      4.95894     26.25251        -0.000253      0.000049      0.005503
      9.48059      5.02287     24.99235         0.001462      0.002016     -0.001446
     10.80517      5.54701     24.91971         0.002934      0.000522     -0.002230
     11.32398      5.94888     23.65931         0.000141      0.002517     -0.002290
     12.17335      7.08979     23.58953         0.001593      0.000708      0.006852
     12.40541      7.70695     22.33088         0.005629      0.001586     -0.004757
     12.53389      9.12261     22.26371         0.006890      0.006438      0.000139
     12.43517      9.77159     21.00834         0.010329     -0.000513     -0.000562
     11.15328     11.69792     38.03016        -0.001606     -0.000728      0.002280
     10.60812     12.06331     36.77000         0.006903     -0.000728      0.001148
      9.25356     12.50373     36.69698        -0.005884      0.000072      0.001412
      8.59764     12.52843     35.43706         0.005868      0.000225     -0.005996
      7.21371     12.19170     35.36354        -0.005782      0.000031      0.006280
      6.64226     11.86872     34.10359        -0.000988     -0.000256      0.000133
      5.64021     10.85638     34.03079        -0.000189     -0.000553     -0.003897
      5.32281     10.28206     32.77063         0.000856      0.001206     -0.000920
      5.00051      8.89442     32.69732         0.000326     -0.001368      0.005283
      5.03198      8.23913     31.43737         0.001452      0.000936     -0.004966
      5.48569      6.88898     31.36431        -0.001153     -0.001770      0.000734
      5.85607      6.34757     30.10410         0.000215     -0.000585     -0.000675
      6.95036      5.43559     30.03123         0.001103      0.000609      0.001519
      7.54951      5.16829     28.77150         0.000793     -0.002078     -0.006497
      8.95944      4.96557     28.69811        -0.002640     -0.000685      0.004443
      9.60926      5.05194     27.43786        -0.000874      0.000447     -0.001408
     10.91440      5.62115     27.36521        -0.002375     -0.003633     -0.002627
     11.42077      6.03614     26.10438         0.001658      0.003164     -0.006375
     12.23088      7.20765     26.03224        -0.000761      0.000447      0.006782
     12.44232      7.82825     24.77347         0.001790      0.000337     -0.003225
     12.51805      9.25102     24.70273         0.003547      0.001386     -0.000916
     12.37379      9.89317     23.44539         0.005017     -0.002052     -0.001780
     11.05009     11.77750      0.02671        -0.002231      0.001021     -0.001748
     10.49299     12.12412     39.21462         0.003587     -0.000806     -0.000111
      9.12408     12.51768     39.14137        -0.006152     -0.000888      0.005503
      8.46783     12.51991     37.88144         0.005906     -0.000145     -0.006635
      7.09634     12.13572     37.80794        -0.005297     -0.000774      0.005681
      6.53650     11.79322     36.54797         0.001939      0.001358      0.000550
      5.57005     10.74680     36.47517        -0.001144      0.001348     -0.000366
      5.27279     10.16184     35.21526        -0.001300      0.001009     -0.007265
      4.99845      8.76417     35.14181         0.000208     -0.002148      0.006226
      5.05207      8.11025     33.88181        -0.000401      0.004669     -0.002530
      5.55208      6.77655     33.80895         0.000800     -0.003702     -0.001186
      5.94068      6.24817     32.54893        -0.000268      0.001504     -0.003488
      7.06625      5.37512     32.47588        -0.000467     -0.000180      0.003094
      7.67417      5.12934     31.21597         0.000566     -0.002177     -0.005036
      9.09013      4.97669     31.14272         0.000487     -0.000082      0.001473
      9.73638      5.08576     29.88242         0.001021     -0.001952      0.002730
     11.02146      5.69985     29.80943         0.000987     -0.003125     -0.000116
     11.51324      6.13199     28.54927         0.002953      0.002102     -0.005298
     12.28412      7.32990     28.47595        -0.003035     -0.004690      0.006624
     12.47333      7.95692     27.21604        -0.000976      0.000800     -0.002140
     12.50199      9.38074     27.14378         0.000284     -0.003215      0.000043
     12.33482     10.01557     25.88439         0.000691      0.002849     -0.003203
      8.33808     12.50665     40.32571         0.001046     -0.000667     -0.009158
      6.98053     12.07550     40.25234        -0.004987      0.001430      0.002833
      6.43309     11.71405     38.99235         0.000563      0.000641      0.000297
      5.50327     10.63497     38.91942        -0.001161      0.001244      0.002273
      5.22658     10.04005     37.65956        -0.001371      0.000413     -0.006538
      5.00066      8.63373     37.58609         0.000190     -0.000429      0.008001
      5.07702      7.98219     36.32619        -0.001747      0.003245     -0.001280
      5.62284      6.66654     36.25343         0.000097     -0.005143     -0.001655
      6.02955      6.15204     34.99343        -0.001593      0.000865     -0.004921
      7.18452      5.31864     34.92010         0.002300     -0.002075      0.005202
      7.80061      5.09422     33.66012        -0.004040     -0.001754     -0.003824
      9.22111      4.99087     33.58691         0.003241     -0.000089     -0.000346
      9.86306      5.12304     32.32677        -0.003283     -0.002834      0.002465
     11.12644      5.78071     32.25355         0.001440      0.000350      0.001642
     11.60285      6.23040     30.99338         0.001656      0.001686     -0.006465
     12.33306      7.45326     30.91966        -0.001610     -0.004296      0.005155
     12.50188      8.08626     29.65940        -0.000418      0.002210      0.000626
     12.48237      9.51067     29.58658        -0.001038     -0.002814     -0.002727
     12.29330     10.13883     28.32704        -0.002796      0.004034     -0.005829
      5.18405      9.91683     40.10372        -0.002354     -0.000333     -0.007437
      5.00690      8.50340     40.03032         0.000263      0.001494      0.004725
      5.10603      7.85484     38.77042        -0.001574      0.003124      0.001112
      5.69702      6.55886     38.69761        -0.001267     -0.000601      0.001000
      6.12138      6.05868     37.43767         0.000062      0.001427     -0.006315
      7.30452      5.26553     37.36415        -0.001739     -0.000134      0.007220
      7.92814      5.06274     36.10423        -0.003762      0.000342     -0.003644
      9.35146      5.00856     36.03114         0.001441      0.000712     -0.003698
      9.98855      5.16331     34.77097        -0.002951     -0.001182     -0.000393
     11.22852      5.86409     34.69755         0.000366      0.002663      0.000872
     11.68946      6.33026     33.43742        -0.001707     -0.002501     -0.004698
     12.37737      7.57751     33.36371        -0.001036      0.001180      0.003839
     12.52493      8.21624     32.10357        -0.000771     -0.000141      0.001752
     12.45667      9.63912     32.03051        -0.003227      0.001561      0.001535
     12.24657     10.26072     30.77057        -0.004097      0.000233     -0.006017
      6.21607      5.96872     39.88189        -0.000346     -0.000695     -0.008091
      7.42587      5.21672     39.80828        -0.003825      0.000294      0.007485
      8.05627      5.03545     38.54836        -0.000512      0.000731     -0.000658
      9.48067      5.03045     38.47536         0.001322      0.000901     -0.001013
     10.11218      5.20733     37.21525         0.000520     -0.001236     -0.002472
     11.32719      5.95068     37.14166         0.000634      0.000490      0.004054
     11.77201      6.43255     35.88161        -0.002331     -0.003421     -0.001779
     12.41647      7.70276     35.80814         0.002211      0.004193     -0.001057
     12.54219      8.34650     34.54788        -0.001222     -0.004290      0.002417
     12.42481      9.76599     34.47472         0.000962      0.001231      0.000183
     12.19418     10.38014     33.21461         0.000447     -0.001608     -0.006826
     10.23405      5.25515     39.65959        -0.002744      0.001116     -0.007574
     11.42279      6.04006     39.58587        -0.002675      0.000566      0.007645
     11.85067      6.53728     38.32586        -0.000950     -0.004055     -0.002826
     12.45121      7.82879     38.25257         0.000297      0.005935     -0.000044
     12.55481      8.47667     36.99236        -0.001086     -0.003768     -0.000302
     12.38858      9.89135     36.91903        -0.000617      0.001673      0.003867
     12.13695     10.49741     35.65907         0.001065     -0.003447     -0.004718
     12.56266      8.60690     39.43698        -0.001743     -0.003143     -0.005521
     12.34744     10.01496     39.36349        -0.000012      0.000756      0.004750
     12.07517     10.61204     38.10350        -0.000697     -0.000865     -0.004408
     14.67839      9.54312     17.95517         0.008347      0.001267     -0.000256
 -----------------------------------------------------------------------------------
    total drift:                               -0.006225      0.002967     -0.000864


--------------------------------------------------------------------------------------------------------



  FREE ENERGIE OF THE ION-ELECTRON SYSTEM (eV)
  ---------------------------------------------------
  free  energy   TOTEN  =     -3324.31459533 eV

  energy  without entropy=    -3324.31459533  energy(sigma->0) =    -3324.31459533
 


--------------------------------------------------------------------------------------------------------


    POTLOK:  cpu time      6.2147: real time      6.2166


--------------------------------------------------------------------------------------------------------


 writing wavefunctions
     LOOP+:  cpu time  13803.2776: real time  13810.4298
    4ORBIT:  cpu time      0.0000: real time      0.0000



 total charge

# of ion       s       p       d       tot
------------------------------------------
    1        0.868   1.790   0.000   2.658
    2        0.868   1.790   0.000   2.658
    3        0.868   1.790   0.000   2.658
    4        0.868   1.790   0.000   2.658
    5        0.868   1.791   0.000   2.658
    6        0.868   1.790   0.000   2.658
    7        0.868   1.790   0.000   2.658
    8        0.868   1.790   0.000   2.658
    9        0.868   1.790   0.000   2.658
   10        0.868   1.791   0.000   2.658
   11        0.868   1.790   0.000   2.658
   12        0.868   1.790   0.000   2.658
   13        0.868   1.790   0.000   2.658
   14        0.868   1.791   0.000   2.659
   15        0.868   1.790   0.000   2.658
   16        0.868   1.791   0.000   2.659
   17        0.868   1.791   0.000   2.659
   18        0.868   1.791   0.000   2.659
   19        0.868   1.790   0.000   2.658
   20        0.868   1.790   0.000   2.658
   21        0.868   1.790   0.000   2.658
   22        0.868   1.791   0.000   2.658
   23        0.868   1.790   0.000   2.658
   24        0.868   1.790   0.000   2.658
   25        0.868   1.791   0.000   2.659
   26        0.868   1.791   0.000   2.659
   27        0.868   1.791   0.000   2.658
   28        0.868   1.790   0.000   2.658
   29        0.868   1.790   0.000   2.658
   30        0.868   1.790   0.000   2.658
   31        0.868   1.790   0.000   2.658
   32        0.868   1.790   0.000   2.658
   33        0.868   1.790   0.000   2.658
   34        0.868   1.790   0.000   2.658
   35        0.868   1.790   0.000   2.658
   36        0.868   1.790   0.000   2.658
   37        0.868   1.790   0.000   2.658
   38        0.868   1.791   0.000   2.659
   39        0.868   1.791   0.000   2.658
   40        0.868   1.791   0.000   2.658
   41        0.868   1.790   0.000   2.658
   42        0.869   1.795   0.000   2.663
   43        0.868   1.791   0.000   2.660
   44        0.868   1.790   0.000   2.658
   45        0.868   1.790   0.000   2.658
   46        0.868   1.789   0.000   2.657
   47        0.868   1.790   0.000   2.657
   48        0.868   1.790   0.000   2.658
   49        0.868   1.790   0.000   2.658
   50        0.868   1.790   0.000   2.658
   51        0.868   1.790   0.000   2.658
   52        0.868   1.790   0.000   2.658
   53        0.868   1.790   0.000   2.658
   54        0.868   1.790   0.000   2.658
   55        0.868   1.790   0.000   2.658
   56        0.868   1.790   0.000   2.658
   57        0.868   1.790   0.000   2.658
   58        0.868   1.791   0.000   2.659
   59        0.868   1.790   0.000   2.658
   60        0.868   1.790   0.000   2.658
   61        0.868   1.790   0.000   2.658
   62        0.868   1.790   0.000   2.658
   63        0.868   1.793   0.000   2.661
   64        0.868   1.792   0.000   2.660
   65        0.868   1.791   0.000   2.659
   66        0.868   1.789   0.000   2.656
   67        0.868   1.790   0.000   2.657
   68        0.868   1.789   0.000   2.657
   69        0.868   1.790   0.000   2.658
   70        0.868   1.790   0.000   2.658
   71        0.868   1.790   0.000   2.658
   72        0.868   1.790   0.000   2.658
   73        0.868   1.790   0.000   2.658
   74        0.868   1.790   0.000   2.658
   75        0.868   1.790   0.000   2.658
   76        0.868   1.790   0.000   2.658
   77        0.868   1.790   0.000   2.658
   78        0.868   1.790   0.000   2.658
   79        0.868   1.790   0.000   2.658
   80        0.868   1.791   0.000   2.658
   81        0.868   1.790   0.000   2.658
   82        0.868   1.790   0.000   2.658
   83        0.868   1.790   0.000   2.658
   84        0.868   1.790   0.000   2.658
   85        0.868   1.790   0.000   2.658
   86        0.865   1.783   0.000   2.648
   87        0.868   1.787   0.000   2.655
   88        0.868   1.792   0.000   2.660
   89        0.868   1.791   0.000   2.659
   90        0.868   1.791   0.000   2.659
   91        0.868   1.790   0.000   2.658
   92        0.868   1.790   0.000   2.658
   93        0.868   1.790   0.000   2.658
   94        0.868   1.790   0.000   2.658
   95        0.868   1.790   0.000   2.658
   96        0.868   1.790   0.000   2.658
   97        0.868   1.790   0.000   2.658
   98        0.868   1.790   0.000   2.658
   99        0.868   1.790   0.000   2.658
  100        0.868   1.790   0.000   2.658
  101        0.868   1.790   0.000   2.658
  102        0.868   1.790   0.000   2.658
  103        0.868   1.790   0.000   2.658
  104        0.868   1.790   0.000   2.658
  105        0.868   1.790   0.000   2.658
  106        0.868   1.791   0.000   2.659
  107        0.868   1.790   0.000   2.658
  108        0.868   1.790   0.000   2.658
  109        0.867   1.789   0.000   2.656
  110        0.867   1.790   0.000   2.657
  111        0.868   1.792   0.000   2.660
  112        0.869   1.791   0.000   2.660
  113        0.868   1.791   0.000   2.659
  114        0.868   1.791   0.000   2.659
  115        0.868   1.791   0.000   2.659
  116        0.868   1.791   0.000   2.658
  117        0.868   1.790   0.000   2.658
  118        0.868   1.790   0.000   2.658
  119        0.868   1.790   0.000   2.658
  120        0.868   1.790   0.000   2.658
  121        0.868   1.790   0.000   2.658
  122        0.868   1.790   0.000   2.658
  123        0.868   1.790   0.000   2.658
  124        0.868   1.790   0.000   2.657
  125        0.868   1.789   0.000   2.657
  126        0.868   1.790   0.000   2.658
  127        0.868   1.790   0.000   2.658
  128        0.868   1.791   0.000   2.658
  129        0.868   1.791   0.000   2.659
  130        0.868   1.791   0.000   2.659
  131        0.868   1.791   0.000   2.659
  132        0.868   1.790   0.000   2.658
  133        0.868   1.789   0.000   2.656
  134        0.867   1.789   0.000   2.657
  135        0.868   1.791   0.000   2.659
  136        0.868   1.791   0.000   2.659
  137        0.868   1.791   0.000   2.659
  138        0.868   1.790   0.000   2.658
  139        0.868   1.790   0.000   2.658
  140        0.868   1.789   0.000   2.657
  141        0.868   1.790   0.000   2.657
  142        0.868   1.790   0.000   2.658
  143        0.868   1.790   0.000   2.658
  144        0.868   1.790   0.000   2.658
  145        0.868   1.790   0.000   2.658
  146        0.868   1.790   0.000   2.658
  147        0.868   1.790   0.000   2.658
  148        0.868   1.789   0.000   2.656
  149        0.868   1.789   0.000   2.657
  150        0.868   1.790   0.000   2.658
  151        0.868   1.791   0.000   2.658
  152        0.868   1.792   0.000   2.660
  153        0.868   1.791   0.000   2.660
  154        0.868   1.791   0.000   2.659
  155        0.868   1.791   0.000   2.659
  156        0.868   1.791   0.000   2.659
  157        0.868   1.789   0.000   2.657
  158        0.868   1.789   0.000   2.656
  159        0.868   1.790   0.000   2.658
  160        0.868   1.790   0.000   2.658
  161        0.868   1.790   0.000   2.658
  162        0.868   1.790   0.000   2.658
  163        0.868   1.790   0.000   2.658
  164        0.868   1.790   0.000   2.658
  165        0.868   1.790   0.000   2.657
  166        0.868   1.789   0.000   2.657
  167        0.868   1.789   0.000   2.657
  168        0.868   1.790   0.000   2.658
  169        0.868   1.791   0.000   2.659
  170        0.868   1.791   0.000   2.659
  171        0.868   1.791   0.000   2.658
  172        0.867   1.789   0.000   2.657
  173        0.868   1.788   0.000   2.656
  174        0.868   1.790   0.000   2.658
  175        0.869   1.793   0.000   2.662
  176        0.868   1.793   0.000   2.661
  177        0.868   1.792   0.000   2.660
  178        0.868   1.791   0.000   2.659
  179        0.868   1.791   0.000   2.659
  180        0.868   1.790   0.000   2.658
  181        0.868   1.789   0.000   2.657
  182        0.868   1.790   0.000   2.657
  183        0.868   1.790   0.000   2.658
  184        0.868   1.790   0.000   2.658
  185        0.868   1.790   0.000   2.658
  186        0.868   1.790   0.000   2.658
  187        0.868   1.790   0.000   2.658
  188        0.868   1.790   0.000   2.658
  189        0.868   1.790   0.000   2.658
  190        0.868   1.790   0.000   2.658
  191        0.868   1.790   0.000   2.658
  192        0.868   1.790   0.000   2.659
  193        0.868   1.791   0.000   2.659
  194        0.869   1.791   0.000   2.660
  195        0.868   1.791   0.000   2.660
  196        0.867   1.790   0.000   2.657
  197        0.867   1.788   0.000   2.656
  198        0.869   1.799   0.000   2.668
  199        0.870   1.795   0.000   2.665
  200        0.868   1.790   0.000   2.658
  201        0.868   1.791   0.000   2.659
  202        0.868   1.790   0.000   2.658
  203        0.868   1.790   0.000   2.658
  204        0.868   1.790   0.000   2.658
  205        0.868   1.790   0.000   2.658
  206        0.868   1.790   0.000   2.658
  207        0.868   1.790   0.000   2.658
  208        0.868   1.790   0.000   2.658
  209        0.868   1.790   0.000   2.658
  210        0.868   1.790   0.000   2.658
  211        0.868   1.790   0.000   2.658
  212        0.868   1.790   0.000   2.658
  213        0.868   1.789   0.000   2.657
  214        0.868   1.790   0.000   2.658
  215        0.868   1.791   0.000   2.659
  216        0.868   1.791   0.000   2.659
  217        0.868   1.792   0.000   2.660
  218        0.868   1.787   0.000   2.655
  219        0.865   1.783   0.000   2.648
  220        0.844   1.719   0.000   2.563
  221        0.870   1.783   0.000   2.654
  222        0.868   1.790   0.000   2.658
  223        0.868   1.790   0.000   2.658
  224        0.868   1.790   0.000   2.658
  225        0.868   1.790   0.000   2.658
  226        0.868   1.790   0.000   2.658
  227        0.868   1.790   0.000   2.658
  228        0.868   1.790   0.000   2.658
  229        0.868   1.790   0.000   2.658
  230        0.868   1.790   0.000   2.658
  231        0.868   1.790   0.000   2.658
  232        0.868   1.790   0.000   2.658
  233        0.868   1.790   0.000   2.658
  234        0.868   1.790   0.000   2.658
  235        0.868   1.790   0.000   2.658
  236        0.868   1.789   0.000   2.657
  237        0.868   1.789   0.000   2.657
  238        0.868   1.789   0.000   2.656
  239        0.868   1.791   0.000   2.659
  240        0.868   1.792   0.000   2.660
  241        0.868   1.793   0.000   2.661
  242        0.870   1.783   0.000   2.654
  243        0.844   1.719   0.000   2.563
  244        0.868   1.790   0.000   2.658
  245        0.868   1.790   0.000   2.658
  246        0.868   1.790   0.000   2.658
  247        0.868   1.790   0.000   2.658
  248        0.868   1.790   0.000   2.658
  249        0.868   1.790   0.000   2.658
  250        0.868   1.790   0.000   2.658
  251        0.868   1.790   0.000   2.658
  252        0.868   1.790   0.000   2.658
  253        0.868   1.790   0.000   2.658
  254        0.868   1.790   0.000   2.658
  255        0.868   1.790   0.000   2.658
  256        0.868   1.790   0.000   2.658
  257        0.868   1.790   0.000   2.658
  258        0.868   1.790   0.000   2.658
  259        0.868   1.789   0.000   2.657
  260        0.868   1.790   0.000   2.657
  261        0.868   1.790   0.000   2.658
  262        0.868   1.791   0.000   2.660
  263        0.869   1.795   0.000   2.663
  264        0.870   1.795   0.000   2.665
  265        0.869   1.799   0.000   2.669
  266        0.868   1.790   0.000   2.658
  267        0.868   1.790   0.000   2.658
  268        0.868   1.790   0.000   2.658
  269        0.868   1.790   0.000   2.658
  270        0.868   1.790   0.000   2.658
  271        0.868   1.790   0.000   2.658
  272        0.868   1.790   0.000   2.658
  273        0.868   1.790   0.000   2.658
  274        0.868   1.790   0.000   2.658
  275        0.868   1.790   0.000   2.658
  276        0.868   1.790   0.000   2.658
  277        0.868   1.790   0.000   2.658
  278        0.868   1.790   0.000   2.658
  279        0.868   1.790   0.000   2.658
  280        0.868   1.790   0.000   2.658
  281        0.868   1.790   0.000   2.658
  282        0.868   1.790   0.000   2.658
  283        0.868   1.790   0.000   2.658
  284        0.868   1.791   0.000   2.659
  285        0.868   1.792   0.000   2.660
  286        0.868   1.793   0.000   2.661
  287        0.869   1.794   0.000   2.663
  288        0.868   1.790   0.000   2.658
  289        0.868   1.790   0.000   2.658
  290        0.868   1.790   0.000   2.658
  291        0.868   1.790   0.000   2.658
  292        0.868   1.790   0.000   2.658
  293        0.868   1.790   0.000   2.658
  294        0.868   1.790   0.000   2.658
  295        0.868   1.791   0.000   2.658
  296        0.868   1.790   0.000   2.658
  297        0.868   1.790   0.000   2.658
  298        0.868   1.790   0.000   2.658
  299        0.868   1.790   0.000   2.658
  300        0.868   1.790   0.000   2.658
  301        0.868   1.791   0.000   2.659
  302        0.868   1.790   0.000   2.658
  303        0.868   1.791   0.000   2.658
  304        0.868   1.791   0.000   2.659
  305        0.868   1.790   0.000   2.658
  306        0.868   1.791   0.000   2.659
  307        0.868   1.791   0.000   2.659
  308        0.868   1.791   0.000   2.660
  309        0.868   1.792   0.000   2.660
  310        0.868   1.791   0.000   2.658
  311        0.868   1.790   0.000   2.658
  312        0.868   1.790   0.000   2.658
  313        0.868   1.791   0.000   2.659
  314        0.868   1.791   0.000   2.659
  315        0.868   1.791   0.000   2.659
  316        0.868   1.790   0.000   2.658
  317        0.868   1.790   0.000   2.658
  318        0.868   1.790   0.000   2.658
  319        0.868   1.791   0.000   2.659
  320        0.868   1.791   0.000   2.659
  321        0.868   1.791   0.000   2.659
  322        0.868   1.790   0.000   2.658
  323        0.868   1.791   0.000   2.659
  324        0.868   1.790   0.000   2.658
  325        0.868   1.791   0.000   2.658
  326        0.868   1.791   0.000   2.659
  327        0.868   1.791   0.000   2.659
  328        0.868   1.791   0.000   2.659
  329        0.868   1.791   0.000   2.659
  330        0.868   1.791   0.000   2.658
  331        0.868   1.791   0.000   2.659
  332        0.868   1.791   0.000   2.659
  333        0.868   1.790   0.000   2.658
  334        0.868   1.791   0.000   2.658
  335        0.868   1.791   0.000   2.659
  336        0.868   1.791   0.000   2.658
  337        0.868   1.791   0.000   2.658
  338        0.868   1.791   0.000   2.659
  339        0.868   1.791   0.000   2.658
  340        0.868   1.790   0.000   2.658
  341        0.868   1.790   0.000   2.658
  342        0.868   1.790   0.000   2.658
  343        0.868   1.790   0.000   2.658
  344        0.868   1.791   0.000   2.659
  345        0.868   1.791   0.000   2.659
  346        0.868   1.791   0.000   2.658
  347        0.868   1.790   0.000   2.658
  348        0.868   1.790   0.000   2.658
  349        0.868   1.791   0.000   2.659
  350        0.868   1.791   0.000   2.658
  351        0.868   1.790   0.000   2.658
  352        0.868   1.790   0.000   2.658
  353        0.868   1.790   0.000   2.658
  354        0.868   1.790   0.000   2.658
  355        0.868   1.790   0.000   2.658
  356        0.868   1.790   0.000   2.658
  357        0.868   1.791   0.000   2.659
  358        0.868   1.790   0.000   2.658
  359        0.868   1.790   0.000   2.658
  360        0.868   1.790   0.000   2.658
  361        0.868   1.790   0.000   2.658
  362        0.868   1.790   0.000   2.658
  363        0.868   1.790   0.000   2.658
  364        0.868   1.790   0.000   2.658
  365        1.488   2.242   0.042   3.772
--------------------------------------------------
tot        317.373 653.793   0.042 971.207
 

 total amount of memory used by VASP MPI-rank0  4517745. kBytes
=======================================================================

   base      :      30000. kBytes
   nonl-proj :    1876723. kBytes
   fftplans  :     190796. kBytes
   grid      :     282392. kBytes
   one-center:       1484. kBytes
   wavefun   :    2136350. kBytes
 
  
  
 General timing and accounting informations for this job:
 ========================================================
  
                  Total CPU time used (sec):    14485.271
                            User time (sec):    14354.980
                          System time (sec):      130.291
                         Elapsed time (sec):    14493.883
  
                   Maximum memory used (kb):     4821120.
                   Average memory used (kb):          N/A
  
                          Minor page faults:      1477538
                          Major page faults:         1337
                 Voluntary context switches:         1754
 
 PROFILE, used timers:     286
 =============================
 
 index                 routine                    time                            calls level
----------------------------------------------------------------------------------------------
    1    total_time                        14493.883415                                1   1
    2      crpa_reader                           0.000029                              1   2
    3      m_bcast_d                             0.378705                            545   2
    4      inisym                                0.005777                              1   2
    5        posmap                                0.000124                            2   3
    6      m_bcast_z                           210.844859                          18484   2
    7      stufak                                1.809630                              2   2
    8      fft3d_mpi                             0.319004                              4   2
    9        fftbrc_mpi                            0.307778                            4   3
   10          fftbas_plan_mpi                       0.307770                          4   4
   11            dfftw_execute                         0.079922                       12   5
   12            map_forward                           0.160194                        6   5
   13              map_gather                            0.014763                      3   6
   14              m_alltoallv_z                         0.064734                      3   6
   15              map_scatter                           0.080651                      3   6
   16            map_backward                          0.067232                        2   5
   17              map_gather                            0.023624                      1   6
   18              m_alltoallv_z                         0.025150                      1   6
   19              map_scatter                           0.018438                      1   6
   20      m_sumb_d                              0.758974                           8797   2
   21      spher                                 0.696113                              1   2
   22      phase                                 0.000001                              1   2
   23      setdij_                               0.077272                              2   2
   24        m_alltoall_d                          0.067575                            4   3
   25        m_sumb_d                              0.000102                            2   3
   26      vectorpot                             0.000000                              1   2
   27      proall                              274.255773                              1   2
   28        phase                                 2.698790                            2   3
   29        proj                                271.556948                            2   3
   30          proj1                               271.555607                        112   4
   31            crexp_mul_wave                       67.865751                    40880   5
   32            m_sumb_d                              0.012373                      112   5
   33      orthch                                7.656355                              1   2
   34        overl                                 0.001899                            2   3
   35        redis_proj                            1.461706                            6   3
   36          m_alltoall_d                          1.461219                        336   4
   37        redis_pw                              1.022497                            4   3
   38          m_alltoall_d                          0.680895                        224   4
   39        orth1                                 2.524953                           56   3
   40        m_alltoall_d                          0.043213                           28   3
   41        choleski                              0.127992                            2   3
   42        lincom                                2.445865                            2   3
   43      redis_pw_over_bands                   0.000001                              1   2
   44      fewald                                0.321885                              1   2
   45        rsp                                   0.004968                            1   3
   46        rcp                                   0.000294                            1   3
   47        m_sumb_d                              0.280351                            5   3
   48        m_alltoall_d                          0.034413                            2   3
   49      elmin                             10752.330198                              1   2
   50        potlok                                1.709229                            1   3
   51          fft3d_mpi                             0.951659                         13   4
   52            fftbrc_mpi                            0.900312                       13   5
   53              fftbas_plan_mpi                       0.900290                     13   6
   54                dfftw_execute                         0.267617                   39   7
   55                map_forward                           0.359626                   14   7
   56                  map_gather                            0.084762                  8   8
   57                  m_alltoallv_z                         0.113797                  8   8
   58                  map_scatter                           0.160927                  8   8
   59                map_backward                          0.272206                   12   7
   60                  map_gather                            0.101077                  6   8
   61                  m_alltoallv_z                         0.071784                  6   8
   62                  map_scatter                           0.099243                  6   8
   63          ggaall_grid                           0.352379                          1   4
   64          m_sumb_d                              0.001148                          5   4
   65          pothar                                0.026888                          1   4
   66            m_sumb_d                              0.000361                        1   5
   67          m_bcast_d                             0.054846                          1   4
   68        potlok_metagga                        0.000000                            1   3
   69        vectorpot                             0.000000                            1   3
   70        setdij_                               0.006593                            1   3
   71          m_alltoall_d                          0.002447                          2   4
   72          m_sumb_d                              0.000167                          1   4
   73        set_dd_magatom                        0.000000                            1   3
   74        set_dd_paw                            0.006218                            1   3
   75          set_rsgf_all                          0.000004                          1   4
   76          m_alltoall_d                          0.002908                          4   4
   77          m_sumb_d                              0.002490                          8   4
   78        eddav                             10749.752340                            6   3
   79          m_sumb_d                              3.010047                       8072   4
   80          phase                                15.366514                         12   4
   81          redis_proj                          143.978028                       6056   4
   82            m_alltoall_d                        143.924042                     7376   5
   83          redis_pw                             60.431075                       4716   4
   84            m_alltoall_d                         51.674856                     6036   5
   85          newband                              99.060991                       2024   4
   86            w1_copy                               0.724173                     1344   5
   87            redis_pw                              3.888150                      672   5
   88              m_alltoall_d                          3.187949                    672   6
   89            redis_proj                            0.179511                      672   5
   90              m_alltoall_d                          0.175058                    672   6
   91            fftwav_mpi                           81.846779                      672   5
   92              fft3d_mpi                            71.589197                    672   6
   93                fftbas_mpi                           71.586909                  672   7
   94                  fftbas_plan_mpi                      71.585844                672   8
   95                    dfftw_execute                        44.559386             2016   9
   96                    map_forward                          26.992888             1344   9
   97                      map_gather                            7.884721            672  10
   98                      m_alltoallv_z                         5.017005            672  10
   99                      map_scatter                           7.447737            672  10
  100            eccp                                 11.505644                      672   5
  101              m_sumb_d                              0.021205                    672   6
  102            truncate_high_frequency_w1            0.000266                      672   5
  103            setup_precond                         0.901117                      672   5
  104              m_sumb_d                              0.006391                    672   6
  105          hamiltmu                           5036.047331                       2012   4
  106            vhamil                              106.570346                     2012   5
  107            overl1                                0.317238                     2012   5
  108            vnlac0                             4686.886279                     2012   5
  109              m_sumb_d                              0.219282                   2012   6
  110              gemm                               3410.033688                 734380   6
  111              work_mul_crexp                     1271.866560                 734380   6
  112            kinhamil                            241.544909                     2012   5
  113              fftext_mpi                          240.386308                   2012   6
  114                fft3d_mpi                           224.143249                 2012   7
  115                  fftbas_mpi                          224.139903               2012   8
  116                    fftbas_plan_mpi                     224.137538             2012   9
  117                      dfftw_execute                       112.940948           6036  10
  118                      map_backward                        111.114769           4024  10
  119                        map_gather                            9.567021         2012  11
  120                        m_alltoallv_z                        96.894529         2012  11
  121                        map_scatter                           4.629725         2012  11
  122          overl                                 0.180611                       3352   4
  123          truncate_high_frequency_w1            0.001165                       2012   4
  124          w1_copy                               3.295844                       4692   4
  125          orth1                               125.438715                       6036   4
  126          lapack                                0.914628                       2012   4
  127          m_bcast_z                             0.103404                       2018   4
  128          m_bcast_d                             0.054523                       4024   4
  129          apply_precond                         2.161030                       1340   4
  130          w1_projall                         3309.270889                       1340   4
  131            proj1                              3309.262375                     1340   5
  132              crexp_mul_wave                      833.263119                 489100   6
  133              m_sumb_d                             66.509206                   1340   6
  134          m_alltoall_d                          8.667078                       3016   4
  135          ggemm                               112.200148                       2684   4
  136          fftwav_mpi                          162.955614                       1340   4
  137            fft3d_mpi                           142.081286                     1340   5
  138              fftbas_mpi                          142.077326                   1340   6
  139                fftbas_plan_mpi                     142.075150                 1340   7
  140                  dfftw_execute                        87.813539               4020   8
  141                  map_forward                          54.199033               2680   8
  142                    map_gather                           15.689260             1340   9
  143                    m_alltoallv_z                        10.011626             1340   9
  144                    map_scatter                          15.058319             1340   9
  145          pdssyex_zheevx                        1.652586                         12   4
  146            FERMAT_RAZOR                          0.000019                        1   5
  147          lincom                               30.207273                         12   4
  148        m_alltoall_d                          0.184211                           24   3
  149        densta                                0.636414                            6   3
  150          m_sumb_d                              0.633705                         46   4
  151          m_alltoall_d                          0.001593                         24   4
  152        m_sumb_d                              0.000746                           20   3
  153        m_bcast_z                             0.000092                            1   3
  154      rotate_active_occupied_orbital        0.000001                              1   2
  155      sphpro_fast                           4.478832                              2   2
  156        m_sumb_d                              0.000707                            4   3
  157        m_alltoall_d                          0.658735                           30   3
  158      force_and_stress                   2863.760200                              1   2
  159        set_charge                           13.466766                            1   3
  160          soft_charge                          13.293650                          1   4
  161            fftwav_mpi                           11.175882                       92   5
  162              fft3d_mpi                            10.369988                     92   6
  163                fftbas_mpi                           10.369800                   92   7
  164                  fftbas_plan_mpi                      10.369680                 92   8
  165                    dfftw_execute                         7.691476              276   9
  166                    map_forward                           2.674755              184   9
  167                      map_gather                            0.607435             92  10
  168                      m_alltoallv_z                         0.790447             92  10
  169                      map_scatter                           0.732170             92  10
  170            pw_charge                             1.835835                       92   5
  171            m_alltoall_d                          0.180854                      192   5
  172            fft_gq                                0.031710                        1   5
  173              fft3d_mpi                             0.029944                      1   6
  174                fftbrc_mpi                            0.027717                    1   7
  175                  fftbas_plan_mpi                       0.027717                  1   8
  176                    dfftw_execute                         0.010007                3   9
  177                    map_backward                          0.017636                2   9
  178                      map_gather                            0.005500              2  10
  179                      m_alltoallv_z                         0.010656              2  10
  180                      map_scatter                           0.001455              2  10
  181          depsum                                0.044568                          1   4
  182            m_alltoall_d                          0.042098                        4   5
  183            m_sumb_d                              0.000147                        2   5
  184          augmentation_charge                   0.125689                          1   4
  185            m_alltoall_d                          0.000583                        8   5
  186            m_sumb_d                              0.000004                        1   5
  187            fft3d_mpi                             0.101782                        1   5
  188              fftbrc_mpi                            0.101061                      1   6
  189                fftbas_plan_mpi                       0.101060                    1   7
  190                  dfftw_execute                         0.022342                  3   8
  191                  map_backward                          0.078675                  2   8
  192                    map_gather                            0.013605                1   9
  193                    m_alltoallv_z                         0.048571                1   9
  194                    map_scatter                           0.016480                1   9
  195        forloc                                1.338182                            1   3
  196          m_sumb_d                              0.000062                          1   4
  197        fornl                               360.368746                            1   3
  198          phase                                 2.615437                          2   4
  199          m_sumb_d                              0.019350                        450   4
  200        fordep                                0.028576                            1   3
  201          setdij_                               0.028332                          6   4
  202            m_alltoall_d                          0.005177                       12   5
  203            m_sumb_d                              0.000166                        6   5
  204          m_sumb_d                              0.000021                          1   4
  205        setdij_                               0.090392                           20   3
  206          m_alltoall_d                          0.013624                         40   4
  207          m_sumb_d                              0.000761                         20   4
  208        set_dd_magatom                        0.000000                            1   3
  209        set_dd_paw                            0.004109                            1   3
  210          set_rsgf_all                          0.000000                          1   4
  211          m_alltoall_d                          0.002125                          4   4
  212          m_sumb_d                              0.001197                          8   4
  213        strkin                                0.161656                            1   3
  214          m_sumb_d                              0.000034                          1   4
  215        strelo                                0.067685                            1   3
  216          m_sumb_d                              0.005343                          2   4
  217        strenl                             2472.827002                            1   3
  218          spher                                12.598134                         19   4
  219          phase                                23.997469                         18   4
  220          proj1                              2427.081130                       1008   4
  221            crexp_mul_wave                      615.596818                   367920   5
  222            m_sumb_d                              0.120916                     1008   5
  223          m_sumb_d                              8.929882                          1   4
  224        m_sumb_d                              0.000395                            6   3
  225        fft3d_mpi                             0.845769                           11   3
  226          fftbrc_mpi                            0.799455                         11   4
  227            fftbas_plan_mpi                       0.799437                       11   5
  228              dfftw_execute                         0.231712                     33   6
  229              map_forward                           0.287448                     10   6
  230                map_gather                            0.056722                    5   7
  231                m_alltoallv_z                         0.106760                    5   7
  232                map_scatter                           0.123865                    5   7
  233              map_backward                          0.279812                     12   6
  234                map_gather                            0.102344                    6   7
  235                m_alltoallv_z                         0.077963                    6   7
  236                map_scatter                           0.099343                    6   7
  237        ggaall_grid                           0.351707                            1   3
  238        forhar                                1.356402                            2   3
  239          m_sumb_d                              0.000116                          2   4
  240        strehar                               0.048190                            1   3
  241          m_sumb_d                              0.004117                          1   4
  242        chggra                                0.321179                            1   3
  243          fft3d_mpi                             0.216118                          3   4
  244            fftbrc_mpi                            0.207940                        3   5
  245              fftbas_plan_mpi                       0.207934                      3   6
  246                dfftw_execute                         0.055657                    9   7
  247                map_backward                          0.047828                    2   7
  248                  map_gather                            0.017780                  1   8
  249                  m_alltoallv_z                         0.013711                  1   8
  250                  map_scatter                           0.016319                  1   8
  251                map_forward                           0.104316                    4   7
  252                  map_gather                            0.029753                  2   8
  253                  m_alltoallv_z                         0.031643                  2   8
  254                  map_scatter                           0.042876                  2   8
  255          m_sumb_d                              0.000018                          2   4
  256          pothar                                0.028280                          1   4
  257            m_sumb_d                              0.000866                        1   5
  258        m_bcast_d                             4.544779                            2   3
  259      potlok                                1.640588                              1   2
  260        fft3d_mpi                             0.947901                           13   3
  261          fftbrc_mpi                            0.895825                         13   4
  262            fftbas_plan_mpi                       0.895808                       13   5
  263              dfftw_execute                         0.270086                     39   6
  264              map_forward                           0.339753                     14   6
  265                map_gather                            0.069183                    8   7
  266                m_alltoallv_z                         0.114711                    8   7
  267                map_scatter                           0.155716                    8   7
  268              map_backward                          0.285446                     12   6
  269                map_gather                            0.098954                    6   7
  270                m_alltoallv_z                         0.089034                    6   7
  271                map_scatter                           0.097362                    6   7
  272        ggaall_grid                           0.351595                            1   3
  273        m_sumb_d                              0.002057                            5   3
  274        pothar                                0.026872                            1   3
  275          m_sumb_d                              0.000073                          1   4
  276        m_bcast_d                             0.011858                            1   3
  277      potlok_metagga                        0.000001                              1   2
  278      set_dd_magatom                        0.000000                              1   2
  279      set_dd_paw                            0.002092                              1   2
  280        set_rsgf_all                          0.000000                            1   3
  281        m_alltoall_d                          0.000853                            4   3
  282        m_sumb_d                              0.000426                            8   3
  283      m_alltoall_d                         82.367108                         212722   2
  284      densta                                0.039152                              1   2
  285        m_sumb_d                              0.002179                           10   3
  286        m_alltoall_d                          0.019608                           52   3
 
 Flat profile
 ============
 
             routine name                   CPU           calls
 ---------------------------------------------------------------
 proj1                                4424.530929        2460
 gemm                                 3410.033688      734380
 eddav                                1634.754847           6
 crexp_mul_wave                       1516.725688      897900
 work_mul_crexp                       1271.866560      734380
 fornl                                 357.733960           1
 m_alltoall_d                          293.398222      231488
 total_time                            292.140865           1
 dfftw_execute                         253.942693       12486
 m_bcast_z                             210.948354       20503
 orth1                                 127.963668        6092
 m_alltoallv_z                         113.482121        4165
 ggemm                                 112.200148        2684
 vhamil                                106.570346        2012
 m_sumb_d                               80.545384       23306
 phase                                  44.678211          35
 map_gather                             34.366506        4165
 lincom                                 32.653138          14
 fftwav_mpi                             31.937803        2104
 map_scatter                            28.780626        4165
 map_forward                            20.628430        4256
 fftext_mpi                             16.243059        2012
 spher                                  13.294247          20
 eccp                                   11.484439         672
 redis_pw                                9.798023        5392
 force_and_stress                        7.938665           1
 m_bcast_d                               5.044711        4573
 vnlac0                                  4.766749        2012
 w1_copy                                 4.020017        6036
 sphpro_fast                             3.819390           2
 apply_precond                           2.161030        1340
 pw_charge                               1.835835          92
 stufak                                  1.809630           2
 pdssyex_zheevx                          1.652567          12
 forhar                                  1.356286           2
 forloc                                  1.338120           1
 kinhamil                                1.158601        2012
 ggaall_grid                             1.055681           3
 lapack                                  0.914628        2012
 setup_precond                           0.894727         672
 hamiltmu                                0.728559        2012
 potlok                                  0.622614           2
 overl1                                  0.317238        2012
 strenl                                  0.220387           1
 fftbas_plan_mpi                         0.183918        4162
 overl                                   0.182511        3354
 fft3d_mpi                               0.181871        4162
 strkin                                  0.161622           1
 choleski                                0.127992           2
 setdij_                                 0.112571          29
 pothar                                  0.080740           3
 chggra                                  0.076763           1
 soft_charge                             0.069369           1
 strelo                                  0.062342           1
 redis_proj                              0.058926        6734
 strehar                                 0.044073           1
 elmin                                   0.034355           1
 orthch                                  0.028229           1
 map_backward                            0.023934        4068
 augmentation_charge                     0.023320           1
 densta                                  0.018481           7
 newband                                 0.015351        2024
 w1_projall                              0.008513        1340
 fftbas_mpi                              0.005727        4116
 inisym                                  0.005653           1
 rsp                                     0.004968           1
 set_charge                              0.002859           1
 set_dd_paw                              0.002416           3
 depsum                                  0.002323           1
 fewald                                  0.001859           1
 fft_gq                                  0.001766           1
 truncate_high_frequency_w1              0.001432        2684
 proj                                    0.001341           2
 rcp                                     0.000294           1
 fordep                                  0.000222           1
 posmap                                  0.000124           2
 fftbrc_mpi                              0.000072          46
 proall                                  0.000035           1
 crpa_reader                             0.000029           1
 FERMAT_RAZOR                            0.000019           1
 set_rsgf_all                            0.000004           3
 rotate_active_occupied_orbital          0.000001           1
 potlok_metagga                          0.000001           2
 redis_pw_over_bands                     0.000001           1
 set_dd_magatom                          0.000000           3
 vectorpot                               0.000000           2
 ---------------------------------------------------------------
  summed up times     14493.88341498375     
 
 Accumulative profile
 ====================
 
             routine name                   CPU           calls
 ---------------------------------------------------------------
 total_time                          14493.883415           1
 elmin                               10752.330198           1
 eddav                               10749.752340           6
 proj1                                6007.899112        2460
 hamiltmu                             5036.047331        2012
 vnlac0                               4686.886279        2012
 gemm                                 3410.033688      734380
 w1_projall                           3309.270889        1340
 force_and_stress                     2863.760200           1
 strenl                               2472.827002           1
 crexp_mul_wave                       1516.725688      897900
 work_mul_crexp                       1271.866560      734380
 fft3d_mpi                             451.595897        4162
 fftbas_plan_mpi                       451.408228        4162
 fftbas_mpi                            448.173938        4116
 fornl                                 360.368746           1
 m_alltoall_d                          293.398222      231488
 proall                                274.255773           1
 proj                                  271.556948           2
 fftwav_mpi                            255.978275        2104
 dfftw_execute                         253.942693       12486
 kinhamil                              241.544909        2012
 fftext_mpi                            240.386308        2012
 m_bcast_z                             210.948354       20503
 redis_proj                            145.619245        6734
 orth1                                 127.963668        6092
 m_alltoallv_z                         113.482121        4165
 ggemm                                 112.200148        2684
 map_backward                          112.163604        4068
 vhamil                                106.570346        2012
 newband                                99.060991        2024
 map_forward                            85.118013        4256
 m_sumb_d                               80.545384       23306
 redis_pw                               65.341722        5392
 phase                                  44.678211          35
 map_gather                             34.366506        4165
 lincom                                 32.653138          14
 map_scatter                            28.780626        4165
 set_charge                             13.466766           1
 spher                                  13.294247          20
 soft_charge                            13.293650           1
 eccp                                   11.505644         672
 orthch                                  7.656355           1
 m_bcast_d                               5.044711        4573
 sphpro_fast                             4.478832           2
 w1_copy                                 4.020017        6036
 potlok                                  3.349817           2
 fftbrc_mpi                              3.240088          46
 apply_precond                           2.161030        1340
 pw_charge                               1.835835          92
 stufak                                  1.809630           2
 pdssyex_zheevx                          1.652586          12
 forhar                                  1.356402           2
 forloc                                  1.338182           1
 ggaall_grid                             1.055681           3
 lapack                                  0.914628        2012
 setup_precond                           0.901117         672
 densta                                  0.675566           7
 fewald                                  0.321885           1
 chggra                                  0.321179           1
 overl1                                  0.317238        2012
 setdij_                                 0.202590          29
 overl                                   0.182511        3354
 strkin                                  0.161656           1
 choleski                                0.127992           2
 augmentation_charge                     0.125689           1
 pothar                                  0.082040           3
 strelo                                  0.067685           1
 strehar                                 0.048190           1
 depsum                                  0.044568           1
 fft_gq                                  0.031710           1
 fordep                                  0.028576           1
 set_dd_paw                              0.012419           3
 inisym                                  0.005777           1
 rsp                                     0.004968           1
 truncate_high_frequency_w1              0.001432        2684
 rcp                                     0.000294           1
 posmap                                  0.000124           2
 crpa_reader                             0.000029           1
 FERMAT_RAZOR                            0.000019           1
 set_rsgf_all                            0.000004           3
 rotate_active_occupied_orbital          0.000001           1
 potlok_metagga                          0.000001           2
 redis_pw_over_bands                     0.000001           1
 set_dd_magatom                          0.000000           3
 vectorpot                               0.000000           2
 ---------------------------------------------------------------
 
Profiling took   3.322334  1.138090  0.005242  0.005184 seconds
Profiling took   3.963434 seconds
