 running  256 mpi-ranks, with    1 threads/rank, on   14 nodes
 distrk:  each k-point on   32 cores,    8 groups
 distr:  one band on    2 cores,   16 groups
 vasp.6.4.1 05Apr23 (build Jun 14 2024 13:23:31) complex                         
 POSCAR found type information on POSCAR C Se
 POSCAR found :  2 types and     365 ions
 Reading from existing POTCAR
 scaLAPACK will be used
 Reading from existing POTCAR
 -----------------------------------------------------------------------------
|                                                                             |
|               ----> ADVICE to this user running VASP <----                  |
|                                                                             |
|     You have a (more or less) 'large supercell' and for larger cells it     |
|     might be more efficient to use real-space projection operators.         |
|     Therefore, try LREAL= Auto in the INCAR file.                           |
|     Mind: If you want to do very accurate calculations, keep the            |
|     reciprocal projection scheme (i.e. LREAL=.FALSE.).                      |
|                                                                             |
 -----------------------------------------------------------------------------

 LDA part: xc-table for Pade appr. of Perdew
 found WAVECAR, reading the header
  number of k-points has changed, file:     2 present:    10
  trying to continue reading WAVECAR, but it might fail
 WARNING: stress and forces are not correct
 POSCAR, INCAR and KPOINTS ok, starting setup
 FFT: planning ... GRIDC
 FFT: planning ... GRID_SOFT
 FFT: planning ... GRID
 reading WAVECAR
 down-spin wavefunctions not read
 the WAVECAR file was read successfully
 charge-density read from file: 02_SCF                                  
 entering main loop
       N       E                     dE             d eps       ncg     rms          rms(c)
DAV:   1    -0.330812370659E+04   -0.33081E+04   -0.60819E+02 18992   0.180E+01
DAV:   2    -0.331017144952E+04   -0.20477E+01   -0.20475E+01 20240   0.461E+00
DAV:   3    -0.331023079648E+04   -0.59347E-01   -0.59344E-01 24320   0.703E-01
DAV:   4    -0.331023144170E+04   -0.64521E-03   -0.64497E-03 20592   0.808E-02
DAV:   5    -0.331023147101E+04   -0.29311E-04   -0.29184E-04 24896   0.150E-02
DAV:   6    -0.331023147177E+04   -0.75891E-06   -0.63722E-06 17584   0.228E-03
   1 F= -.33243146E+04 E0= -.33243146E+04  d E =-.785054E-24
 writing wavefunctions
 PROFILE, used timers:     286
