Ge Se
 1.0000000000000000
     4.3999999999999995    0.0000000000000000    0.0000000000000000
     0.0000000000000000    4.3499999999999996    0.0000000000000000
     0.0000000000000000    0.0000000000000000   11.1422209999999993
 Ge  Se 
   4   4
Selective dynamics
Cartesian
  0.4539545952283764  1.0874999999999999  1.4810729193259544   T   T   T
  2.6539545952283774  3.2624999999999997  4.0900375806740481   T   T   T
  3.9460454047716222  3.2624999999999997  9.6611480806740495   T   T   T
  1.7460454047716232  1.0874999999999999  7.0521834193259512   T   T   T
 -0.1224726573901787  1.0874999999999999  3.9590992886319638   T   T   T
  2.0775273426098209  3.2624999999999997  1.6120112113680383   T   T   T
  4.5224726573901775  3.2624999999999997  7.1831217113680381   T   T   T
  2.3224726573901782  1.0874999999999999  9.5302097886319626   T   T   T
