Ge Se                                   
    1.000000000000000     
    12.4655926383977977   -0.0000048109416594    0.0000014524388632
    -0.0000048204967286   12.4903493393660980   -0.0000017506389198
     0.0000016591615343   -0.0000019958398372   11.0620096193691015
   Ge   Se
    36    36
Direct
  0.0588810274692548  0.0481516065101317  0.1221128061431074
  0.2111191693594279  0.8370149829583227  0.3673368963910448
  0.5525230018126734  0.1566620684944695  0.3643312955131606
  0.5682155233226425  0.5177182890611007  0.3719228932868717
  0.5478946581031110  0.8594223050924867  0.3771808065133513
  0.8854844091760299  0.1956993283028368  0.3729978070742064
  0.8713057181877204  0.5302298681760078  0.3590144343859620
  0.8954176515525489  0.8719885845587498  0.3676003386126894
  0.0335000138706221  0.1786893126599907  0.6116637407839818
  0.0612793983533777  0.5074440910959481  0.6153107871709409
  0.0636164600957798  0.8118358357083579  0.6455466014878724
  0.3857690986615054  0.1682711019479228  0.6441191819173469
  0.4087992879883942  0.4788516231336288  0.6395727046612905
  0.3822613790975851  0.8498366239190460  0.6446547845181811
  0.7415929141836131  0.1490571357584400  0.6282188344180568
  0.7051010353030804  0.4956501654770875  0.6404593928355311
  0.2253328685028251  0.5132109271657583  0.3652755495107769
  0.2450056433356522  0.2055017344569379  0.3749888008280067
  0.7134792622542250  0.8392735887287586  0.6139366605754262
  0.8942812216826610  0.6613834310157998  0.8743999602668353
  0.9076051203384239  0.9903377480330349  0.8833642442767129
  0.0602447665647787  0.3556782233492086  0.1290499901399897
  0.0506159836824835  0.6682214609726103  0.1247397518820961
  0.3787294884601380  0.9993500080613771  0.1080860712471363
  0.4040690628988628  0.3625432361486958  0.1184593872567135
  0.7328509153675284  0.0254770241104723  0.1147078226948395
  0.6977037537237791  0.3344366614488123  0.1271075404841895
  0.3989468596669141  0.6860066346124754  0.1346753078434659
  0.2329710104020961  0.3346538677953959  0.8894573603702369
  0.2327380547411551  0.6375588232951799  0.8738870532044487
  0.2096762464800861  0.0272638612685370  0.8567303470583028
  0.5758544122848548  0.3016835810592937  0.8875464350906270
  0.5571583926809822  0.6542189084329451  0.8681994707916658
  0.5848931316672363  0.9679359657839086  0.8698571979962111
  0.8801753207175551  0.3424185725735569  0.8760000906865244
  0.7380374852359424  0.7088932155903649  0.1134051713515447
  0.9061229864496738  0.0099357799692399  0.6354542287401870
  0.2619512489265929  0.3353115688942410  0.6576488320774061
  0.2351842567893385  0.6943720052264055  0.6508863594520307
  0.5928116895944342  0.0203620112001204  0.6427443246849762
  0.5857466006790446  0.3265449445076882  0.6497855121913290
  0.5690253165349120  0.6857090400310497  0.6431115684091040
  0.9148726562226273  0.3477993302794076  0.6376046139053813
  0.7465556917965515  0.0239900941258426  0.3562440853681395
  0.0630437989932489  0.9967670774306612  0.3506343526536781
  0.0921527486438265  0.3519753787277224  0.3476116882988265
  0.0748373603412418  0.6693668885235837  0.3598434323196855
  0.4190535254431822  0.0122073291856424  0.3527273185330060
  0.4051709419481213  0.3316468129268983  0.3481470386031660
  0.4275773937696599  0.6849803895725728  0.3689483970506018
  0.2322429996567408  0.0100111786920181  0.6308244820036748
  0.9151782995729931  0.6600519843320853  0.6459087361037348
  0.9006307738315158  0.8326088127601565  0.1468777421899574
  0.2393546321100430  0.1647497046466739  0.1486249589025803
  0.9176843582252374  0.1959094329598585  0.1383350240764400
  0.7524498113278284  0.3548434185557241  0.3565587969079687
  0.0820061433109558  0.1884375972372396  0.8543276182910517
  0.0924331248454493  0.4915357519699270  0.8400686985034085
  0.0665440046403418  0.8646705807858908  0.8727525187413860
  0.4077257603751363  0.1562521057732482  0.8774048394609579
  0.4098440610587630  0.5139076989288967  0.8782124611885394
  0.4191543733803371  0.8510856580403825  0.8741527452557989
  0.7451572267349746  0.1920919876082721  0.8559790293830289
  0.7467150050182738  0.5068885024866461  0.8740076243891082
  0.7667997470104879  0.8336375742890638  0.8414485251930302
  0.2535707152848019  0.5336234281607730  0.1414329342831877
  0.2528682055987019  0.8379570484352499  0.1299989830205703
  0.5716056043023059  0.1663128134793936  0.1481714265004115
  0.5638692077597796  0.4818348932876475  0.1407318027092757
  0.5841022994519349  0.8666855099142197  0.1385650818979229
  0.9245086962344686  0.5170663540092875  0.1293383113901783
  0.7242417689230294  0.6692991663949712  0.3369102527183685
 
  0.00000000E+00  0.00000000E+00  0.00000000E+00
  0.00000000E+00  0.00000000E+00  0.00000000E+00
  0.00000000E+00  0.00000000E+00  0.00000000E+00
  0.00000000E+00  0.00000000E+00  0.00000000E+00
  0.00000000E+00  0.00000000E+00  0.00000000E+00
  0.00000000E+00  0.00000000E+00  0.00000000E+00
  0.00000000E+00  0.00000000E+00  0.00000000E+00
  0.00000000E+00  0.00000000E+00  0.00000000E+00
  0.00000000E+00  0.00000000E+00  0.00000000E+00
  0.00000000E+00  0.00000000E+00  0.00000000E+00
  0.00000000E+00  0.00000000E+00  0.00000000E+00
  0.00000000E+00  0.00000000E+00  0.00000000E+00
  0.00000000E+00  0.00000000E+00  0.00000000E+00
  0.00000000E+00  0.00000000E+00  0.00000000E+00
  0.00000000E+00  0.00000000E+00  0.00000000E+00
  0.00000000E+00  0.00000000E+00  0.00000000E+00
  0.00000000E+00  0.00000000E+00  0.00000000E+00
  0.00000000E+00  0.00000000E+00  0.00000000E+00
  0.00000000E+00  0.00000000E+00  0.00000000E+00
  0.00000000E+00  0.00000000E+00  0.00000000E+00
  0.00000000E+00  0.00000000E+00  0.00000000E+00
  0.00000000E+00  0.00000000E+00  0.00000000E+00
  0.00000000E+00  0.00000000E+00  0.00000000E+00
  0.00000000E+00  0.00000000E+00  0.00000000E+00
  0.00000000E+00  0.00000000E+00  0.00000000E+00
  0.00000000E+00  0.00000000E+00  0.00000000E+00
  0.00000000E+00  0.00000000E+00  0.00000000E+00
  0.00000000E+00  0.00000000E+00  0.00000000E+00
  0.00000000E+00  0.00000000E+00  0.00000000E+00
  0.00000000E+00  0.00000000E+00  0.00000000E+00
  0.00000000E+00  0.00000000E+00  0.00000000E+00
  0.00000000E+00  0.00000000E+00  0.00000000E+00
  0.00000000E+00  0.00000000E+00  0.00000000E+00
  0.00000000E+00  0.00000000E+00  0.00000000E+00
  0.00000000E+00  0.00000000E+00  0.00000000E+00
  0.00000000E+00  0.00000000E+00  0.00000000E+00
  0.00000000E+00  0.00000000E+00  0.00000000E+00
  0.00000000E+00  0.00000000E+00  0.00000000E+00
  0.00000000E+00  0.00000000E+00  0.00000000E+00
  0.00000000E+00  0.00000000E+00  0.00000000E+00
  0.00000000E+00  0.00000000E+00  0.00000000E+00
  0.00000000E+00  0.00000000E+00  0.00000000E+00
  0.00000000E+00  0.00000000E+00  0.00000000E+00
  0.00000000E+00  0.00000000E+00  0.00000000E+00
  0.00000000E+00  0.00000000E+00  0.00000000E+00
  0.00000000E+00  0.00000000E+00  0.00000000E+00
  0.00000000E+00  0.00000000E+00  0.00000000E+00
  0.00000000E+00  0.00000000E+00  0.00000000E+00
  0.00000000E+00  0.00000000E+00  0.00000000E+00
  0.00000000E+00  0.00000000E+00  0.00000000E+00
  0.00000000E+00  0.00000000E+00  0.00000000E+00
  0.00000000E+00  0.00000000E+00  0.00000000E+00
  0.00000000E+00  0.00000000E+00  0.00000000E+00
  0.00000000E+00  0.00000000E+00  0.00000000E+00
  0.00000000E+00  0.00000000E+00  0.00000000E+00
  0.00000000E+00  0.00000000E+00  0.00000000E+00
  0.00000000E+00  0.00000000E+00  0.00000000E+00
  0.00000000E+00  0.00000000E+00  0.00000000E+00
  0.00000000E+00  0.00000000E+00  0.00000000E+00
  0.00000000E+00  0.00000000E+00  0.00000000E+00
  0.00000000E+00  0.00000000E+00  0.00000000E+00
  0.00000000E+00  0.00000000E+00  0.00000000E+00
  0.00000000E+00  0.00000000E+00  0.00000000E+00
  0.00000000E+00  0.00000000E+00  0.00000000E+00
  0.00000000E+00  0.00000000E+00  0.00000000E+00
  0.00000000E+00  0.00000000E+00  0.00000000E+00
  0.00000000E+00  0.00000000E+00  0.00000000E+00
  0.00000000E+00  0.00000000E+00  0.00000000E+00
  0.00000000E+00  0.00000000E+00  0.00000000E+00
  0.00000000E+00  0.00000000E+00  0.00000000E+00
  0.00000000E+00  0.00000000E+00  0.00000000E+00
  0.00000000E+00  0.00000000E+00  0.00000000E+00
