Ge Se                                   
    1.000000000000000     
    12.4667902599752320    0.0000029955097767    0.0000012508240692
     0.0000030027954902   12.4971116523537695    0.0000083573466036
     0.0000014278570041    0.0000095170398335   11.0553771470466131
   Ge   Se
    36    36
Direct
  0.0464889218649560  0.0431070967858602  0.1072757335552410
  0.2357461587572587  0.8694001543031007  0.3629803326795198
  0.5707294932570335  0.2116112809729884  0.3718723783594129
  0.5732756532776548  0.5488230172712107  0.3712798510830453
  0.5793843863977628  0.8658692278882612  0.3801079343593514
  0.8964564891396165  0.2144851663069502  0.3872678872312534
  0.9025149121284599  0.5239314058274260  0.3616592155903433
  0.9085756025585425  0.8750170684646221  0.3771515005373374
  0.0834145441807479  0.1517664121995708  0.6244919512790474
  0.0724204980436625  0.4610923502943436  0.6378216660327709
  0.0788349505663533  0.8149092378667007  0.6060010720954239
  0.4228577046114097  0.1594649579649214  0.6234442642080182
  0.4067141861797055  0.5034682830100365  0.6279484748302337
  0.3963108343604063  0.8095539914041936  0.6305412718560603
  0.7257762918555741  0.1391036931539347  0.6119822091857401
  0.7472927889347147  0.4861194818104053  0.6142154076331323
  0.2462038559741515  0.5379980753535492  0.3601641435811018
  0.2425467230604639  0.1893518258008555  0.3701292483755978
  0.7563990773833709  0.8132126226491820  0.6467426286427127
  0.9081518350242206  0.6416007145683551  0.8613500594277923
  0.9172326610124060  0.0173108049697746  0.8537092607571140
  0.1145232794202045  0.3442641323760114  0.1224760777931877
  0.0755789471213149  0.6994010778542901  0.1155473783609224
  0.4328912223223540  0.0154416461269093  0.1346497450326041
  0.4197030802911144  0.3829322749291038  0.1175217187516679
  0.7462524477150581  0.0479926463351816  0.1274899656185724
  0.7196346397396809  0.3777517352751616  0.1102879096049705
  0.3998175481335977  0.7246929151050878  0.1183059109474769
  0.2592724986853980  0.3309449687429264  0.8634546515261263
  0.2350275124876617  0.6363927577326365  0.8804346970413022
  0.2352065470963467  0.9660388413696310  0.8787551056625489
  0.5688669893251728  0.3276478206986155  0.8621948920323277
  0.5873487461833946  0.6607064084459040  0.8788998576918132
  0.5524600864647198  0.9697528701056726  0.8658597589631896
  0.9040374190250517  0.3183368929673307  0.8793153259924367
  0.7590826458348587  0.6925570118217124  0.1307454809085442
  0.8925886330026671  0.0097353357965630  0.6331121910879887
  0.2327166784325101  0.3427963028970922  0.6386338080953422
  0.2243467492338596  0.6888905284437996  0.6542544767291645
  0.5528569742289022  0.0116645877113655  0.6464930653452754
  0.5715398439840200  0.3505107736783017  0.6361053331824209
  0.5456815773602415  0.6677548393404180  0.6359374834463978
  0.8888839374112862  0.3363350658840005  0.6495353358005076
  0.7497291915080808  0.0012466484428018  0.3560087216656598
  0.0538868737354576  0.0141434852883151  0.3445361580186344
  0.0543421023307644  0.3547445547190904  0.3683194521372357
  0.0776795001390980  0.6650102412505063  0.3371184600723680
  0.3889110908961726  0.0117690317629027  0.3680707275290729
  0.4208822463253128  0.3414737370739260  0.3512775041112661
  0.3898425554672684  0.6840676571753903  0.3491641215122243
  0.2330418134673664  0.0201954718414683  0.6465655077379324
  0.9022518279422016  0.6804474734401822  0.6419048227587538
  0.9142330522459758  0.8292989136785351  0.1493455827177073
  0.2224118311349130  0.1629480471189808  0.1385898023121399
  0.8782601391702087  0.1906570202145659  0.1493565943803716
  0.7428281927501104  0.3419720431745432  0.3414006011701929
  0.0779639313101796  0.1803763349825545  0.8582266608447284
  0.0727847928263898  0.5077656157785668  0.8595579406936480
  0.0600200952736003  0.8574530426698104  0.8472379164406618
  0.4046342244279657  0.1844904706388562  0.8542422719111684
  0.3973033989078303  0.5019885384838503  0.8537874652853077
  0.4051084764392812  0.8350120529105141  0.8619046369774139
  0.7239189428437811  0.1833936594472121  0.8436985856432813
  0.7302427708647059  0.5207187409208700  0.8420203509721773
  0.7201619128233219  0.8379541979482354  0.8623693937130668
  0.2533344355401113  0.5054542443721886  0.1397531262380696
  0.2204100361258625  0.8486269438425751  0.1348262543565042
  0.5666915702372748  0.1734531629025398  0.1478905695495385
  0.5613777789266052  0.5236113692680178  0.1276367773702489
  0.5637794554835054  0.8517731009299752  0.1525864359275815
  0.8818300376232102  0.5156061652900448  0.1369969803778233
  0.7154722185315876  0.6895587294533527  0.3549919148123948
 
  0.00000000E+00  0.00000000E+00  0.00000000E+00
  0.00000000E+00  0.00000000E+00  0.00000000E+00
  0.00000000E+00  0.00000000E+00  0.00000000E+00
  0.00000000E+00  0.00000000E+00  0.00000000E+00
  0.00000000E+00  0.00000000E+00  0.00000000E+00
  0.00000000E+00  0.00000000E+00  0.00000000E+00
  0.00000000E+00  0.00000000E+00  0.00000000E+00
  0.00000000E+00  0.00000000E+00  0.00000000E+00
  0.00000000E+00  0.00000000E+00  0.00000000E+00
  0.00000000E+00  0.00000000E+00  0.00000000E+00
  0.00000000E+00  0.00000000E+00  0.00000000E+00
  0.00000000E+00  0.00000000E+00  0.00000000E+00
  0.00000000E+00  0.00000000E+00  0.00000000E+00
  0.00000000E+00  0.00000000E+00  0.00000000E+00
  0.00000000E+00  0.00000000E+00  0.00000000E+00
  0.00000000E+00  0.00000000E+00  0.00000000E+00
  0.00000000E+00  0.00000000E+00  0.00000000E+00
  0.00000000E+00  0.00000000E+00  0.00000000E+00
  0.00000000E+00  0.00000000E+00  0.00000000E+00
  0.00000000E+00  0.00000000E+00  0.00000000E+00
  0.00000000E+00  0.00000000E+00  0.00000000E+00
  0.00000000E+00  0.00000000E+00  0.00000000E+00
  0.00000000E+00  0.00000000E+00  0.00000000E+00
  0.00000000E+00  0.00000000E+00  0.00000000E+00
  0.00000000E+00  0.00000000E+00  0.00000000E+00
  0.00000000E+00  0.00000000E+00  0.00000000E+00
  0.00000000E+00  0.00000000E+00  0.00000000E+00
  0.00000000E+00  0.00000000E+00  0.00000000E+00
  0.00000000E+00  0.00000000E+00  0.00000000E+00
  0.00000000E+00  0.00000000E+00  0.00000000E+00
  0.00000000E+00  0.00000000E+00  0.00000000E+00
  0.00000000E+00  0.00000000E+00  0.00000000E+00
  0.00000000E+00  0.00000000E+00  0.00000000E+00
  0.00000000E+00  0.00000000E+00  0.00000000E+00
  0.00000000E+00  0.00000000E+00  0.00000000E+00
  0.00000000E+00  0.00000000E+00  0.00000000E+00
  0.00000000E+00  0.00000000E+00  0.00000000E+00
  0.00000000E+00  0.00000000E+00  0.00000000E+00
  0.00000000E+00  0.00000000E+00  0.00000000E+00
  0.00000000E+00  0.00000000E+00  0.00000000E+00
  0.00000000E+00  0.00000000E+00  0.00000000E+00
  0.00000000E+00  0.00000000E+00  0.00000000E+00
  0.00000000E+00  0.00000000E+00  0.00000000E+00
  0.00000000E+00  0.00000000E+00  0.00000000E+00
  0.00000000E+00  0.00000000E+00  0.00000000E+00
  0.00000000E+00  0.00000000E+00  0.00000000E+00
  0.00000000E+00  0.00000000E+00  0.00000000E+00
  0.00000000E+00  0.00000000E+00  0.00000000E+00
  0.00000000E+00  0.00000000E+00  0.00000000E+00
  0.00000000E+00  0.00000000E+00  0.00000000E+00
  0.00000000E+00  0.00000000E+00  0.00000000E+00
  0.00000000E+00  0.00000000E+00  0.00000000E+00
  0.00000000E+00  0.00000000E+00  0.00000000E+00
  0.00000000E+00  0.00000000E+00  0.00000000E+00
  0.00000000E+00  0.00000000E+00  0.00000000E+00
  0.00000000E+00  0.00000000E+00  0.00000000E+00
  0.00000000E+00  0.00000000E+00  0.00000000E+00
  0.00000000E+00  0.00000000E+00  0.00000000E+00
  0.00000000E+00  0.00000000E+00  0.00000000E+00
  0.00000000E+00  0.00000000E+00  0.00000000E+00
  0.00000000E+00  0.00000000E+00  0.00000000E+00
  0.00000000E+00  0.00000000E+00  0.00000000E+00
  0.00000000E+00  0.00000000E+00  0.00000000E+00
  0.00000000E+00  0.00000000E+00  0.00000000E+00
  0.00000000E+00  0.00000000E+00  0.00000000E+00
  0.00000000E+00  0.00000000E+00  0.00000000E+00
  0.00000000E+00  0.00000000E+00  0.00000000E+00
  0.00000000E+00  0.00000000E+00  0.00000000E+00
  0.00000000E+00  0.00000000E+00  0.00000000E+00
  0.00000000E+00  0.00000000E+00  0.00000000E+00
  0.00000000E+00  0.00000000E+00  0.00000000E+00
  0.00000000E+00  0.00000000E+00  0.00000000E+00
