Ge Se                                   
    1.000000000000000     
    12.4757906179662612    0.0000048262333983   -0.0000015893592294
     0.0000048359810956   12.5009898069281409    0.0000022499059746
    -0.0000018178509112    0.0000025681730795   11.0849745412212304
   Ge   Se
    36    36
Direct
  0.0869697761735466  0.0509148916634672  0.1109908315818657
  0.2532319064438653  0.8219376187189482  0.3709897573444749
  0.5754445720437644  0.1868814334699707  0.3668212188465247
  0.6015912550862410  0.5105474385415221  0.3622850187021456
  0.5597476257028831  0.8651403675172347  0.3674717832987682
  0.9319754968880076  0.1914991302430806  0.3526806238203406
  0.8983811114051150  0.5553118482986648  0.3810547015410179
  0.9271047627597113  0.8711978257012305  0.3555507717493569
  0.0708849380571621  0.1549996455374369  0.6351988559842567
  0.0994460757942903  0.4991308025770920  0.6269877645845625
  0.0620142214036434  0.8208491542891068  0.6285659200607299
  0.3925797390003254  0.1397466871768458  0.6379454310372239
  0.4143066928992738  0.5007062438818153  0.6267846664982599
  0.4186623144605335  0.8274596800796914  0.6314309717170374
  0.7584533366694970  0.1605918306692971  0.6131018103849399
  0.7210462913537796  0.4657433848793957  0.6203095768480651
  0.2568102152877714  0.5189715257657213  0.3763727983601370
  0.2226966854939789  0.2040590171560197  0.3700725135769716
  0.7348396883670816  0.8237767553272946  0.6361921008763716
  0.8889565146347707  0.6319613020980768  0.8786484560023027
  0.9108796955109213  0.9922649645825672  0.8845683693563942
  0.0605826227050130  0.3857649349101564  0.1293080166934644
  0.0885619947617471  0.6924743764680983  0.1202920198658362
  0.3942669980977556  0.0485223654143923  0.1212639012252197
  0.4273347189993331  0.3629588417668259  0.1267702050385111
  0.7324585482696264  0.0363060645017512  0.1474150030581853
  0.7756647171507751  0.3514644845212160  0.1155869611787850
  0.4190960253008100  0.6738850351780457  0.1318420751046929
  0.2409801488088377  0.3399399130253187  0.8774667113667221
  0.2400632364840902  0.6536014382428306  0.8723011040373194
  0.2272501864852288  0.9558186015326626  0.8770694053784638
  0.5645387143765106  0.3127507216364194  0.8895942821303251
  0.5677654437637401  0.6551167137325962  0.8718695885611396
  0.5839414376651746  0.0100770508325851  0.8607933590216277
  0.9228222479855575  0.3299729491677468  0.8801327826615406
  0.7291538343269579  0.7161019347460353  0.1080234348242755
  0.9065946274747674  0.0270515422195601  0.6544540789839814
  0.2380971934927487  0.3530794839577993  0.6578826385674788
  0.2085809425483447  0.6728080902653559  0.6403046958545531
  0.5450389006357241  0.0051924069761284  0.6338172173688221
  0.5580212517571681  0.3542424350007352  0.6604988718892386
  0.5781831145808525  0.6872918199480793  0.6426094242906188
  0.8865124175600414  0.3266586607912956  0.6371095437466323
  0.7039699791280967  0.0105864223749137  0.3840987443143007
  0.0614054921836171  0.0228357919437769  0.3413973336665421
  0.0625373440987786  0.3495049740066278  0.3684579773702623
  0.0483174095203864  0.6978362152150339  0.3545454686424208
  0.3940601732845721  0.0035581205260726  0.3562697425189256
  0.3715480796174617  0.3538110923311848  0.3400432722896198
  0.3963476578058334  0.6702405442084896  0.3569916501770649
  0.2172093602847056  0.0064941075141718  0.6441466316411208
  0.8922075862389960  0.6863187906862009  0.6324429727661993
  0.8796700710953900  0.8674640882362041  0.1277441731946780
  0.2331191415944929  0.1943313971107514  0.1384580343682345
  0.8913233027508340  0.1773612773383988  0.1278723432638458
  0.7360086153432377  0.3356970269023307  0.3378388013974103
  0.0886088733490453  0.1937932851715090  0.8571165007593322
  0.0550917537618290  0.5068230126678088  0.8561353982141000
  0.0585512440705429  0.8358507712603043  0.8604356861170217
  0.3969445291495717  0.1862231289562146  0.8607019453276763
  0.3993593134998363  0.5170541509072137  0.8511577482438497
  0.3899003848194269  0.8226825348569449  0.8506962603263801
  0.7136299805531081  0.1634509859562101  0.8759140935090883
  0.7156151533076383  0.5092763971178655  0.8475865604243751
  0.7437348989143828  0.8685951992788716  0.8559154723011062
  0.2238773001402805  0.5202811441782202  0.1403064651860291
  0.2201918102310643  0.8536278857645527  0.1501237740283159
  0.5491504663355968  0.1885711640473176  0.1442722558914582
  0.5553939734700322  0.5173494772458440  0.1418458326999641
  0.5593114984810583  0.8427586290891611  0.1366158483922462
  0.9031630709353564  0.5151801656617820  0.1272290435292263
  0.7262234757946899  0.6699251478862323  0.3282795695420688
 
  0.00000000E+00  0.00000000E+00  0.00000000E+00
  0.00000000E+00  0.00000000E+00  0.00000000E+00
  0.00000000E+00  0.00000000E+00  0.00000000E+00
  0.00000000E+00  0.00000000E+00  0.00000000E+00
  0.00000000E+00  0.00000000E+00  0.00000000E+00
  0.00000000E+00  0.00000000E+00  0.00000000E+00
  0.00000000E+00  0.00000000E+00  0.00000000E+00
  0.00000000E+00  0.00000000E+00  0.00000000E+00
  0.00000000E+00  0.00000000E+00  0.00000000E+00
  0.00000000E+00  0.00000000E+00  0.00000000E+00
  0.00000000E+00  0.00000000E+00  0.00000000E+00
  0.00000000E+00  0.00000000E+00  0.00000000E+00
  0.00000000E+00  0.00000000E+00  0.00000000E+00
  0.00000000E+00  0.00000000E+00  0.00000000E+00
  0.00000000E+00  0.00000000E+00  0.00000000E+00
  0.00000000E+00  0.00000000E+00  0.00000000E+00
  0.00000000E+00  0.00000000E+00  0.00000000E+00
  0.00000000E+00  0.00000000E+00  0.00000000E+00
  0.00000000E+00  0.00000000E+00  0.00000000E+00
  0.00000000E+00  0.00000000E+00  0.00000000E+00
  0.00000000E+00  0.00000000E+00  0.00000000E+00
  0.00000000E+00  0.00000000E+00  0.00000000E+00
  0.00000000E+00  0.00000000E+00  0.00000000E+00
  0.00000000E+00  0.00000000E+00  0.00000000E+00
  0.00000000E+00  0.00000000E+00  0.00000000E+00
  0.00000000E+00  0.00000000E+00  0.00000000E+00
  0.00000000E+00  0.00000000E+00  0.00000000E+00
  0.00000000E+00  0.00000000E+00  0.00000000E+00
  0.00000000E+00  0.00000000E+00  0.00000000E+00
  0.00000000E+00  0.00000000E+00  0.00000000E+00
  0.00000000E+00  0.00000000E+00  0.00000000E+00
  0.00000000E+00  0.00000000E+00  0.00000000E+00
  0.00000000E+00  0.00000000E+00  0.00000000E+00
  0.00000000E+00  0.00000000E+00  0.00000000E+00
  0.00000000E+00  0.00000000E+00  0.00000000E+00
  0.00000000E+00  0.00000000E+00  0.00000000E+00
  0.00000000E+00  0.00000000E+00  0.00000000E+00
  0.00000000E+00  0.00000000E+00  0.00000000E+00
  0.00000000E+00  0.00000000E+00  0.00000000E+00
  0.00000000E+00  0.00000000E+00  0.00000000E+00
  0.00000000E+00  0.00000000E+00  0.00000000E+00
  0.00000000E+00  0.00000000E+00  0.00000000E+00
  0.00000000E+00  0.00000000E+00  0.00000000E+00
  0.00000000E+00  0.00000000E+00  0.00000000E+00
  0.00000000E+00  0.00000000E+00  0.00000000E+00
  0.00000000E+00  0.00000000E+00  0.00000000E+00
  0.00000000E+00  0.00000000E+00  0.00000000E+00
  0.00000000E+00  0.00000000E+00  0.00000000E+00
  0.00000000E+00  0.00000000E+00  0.00000000E+00
  0.00000000E+00  0.00000000E+00  0.00000000E+00
  0.00000000E+00  0.00000000E+00  0.00000000E+00
  0.00000000E+00  0.00000000E+00  0.00000000E+00
  0.00000000E+00  0.00000000E+00  0.00000000E+00
  0.00000000E+00  0.00000000E+00  0.00000000E+00
  0.00000000E+00  0.00000000E+00  0.00000000E+00
  0.00000000E+00  0.00000000E+00  0.00000000E+00
  0.00000000E+00  0.00000000E+00  0.00000000E+00
  0.00000000E+00  0.00000000E+00  0.00000000E+00
  0.00000000E+00  0.00000000E+00  0.00000000E+00
  0.00000000E+00  0.00000000E+00  0.00000000E+00
  0.00000000E+00  0.00000000E+00  0.00000000E+00
  0.00000000E+00  0.00000000E+00  0.00000000E+00
  0.00000000E+00  0.00000000E+00  0.00000000E+00
  0.00000000E+00  0.00000000E+00  0.00000000E+00
  0.00000000E+00  0.00000000E+00  0.00000000E+00
  0.00000000E+00  0.00000000E+00  0.00000000E+00
  0.00000000E+00  0.00000000E+00  0.00000000E+00
  0.00000000E+00  0.00000000E+00  0.00000000E+00
  0.00000000E+00  0.00000000E+00  0.00000000E+00
  0.00000000E+00  0.00000000E+00  0.00000000E+00
  0.00000000E+00  0.00000000E+00  0.00000000E+00
  0.00000000E+00  0.00000000E+00  0.00000000E+00
