Ge Se                                   
    1.000000000000000     
     4.0000000000000000    0.0000000000000000    0.0000000000000000
     0.0000000000000000    4.3499999999999996    0.0000000000000000
     0.0000000000000000    0.0000000000000000   11.1422209999999993
   Ge   Se
     4     4
Selective dynamics
Direct
  0.2500000000000000  0.1043636675844368  0.1274290372991160   T   T   T
  0.7500000000000000  0.6043636675844368  0.3725709627008840   T   T   T
  0.7500000000000000  0.8956363324155632  0.8725709627008840   T   T   T
  0.2500000000000000  0.3956363324155632  0.6274290372991160   T   T   T
  0.2500000000000000  0.9952518349818646  0.3548786884285278   T   T   T
  0.7500000000000000  0.4952518349818646  0.1451213115714722   T   T   T
  0.7500000000000000  0.0047481650181354  0.6451213115714722   T   T   T
  0.2500000000000000  0.5047481650181354  0.8548786884285278   T   T   T
 
  0.00000000E+00  0.00000000E+00  0.00000000E+00
  0.00000000E+00  0.00000000E+00  0.00000000E+00
  0.00000000E+00  0.00000000E+00  0.00000000E+00
  0.00000000E+00  0.00000000E+00  0.00000000E+00
  0.00000000E+00  0.00000000E+00  0.00000000E+00
  0.00000000E+00  0.00000000E+00  0.00000000E+00
  0.00000000E+00  0.00000000E+00  0.00000000E+00
  0.00000000E+00  0.00000000E+00  0.00000000E+00
