 C  S  O 
 1.0000000000000000
    32.3722991942999982    0.0000000000000000    0.0000000000000000
     0.0000000000000000   19.9214134216000005    0.0000000000000000
     0.0000000000000000    0.0000000000000000   40.4480476378999967
 C   S   O  
 364   1   2
Cartesian
 12.0108040493370929 10.7240574712145822  0.0997734444919332
 11.9400419029074243 10.8341408934075201  2.5453352244007279
 10.9446691924548443 11.8531201518522558  2.4718503905553635
 10.3763978792666087 12.1797488436444983  1.2112436541946547
  8.9946812580154312 12.5255971737395146  1.1376194959937664
 11.8642299010894519 10.9420442621689737  4.9906879405460689
 10.8343878820489543 11.9261147404366099  4.9167533247697977
 10.2556516748127589 12.2326693338634289  3.6560553671261360
  8.8627813807076787 12.5304204626024074  3.5818534160622062
  8.2089724926975016 12.4876329189691528  2.3216346324958010
  6.8669319426129549 12.0105349581490515  2.2482486957688228
  6.3326340910516219 11.6306442293476504  0.9881767120093049
  5.4402297327238038 10.5204801438471129  0.9149760351863578
 11.7830375333210391 11.0477648845451650  7.4358468159177722
 10.7203545304333385 11.9961401857248386  7.3613399346071171
 10.1321136028039511 12.2820938648364226  6.1005007932937652
  8.7298553587910916 12.5316348952702352  6.0259328652229600
  8.0784185122272536 12.4657080523340813  4.7656119770743297
  6.7537209070603073 11.9425259212650925  4.6922784604880139
  6.2332703706725860 11.5443836103363395  3.4321084060025564
  5.3797440831082399 10.4041494654148572  3.3587003142826219
  5.1453977582508275  9.7916457800464176  2.0989268822549523
  5.0175285490981949  8.3730496424632808  2.0255856695406966
  5.1397171678904439  7.7282416889719565  0.7658775374926139
  5.7758006849334125  6.4538067005422395  0.6929341840577272
 11.6973776820700177 11.1516201734377773  9.8806249601464504
 10.6035070658132451 12.0637833655166364  9.8055909985574328
 10.0059912667797821 12.3287344576862594  8.5446326406337434
  8.5960737515019598 12.5299162234487991  8.4699161498136526
  7.9476818436124823 12.4405530132175581  7.2094700399250105
  6.6420127743432351 11.8714744795762126  7.1363338389570856
  6.1360187739120455 11.4551721812999165  5.8761769579368863
  5.3225183121582216 10.2859746926926796  5.8027007974782849
  5.1099749669488457  9.6656109044860088  4.5427616101766031
  5.0311748578672528  8.2434419600256170  4.4695700620284757
  5.1760157720810858  7.6032580850342271  3.2097032459965300
  5.8556049426154555  6.3514931852264649  3.1366692360896855
  6.3147257151450429  5.8820496869002667  1.8771283203542530
  7.5500759790234806  5.1729601876216034  1.8038087778981113
  8.1869656654663014  5.0138166889848081  0.5439507286268165
  9.6106881382029012  5.0581264677600535  0.4711094780756119
 11.9917268687329006 10.7255087521642984 13.5864390839102267
 11.6077881334222486 11.2537865419626435 12.3250334827625494
 10.4847763935261131 12.1297303408350619 12.2496360607471821
  9.8783910675953042 12.3731707571686762 10.9885738895701692
  8.4623282411193070 12.5255184528437642 10.9139884024905172
  7.8174296720308387 12.4124793374434397  9.6535582659724035
  6.5326851717098426 11.7974675788721335  9.5806279680558468
  6.0418730105347960 11.3629647326355716  8.3205017873749227
  5.2701509685427972 10.1657971750232878  8.2471014499476460
  5.0789231607351084  9.5384895622745578  6.9869995607174697
  5.0492357525808691  8.1144318972354696  6.9139420123392723
  5.2157324569358074  7.4796728260296357  5.6538877084724879
  5.9380175570283438  6.2519977004918115  5.5805878138710456
  6.4136016461010525  5.7988458562202538  4.3210674763901826
  7.6727180401214667  5.1329246585579291  4.2480793386177442
  8.3152548383235469  4.9958483200501815  2.9884099457219264
  9.7366400601624541  5.0892876435438970  2.9159951838178220
 10.3551803880052855  5.3089754084156944  1.6559265069920870
 11.5164406968328397  6.1339083055573154  1.5826023017559026
 11.9275887724983001  6.6450091056472678  0.3219915543703059
 12.4836210155831608  7.9564120726308252  0.2489804370299884
 11.9166508102800357 10.8387293929710040 16.0302054547797574
 11.5151537638970005 11.3540548728713144 14.7689760658585527
 10.3645704279512270 12.1934193699500124 14.6936798628902228
  9.7500729578792864 12.4156887060661916 13.4326563911392309
  8.3294378306581969 12.5182882024707869 13.3585030927680197
  7.6887774437840521 12.3811969398448642 12.0980413195147261
  6.4272767999395670 11.7198060266704527 12.0252759174410144
  5.9516544619001230 11.2680166398885735 10.7652245893448537
  5.2230975311823231 10.0439935184657916 10.6920138466085106
  5.0531547499153344  9.4104771726625316  9.4317501625656615
  5.0724677272627154  7.9862242621245167  9.3586799631645885
  5.2600977294245608  7.3575920142880653  8.0984171203414714
  6.0235095127252052  6.1550919619516540  8.0247528749679748
  6.5142783500215691  5.7186656626637946  6.7650855896622728
  7.7954028741202315  5.0961649189958225  6.6923917403564426
  8.4428830560220760  4.9818790197779697  5.4329080954365025
  9.8601597290567540  5.1243093589720399  5.3607768423829709
 10.4715494776979927  5.3653146240496001  4.1010928273184861
 11.6037762991796569  6.2297029507862653  4.0282967678121242
 11.9976341328618865  6.7546716324845990  2.7678144633580692
 12.5082670484202936  8.0844280869954055  2.6950816485555666
 12.5677061953829341  8.7375478237796411  1.4342163932206096
 12.3034374166197136 10.1372181785203033  1.3604565735873833
 11.8397293650412312 10.9509448521683854 18.4729916164606855
 11.4216844612507380 11.4533299669142608 17.2124283387873049
 10.2437284455136126 12.2542502457483220 17.1379316445101679
  9.6210989976013650 12.4549881584935882 15.8770924117623053
  8.1976952020765435 12.5067997656744403 15.8035310932938859
  7.5619440283127375 12.3463953777705751 14.5429604807643997
  6.3258959126449508 11.6384672972658016 14.4702084119694039
  5.8667405197145479 11.1693588856311141 13.2102426989067290
  5.1825573073853066  9.9200101988871481 13.1372312529033461
  5.0336646476213573  9.2812791439248539 11.8767772692541893
  5.1010351898077095  7.8584831022066055 11.8035759013956003
  5.3089133864681024  7.2366387117735362 10.5430643507111075
  6.1116854110124308  6.0600218382280797 10.4690369255663445
  6.6171457007880683  5.6408363442805314  9.2091988785883423
  7.9185449304494329  5.0618934079143791  9.1366491684605062
  8.5699662124632052  4.9708459665634805  7.8772980208634600
  9.9814262186273623  5.1625764496036384  7.8054148288442029
 10.5844975867756226  5.4253830334110811  6.5461375354850659
 11.6860811660312809  6.3286249378899910  6.4740095889609410
 12.0625029671601496  6.8668373493670138  5.2137228755456864
 12.5267783522068861  8.2134863099965489  5.1410593913777003
 12.5646154099440110  8.8681590313512135  3.8802381647967619
 12.2522683230296767 10.2578984821779375  3.8061636230787519
 11.7624860870825358 11.0582696741813535 20.9172235307231063
 11.3256764393752718 11.5469117573698234 19.6569591730096498
 10.1218356433817060 12.3069644207451852 19.5831752541521702
  9.4922194028984190 12.4880125019206165 18.3221457429463825
  8.0678255989718348 12.4885858841458450 18.2491521994160522
  7.4378509485898201 12.3062704227145634 16.9885329093207531
  6.2288411244066531 11.5529213234499135 16.9155060483065469
  5.7867719673430686 11.0675559755473607 15.6554317511300400
  5.1474713939809140  9.7946855454914168 15.5825300966170026
  5.0201477188734405  9.1511833751848162 14.3220358836836592
  5.1347139291251755  7.7313884351151012 14.2486611257889138
  5.3622867524292666  7.1168737898135683 12.9879537102523965
  6.2026724260759130  5.9667755514962666 12.9137003850640752
  6.7216420156860508  5.5650300885249635 11.6534970999360166
  8.0418299955909660  5.0302753473489767 11.5809627049800348
  8.6964461138213522  4.9625480615694784 10.3217790721089191
 10.1002989715430349  5.2041924820167198 10.2499942777433439
 10.6942315298817707  5.4886477859567568  8.9910802615518239
 11.7631260842141696  6.4303891534151720  8.9196071251209741
 12.1213921770158191  6.9814301719760863  7.6595945655238413
 12.5386312863560878  8.3434355946266052  7.5868812059673019
 12.5549310312897475  8.9988475876651588  6.3261142964846409
 12.1949312410832782 10.3769905803941072  6.2517891109148893
 11.6854516938590258 11.1579053333296905 23.3606982008157971
 11.2302270301992042 11.6340129888271466 22.1021541816873111
  9.9994089417283885 12.3511752611239150 22.0290663752898084
  9.3632944130872886 12.5120125502326260 20.7685901352033078
  7.9397861882254537 12.4622761525662487 20.6955007872587693
  7.3164027807124716 12.2589605989454284 19.4344950992602179
  6.1351144093505496 11.4631703883350813 19.3609443658815579
  5.7107257433177585 10.9627184865069118 18.1005702683089957
  5.1167054555415756  9.6681499217118336 18.0276721599290042
  5.0118590774181486  9.0205586414632357 16.7672712538920621
  5.1736099502516586  7.6053733536333663 16.6937772713070025
  5.4204774383013428  6.9984866301655524 15.4329547290696230
  6.2970490544321507  5.8757907218834422 15.3587585573485264
  6.8284576900643108  5.4914484805877875 14.0981452447950257
  8.1659222259911939  5.0014789765442256 14.0254456725427090
  8.8226057733997330  4.9574382614525536 12.7662823372547027
 10.2168440045437983  5.2492830388866576 12.6945046594365518
 10.8004078477520693  5.5554210852594759 11.4358316285922132
 11.8344097118958445  6.5352747859227929 11.3648458877714642
 12.1740478559448047  7.0984329618349538 10.1052429657807199
 12.5435660917939007  8.4741281978118046 10.0323736787851594
 12.5386186850952903  9.1294723946540923  8.7716727587749617
 12.1321330810089432 10.4946019480758803  8.6971321718311803
 11.6058431069508501 11.2540291324590349 25.8046714769200598
 11.1323329920706371 11.7127252106384105 24.5463281730448308
  9.8765566351802132 12.3850373192038212 24.4742231761529325
  9.2344577615898213 12.5264086496368936 23.2143428024067831
  7.8134533990959021 12.4280823795181288 23.1413101647438459
  7.1969713696373638 12.2053875276444330 21.8804856833475085
  6.0434352080352536 11.3695907359050210 21.8064398589475879
  5.6374295577447953 10.8548756093632708 20.5458437129262954
  5.0882932154676555  9.5407530779656717 20.4727741176718858
  5.0069198728097577  8.8898635410892535 19.2123033892372028
  5.2157728765253299  7.4810003677401067 19.1387797890077849
  5.4828697289379429  6.8823224050629452 17.8781788062853657
  6.3952416432517509  5.7883906577251638 17.8044122022358486
  6.9381398132243657  5.4209902340676228 16.5434653951966162
  8.2912057456005375  4.9757638632006183 16.4704011639051444
  8.9488040611056725  4.9554253997080435 15.2108450165923674
 10.3313821204715861  5.2980645263316886 15.1387664691140493
 10.9034923217633484  5.6257014012568920 13.8803767611464757
 11.9010158297594622  6.6428479767034396 13.8095717980747086
 12.2203705485443859  7.2178643571835890 12.5503580904855614
 12.5418782983671893  8.6054115059785730 12.4772627167578687
 12.5156378563040072  9.2600741959314501 11.2167119719434414
 12.0642282265449321 10.6108503567028318 11.1420380708875353
 11.5236689187741792 11.3475994114081846 28.2490622358141152
 11.0331101692115574 11.7879248233824985 26.9905243990440873
  9.7536467121548753 12.4140777272009188 26.9190101526854200
  9.1064511889181876 12.5329478654495343 25.6596014593014274
  7.6894774355438580 12.3871508013929965 25.5866216848909076
  7.0800638246607832 12.1451391051456419 24.3260406849403772
  5.9542026634571119 11.2725890108895523 24.2518184522578721
  5.5657855243976941 10.7449618045963806 22.9909152565720554
  5.0609834870818986  9.4131043496841205 22.9177496795846984
  5.0032515532306903  8.7595817989667069 21.6574527677738295
  5.2603962090302883  7.3586124646164421 21.5840871018315710
  5.5485321926594589  6.7690327159466461 20.3237275434617146
  6.4975110618562457  5.7068225300097515 20.2506240961090498
  7.0516886254787519  5.3562741828610498 18.9894565023916293
  8.4188579491619695  4.9568119524822825 18.9160257338499562
  9.0754979483436991  4.9570040566389988 17.6557140065365630
 10.4448924011210682  5.3493817796452854 17.5828356420852892
 11.0039544363585122  5.6993660700379811 16.3246464037026051
 11.9634398741639085  6.7525269619001360 16.2533597901853071
 12.2623375637982921  7.3389314976503197 14.9945909906704991
 12.5352958134364769  8.7367893718191798 14.9212787964633335
 12.4872066558783992  9.3901711384135869 13.6611250285714370
 11.4377507228400201 11.4389879591212367 30.6937516997487236
 10.9316486870429337 11.8604714454026805 29.4348776055000059
  9.6303979381741076 12.4400834260751978 29.3635413395728051
  8.9790664648319432 12.5354876804763844 28.1043401435899085
  7.5678636945536688 12.3423325327357478 28.0313576176577328
  6.9660000394395158 12.0804931680167300 26.7711460130084298
  5.8686967563632475 11.1723382920205871 26.6971166326163072
  5.4971017895556615 10.6326058652727902 25.4362099410230122
  5.0366276447084219  9.2847189740018106 25.3629102109423563
  5.0018866011351895  8.6295558969352477 24.1025615553526542
  5.3081493325426923  7.2385110862468123 24.0293587736888625
  5.6172082430074299  6.6591310732489895 22.7692551494105295
  6.6033339666768311  5.6310902209720366 22.6967348667663842
  7.1688908169159946  5.2988949190142698 21.4360106065329461
  8.5492609054213808  4.9473659316819836 21.3625420247269702
  9.2042798665599559  4.9677279684640414 20.1014858036429871
 10.5582628539085022  5.4080812424133287 20.0281085713176168
 11.1023302023545760  5.7758808011351706 18.7681110814263015
 12.0181078694975660  6.8652735014888178 18.6950264656069862
 12.2986270407263270  7.4614399376561069 17.4377942390717742
 12.5238224131441989  8.8687876157195777 17.3642872085821978
 12.4546793626183128  9.5199515180233920 16.1044598434729664
 11.3473487421632075 11.5278027898662199 33.1386556134556614
 10.8270515570344692 11.9305322310118740 31.8793459196673581
  9.5061070004163355 12.4635666193404120 31.8078628124944096
  8.8519855226084143 12.5353003006471386 30.5486926856801055
  7.4480938989577705 12.2945460835019293 30.4757498616714386
  6.8550198824653803 12.0126122557842478 29.2158946533289807
  5.7875415793760867 11.0695372134684877 29.1422883023605870
  5.4329490121900923 10.5179971299933701 27.8815991575438815
  5.0173206150313900  9.1556085667454994 27.8081781051349033
  5.0045197805054720  8.4997109007632510 26.5478071718962489
  5.3603794745683695  7.1204821141119812 26.4747325238053506
  5.6900954164417783  6.5526596798733632 25.2147316840601263
  6.7134238680156928  5.5617500629086454 25.1424491661567835
  7.2898212134157552  5.2491227382610122 23.8819920678069515
  8.6818634664560488  4.9475744707596219 23.8081438931818603
  9.3347200441418554  4.9881974797697071 22.5471788833568638
 10.6733207211975980  5.4748333986489595 22.4732230432478914
 11.2019091264556359  5.8586789596190183 21.2124722852730159
 12.0780461854817300  6.9803739521480859 21.1393797100506617
 12.3243816363044889  7.5866702048631796 19.8795029850088447
 12.5039023733384873  9.0010328506638491 19.8059270498401325
 12.4156512840384767  9.6495822764688466 18.5456184961551926
 11.2529731470738046 11.6142509019469031 35.5838762739261369
 10.7195456791140629 11.9981150983266396 34.3240764127437572
  9.3807708053447172 12.4846370319165416 34.2522231855103527
  8.7248519780468108 12.5327455277627866 32.9929331071737622
  7.3299898091505149 12.2441644652831769 32.9199160922206389
  6.7465549956922617 11.9418905586923483 31.6603387067977486
  5.7106947426036614 10.9641822043102444 31.5871814081629267
  5.3740152601370017 10.4012259435567671 30.3267814360680674
  5.0044298238720613  9.0256395293764928 30.2533156009108666
  5.0132917674574937  8.3698686276255767 28.9930129067216420
  5.4183849423344288  7.0042823392315503 28.9200064221374831
  5.7680421169583713  6.4491341090962448 27.6598714922417166
  6.8275727459827085  5.4971057478302878 27.5873569866544202
  7.4145292553999083  5.2059060261915429 26.3270935535896591
  8.8164640162277426  4.9545929751729059 26.2528128400221981
  9.4667530491660496  5.0178217621651999 24.9917466197943199
 10.7883004474443194  5.5487120767867903 24.9170684048851960
 11.3038764867073880  5.9491130028527799 23.6557293406116784
 12.1482600654454505  7.0961208296137812 23.5813238608489186
 12.3742673125132683  7.7105357212981867 22.3213034262198100
 12.5033287600655303  9.1298280382074921 22.2482444505167969
 12.3808196676568834  9.7764860484735419 20.9905907872372062
 11.1542323294729648 11.6973841617056085 38.0292425680232853
 10.6084769938570034 12.0625164490886565 36.7690541678866296
  9.2537360469379077 12.5025650238677830 36.6966566029998944
  8.5970995961583974 12.5274942929792896 35.4371038055117111
  7.2130707095571811 12.1910490307250239 35.3639840723362866
  6.6405866701351020 11.8685983061770539 34.1044743206544894
  5.6382511505867896 10.8565374118363742 34.0316213957627127
  5.3201023590264942 10.2824307691929686 32.7716434745791148
  4.9976882375378571  8.8950131485423327 32.6980907915312571
  5.0285052279252032  8.2399832545815954 31.4379270285771319
  5.4818224695652269  6.8896729748647356 31.3649490850620261
  5.8508131750094039  6.3479144976904482 30.1046722967735008
  6.9443581289315537  5.4352278884871179 30.0316865704587528
  7.5415683598840708  5.1664679009155048 28.7714608270124899
  8.9514783842178005  4.9649286686799963 28.6969397949426828
  9.5991263033185881  5.0511403621118225 27.4358650873762890
 10.9028402168284160  5.6244478749005253 27.3609148618193636
 11.4046634399022615  6.0416835661840107 26.0994531056352379
 12.2127465240199626  7.2146179698819406 26.0243825826699009
 12.4193530894035433  7.8359138820042364 24.7641366971418222
 12.4992941034636331  9.2581978150071311 24.6912539588999209
 12.3541725554185824  9.9002580091356283 23.4326985141430804
 11.0513977777009842 11.7769315164027653  0.0266118121902017
 10.4941873594528872 12.1232518727817524 39.2141880472224358
  9.1251219857289971 12.5164735693049956 39.1411719458168719
  8.4686028807324742 12.5187503563508820 37.8813518555567867
  7.0969581315704362 12.1348002094589340 37.8081047535482995
  6.5364287652228574 11.7925766651493884 36.5484742712495887
  5.5695983746533537 10.7465906413203314 36.4756954609062802
  5.2714237874717558 10.1618446532655771 35.2160011559475805
  4.9969081237302229  8.7642666709919723 35.1424041268953218
  5.0498235767106738  8.1105867457969545 33.8824417037793211
  5.5501836876517441  6.7770511154567954 33.8094522283783832
  5.9379203224518955  6.2488964925580408 32.5491940442088037
  7.0635724808900342  5.3761275200783292 32.4757601839901184
  7.6699354837859062  5.1297648149467365 31.2154251509533580
  9.0860375332591303  4.9775731308328686 31.1409419140378745
  9.7304143364270423  5.0869289101733131 29.8799110083327335
 11.0147576563577516  5.7024510099030739 29.8049826709089096
 11.5032698313187094  6.1361436996394687 28.5436592225938810
 12.2731944469283540  7.3344536710561092 28.4685320849082402
 12.4594753959609097  7.9622589955755645 27.2079523517491424
 12.4899490468665277  9.3863474076767961 27.1352674544127090
 12.3214929054794471 10.0222351874952835 25.8761335083602475
  8.3392753690856622 12.5054549480655410 40.3255742344480126
  6.9816896124781662 12.0745183588345721 40.2522286151837676
  6.4339213612968615 11.7132816720007469 38.9923763606243412
  5.5037805448723152 10.6345504920087599 38.9194417236475161
  5.2264842718054840 10.0397353541330254 37.6598734160602788
  5.0005271378589020  8.6335007875006848 37.5862996677973698
  5.0764008154747309  7.9820838889810508 36.3265039962404259
  5.6227377392955988  6.6667481602879564 36.2535541927445664
  6.0288670002940554  6.1526520879284385 34.9933929752389261
  7.1842674587702673  5.3197721210714342 34.9196440181405592
  7.7993399770225809  5.0956260627009975 33.6593015219816394
  9.2198501803665138  4.9923958274851223 33.5850931513755313
  9.8603652109742743  5.1246022531912745 32.3241313702006892
 11.1236023329150111  5.7824871311738271 32.2494725468526937
 11.5979259109346700  6.2326166345823877 30.9882952967922591
 12.3277970773183601  7.4558111574807224 30.9134776379183478
 12.4939174684357344  8.0895688589820232 29.6527195437980886
 12.4751112211989632  9.5139541604947748 29.5801789661407746
 12.2845213418404100 10.1432748187903279 28.3206354579797868
  5.1845875041575074  9.9162605106512363 40.1034176189683933
  5.0074844204235749  8.5030039927930723 40.0299178854802307
  5.1065572653627864  7.8544346856825156 38.7702368747344508
  5.6980540832176150  6.5587638764126677 38.6973206661747540
  6.1222767692953370  6.0589621771002085 37.4373728826927561
  7.3058024054693593  5.2664339745244284 37.3635642574794247
  7.9288131685152585  5.0641062261692422 36.1033118561994968
  9.3521127253667480  5.0100562563973323 36.0295372572302526
  9.9882049027353208  5.1647569344338518 34.7687201439741784
 11.2284338769112448  5.8652900733938864 34.6943852695152941
 11.6879640675595624  6.3315417427276248 33.4333712560960237
 12.3759784057122726  7.5787939038462362 33.3590093510175123
 12.5216165484463886  8.2178568344566969 32.0981253402793456
 12.4533529995377066  9.6407437335560111 32.0255274208438578
 12.2418395530157174 10.2630374055731686 30.7656877530514166
  6.2177786077928570  5.9688063336862847 39.8812965806181197
  7.4278776678652561  5.2174449294993570 39.8076642180292666
  8.0580586846001179  5.0365132978174785 38.5475745449321607
  9.4824826826795618  5.0316804988082726 38.4743276621603769
 10.1133985082725903  5.2086211730750511 37.2136818913685090
 11.3286596112537268  5.9516006464353177 37.1396326584941363
 11.7727446825649444  6.4332816055682072 35.8787605593136050
 12.4174823889123971  7.7034117509466853 35.8048977312736483
 12.5421670657634312  8.3470823029848304 34.5439367272563516
 12.4244344849279216  9.7667078881324123 34.4711664305248746
 12.1923887971687268 10.3809761688749269 33.2109936149257621
 10.2360186620437243  5.2563162323211383 39.6588111541282444
 11.4249583555219498  6.0409191380341447 39.5850785245153887
 11.8525942049456550  6.5377845059755204 38.3243389275122297
 12.4534179618194916  7.8292705861720862 38.2509512117242707
 12.5564516477603512  8.4769014218049250 36.9899797209111227
 12.3898261854778440  9.8916056946407451 36.9169169649593414
 12.1373103974044412 10.4974901448521560 35.6565511329646441
 12.5649744436453474  8.6070965876322081 39.4360929223426311
 12.3493754867994792 10.0151390991578690 39.3626916035326175
 12.0767367050924381 10.6119042127291490 38.1021787158398269
 15.5013148204974591  7.9916289511438574 20.2356191675279931
 15.6532987319914412  6.7095327245714067 19.5757625797964572
 16.0176310914491324  9.1774440152197752 19.5804396481620699
