Ge Se                                   
    1.000000000000000     
     3.8581001759000002    0.0000000000000000    0.0000000000000000
     0.0000000000000000    4.5265750884999996    0.0000000000000000
     0.0000000000000000    0.0000000000000000    7.0851764679000002
   Ge   Se
     4     4
Direct
  0.2500000000064801  0.1156418993976018  0.1932860463256603
  0.7500000000194404  0.8843581080031413  0.0889934319853154
  0.7500000000194404  0.6156418920520892  0.5889934319782526
  0.2500000000064801  0.3843581080583647  0.6932860580473132
  0.2500000000064801  0.5049489736306185  0.0517105563650944
  0.7500000000194404  0.4950509668320962  0.2305688869432174
  0.7500000000194404  0.0049490225086330  0.7305689336675343
  0.2500000000064801  0.9950510264246120  0.5517106030752927
 
  0.00000000E+00  0.00000000E+00  0.00000000E+00
  0.00000000E+00  0.00000000E+00  0.00000000E+00
  0.00000000E+00  0.00000000E+00  0.00000000E+00
  0.00000000E+00  0.00000000E+00  0.00000000E+00
  0.00000000E+00  0.00000000E+00  0.00000000E+00
  0.00000000E+00  0.00000000E+00  0.00000000E+00
  0.00000000E+00  0.00000000E+00  0.00000000E+00
  0.00000000E+00  0.00000000E+00  0.00000000E+00
