 running  256 mpi-ranks, with    1 threads/rank, on    7 nodes
 distrk:  each k-point on  128 cores,    2 groups
 distr:  one band on    4 cores,   32 groups
 vasp.6.4.1 05Apr23 (build May 18 2023 13:19:41) complex                         
 POSCAR found type information on POSCAR C 
 POSCAR found :  1 types and     364 ions
 Reading from existing POTCAR
 -----------------------------------------------------------------------------
|                                                                             |
|           W    W    AA    RRRRR   N    N  II  N    N   GGGG   !!!           |
|           W    W   A  A   R    R  NN   N  II  NN   N  G    G  !!!           |
|           W    W  A    A  R    R  N N  N  II  N N  N  G       !!!           |
|           W WW W  AAAAAA  RRRRR   N  N N  II  N  N N  G  GGG   !            |
|           WW  WW  A    A  R   R   N   NN  II  N   NN  G    G                |
|           W    W  A    A  R    R  N    N  II  N    N   GGGG   !!!           |
|                                                                             |
|     You use a magnetic or noncollinear calculation, but did not specify     |
|     the initial magnetic moment with the MAGMOM tag. Note that a            |
|     default of 1 will be used for all atoms. This ferromagnetic setup       |
|     may break the symmetry of the crystal, in particular it may rule        |
|     out finding an antiferromagnetic solution. Thence, we recommend         |
|     setting the initial magnetic moment manually or verifying carefully     |
|     that this magnetic setup is desired.                                    |
|                                                                             |
 -----------------------------------------------------------------------------

 scaLAPACK will be used
 Reading from existing POTCAR
 -----------------------------------------------------------------------------
|                                                                             |
|               ----> ADVICE to this user running VASP <----                  |
|                                                                             |
|     You have a (more or less) 'large supercell' and for larger cells it     |
|     might be more efficient to use real-space projection operators.         |
|     Therefore, try LREAL= Auto in the INCAR file.                           |
|     Mind: If you want to do very accurate calculations, keep the            |
|     reciprocal projection scheme (i.e. LREAL=.FALSE.).                      |
|                                                                             |
 -----------------------------------------------------------------------------

 LDA part: xc-table for Pade appr. of Perdew
 POSCAR, INCAR and KPOINTS ok, starting setup
 FFT: planning ... GRIDC
 FFT: planning ... GRID_SOFT
 FFT: planning ... GRID
 WAVECAR not read
 WARNING: chargedensity file is incomplete
 WARNING: random wavefunctions but no delay for mixing, default for NELMDL
 entering main loop
       N       E                     dE             d eps       ncg     rms          rms(c)
DAV:   1     0.131266397028E+05    0.13127E+05   -0.44855E+05  9088   0.922E+02
DAV:   2     0.199693839249E+03   -0.12927E+05   -0.12136E+05 10624   0.237E+02
DAV:   3    -0.319932256884E+04   -0.33990E+04   -0.33499E+04  9024   0.130E+02
DAV:   4    -0.338427330043E+04   -0.18495E+03   -0.18199E+03  8672   0.387E+01
DAV:   5    -0.338933211579E+04   -0.50588E+01   -0.50001E+01  9664   0.573E+00    0.116E+02
DAV:   6    -0.228895627826E+04    0.11004E+04   -0.17216E+03  7552   0.355E+01    0.643E+01
DAV:   7    -0.248717893332E+04   -0.19822E+03   -0.20543E+02  7904   0.136E+01    0.421E+01
DAV:   8    -0.261119440215E+04   -0.12402E+03   -0.91077E+01  8000   0.861E+00    0.317E+01
DAV:   9    -0.276568917449E+04   -0.15449E+03   -0.38083E+01  7776   0.605E+00    0.264E+01
DAV:  10    -0.299507051558E+04   -0.22938E+03   -0.17191E+02  7520   0.105E+01    0.191E+01
DAV:  11    -0.312924134170E+04   -0.13417E+03   -0.99837E+01  7680   0.742E+00    0.153E+01
DAV:  12    -0.320032453642E+04   -0.71083E+02   -0.31445E+01  7872   0.426E+00    0.130E+01
DAV:  13    -0.323627237487E+04   -0.35948E+02   -0.15225E+01  7776   0.298E+00    0.102E+01
DAV:  14    -0.324272653375E+04   -0.64542E+01   -0.28579E+00  7456   0.150E+00    0.862E+00
DAV:  15    -0.326475660584E+04   -0.22030E+02   -0.44038E+00  7488   0.160E+00    0.630E+00
DAV:  16    -0.328558715163E+04   -0.20831E+02   -0.27892E+00  7936   0.122E+00    0.467E+00
DAV:  17    -0.328418568379E+04    0.14015E+01   -0.53693E-01  7616   0.931E-01    0.348E+00
DAV:  18    -0.328568072217E+04   -0.14950E+01   -0.56952E-01  7712   0.883E-01    0.207E+00
DAV:  19    -0.329074897808E+04   -0.50683E+01   -0.41532E-01  7584   0.805E-01    0.119E+00
DAV:  20    -0.329563692514E+04   -0.48879E+01   -0.16219E-01  7456   0.527E-01    0.789E-01
DAV:  21    -0.330023031858E+04   -0.45934E+01   -0.10264E-01  7712   0.434E-01    0.494E-01
DAV:  22    -0.330330242218E+04   -0.30721E+01   -0.75545E-02  7872   0.335E-01    0.302E-01
DAV:  23    -0.330489632672E+04   -0.15939E+01   -0.37273E-02  7904   0.233E-01    0.179E-01
DAV:  24    -0.330549001945E+04   -0.59369E+00   -0.16757E-02  8032   0.149E-01    0.969E-02
DAV:  25    -0.330567510076E+04   -0.18508E+00   -0.57640E-03  8000   0.795E-02    0.510E-02
DAV:  26    -0.330575263947E+04   -0.77539E-01   -0.12116E-03  8096   0.416E-02    0.264E-02
DAV:  27    -0.330577982269E+04   -0.27183E-01   -0.26258E-04  8096   0.218E-02    0.149E-02
DAV:  28    -0.330578894518E+04   -0.91225E-02   -0.78715E-05  7808   0.115E-02    0.898E-03
DAV:  29    -0.330579387005E+04   -0.49249E-02   -0.35320E-05  8064   0.723E-03    0.457E-03
DAV:  30    -0.330579550049E+04   -0.16304E-02   -0.14263E-05  6880   0.399E-03    0.305E-03
DAV:  31    -0.330579624777E+04   -0.74728E-03   -0.62673E-06  6592   0.250E-03    0.169E-03
DAV:  32    -0.330579653052E+04   -0.28275E-03   -0.33871E-06  6368   0.170E-03    0.924E-04
DAV:  33    -0.330579656785E+04   -0.37330E-04   -0.22476E-07  5120   0.792E-04    0.673E-04
DAV:  34    -0.330579659097E+04   -0.23126E-04   -0.64635E-08  4896   0.551E-04    0.394E-04
DAV:  35    -0.330579660840E+04   -0.17430E-04   -0.91188E-09  4896   0.396E-04    0.336E-04
DAV:  36    -0.330579662121E+04   -0.12806E-04    0.59479E-08  4544   0.302E-04    0.192E-04
DAV:  37    -0.330579663322E+04   -0.12009E-04    0.77430E-08  4512   0.252E-04    0.122E-04
DAV:  38    -0.330579663927E+04   -0.60474E-05    0.98021E-08  4640   0.185E-04    0.881E-05
DAV:  39    -0.330579664087E+04   -0.16037E-05    0.10956E-07  4480   0.117E-04    0.428E-05
DAV:  40    -0.330579664146E+04   -0.58924E-06    0.11640E-07  4384   0.707E-05
   1 F= -.33197215E+04 E0= -.33197215E+04  d E =-.331972E+04  mag=     0.0000
 BRION: g(F)=  0.221E+02 g(S)=  0.000E+00
 bond charge predicted
       N       E                     dE             d eps       ncg     rms          rms(c)
DAV:   1    -0.328557668171E+04    0.20220E+02   -0.29526E+03  7744   0.582E+01    0.109E+01
DAV:   2    -0.329097757466E+04   -0.54009E+01   -0.85979E+01  8576   0.950E+00    0.875E+00
DAV:   3    -0.328916803176E+04    0.18095E+01   -0.65481E+00  8256   0.294E+00    0.314E+00
DAV:   4    -0.328910821445E+04    0.59817E-01   -0.14396E+00  8896   0.121E+00    0.914E-01
DAV:   5    -0.328911207077E+04   -0.38563E-02   -0.10825E-01  9024   0.394E-01    0.384E-01
DAV:   6    -0.328911296227E+04   -0.89150E-03   -0.15366E-02  8320   0.150E-01    0.140E-01
DAV:   7    -0.328911339598E+04   -0.43371E-03   -0.17932E-03  8768   0.481E-02    0.447E-02
DAV:   8    -0.328911354903E+04   -0.15305E-03   -0.26805E-04  8192   0.244E-02    0.182E-02
DAV:   9    -0.328911368788E+04   -0.13884E-03   -0.11882E-04  8128   0.124E-02    0.843E-03
DAV:  10    -0.328911372771E+04   -0.39834E-04   -0.66192E-06  8384   0.406E-03    0.605E-03
DAV:  11    -0.328911378026E+04   -0.52552E-04   -0.39498E-06  6752   0.376E-03    0.348E-03
DAV:  12    -0.328911385272E+04   -0.72460E-04   -0.49062E-06  6976   0.272E-03    0.194E-03
DAV:  13    -0.328911387648E+04   -0.23755E-04   -0.68076E-07  5696   0.104E-03    0.163E-03
DAV:  14    -0.328911390668E+04   -0.30200E-04   -0.12039E-06  5856   0.137E-03    0.855E-04
DAV:  15    -0.328911392374E+04   -0.17062E-04   -0.60274E-07  5248   0.806E-04    0.110E-03
DAV:  16    -0.328911393159E+04   -0.78477E-05   -0.33735E-08  5056   0.769E-04    0.437E-04
DAV:  17    -0.328911393919E+04   -0.76032E-05   -0.15352E-07  4768   0.677E-04    0.531E-04
DAV:  18    -0.328911394305E+04   -0.38643E-05    0.30028E-08  4832   0.399E-04    0.297E-04
DAV:  19    -0.328911394531E+04   -0.22544E-05    0.51763E-08  4224   0.338E-04    0.154E-04
DAV:  20    -0.328911394632E+04   -0.10092E-05    0.95720E-08  4544   0.189E-04    0.102E-04
DAV:  21    -0.328911394693E+04   -0.60839E-06    0.11091E-07  4224   0.115E-04
   2 F= -.33030278E+04 E0= -.33030278E+04  d E =0.166937E+02  mag=     0.0000
 BRION: g(F)=  0.105E+03 g(S)=  0.000E+00 retain N=  1 mean eig= 0.28
 eig:   0.280
 bond charge predicted
       N       E                     dE             d eps       ncg     rms          rms(c)
DAV:   1    -0.330403329194E+04   -0.14919E+02   -0.13111E+03  7808   0.400E+01    0.715E+00
DAV:   2    -0.330696002033E+04   -0.29267E+01   -0.44554E+01  8832   0.688E+00    0.586E+00
DAV:   3    -0.330610000279E+04    0.86002E+00   -0.34403E+00  8320   0.213E+00    0.199E+00
DAV:   4    -0.330608983036E+04    0.10172E-01   -0.67888E-01  8736   0.820E-01    0.599E-01
DAV:   5    -0.330609217477E+04   -0.23444E-02   -0.51006E-02  8896   0.256E-01    0.222E-01
DAV:   6    -0.330609281067E+04   -0.63590E-03   -0.48699E-03  8416   0.801E-02    0.895E-02
DAV:   7    -0.330609320684E+04   -0.39617E-03   -0.68439E-04  8256   0.293E-02    0.258E-02
DAV:   8    -0.330609343662E+04   -0.22978E-03   -0.10461E-04  8192   0.120E-02    0.119E-02
DAV:   9    -0.330609358634E+04   -0.14972E-03   -0.23607E-05  8256   0.543E-03    0.698E-03
DAV:  10    -0.330609370413E+04   -0.11779E-03   -0.59647E-06  7488   0.288E-03    0.432E-03
DAV:  11    -0.330609386071E+04   -0.15658E-03   -0.10128E-05  6336   0.308E-03    0.239E-03
DAV:  12    -0.330609394706E+04   -0.86345E-04   -0.55858E-06  6624   0.198E-03    0.181E-03
DAV:  13    -0.330609399297E+04   -0.45918E-04   -0.17600E-06  6176   0.108E-03    0.123E-03
DAV:  14    -0.330609402955E+04   -0.36577E-04   -0.13523E-06  5984   0.899E-04    0.651E-04
DAV:  15    -0.330609404660E+04   -0.17050E-04   -0.33431E-07  5312   0.536E-04    0.511E-04
DAV:  16    -0.330609405580E+04   -0.92036E-05   -0.34697E-08  4672   0.404E-04    0.344E-04
DAV:  17    -0.330609406695E+04   -0.11148E-04   -0.17261E-07  5056   0.415E-04    0.225E-04
DAV:  18    -0.330609407039E+04   -0.34426E-05    0.65330E-08  4608   0.256E-04    0.135E-04
DAV:  19    -0.330609407210E+04   -0.17050E-05    0.97355E-08  4224   0.180E-04    0.778E-05
DAV:  20    -0.330609407341E+04   -0.13059E-05    0.11071E-07  4224   0.111E-04    0.640E-05
DAV:  21    -0.330609407417E+04   -0.76223E-06    0.11806E-07  4288   0.762E-05
   3 F= -.33200236E+04 E0= -.33200236E+04  d E =-.169958E+02  mag=     0.0000
 BRION: g(F)=  0.174E+02 g(S)=  0.000E+00 retain N=  2 mean eig= 1.37
 eig:   0.207  2.537
 bond charge predicted
       N       E                     dE             d eps       ncg     rms          rms(c)
DAV:   1    -0.330792403031E+04   -0.18300E+01   -0.17773E+02  7552   0.150E+01    0.276E+00
DAV:   2    -0.330809491075E+04   -0.17088E+00   -0.42092E+00  8448   0.230E+00    0.212E+00
DAV:   3    -0.330800183804E+04    0.93073E-01   -0.51801E-01  8448   0.866E-01    0.719E-01
DAV:   4    -0.330799953348E+04    0.23046E-02   -0.11641E-01  8192   0.374E-01    0.366E-01
DAV:   5    -0.330799828929E+04    0.12442E-02   -0.13839E-02  7872   0.140E-01    0.804E-02
DAV:   6    -0.330799839118E+04   -0.10189E-03   -0.25914E-03  8544   0.537E-02    0.464E-02
DAV:   7    -0.330799847981E+04   -0.88632E-04   -0.25836E-04  8352   0.177E-02    0.241E-02
DAV:   8    -0.330799848871E+04   -0.88991E-05   -0.67367E-05  8064   0.948E-03    0.989E-03
DAV:   9    -0.330799851656E+04   -0.27848E-04   -0.20790E-05  8192   0.469E-03    0.260E-03
DAV:  10    -0.330799853116E+04   -0.14600E-04   -0.11275E-06  5760   0.119E-03    0.147E-03
DAV:  11    -0.330799854324E+04   -0.12085E-04   -0.43923E-07  5120   0.674E-04    0.896E-04
DAV:  12    -0.330799855196E+04   -0.87195E-05   -0.23100E-07  4928   0.486E-04    0.583E-04
DAV:  13    -0.330799855982E+04   -0.78595E-05   -0.24000E-07  4992   0.402E-04    0.345E-04
DAV:  14    -0.330799856461E+04   -0.47902E-05   -0.46263E-08  4736   0.278E-04    0.192E-04
DAV:  15    -0.330799856719E+04   -0.25737E-05    0.35752E-08  4800   0.189E-04    0.131E-04
DAV:  16    -0.330799856886E+04   -0.16753E-05    0.66930E-08  4544   0.152E-04    0.739E-05
DAV:  17    -0.330799857000E+04   -0.11420E-05    0.81835E-08  4672   0.124E-04    0.552E-05
DAV:  18    -0.330799857053E+04   -0.52591E-06    0.10294E-07  4480   0.856E-05
   4 F= -.33219344E+04 E0= -.33219344E+04  d E =-.191085E+01  mag=     0.0000
 BRION: g(F)=  0.449E+01 g(S)=  0.000E+00 retain N=  2 mean eig= 0.18
 eig:   0.182  0.182
 bond charge predicted
       N       E                     dE             d eps       ncg     rms          rms(c)
DAV:   1    -0.330741122244E+04    0.58735E+00   -0.25256E+02  7296   0.186E+01    0.304E+00
DAV:   2    -0.330769231513E+04   -0.28109E+00   -0.56682E+00  8576   0.278E+00    0.244E+00
DAV:   3    -0.330758735061E+04    0.10496E+00   -0.60688E-01  8704   0.102E+00    0.995E-01
DAV:   4    -0.330758535930E+04    0.19913E-02   -0.16276E-01  8256   0.434E-01    0.434E-01
DAV:   5    -0.330758473719E+04    0.62211E-03   -0.16340E-02  7808   0.158E-01    0.121E-01
DAV:   6    -0.330758462903E+04    0.10816E-03   -0.39317E-03  8768   0.773E-02    0.669E-02
DAV:   7    -0.330758482857E+04   -0.19954E-03   -0.88617E-04  8384   0.318E-02    0.261E-02
DAV:   8    -0.330758491267E+04   -0.84096E-04   -0.94622E-05  8320   0.151E-02    0.156E-02
DAV:   9    -0.330758500230E+04   -0.89628E-04   -0.45414E-05  7872   0.815E-03    0.410E-03
DAV:  10    -0.330758502200E+04   -0.19702E-04   -0.65213E-06  8544   0.311E-03    0.247E-03
DAV:  11    -0.330758506195E+04   -0.39950E-04   -0.21853E-06  6400   0.156E-03    0.146E-03
DAV:  12    -0.330758509000E+04   -0.28055E-04   -0.13621E-06  6144   0.915E-04    0.913E-04
DAV:  13    -0.330758510086E+04   -0.10858E-04   -0.17281E-07  4992   0.483E-04    0.521E-04
DAV:  14    -0.330758511174E+04   -0.10878E-04   -0.35130E-07  5184   0.496E-04    0.338E-04
DAV:  15    -0.330758511566E+04   -0.39206E-05    0.48738E-08  4864   0.265E-04    0.256E-04
DAV:  16    -0.330758511881E+04   -0.31498E-05    0.59680E-08  4672   0.221E-04    0.135E-04
DAV:  17    -0.330758512211E+04   -0.33040E-05    0.64673E-08  4672   0.186E-04    0.856E-05
DAV:  18    -0.330758512368E+04   -0.15634E-05    0.92785E-08  4480   0.130E-04    0.640E-05
DAV:  19    -0.330758512442E+04   -0.73976E-06    0.10727E-07  4160   0.891E-05
   5 F= -.33215198E+04 E0= -.33215198E+04  d E =0.414601E+00  mag=     0.0000
 BRION: g(F)=  0.760E+01 g(S)=  0.000E+00 retain N=  3 mean eig= 0.56
 eig:   0.253  0.710  0.710
 bond charge predicted
       N       E                     dE             d eps       ncg     rms          rms(c)
DAV:   1    -0.330848319019E+04   -0.89807E+00   -0.96794E+01  7424   0.116E+01    0.192E+00
DAV:   2    -0.330858636253E+04   -0.10317E+00   -0.22382E+00  8448   0.175E+00    0.152E+00
DAV:   3    -0.330854507428E+04    0.41288E-01   -0.26080E-01  8832   0.628E-01    0.606E-01
DAV:   4    -0.330854359065E+04    0.14836E-02   -0.57708E-02  8256   0.266E-01    0.311E-01
DAV:   5    -0.330854261636E+04    0.97428E-03   -0.82061E-03  7616   0.120E-01    0.619E-02
DAV:   6    -0.330854270547E+04   -0.89105E-04   -0.19781E-03  8384   0.476E-02    0.389E-02
DAV:   7    -0.330854275328E+04   -0.47811E-04   -0.15881E-04  8256   0.136E-02    0.179E-02
DAV:   8    -0.330854276606E+04   -0.12786E-04   -0.41373E-05  8320   0.754E-03    0.703E-03
DAV:   9    -0.330854278657E+04   -0.20508E-04   -0.11981E-05  7936   0.368E-03    0.170E-03
DAV:  10    -0.330854279456E+04   -0.79866E-05   -0.62147E-07  5184   0.101E-03    0.105E-03
DAV:  11    -0.330854280524E+04   -0.10682E-04   -0.50625E-07  5312   0.701E-04    0.648E-04
DAV:  12    -0.330854281137E+04   -0.61299E-05   -0.96829E-08  4736   0.395E-04    0.396E-04
DAV:  13    -0.330854281534E+04   -0.39700E-05   -0.45277E-08  4800   0.289E-04    0.175E-04
DAV:  14    -0.330854281744E+04   -0.20984E-05    0.61312E-08  4672   0.199E-04    0.125E-04
DAV:  15    -0.330854281932E+04   -0.18826E-05    0.68565E-08  4672   0.151E-04    0.865E-05
DAV:  16    -0.330854282011E+04   -0.79110E-06    0.99067E-08  4352   0.113E-04
   6 F= -.33224807E+04 E0= -.33224807E+04  d E =-.960914E+00  mag=     0.0000
 BRION: g(F)=  0.132E+01 g(S)=  0.000E+00 retain N=  3 mean eig= 2.14
 eig:   6.004  0.215  0.215
 bond charge predicted
       N       E                     dE             d eps       ncg     rms          rms(c)
DAV:   1    -0.330864313348E+04   -0.10031E+00   -0.16499E+01  7424   0.481E+00    0.789E-01
DAV:   2    -0.330866388587E+04   -0.20752E-01   -0.38695E-01  8192   0.700E-01    0.634E-01
DAV:   3    -0.330865585956E+04    0.80263E-02   -0.34164E-02  8896   0.238E-01    0.253E-01
DAV:   4    -0.330865540876E+04    0.45080E-03   -0.78832E-03  7936   0.972E-02    0.104E-01
DAV:   5    -0.330865535911E+04    0.49647E-04   -0.12208E-03  7552   0.416E-02    0.290E-02
DAV:   6    -0.330865535461E+04    0.45034E-05   -0.23663E-04  8256   0.189E-02    0.140E-02
DAV:   7    -0.330865536628E+04   -0.11666E-04   -0.29661E-05  8160   0.616E-03    0.525E-03
DAV:   8    -0.330865537000E+04   -0.37261E-05   -0.28499E-06  6656   0.259E-03    0.286E-03
DAV:   9    -0.330865537592E+04   -0.59128E-05   -0.18285E-06  5376   0.160E-03    0.796E-04
DAV:  10    -0.330865537773E+04   -0.18122E-05   -0.13815E-07  4416   0.736E-04    0.573E-04
DAV:  11    -0.330865538116E+04   -0.34298E-05   -0.65017E-08  4448   0.520E-04    0.264E-04
DAV:  12    -0.330865538301E+04   -0.18541E-05    0.17783E-08  4672   0.303E-04    0.248E-04
DAV:  13    -0.330865538416E+04   -0.11484E-05    0.65764E-08  4416   0.226E-04    0.141E-04
DAV:  14    -0.330865538520E+04   -0.10443E-05    0.75148E-08  4416   0.158E-04    0.831E-05
DAV:  15    -0.330865538567E+04   -0.47032E-06    0.10437E-07  4288   0.109E-04
   7 F= -.33225934E+04 E0= -.33225934E+04  d E =-.112704E+00  mag=     0.0000
 BRION: g(F)=  0.402E+00 g(S)=  0.000E+00 retain N=  2 mean eig= 0.45
 eig:   0.163  0.730
 bond charge predicted
       N       E                     dE             d eps       ncg     rms          rms(c)
DAV:   1    -0.330852526784E+04    0.13012E+00   -0.26146E+01  7424   0.585E+00    0.109E+00
DAV:   2    -0.330854596845E+04   -0.20701E-01   -0.58956E-01  8448   0.848E-01    0.824E-01
DAV:   3    -0.330852799856E+04    0.17970E-01   -0.73904E-02  7616   0.343E-01    0.166E-01
DAV:   4    -0.330852857259E+04   -0.57403E-03   -0.15129E-02  8192   0.128E-01    0.805E-02
DAV:   5    -0.330852863129E+04   -0.58695E-04   -0.11625E-03  8320   0.374E-02    0.295E-02
DAV:   6    -0.330852862085E+04    0.10441E-04   -0.19549E-04  8128   0.166E-02    0.161E-02
DAV:   7    -0.330852863032E+04   -0.94749E-05   -0.35071E-05  8320   0.645E-03    0.687E-03
DAV:   8    -0.330852863094E+04   -0.61822E-06   -0.60129E-06  8064   0.314E-03
   8 F= -.33224666E+04 E0= -.33224666E+04  d E =0.126815E+00  mag=     0.0000
 BRION: g(F)=  0.165E+01 g(S)=  0.000E+00 retain N=  3 mean eig= 0.92
 eig:   2.199  0.284  0.284
 bond charge predicted
       N       E                     dE             d eps       ncg     rms          rms(c)
DAV:   1    -0.330871995725E+04   -0.19133E+00   -0.13376E+01  7424   0.414E+00    0.792E-01
DAV:   2    -0.330872933630E+04   -0.93791E-02   -0.29560E-01  8320   0.600E-01    0.586E-01
DAV:   3    -0.330872004255E+04    0.92938E-02   -0.40858E-02  7616   0.248E-01    0.106E-01
DAV:   4    -0.330872030686E+04   -0.26431E-03   -0.79592E-03  8000   0.906E-02    0.514E-02
DAV:   5    -0.330872033940E+04   -0.32537E-04   -0.51492E-04  8128   0.247E-02    0.184E-02
DAV:   6    -0.330872033478E+04    0.46154E-05   -0.69889E-05  8448   0.952E-03    0.950E-03
DAV:   7    -0.330872033815E+04   -0.33688E-05   -0.12663E-05  8512   0.378E-03    0.467E-03
DAV:   8    -0.330872033839E+04   -0.24092E-06   -0.29135E-06  7040   0.202E-03
   9 F= -.33226586E+04 E0= -.33226586E+04  d E =-.191978E+00  mag=     0.0000
 BRION: g(F)=  0.380E-01 g(S)=  0.000E+00 retain N=  1 mean eig= 0.22
 eig:   0.221
 bond charge predicted
       N       E                     dE             d eps       ncg     rms          rms(c)
DAV:   1    -0.330871592474E+04    0.44134E-02   -0.43333E+00  7296   0.245E+00    0.400E-01
DAV:   2    -0.330872015158E+04   -0.42268E-02   -0.86507E-02  8448   0.332E-01    0.311E-01
DAV:   3    -0.330871833907E+04    0.18125E-02   -0.81443E-03  8128   0.123E-01    0.102E-01
DAV:   4    -0.330871834771E+04   -0.86373E-05   -0.21262E-03  7552   0.521E-02    0.409E-02
DAV:   5    -0.330871836486E+04   -0.17154E-04   -0.23982E-04  8640   0.170E-02    0.155E-02
DAV:   6    -0.330871836298E+04    0.18856E-05   -0.34609E-05  7680   0.973E-03    0.827E-03
DAV:   7    -0.330871836750E+04   -0.45226E-05   -0.19261E-05  7680   0.497E-03    0.362E-03
DAV:   8    -0.330871836751E+04   -0.13679E-07   -0.78715E-07  4608   0.196E-03
  10 F= -.33226567E+04 E0= -.33226567E+04  d E =0.189572E-02  mag=     0.0000
 BRION: g(F)=  0.202E+00 g(S)=  0.000E+00 retain N=  2 mean eig= 0.21
 eig:   0.215  0.215
 bond charge predicted
       N       E                     dE             d eps       ncg     rms          rms(c)
DAV:   1    -0.330874144794E+04   -0.23080E-01   -0.15823E+00  7424   0.147E+00    0.262E-01
DAV:   2    -0.330874288383E+04   -0.14359E-02   -0.36775E-02  8384   0.214E-01    0.199E-01
DAV:   3    -0.330874196063E+04    0.92319E-03   -0.42278E-03  8384   0.788E-02    0.573E-02
DAV:   4    -0.330874196263E+04   -0.20039E-05   -0.77791E-04  7680   0.295E-02    0.271E-02
DAV:   5    -0.330874196106E+04    0.15794E-05   -0.95609E-05  7872   0.116E-02    0.719E-03
DAV:   6    -0.330874196133E+04   -0.27538E-06   -0.17197E-05  7808   0.487E-03    0.388E-03
DAV:   7    -0.330874196267E+04   -0.13423E-05   -0.23633E-06  5888   0.194E-03    0.193E-03
DAV:   8    -0.330874196307E+04   -0.39564E-06   -0.47163E-07  4288   0.115E-03
  11 F= -.33226804E+04 E0= -.33226804E+04  d E =-.236778E-01  mag=     0.0000
 BRION: g(F)=  0.194E-01 g(S)=  0.000E+00 retain N=  1 mean eig= 0.22
 eig:   0.218
 bond charge predicted
       N       E                     dE             d eps       ncg     rms          rms(c)
DAV:   1    -0.330874939683E+04   -0.74342E-02   -0.17903E+00  7168   0.159E+00    0.229E-01
DAV:   2    -0.330875125238E+04   -0.18556E-02   -0.28645E-02  8320   0.190E-01    0.183E-01
DAV:   3    -0.330875086213E+04    0.39025E-03   -0.19838E-03  7936   0.641E-02    0.752E-02
DAV:   4    -0.330875084734E+04    0.14793E-04   -0.66775E-04  7552   0.318E-02    0.236E-02
DAV:   5    -0.330875085435E+04   -0.70093E-05   -0.81047E-05  8320   0.103E-02    0.102E-02
DAV:   6    -0.330875085432E+04    0.29628E-07   -0.95667E-06  7936   0.706E-03
  12 F= -.33226894E+04 E0= -.33226894E+04  d E =-.899110E-02  mag=     0.0000
 BRION: g(F)=  0.460E-01 g(S)=  0.000E+00 retain N=  2 mean eig= 0.23
 eig:   0.230  0.230
 bond charge predicted
       N       E                     dE             d eps       ncg     rms          rms(c)
DAV:   1    -0.330875734820E+04   -0.64938E-02   -0.42096E-01  7296   0.766E-01    0.129E-01
DAV:   2    -0.330875779427E+04   -0.44607E-03   -0.94937E-03  8448   0.110E-01    0.101E-01
DAV:   3    -0.330875758041E+04    0.21385E-03   -0.96788E-04  8064   0.399E-02    0.336E-02
DAV:   4    -0.330875757843E+04    0.19816E-05   -0.20595E-04  7616   0.161E-02    0.148E-02
DAV:   5    -0.330875757969E+04   -0.12548E-05   -0.28305E-05  7552   0.623E-03    0.436E-03
DAV:   6    -0.330875758040E+04   -0.71427E-06   -0.46782E-06  7104   0.325E-03
  13 F= -.33226961E+04 E0= -.33226961E+04  d E =-.674508E-02  mag=     0.0000
 BRION: g(F)=  0.129E-01 g(S)=  0.000E+00 retain N=  1 mean eig= 0.22
 eig:   0.224
 bond charge predicted
       N       E                     dE             d eps       ncg     rms          rms(c)
DAV:   1    -0.330876519981E+04   -0.76201E-02   -0.11044E+00  7168   0.125E+00    0.172E-01
DAV:   2    -0.330876626116E+04   -0.10614E-02   -0.14837E-02  7872   0.135E-01    0.138E-01
DAV:   3    -0.330876609441E+04    0.16675E-03   -0.76230E-04  8064   0.442E-02    0.548E-02
DAV:   4    -0.330876609287E+04    0.15374E-05   -0.36655E-04  7424   0.238E-02    0.143E-02
DAV:   5    -0.330876609489E+04   -0.20223E-05   -0.40766E-05  8128   0.880E-03    0.810E-03
DAV:   6    -0.330876609718E+04   -0.22881E-05   -0.10580E-05  7744   0.577E-03    0.265E-03
DAV:   7    -0.330876609780E+04   -0.61525E-06   -0.70152E-06  7296   0.392E-03
  14 F= -.33227047E+04 E0= -.33227047E+04  d E =-.861123E-02  mag=     0.0000
 BRION: g(F)=  0.186E-01 g(S)=  0.000E+00 retain N=  2 mean eig= 0.15
 eig:   0.145  0.145
 bond charge predicted
       N       E                     dE             d eps       ncg     rms          rms(c)
DAV:   1    -0.330876963750E+04   -0.35403E-02   -0.20475E-01  7296   0.536E-01    0.849E-02
DAV:   2    -0.330876985841E+04   -0.22091E-03   -0.40453E-03  8000   0.719E-02    0.673E-02
DAV:   3    -0.330876977779E+04    0.80626E-04   -0.37128E-04  8192   0.261E-02    0.235E-02
DAV:   4    -0.330876977658E+04    0.12094E-05   -0.93843E-05  7616   0.112E-02    0.943E-03
DAV:   5    -0.330876977804E+04   -0.14590E-05   -0.11973E-05  8128   0.382E-03    0.332E-03
DAV:   6    -0.330876977863E+04   -0.59698E-06   -0.11454E-06  4096   0.220E-03
  15 F= -.33227084E+04 E0= -.33227084E+04  d E =-.368555E-02  mag=     0.0000
 BRION: g(F)=  0.980E-02 g(S)=  0.000E+00 retain N=  1 mean eig= 0.22
 eig:   0.218
 bond charge predicted
       N       E                     dE             d eps       ncg     rms          rms(c)
DAV:   1    -0.330877616466E+04   -0.63866E-02   -0.78933E-01  7168   0.105E+00    0.146E-01
DAV:   2    -0.330877688167E+04   -0.71701E-03   -0.10098E-02  8064   0.110E-01    0.116E-01
DAV:   3    -0.330877676157E+04    0.12010E-03   -0.41676E-04  8000   0.361E-02    0.427E-02
DAV:   4    -0.330877676647E+04   -0.48990E-05   -0.26308E-04  7328   0.193E-02    0.112E-02
DAV:   5    -0.330877676648E+04   -0.57044E-08   -0.20718E-05  7808   0.675E-03    0.762E-03
DAV:   6    -0.330877676778E+04   -0.13001E-05   -0.67825E-06  7616   0.421E-03    0.264E-03
DAV:   7    -0.330877676833E+04   -0.54913E-06   -0.30185E-06  6176   0.281E-03
  16 F= -.33227155E+04 E0= -.33227155E+04  d E =-.705844E-02  mag=     0.0000
 BRION: g(F)=  0.118E-01 g(S)=  0.000E+00 retain N=  2 mean eig= 0.27
 eig:   0.162  0.379
 bond charge predicted
       N       E                     dE             d eps       ncg     rms          rms(c)
DAV:   1    -0.330877932189E+04   -0.25541E-02   -0.13655E-01  7168   0.440E-01    0.655E-02
DAV:   2    -0.330877947014E+04   -0.14825E-03   -0.24749E-03  8128   0.561E-02    0.519E-02
DAV:   3    -0.330877943524E+04    0.34907E-04   -0.19139E-04  8000   0.184E-02    0.211E-02
DAV:   4    -0.330877943352E+04    0.17186E-05   -0.48748E-05  7616   0.829E-03    0.819E-03
DAV:   5    -0.330877943431E+04   -0.79058E-06   -0.63526E-06  7296   0.295E-03
  17 F= -.33227182E+04 E0= -.33227182E+04  d E =-.268057E-02  mag=     0.0000
 BRION: g(F)=  0.820E-02 g(S)=  0.000E+00 retain N=  2 mean eig= 2.46
 eig:   0.192  4.731
 bond charge predicted
       N       E                     dE             d eps       ncg     rms          rms(c)
DAV:   1    -0.330878473366E+04   -0.53001E-02   -0.63748E-01  7168   0.940E-01    0.134E-01
DAV:   2    -0.330878530277E+04   -0.56910E-03   -0.82293E-03  7808   0.992E-02    0.106E-01
DAV:   3    -0.330878519366E+04    0.10910E-03   -0.33491E-04  7808   0.334E-02    0.367E-02
DAV:   4    -0.330878520074E+04   -0.70796E-05   -0.22570E-04  7296   0.174E-02    0.102E-02
DAV:   5    -0.330878520070E+04    0.43190E-07   -0.14447E-05  7616   0.555E-03    0.745E-03
DAV:   6    -0.330878520208E+04   -0.13836E-05   -0.49354E-06  6912   0.380E-03    0.296E-03
DAV:   7    -0.330878520227E+04   -0.18679E-06   -0.28406E-06  6272   0.289E-03
  18 F= -.33227240E+04 E0= -.33227240E+04  d E =-.580837E-02  mag=     0.0000
 BRION: g(F)=  0.957E-02 g(S)=  0.000E+00 retain N=  2 mean eig= 0.20
 eig:   0.155  0.239
 bond charge predicted
       N       E                     dE             d eps       ncg     rms          rms(c)
DAV:   1    -0.330878711398E+04   -0.19119E-02   -0.95118E-02  7168   0.369E-01    0.539E-02
DAV:   2    -0.330878722111E+04   -0.10714E-03   -0.16916E-03  7936   0.461E-02    0.428E-02
DAV:   3    -0.330878719735E+04    0.23766E-04   -0.11423E-04  8064   0.141E-02    0.164E-02
DAV:   4    -0.330878719633E+04    0.10225E-05   -0.27968E-05  8064   0.628E-03    0.560E-03
DAV:   5    -0.330878719691E+04   -0.58167E-06   -0.26798E-06  5312   0.202E-03
  19 F= -.33227260E+04 E0= -.33227260E+04  d E =-.201945E-02  mag=     0.0000
 BRION: g(F)=  0.665E-02 g(S)=  0.000E+00 retain N=  2 mean eig= 2.08
 eig:   0.179  3.983
 bond charge predicted
       N       E                     dE             d eps       ncg     rms          rms(c)
DAV:   1    -0.330879177223E+04   -0.45759E-02   -0.54071E-01  7168   0.866E-01    0.122E-01
DAV:   2    -0.330879224393E+04   -0.47170E-03   -0.67121E-03  7936   0.891E-02    0.968E-02
DAV:   3    -0.330879215932E+04    0.84617E-04   -0.25619E-04  7936   0.299E-02    0.335E-02
DAV:   4    -0.330879216453E+04   -0.52136E-05   -0.18067E-04  7424   0.157E-02    0.903E-03
DAV:   5    -0.330879216440E+04    0.12718E-06   -0.12647E-05  7296   0.511E-03    0.682E-03
DAV:   6    -0.330879216552E+04   -0.11168E-05   -0.37908E-06  6400   0.335E-03    0.308E-03
DAV:   7    -0.330879216551E+04    0.60536E-08   -0.22731E-06  5760   0.280E-03
  20 F= -.33227310E+04 E0= -.33227310E+04  d E =-.500027E-02  mag=     0.0000
 BRION: g(F)=  0.741E-02 g(S)=  0.000E+00 retain N=  2 mean eig= 0.32
 eig:   0.183  0.450
 bond charge predicted
       N       E                     dE             d eps       ncg     rms          rms(c)
DAV:   1    -0.330879365507E+04   -0.14895E-02   -0.72566E-02  7168   0.322E-01    0.475E-02
DAV:   2    -0.330879373606E+04   -0.80991E-04   -0.13176E-03  8192   0.407E-02    0.375E-02
DAV:   3    -0.330879371883E+04    0.17230E-04   -0.91341E-05  7936   0.126E-02    0.155E-02
DAV:   4    -0.330879371803E+04    0.79814E-06   -0.22971E-05  7552   0.555E-03    0.605E-03
DAV:   5    -0.330879371838E+04   -0.35169E-06   -0.19013E-06  4160   0.186E-03
  21 F= -.33227326E+04 E0= -.33227326E+04  d E =-.156828E-02  mag=     0.0000
 BRION: g(F)=  0.570E-02 g(S)=  0.000E+00 retain N=  2 mean eig= 2.26
 eig:   0.183  4.344
 bond charge predicted
       N       E                     dE             d eps       ncg     rms          rms(c)
DAV:   1    -0.330879784916E+04   -0.41311E-02   -0.52410E-01  7168   0.854E-01    0.118E-01
DAV:   2    -0.330879830438E+04   -0.45522E-03   -0.62192E-03  8128   0.852E-02    0.939E-02
DAV:   3    -0.330879823705E+04    0.67328E-04   -0.21229E-04  7936   0.275E-02    0.338E-02
DAV:   4    -0.330879823961E+04   -0.25581E-05   -0.15156E-04  7424   0.148E-02    0.806E-03
DAV:   5    -0.330879823977E+04   -0.15850E-06   -0.13293E-05  7296   0.508E-03    0.629E-03
DAV:   6    -0.330879824055E+04   -0.78027E-06   -0.28085E-06  5312   0.291E-03
  22 F= -.33227371E+04 E0= -.33227371E+04  d E =-.456199E-02  mag=     0.0000
 BRION: g(F)=  0.629E-02 g(S)=  0.000E+00 retain N=  2 mean eig= 0.21
 eig:   0.151  0.270
 bond charge predicted
       N       E                     dE             d eps       ncg     rms          rms(c)
DAV:   1    -0.330879912639E+04   -0.88662E-03   -0.46207E-02  7168   0.256E-01    0.403E-02
DAV:   2    -0.330879918141E+04   -0.55019E-04   -0.97820E-04  8000   0.348E-02    0.319E-02
DAV:   3    -0.330879916327E+04    0.18136E-04   -0.71873E-05  8320   0.112E-02    0.121E-02
DAV:   4    -0.330879916300E+04    0.27759E-06   -0.17663E-05  7552   0.478E-03    0.498E-03
DAV:   5    -0.330879916310E+04   -0.10344E-06   -0.17089E-06  4736   0.202E-03
  23 F= -.33227380E+04 E0= -.33227380E+04  d E =-.919468E-03  mag=     0.0000
 BRION: g(F)=  0.498E-02 g(S)=  0.000E+00 retain N=  2 mean eig= 1.54
 eig:   0.197  2.883
 bond charge predicted
       N       E                     dE             d eps       ncg     rms          rms(c)
DAV:   1    -0.330880273991E+04   -0.35769E-02   -0.45405E-01  7168   0.795E-01    0.110E-01
DAV:   2    -0.330880312989E+04   -0.38998E-03   -0.53563E-03  8128   0.791E-02    0.875E-02
DAV:   3    -0.330880307163E+04    0.58267E-04   -0.18619E-04  8000   0.257E-02    0.310E-02
DAV:   4    -0.330880307425E+04   -0.26250E-05   -0.13011E-04  7360   0.137E-02    0.754E-03
DAV:   5    -0.330880307390E+04    0.35198E-06   -0.11616E-05  7296   0.492E-03    0.581E-03
DAV:   6    -0.330880307586E+04   -0.19639E-05   -0.31232E-06  6048   0.310E-03    0.301E-03
DAV:   7    -0.330880307461E+04    0.12481E-05   -0.24423E-06  5888   0.300E-03    0.120E-03
DAV:   8    -0.330880307484E+04   -0.22131E-06   -0.57877E-07  4160   0.124E-03
  24 F= -.33227420E+04 E0= -.33227420E+04  d E =-.394770E-02  mag=     0.0000
 BRION: g(F)=  0.518E-02 g(S)=  0.000E+00 retain N=  2 mean eig= 0.36
 eig:   0.184  0.527
 bond charge predicted
       N       E                     dE             d eps       ncg     rms          rms(c)
DAV:   1    -0.330880378864E+04   -0.71402E-03   -0.33975E-02  7168   0.221E-01    0.334E-02
DAV:   2    -0.330880383005E+04   -0.41412E-04   -0.71570E-04  8256   0.300E-02    0.264E-02
DAV:   3    -0.330880382041E+04    0.96363E-05   -0.54907E-05  8544   0.896E-03    0.116E-02
DAV:   4    -0.330880381967E+04    0.74407E-06   -0.10528E-05  7616   0.373E-03    0.550E-03
DAV:   5    -0.330880381954E+04    0.13341E-06   -0.17137E-06  4160   0.189E-03
  25 F= -.33227427E+04 E0= -.33227427E+04  d E =-.746085E-03  mag=     0.0000
 BRION: g(F)=  0.412E-02 g(S)=  0.000E+00 retain N=  2 mean eig= 1.79
 eig:   0.187  3.388
 bond charge predicted
       N       E                     dE             d eps       ncg     rms          rms(c)
DAV:   1    -0.330880715569E+04   -0.33360E-02   -0.46907E-01  7168   0.806E-01    0.113E-01
DAV:   2    -0.330880755263E+04   -0.39694E-03   -0.55368E-03  8128   0.803E-02    0.895E-02
DAV:   3    -0.330880748733E+04    0.65295E-04   -0.19047E-04  7744   0.267E-02    0.309E-02
DAV:   4    -0.330880749093E+04   -0.35999E-05   -0.14165E-04  7360   0.141E-02    0.779E-03
DAV:   5    -0.330880749094E+04   -0.10128E-07   -0.11362E-05  7424   0.458E-03    0.622E-03
DAV:   6    -0.330880749116E+04   -0.21799E-06   -0.21575E-06  4480   0.255E-03
  26 F= -.33227464E+04 E0= -.33227464E+04  d E =-.369642E-02  mag=     0.0000
 BRION: g(F)=  0.425E-02 g(S)=  0.000E+00 retain N=  2 mean eig= 0.34
 eig:   0.168  0.508
 bond charge predicted
       N       E                     dE             d eps       ncg     rms          rms(c)
DAV:   1    -0.330880776794E+04   -0.27700E-03   -0.24368E-02  7232   0.188E-01    0.294E-02
DAV:   2    -0.330880780044E+04   -0.32500E-04   -0.57667E-04  8192   0.266E-02    0.235E-02
DAV:   3    -0.330880779110E+04    0.93437E-05   -0.43800E-05  8576   0.778E-03    0.101E-02
DAV:   4    -0.330880779053E+04    0.56828E-06   -0.72547E-06  7424   0.289E-03
  27 F= -.33227467E+04 E0= -.33227467E+04  d E =-.308032E-03  mag=     0.0000
 BRION: g(F)=  0.386E-02 g(S)=  0.000E+00 retain N=  2 mean eig= 1.11
 eig:   0.178  2.042
 bond charge predicted
       N       E                     dE             d eps       ncg     rms          rms(c)
DAV:   1    -0.330881069486E+04   -0.29038E-02   -0.41482E-01  7168   0.758E-01    0.106E-01
DAV:   2    -0.330881104538E+04   -0.35052E-03   -0.49152E-03  8064   0.758E-02    0.842E-02
DAV:   3    -0.330881098694E+04    0.58439E-04   -0.17575E-04  7808   0.252E-02    0.288E-02
DAV:   4    -0.330881099002E+04   -0.30781E-05   -0.12339E-04  7424   0.131E-02    0.736E-03
DAV:   5    -0.330881099003E+04   -0.11292E-07   -0.99380E-06  7296   0.434E-03
  28 F= -.33227500E+04 E0= -.33227500E+04  d E =-.321754E-02  mag=     0.0000
 BRION: g(F)=  0.373E-02 g(S)=  0.000E+00 retain N=  2 mean eig= 0.46
 eig:   0.189  0.730
 bond charge predicted
       N       E                     dE             d eps       ncg     rms          rms(c)
DAV:   1    -0.330881120664E+04   -0.21663E-03   -0.19534E-02  7360   0.169E-01    0.270E-02
DAV:   2    -0.330881123164E+04   -0.24997E-04   -0.48164E-04  8192   0.244E-02    0.212E-02
DAV:   3    -0.330881122449E+04    0.71485E-05   -0.41174E-05  8576   0.727E-03    0.956E-03
DAV:   4    -0.330881122415E+04    0.34180E-06   -0.65473E-06  7232   0.276E-03
  29 F= -.33227502E+04 E0= -.33227502E+04  d E =-.237605E-03  mag=     0.0000
 BRION: g(F)=  0.314E-02 g(S)=  0.000E+00 retain N=  2 mean eig= 1.34
 eig:   0.192  2.482
 bond charge predicted
       N       E                     dE             d eps       ncg     rms          rms(c)
DAV:   1    -0.330881377815E+04   -0.25537E-02   -0.37409E-01  7168   0.721E-01    0.998E-02
DAV:   2    -0.330881409170E+04   -0.31356E-03   -0.42967E-03  8192   0.705E-02    0.793E-02
DAV:   3    -0.330881404440E+04    0.47303E-04   -0.14630E-04  7808   0.232E-02    0.275E-02
DAV:   4    -0.330881404655E+04   -0.21479E-05   -0.10379E-04  7488   0.122E-02    0.666E-03
DAV:   5    -0.330881404666E+04   -0.11193E-06   -0.94200E-06  7296   0.421E-03
  30 F= -.33227530E+04 E0= -.33227530E+04  d E =-.284344E-02  mag=     0.0000
 BRION: g(F)=  0.288E-02 g(S)=  0.000E+00 retain N=  2 mean eig= 0.50
 eig:   0.177  0.833
 bond charge predicted
       N       E                     dE             d eps       ncg     rms          rms(c)
DAV:   1    -0.330881419419E+04   -0.14764E-03   -0.18582E-02  7360   0.164E-01    0.263E-02
DAV:   2    -0.330881421793E+04   -0.23744E-04   -0.45134E-04  8000   0.236E-02    0.208E-02
DAV:   3    -0.330881421045E+04    0.74774E-05   -0.37836E-05  8448   0.715E-03    0.902E-03
DAV:   4    -0.330881421014E+04    0.31159E-06   -0.62126E-06  7424   0.295E-03
  31 F= -.33227532E+04 E0= -.33227532E+04  d E =-.159996E-03  mag=     0.0000
 BRION: g(F)=  0.304E-02 g(S)=  0.000E+00 retain N=  2 mean eig= 0.77
 eig:   0.208  1.333
 bond charge predicted
       N       E                     dE             d eps       ncg     rms          rms(c)
DAV:   1    -0.330881647298E+04   -0.22625E-02   -0.35228E-01  7168   0.700E-01    0.968E-02
DAV:   2    -0.330881676992E+04   -0.29694E-03   -0.40728E-03  8128   0.689E-02    0.769E-02
DAV:   3    -0.330881672609E+04    0.43833E-04   -0.14716E-04  7936   0.227E-02    0.270E-02
DAV:   4    -0.330881672794E+04   -0.18550E-05   -0.97755E-05  7488   0.120E-02    0.654E-03
DAV:   5    -0.330881672786E+04    0.78522E-07   -0.93786E-06  7296   0.437E-03
  32 F= -.33227557E+04 E0= -.33227557E+04  d E =-.253933E-02  mag=     0.0000
 BRION: g(F)=  0.257E-02 g(S)=  0.000E+00 retain N=  2 mean eig= 0.61
 eig:   0.177  1.036
 bond charge predicted
       N       E                     dE             d eps       ncg     rms          rms(c)
DAV:   1    -0.330881671857E+04    0.93724E-05   -0.16337E-02  7360   0.154E-01    0.252E-02
DAV:   2    -0.330881673852E+04   -0.19956E-04   -0.40917E-04  8128   0.227E-02    0.199E-02
DAV:   3    -0.330881673181E+04    0.67176E-05   -0.39512E-05  8448   0.740E-03    0.867E-03
DAV:   4    -0.330881673229E+04   -0.48731E-06   -0.81607E-06  7360   0.381E-03
  33 F= -.33227557E+04 E0= -.33227557E+04  d E =-.207410E-05  mag=     0.0000
 BRION: g(F)=  0.261E-02 g(S)=  0.000E+00 retain N=  2 mean eig= 0.70
 eig:   0.212  1.191
 bond charge predicted
       N       E                     dE             d eps       ncg     rms          rms(c)
DAV:   1    -0.330881844593E+04   -0.17141E-02   -0.23005E-01  7168   0.565E-01    0.788E-02
DAV:   2    -0.330881864288E+04   -0.19695E-03   -0.27591E-03  8192   0.571E-02    0.626E-02
DAV:   3    -0.330881861213E+04    0.30751E-04   -0.10928E-04  7872   0.191E-02    0.223E-02
DAV:   4    -0.330881861377E+04   -0.16403E-05   -0.69482E-05  7360   0.104E-02    0.567E-03
DAV:   5    -0.330881861270E+04    0.10686E-05   -0.82361E-06  7232   0.456E-03    0.404E-03
DAV:   6    -0.330881861542E+04   -0.27184E-05   -0.32661E-06  5888   0.314E-03    0.211E-03
DAV:   7    -0.330881861292E+04    0.24975E-05   -0.22144E-06  5888   0.267E-03    0.831E-04
DAV:   8    -0.330881861308E+04   -0.15774E-06   -0.16027E-07  4288   0.827E-04
  34 F= -.33227576E+04 E0= -.33227576E+04  d E =-.189399E-02  mag=     0.0000
 BRION: g(F)=  0.207E-02 g(S)=  0.000E+00 retain N=  2 mean eig= 0.75
 eig:   0.173  1.318
 bond charge predicted
       N       E                     dE             d eps       ncg     rms          rms(c)
DAV:   1    -0.330881900296E+04   -0.39004E-03   -0.20921E-02  7232   0.173E-01    0.259E-02
DAV:   2    -0.330881902655E+04   -0.23593E-04   -0.40046E-04  8384   0.227E-02    0.205E-02
DAV:   3    -0.330881902107E+04    0.54794E-05   -0.33282E-05  8576   0.731E-03    0.860E-03
DAV:   4    -0.330881902067E+04    0.39994E-06   -0.68427E-06  7488   0.324E-03
  35 F= -.33227580E+04 E0= -.33227580E+04  d E =-.412478E-03  mag=     0.0000
 BRION: g(F)=  0.192E-02 g(S)=  0.000E+00 retain N=  2 mean eig= 0.59
 eig:   0.197  0.987
 bond charge predicted
       N       E                     dE             d eps       ncg     rms          rms(c)
DAV:   1    -0.330882025128E+04   -0.12302E-02   -0.14741E-01  7168   0.453E-01    0.637E-02
DAV:   2    -0.330882037862E+04   -0.12734E-03   -0.18107E-03  8000   0.465E-02    0.505E-02
DAV:   3    -0.330882035774E+04    0.20881E-04   -0.76981E-05  7808   0.153E-02    0.178E-02
DAV:   4    -0.330882035838E+04   -0.63796E-06   -0.42723E-05  7424   0.793E-03    0.457E-03
DAV:   5    -0.330882035844E+04   -0.63737E-07   -0.38393E-06  5760   0.282E-03
  36 F= -.33227594E+04 E0= -.33227594E+04  d E =-.134436E-02  mag=     0.0000
 BRION: g(F)=  0.192E-02 g(S)=  0.000E+00 retain N=  3 mean eig= 1.79
 eig:   5.037  0.309  0.010
 bond charge predicted
       N       E                     dE             d eps       ncg     rms          rms(c)
DAV:   1    -0.330882161517E+04   -0.12568E-02   -0.18720E-01  7168   0.510E-01    0.712E-02
DAV:   2    -0.330882178069E+04   -0.16552E-03   -0.23513E-03  8192   0.532E-02    0.567E-02
DAV:   3    -0.330882175405E+04    0.26639E-04   -0.10884E-04  7936   0.177E-02    0.210E-02
DAV:   4    -0.330882175455E+04   -0.49983E-06   -0.58076E-05  7488   0.945E-03    0.537E-03
DAV:   5    -0.330882175478E+04   -0.22666E-06   -0.62794E-06  7296   0.349E-03
  37 F= -.33227608E+04 E0= -.33227608E+04  d E =-.140594E-02  mag=     0.0000
 BRION: g(F)=  0.202E-02 g(S)=  0.000E+00 retain N=  3 mean eig= 1.16
 eig:   3.053  0.217  0.217
 bond charge predicted
       N       E                     dE             d eps       ncg     rms          rms(c)
DAV:   1    -0.330882121134E+04    0.54321E-03   -0.40988E-02  7168   0.241E-01    0.372E-02
DAV:   2    -0.330882125492E+04   -0.43574E-04   -0.77510E-04  8384   0.313E-02    0.289E-02
DAV:   3    -0.330882124369E+04    0.11234E-04   -0.59103E-05  7936   0.101E-02    0.112E-02
DAV:   4    -0.330882124347E+04    0.21275E-06   -0.13785E-05  7616   0.437E-03    0.454E-03
DAV:   5    -0.330882124355E+04   -0.74040E-07   -0.12942E-06  4096   0.164E-03
  38 F= -.33227603E+04 E0= -.33227603E+04  d E =0.511675E-03  mag=     0.0000
 BRION: g(F)=  0.242E-02 g(S)=  0.000E+00 retain N=  3 mean eig= 2.28
 eig:   6.358  0.236  0.236
 bond charge predicted
       N       E                     dE             d eps       ncg     rms          rms(c)
DAV:   1    -0.330882266389E+04   -0.14204E-02   -0.24537E-01  7168   0.584E-01    0.813E-02
DAV:   2    -0.330882287270E+04   -0.20881E-03   -0.29396E-03  8256   0.588E-02    0.644E-02
DAV:   3    -0.330882283902E+04    0.33680E-04   -0.10810E-04  7680   0.193E-02    0.226E-02
DAV:   4    -0.330882284059E+04   -0.15700E-05   -0.72124E-05  7424   0.102E-02    0.566E-03
DAV:   5    -0.330882284034E+04    0.24767E-06   -0.63125E-06  7232   0.362E-03
  39 F= -.33227619E+04 E0= -.33227619E+04  d E =-.160730E-02  mag=     0.0000
 BRION: g(F)=  0.176E-02 g(S)=  0.000E+00 retain N=  3 mean eig= 1.20
 eig:   3.278  0.307  0.012
 bond charge predicted
       N       E                     dE             d eps       ncg     rms          rms(c)
DAV:   1    -0.330882279112E+04    0.49469E-04   -0.12290E-02  7296   0.132E-01    0.230E-02
DAV:   2    -0.330882280340E+04   -0.12279E-04   -0.29453E-04  8352   0.193E-02    0.177E-02
DAV:   3    -0.330882279715E+04    0.62454E-05   -0.31000E-05  7872   0.703E-03    0.588E-03
DAV:   4    -0.330882279755E+04   -0.39669E-06   -0.74713E-06  7296   0.388E-03
  40 F= -.33227618E+04 E0= -.33227618E+04  d E =0.464375E-04  mag=     0.0000
 BRION: g(F)=  0.135E-02 g(S)=  0.000E+00 retain N=  2 mean eig= 0.50
 eig:   0.213  0.787
 bond charge predicted
       N       E                     dE             d eps       ncg     rms          rms(c)
DAV:   1    -0.330882364607E+04   -0.84892E-03   -0.11811E-01  7168   0.405E-01    0.565E-02
DAV:   2    -0.330882375015E+04   -0.10407E-03   -0.14739E-03  8192   0.420E-02    0.448E-02
DAV:   3    -0.330882373381E+04    0.16332E-04   -0.58970E-05  7680   0.137E-02    0.163E-02
DAV:   4    -0.330882373478E+04   -0.96258E-06   -0.36886E-05  7424   0.773E-03    0.406E-03
DAV:   5    -0.330882373378E+04    0.99791E-06   -0.45653E-06  6720   0.353E-03
  41 F= -.33227628E+04 E0= -.33227628E+04  d E =-.944325E-03  mag=    -0.0000
 BRION: g(F)=  0.176E-02 g(S)=  0.000E+00 retain N=  3 mean eig= 0.65
 eig:   1.601  0.323  0.013
 bond charge predicted
       N       E                     dE             d eps       ncg     rms          rms(c)
DAV:   1    -0.330882416085E+04   -0.42608E-03   -0.26390E-02  7168   0.192E-01    0.291E-02
DAV:   2    -0.330882418710E+04   -0.26247E-04   -0.45561E-04  7808   0.243E-02    0.228E-02
DAV:   3    -0.330882418139E+04    0.57102E-05   -0.31983E-05  7680   0.840E-03    0.835E-03
DAV:   4    -0.330882418261E+04   -0.12182E-05   -0.13625E-05  7168   0.556E-03    0.293E-03
DAV:   5    -0.330882418042E+04    0.21923E-05   -0.46718E-06  5760   0.370E-03    0.151E-03
DAV:   6    -0.330882417989E+04    0.52364E-06   -0.73306E-07  5472   0.153E-03
  42 F= -.33227632E+04 E0= -.33227632E+04  d E =-.449469E-03  mag=     0.0000
 BRION: g(F)=  0.107E-02 g(S)=  0.000E+00 retain N=  2 mean eig= 1.80
 eig:   0.187  3.404
 bond charge predicted
       N       E                     dE             d eps       ncg     rms          rms(c)
DAV:   1    -0.330882457037E+04   -0.38995E-03   -0.59053E-02  7168   0.289E-01    0.417E-02
DAV:   2    -0.330882462949E+04   -0.59121E-04   -0.91515E-04  8320   0.338E-02    0.328E-02
DAV:   3    -0.330882461823E+04    0.11254E-04   -0.52205E-05  7808   0.106E-02    0.131E-02
DAV:   4    -0.330882461781E+04    0.42497E-06   -0.18219E-05  7744   0.518E-03    0.399E-03
DAV:   5    -0.330882461797E+04   -0.15961E-06   -0.10595E-06  4224   0.136E-03
  43 F= -.33227637E+04 E0= -.33227637E+04  d E =-.438783E-03  mag=     0.0000
 BRION: g(F)=  0.256E-02 g(S)=  0.000E+00 retain N=  3 mean eig= 2.16
 eig:   6.103  0.132  0.253
 bond charge predicted
       N       E                     dE             d eps       ncg     rms          rms(c)
DAV:   1    -0.330882521328E+04   -0.59548E-03   -0.48902E-02  7168   0.262E-01    0.380E-02
DAV:   2    -0.330882526316E+04   -0.49878E-04   -0.77003E-04  8384   0.310E-02    0.300E-02
DAV:   3    -0.330882525363E+04    0.95307E-05   -0.42911E-05  7808   0.955E-03    0.119E-02
DAV:   4    -0.330882525329E+04    0.34645E-06   -0.14927E-05  7936   0.469E-03    0.356E-03
DAV:   5    -0.330882525343E+04   -0.14080E-06   -0.83300E-07  4224   0.127E-03
  44 F= -.33227643E+04 E0= -.33227643E+04  d E =-.638995E-03  mag=     0.0000
 BRION: g(F)=  0.108E-02 g(S)=  0.000E+00 retain N=  3 mean eig= 2.40
 eig:   6.847  0.172  0.172
 bond charge predicted
       N       E                     dE             d eps       ncg     rms          rms(c)
DAV:   1    -0.330882525831E+04   -0.50281E-05   -0.58414E-03  7296   0.915E-02    0.152E-02
DAV:   2    -0.330882526542E+04   -0.71038E-05   -0.14379E-04  8384   0.133E-02    0.120E-02
DAV:   3    -0.330882526258E+04    0.28394E-05   -0.13846E-05  8128   0.439E-03    0.440E-03
DAV:   4    -0.330882526256E+04    0.13737E-07   -0.19830E-06  4672   0.173E-03
  45 F= -.33227643E+04 E0= -.33227643E+04  d E =-.123784E-04  mag=     0.0000
 BRION: g(F)=  0.885E-03 g(S)=  0.000E+00 retain N=  2 mean eig= 0.10
 eig:   0.194  0.013
 bond charge predicted
       N       E                     dE             d eps       ncg     rms          rms(c)
DAV:   1    -0.330882587077E+04   -0.60819E-03   -0.67333E-02  7168   0.306E-01    0.426E-02
DAV:   2    -0.330882592725E+04   -0.56478E-04   -0.78451E-04  8128   0.302E-02    0.338E-02
DAV:   3    -0.330882591827E+04    0.89823E-05   -0.26932E-05  7680   0.101E-02    0.116E-02
DAV:   4    -0.330882591877E+04   -0.50693E-06   -0.19589E-05  7424   0.536E-03    0.287E-03
DAV:   5    -0.330882591860E+04    0.16845E-06   -0.15935E-06  4224   0.193E-03
  46 F= -.33227650E+04 E0= -.33227650E+04  d E =-.658838E-03  mag=     0.0000
 BRION: g(F)=  0.679E-03 g(S)=  0.000E+00 retain N=  3 mean eig= 1.60
 eig:   4.414  0.092  0.307
 bond charge predicted
       N       E                     dE             d eps       ncg     rms          rms(c)
DAV:   1    -0.330882627047E+04   -0.35170E-03   -0.33210E-02  7168   0.215E-01    0.301E-02
DAV:   2    -0.330882630154E+04   -0.31071E-04   -0.44820E-04  8064   0.235E-02    0.240E-02
DAV:   3    -0.330882629664E+04    0.49020E-05   -0.20398E-05  7808   0.749E-03    0.913E-03
DAV:   4    -0.330882629706E+04   -0.42474E-06   -0.10807E-05  7296   0.452E-03    0.228E-03
DAV:   5    -0.330882629634E+04    0.71811E-06   -0.20090E-06  5888   0.242E-03
  47 F= -.33227654E+04 E0= -.33227654E+04  d E =-.379013E-03  mag=     0.0000
 BRION: g(F)=  0.950E-03 g(S)=  0.000E+00 retain N=  2 mean eig= 0.05
 eig:   0.047  0.047
 bond charge predicted
       N       E                     dE             d eps       ncg     rms          rms(c)
DAV:   1    -0.330882668035E+04   -0.38329E-03   -0.37721E-02  7168   0.230E-01    0.324E-02
DAV:   2    -0.330882671482E+04   -0.34468E-04   -0.50143E-04  8032   0.248E-02    0.257E-02
DAV:   3    -0.330882670968E+04    0.51422E-05   -0.24390E-05  7744   0.809E-03    0.950E-03
DAV:   4    -0.330882671019E+04   -0.51194E-06   -0.11983E-05  7488   0.468E-03    0.250E-03
DAV:   5    -0.330882670948E+04    0.71066E-06   -0.21364E-06  5824   0.253E-03
  48 F= -.33227658E+04 E0= -.33227658E+04  d E =-.418770E-03  mag=     0.0000
 BRION: g(F)=  0.868E-03 g(S)=  0.000E+00 retain N=  2 mean eig= 0.73
 eig:   0.176  1.288
 bond charge predicted
       N       E                     dE             d eps       ncg     rms          rms(c)
DAV:   1    -0.330882676376E+04   -0.53570E-04   -0.40076E-03  7296   0.762E-02    0.123E-02
DAV:   2    -0.330882676831E+04   -0.45457E-05   -0.98104E-05  7936   0.112E-02    0.971E-03
DAV:   3    -0.330882676675E+04    0.15571E-05   -0.94370E-06  8064   0.382E-03    0.412E-03
DAV:   4    -0.330882676720E+04   -0.45443E-06   -0.26292E-06  5856   0.252E-03
  49 F= -.33227658E+04 E0= -.33227658E+04  d E =-.550049E-04  mag=     0.0000
 BRION: g(F)=  0.608E-03 g(S)=  0.000E+00 retain N=  2 mean eig= 1.12
 eig:   0.200  2.047
 bond charge predicted
       N       E                     dE             d eps       ncg     rms          rms(c)
DAV:   1    -0.330882716872E+04   -0.40197E-03   -0.42143E-02  7168   0.242E-01    0.336E-02
DAV:   2    -0.330882720422E+04   -0.35507E-04   -0.49291E-04  8192   0.241E-02    0.267E-02
DAV:   3    -0.330882719924E+04    0.49799E-05   -0.17975E-05  7552   0.808E-03    0.930E-03
DAV:   4    -0.330882719979E+04   -0.54546E-06   -0.12532E-05  7424   0.467E-03    0.229E-03
DAV:   5    -0.330882719898E+04    0.81357E-06   -0.15886E-06  5504   0.217E-03
  50 F= -.33227663E+04 E0= -.33227663E+04  d E =-.435955E-03  mag=     0.0000
 BRION: g(F)=  0.556E-03 g(S)=  0.000E+00 retain N=  3 mean eig= 2.35
 eig:   6.686  0.330  0.043
 bond charge predicted
       N       E                     dE             d eps       ncg     rms          rms(c)
DAV:   1    -0.330882744848E+04   -0.24869E-03   -0.21009E-02  7168   0.171E-01    0.244E-02
DAV:   2    -0.330882746779E+04   -0.19308E-04   -0.29002E-04  7808   0.190E-02    0.194E-02
DAV:   3    -0.330882746476E+04    0.30270E-05   -0.14863E-05  7680   0.640E-03    0.710E-03
DAV:   4    -0.330882746538E+04   -0.62271E-06   -0.80990E-06  7232   0.412E-03
  51 F= -.33227665E+04 E0= -.33227665E+04  d E =-.267036E-03  mag=     0.0000
 BRION: g(F)=  0.634E-03 g(S)=  0.000E+00 retain N=  3 mean eig= 1.85
 eig:   5.236  0.232  0.072
 bond charge predicted
       N       E                     dE             d eps       ncg     rms          rms(c)
DAV:   1    -0.330882768085E+04   -0.21609E-03   -0.20726E-02  7168   0.170E-01    0.251E-02
DAV:   2    -0.330882770118E+04   -0.20321E-04   -0.31037E-04  8192   0.197E-02    0.197E-02
DAV:   3    -0.330882769740E+04    0.37806E-05   -0.17386E-05  7616   0.632E-03    0.705E-03
DAV:   4    -0.330882769763E+04   -0.23551E-06   -0.66161E-06  7296   0.342E-03
  52 F= -.33227668E+04 E0= -.33227668E+04  d E =-.235808E-03  mag=     0.0000
 BRION: g(F)=  0.787E-03 g(S)=  0.000E+00 retain N=  3 mean eig= 1.60
 eig:   4.436  0.305  0.068
 bond charge predicted
       N       E                     dE             d eps       ncg     rms          rms(c)
DAV:   1    -0.330882809682E+04   -0.39943E-03   -0.64025E-02  7168   0.299E-01    0.426E-02
DAV:   2    -0.330882815271E+04   -0.55884E-04   -0.81044E-04  8128   0.312E-02    0.337E-02
DAV:   3    -0.330882814305E+04    0.96614E-05   -0.34817E-05  7744   0.103E-02    0.116E-02
DAV:   4    -0.330882814348E+04   -0.43388E-06   -0.18898E-05  7488   0.535E-03    0.304E-03
DAV:   5    -0.330882814322E+04    0.26164E-06   -0.17443E-06  5216   0.222E-03
  53 F= -.33227672E+04 E0= -.33227672E+04  d E =-.445128E-03  mag=     0.0000
 BRION: g(F)=  0.788E-03 g(S)=  0.000E+00 retain N=  3 mean eig= 1.22
 eig:   3.323  0.296  0.041
 bond charge predicted
       N       E                     dE             d eps       ncg     rms          rms(c)
DAV:   1    -0.330882791582E+04    0.22766E-03   -0.22104E-02  7168   0.177E-01    0.259E-02
DAV:   2    -0.330882793632E+04   -0.20505E-04   -0.33732E-04  7936   0.207E-02    0.202E-02
DAV:   3    -0.330882793287E+04    0.34577E-05   -0.21891E-05  7744   0.723E-03    0.756E-03
DAV:   4    -0.330882793369E+04   -0.82818E-06   -0.96659E-06  7296   0.449E-03
  54 F= -.33227670E+04 E0= -.33227670E+04  d E =0.207629E-03  mag=     0.0000
 BRION: g(F)=  0.538E-03 g(S)=  0.000E+00 retain N=  3 mean eig= 2.63
 eig:   7.617  0.182  0.085
 bond charge predicted
       N       E                     dE             d eps       ncg     rms          rms(c)
DAV:   1    -0.330882825601E+04   -0.32314E-03   -0.36090E-02  7168   0.224E-01    0.307E-02
DAV:   2    -0.330882828584E+04   -0.29827E-04   -0.42393E-04  7872   0.224E-02    0.243E-02
DAV:   3    -0.330882828123E+04    0.46053E-05   -0.15259E-05  7488   0.777E-03    0.875E-03
DAV:   4    -0.330882828192E+04   -0.68324E-06   -0.12695E-05  7392   0.481E-03    0.226E-03
DAV:   5    -0.330882828080E+04    0.11190E-05   -0.16322E-06  5728   0.221E-03    0.175E-03
DAV:   6    -0.330882828133E+04   -0.53277E-06   -0.34895E-07  4032   0.116E-03
  55 F= -.33227674E+04 E0= -.33227674E+04  d E =-.348597E-03  mag=    -0.0000
 BRION: g(F)=  0.374E-03 g(S)=  0.000E+00 retain N=  3 mean eig= 2.51
 eig:   7.087  0.326  0.129
 reached required accuracy - stopping structural energy minimisation
 PROFILE, used timers:     311
