 vasp.6.4.1 05Apr23 (build May 18 2023 14:18:10) complex                         
 executed on    LinuxNV_CrayMPICH date 2024.07.29  23:01:28
 running  256 mpi-ranks, with    1 threads/rank, on    7 nodes
 distrk:  each k-point on  128 cores,    2 groups
 distr:  one band on NCORE=   4 cores,   32 groups


--------------------------------------------------------------------------------------------------------


 INCAR:
   SIGMA = 0.010000
   EDIFF = 1.00e-06
   ALGO = N
   GGA = PE
   PREC = Accurate
   SYSTEM = 02_SCF
   ICHARG = 0
   ISMEAR = 0
   ISPIN = 2
   ISTART = 1
   KPAR = 2
   LORBIT = 11
   NBANDS = 896
   NELMIN = 5
   NPAR = 32
   IVDW = 11
   LCHARG = .TRUE.
   LWAVE = .TRUE.
   LREAL = .FALSE.

 POTCAR:   PAW_PBE C 08Apr2002                    
 POTCAR:   PAW_PBE Se 06Sep2000                   
 -----------------------------------------------------------------------------
|                                                                             |
|           W    W    AA    RRRRR   N    N  II  N    N   GGGG   !!!           |
|           W    W   A  A   R    R  NN   N  II  NN   N  G    G  !!!           |
|           W    W  A    A  R    R  N N  N  II  N N  N  G       !!!           |
|           W WW W  AAAAAA  RRRRR   N  N N  II  N  N N  G  GGG   !            |
|           WW  WW  A    A  R   R   N   NN  II  N   NN  G    G                |
|           W    W  A    A  R    R  N    N  II  N    N   GGGG   !!!           |
|                                                                             |
|     You use a magnetic or noncollinear calculation, but did not specify     |
|     the initial magnetic moment with the MAGMOM tag. Note that a            |
|     default of 1 will be used for all atoms. This ferromagnetic setup       |
|     may break the symmetry of the crystal, in particular it may rule        |
|     out finding an antiferromagnetic solution. Thence, we recommend         |
|     setting the initial magnetic moment manually or verifying carefully     |
|     that this magnetic setup is desired.                                    |
|                                                                             |
 -----------------------------------------------------------------------------

 POTCAR:   PAW_PBE C 08Apr2002                    
   VRHFIN =C: s2p2                                                                                  
   LEXCH  = PE                                                                                      
   EATOM  =   147.1560 eV,   10.8157 Ry                                                             
                                                                                                    
   TITEL  = PAW_PBE C 08Apr2002                                                                     
   LULTRA =        F    use ultrasoft PP ?                                                          
   IUNSCR =        0    unscreen: 0-lin 1-nonlin 2-no                                               
   RPACOR =     .000    partial core radius                                                         
   POMASS =   12.011; ZVAL   =    4.000    mass and valenz                                          
   RCORE  =    1.500    outmost cutoff radius                                                       
   RWIGS  =    1.630; RWIGS  =     .863    wigner-seitz radius (au A)                               
   ENMAX  =  400.000; ENMIN  =  300.000 eV                                                          
   ICORE  =        2    local potential                                                             
   LCOR   =        T    correct aug charges                                                         
   LPAW   =        T    paw PP                                                                      
   EAUG   =  644.873                                                                                
   DEXC   =     .000                                                                                
   RMAX   =    2.266    core radius for proj-oper                                                   
   RAUG   =    1.300    factor for augmentation sphere                                              
   RDEP   =    1.501    radius for radial grids                                                     
   RDEPT  =    1.300    core radius for aug-charge                                                  
   QCUT   =   -5.516; QGAM   =   11.032    optimization parameters                                  
                                                                                                    
   Description                                                                                      
     l     E      TYP  RCUT    TYP  RCUT                                                            
     0   .000     23  1.200                                                                         
     0   .000     23  1.200                                                                         
     1   .000     23  1.500                                                                         
     1  2.500     23  1.500                                                                         
     2   .000      7  1.500                                                                         
  local pseudopotential read in
  atomic valenz-charges read in
  non local Contribution for L=            0  read in
    real space projection operators read in
  non local Contribution for L=            0  read in
    real space projection operators read in
  non local Contribution for L=            1  read in
    real space projection operators read in
  non local Contribution for L=            1  read in
    real space projection operators read in
    PAW grid and wavefunctions read in
 
   number of l-projection  operators is LMAX  =            4
   number of lm-projection operators is LMMAX =            8
 
 POTCAR:   PAW_PBE Se 06Sep2000                   
   VRHFIN =Se: s2p4                                                                                 
   LEXCH  = PE                                                                                      
   EATOM  =   256.9644 eV,   18.8864 Ry                                                             
                                                                                                    
   TITEL  = PAW_PBE Se 06Sep2000                                                                    
   LULTRA =        F    use ultrasoft PP ?                                                          
   IUNSCR =        1    unscreen: 0-lin 1-nonlin 2-no                                               
   RPACOR =    1.900    partial core radius                                                         
   POMASS =   78.960; ZVAL   =    6.000    mass and valenz                                          
   RCORE  =    2.100    outmost cutoff radius                                                       
   RWIGS  =    2.200; RWIGS  =    1.164    wigner-seitz radius (au A)                               
   ENMAX  =  211.534; ENMIN  =  158.651 eV                                                          
   ICORE  =        3    local potential                                                             
   LCOR   =        T    correct aug charges                                                         
   LPAW   =        T    paw PP                                                                      
   EAUG   =  446.842                                                                                
   DEXC   =    -.031                                                                                
   RMAX   =    3.170    core radius for proj-oper                                                   
   RAUG   =    1.300    factor for augmentation sphere                                              
   RDEP   =    2.177    radius for radial grids                                                     
   QCUT   =   -3.943; QGAM   =    7.886    optimization parameters                                  
                                                                                                    
   Description                                                                                      
     l     E      TYP  RCUT    TYP  RCUT                                                            
     0   .000     23  2.100                                                                         
     0   .000     23  2.100                                                                         
     1   .000     23  2.100                                                                         
     1   .000     23  2.100                                                                         
     2   .000     23  2.100                                                                         
     3  -.100      7  2.100                                                                         
  local pseudopotential read in
  partial core-charges read in
  atomic valenz-charges read in
  non local Contribution for L=            0  read in
    real space projection operators read in
  non local Contribution for L=            0  read in
    real space projection operators read in
  non local Contribution for L=            1  read in
    real space projection operators read in
  non local Contribution for L=            1  read in
    real space projection operators read in
  non local Contribution for L=            2  read in
    real space projection operators read in
    PAW grid and wavefunctions read in
 
   number of l-projection  operators is LMAX  =            5
   number of lm-projection operators is LMMAX =           13
 
 -----------------------------------------------------------------------------
|                                                                             |
|               ----> ADVICE to this user running VASP <----                  |
|                                                                             |
|     You have a (more or less) 'large supercell' and for larger cells it     |
|     might be more efficient to use real-space projection operators.         |
|     Therefore, try LREAL= Auto in the INCAR file.                           |
|     Mind: If you want to do very accurate calculations, keep the            |
|     reciprocal projection scheme (i.e. LREAL=.FALSE.).                      |
|                                                                             |
 -----------------------------------------------------------------------------

 PAW_PBE C 08Apr2002                    :
 energy of atom  1       EATOM= -147.1560
 kinetic energy error for atom=    0.0288 (will be added to EATOM!!)
 PAW_PBE Se 06Sep2000                   :
 energy of atom  2       EATOM= -256.9644
 kinetic energy error for atom=    0.0020 (will be added to EATOM!!)
 
 
 POSCAR:  C Se
  positions in cartesian coordinates
  No initial velocities read in
 exchange correlation table for  LEXCH =        8
   RHO(1)=    0.500       N(1)  =     2000
   RHO(2)=  100.500       N(2)  =     4000
 


--------------------------------------------------------------------------------------------------------


 ion  position               nearest neighbor table
   1  0.371  0.538  0.002-  85 1.42 363 1.42 288 1.43
   2  0.369  0.544  0.063- 108 1.42  85 1.42   3 1.43
   3  0.338  0.595  0.061-   4 1.42   8 1.42   2 1.43
   4  0.320  0.611  0.030-   3 1.42 288 1.42   5 1.43
   5  0.278  0.629  0.028- 310 1.42  10 1.42   4 1.43
   6  0.366  0.549  0.123- 131 1.42 108 1.42   7 1.43
   7  0.335  0.599  0.122-   8 1.42  16 1.42   6 1.43
   8  0.317  0.614  0.090-   7 1.42   3 1.42   9 1.43
   9  0.274  0.629  0.089-  10 1.42  18 1.42   8 1.43
  10  0.254  0.627  0.057-   9 1.42   5 1.42  11 1.43
  11  0.212  0.603  0.056-  12 1.42  20 1.42  10 1.43
  12  0.196  0.584  0.024-  11 1.42 311 1.42  13 1.43
  13  0.168  0.528  0.023- 329 1.42  22 1.42  12 1.43
  14  0.364  0.554  0.184- 154 1.42 131 1.42  15 1.43
  15  0.331  0.602  0.182-  16 1.42  28 1.42  14 1.43
  16  0.313  0.617  0.151-  15 1.42   7 1.42  17 1.43
  17  0.270  0.629  0.149-  18 1.42  30 1.42  16 1.43
  18  0.250  0.626  0.118-  17 1.42   9 1.42  19 1.43
  19  0.209  0.599  0.116-  20 1.42  32 1.42  18 1.43
  20  0.193  0.580  0.085-  19 1.42  11 1.42  21 1.43
  21  0.166  0.522  0.083-  22 1.42  34 1.42  20 1.43
  22  0.159  0.492  0.052-  21 1.42  13 1.42  23 1.43
  23  0.155  0.420  0.050-  24 1.42  36 1.42  22 1.43
  24  0.159  0.388  0.019-  23 1.42 330 1.42  25 1.43
  25  0.178  0.324  0.017- 344 1.42  38 1.42  24 1.43
  26  0.361  0.560  0.244- 177 1.42 154 1.42  27 1.43
  27  0.328  0.605  0.242-  28 1.42  45 1.42  26 1.43
  28  0.309  0.619  0.211-  27 1.42  15 1.42  29 1.43
  29  0.266  0.629  0.209-  30 1.42  47 1.42  28 1.43
  30  0.246  0.624  0.178-  29 1.42  17 1.42  31 1.43
  31  0.205  0.596  0.176-  32 1.42  49 1.42  30 1.43
  32  0.190  0.575  0.145-  31 1.42  19 1.42  33 1.43
  33  0.164  0.516  0.143-  34 1.42  51 1.42  32 1.43
  34  0.158  0.485  0.112-  33 1.42  21 1.42  35 1.43
  35  0.155  0.414  0.111-  36 1.42  53 1.42  34 1.43
  36  0.160  0.382  0.079-  35 1.42  23 1.42  37 1.43
  37  0.181  0.319  0.078-  38 1.42  55 1.42  36 1.43
  38  0.195  0.295  0.046-  37 1.42  25 1.42  39 1.43
  39  0.233  0.260  0.045-  40 1.42  57 1.42  38 1.43
  40  0.253  0.252  0.013-  39 1.42 345 1.42  41 1.43
  41  0.297  0.254  0.012- 355 1.42  59 1.42  40 1.43
  42  0.371  0.538  0.336-  43 1.42 199 1.42  64 1.43
  43  0.359  0.565  0.305-  42 1.42 177 1.42  44 1.43
  44  0.324  0.609  0.303-  45 1.42  66 1.42  43 1.43
  45  0.305  0.621  0.272-  44 1.42  27 1.42  46 1.43
  46  0.262  0.628  0.270-  47 1.42  68 1.42  45 1.43
  47  0.242  0.623  0.239-  46 1.42  29 1.42  48 1.43
  48  0.202  0.592  0.237-  49 1.42  70 1.42  47 1.43
  49  0.187  0.570  0.206-  48 1.42  31 1.42  50 1.43
  50  0.163  0.510  0.204-  51 1.42  72 1.42  49 1.43
  51  0.157  0.479  0.173-  50 1.42  33 1.42  52 1.43
  52  0.156  0.407  0.171-  53 1.42  74 1.42  51 1.43
  53  0.161  0.375  0.140-  52 1.42  35 1.42  54 1.43
  54  0.183  0.314  0.138-  55 1.42  76 1.42  53 1.43
  55  0.198  0.291  0.107-  54 1.42  37 1.42  56 1.43
  56  0.237  0.258  0.105-  57 1.42  78 1.42  55 1.43
  57  0.257  0.251  0.074-  56 1.42  39 1.42  58 1.43
  58  0.301  0.255  0.072-  59 1.42  80 1.42  57 1.43
  59  0.320  0.266  0.041-  58 1.42  41 1.42  60 1.43
  60  0.356  0.308  0.039-  61 1.42  82 1.42  59 1.43
  61  0.368  0.334  0.008-  60 1.42 356 1.42  62 1.43
  62  0.386  0.399  0.006- 362 1.42  84 1.42  61 1.43
  63  0.370  0.544  0.396-  64 1.41  87 1.43 221 1.43
  64  0.357  0.570  0.365-  63 1.41  42 1.43  65 1.43
  65  0.321  0.611  0.363-  89 1.42  66 1.42  64 1.43
  66  0.302  0.622  0.332-  65 1.42  44 1.42  67 1.43
  67  0.258  0.628  0.330-  91 1.42  68 1.42  66 1.43
  68  0.238  0.621  0.299-  46 1.42  67 1.42  69 1.43
  69  0.199  0.588  0.297-  70 1.42  93 1.42  68 1.43
  70  0.184  0.566  0.266-  69 1.42  48 1.42  71 1.43
  71  0.161  0.504  0.264-  72 1.42  95 1.42  70 1.43
  72  0.156  0.472  0.233-  71 1.42  50 1.42  73 1.43
  73  0.157  0.401  0.231-  74 1.42  97 1.42  72 1.43
  74  0.163  0.369  0.200-  73 1.42  52 1.42  75 1.43
  75  0.186  0.309  0.198-  76 1.42  99 1.42  74 1.43
  76  0.201  0.287  0.167-  75 1.42  54 1.42  77 1.43
  77  0.241  0.256  0.165-  78 1.42 101 1.42  76 1.43
  78  0.261  0.250  0.134-  77 1.42  56 1.42  79 1.43
  79  0.305  0.257  0.132-  80 1.42 103 1.42  78 1.43
  80  0.323  0.269  0.101-  79 1.42  58 1.42  81 1.43
  81  0.358  0.313  0.100-  82 1.42 105 1.42  80 1.43
  82  0.371  0.339  0.068-  81 1.42  60 1.42  83 1.43
  83  0.386  0.406  0.067-  84 1.42 107 1.42  82 1.43
  84  0.388  0.439  0.035-  83 1.42  62 1.42  85 1.43
  85  0.380  0.509  0.034-   1 1.42   2 1.42  84 1.43
  86  0.368  0.550  0.457- 110 1.40  87 1.41 243 1.47
  87  0.354  0.573  0.426-  86 1.41  88 1.43  63 1.43
  88  0.317  0.612  0.424- 112 1.42  89 1.42  87 1.43
  89  0.298  0.623  0.393-  65 1.42  88 1.42  90 1.43
  90  0.254  0.626  0.391-  91 1.42 114 1.42  89 1.43
  91  0.234  0.619  0.360-  90 1.42  67 1.42  92 1.43
  92  0.196  0.584  0.358-  93 1.42 116 1.42  91 1.43
  93  0.181  0.561  0.327-  92 1.42  69 1.42  94 1.43
  94  0.160  0.498  0.325-  95 1.42 118 1.42  93 1.43
  95  0.156  0.466  0.294-  94 1.42  71 1.42  96 1.43
  96  0.158  0.394  0.292-  97 1.42 120 1.42  95 1.43
  97  0.164  0.363  0.261-  96 1.42  73 1.42  98 1.43
  98  0.189  0.304  0.259-  99 1.42 122 1.42  97 1.43
  99  0.205  0.283  0.228-  98 1.42  75 1.42 100 1.43
 100  0.245  0.254  0.226- 101 1.42 124 1.42  99 1.43
 101  0.265  0.249  0.195- 100 1.42  77 1.42 102 1.43
 102  0.308  0.259  0.193- 103 1.42 126 1.42 101 1.43
 103  0.327  0.272  0.162- 102 1.42  79 1.42 104 1.43
 104  0.361  0.318  0.160- 105 1.42 128 1.42 103 1.43
 105  0.373  0.345  0.129- 104 1.42  81 1.42 106 1.43
 106  0.387  0.412  0.127- 107 1.42 130 1.42 105 1.43
 107  0.388  0.445  0.096- 106 1.42  83 1.42 108 1.43
 108  0.378  0.515  0.094-   2 1.42   6 1.42 107 1.43
 109  0.364  0.552  0.517- 265 1.40 133 1.43 110 1.44
 110  0.351  0.576  0.486-  86 1.40 111 1.43 109 1.44
 111  0.313  0.614  0.484- 112 1.42 135 1.42 110 1.43
 112  0.294  0.624  0.453- 111 1.42  88 1.42 113 1.43
 113  0.250  0.625  0.451- 137 1.42 114 1.42 112 1.43
 114  0.230  0.617  0.420- 113 1.42  90 1.42 115 1.43
 115  0.192  0.580  0.418- 116 1.42 139 1.42 114 1.43
 116  0.179  0.555  0.387- 115 1.42  92 1.42 117 1.43
 117  0.159  0.492  0.385- 118 1.42 141 1.42 116 1.43
 118  0.155  0.459  0.354- 117 1.42  94 1.42 119 1.43
 119  0.159  0.388  0.352- 120 1.42 143 1.42 118 1.43
 120  0.166  0.357  0.321- 119 1.42  96 1.42 121 1.43
 121  0.192  0.300  0.319- 122 1.42 145 1.42 120 1.43
 122  0.208  0.279  0.288- 121 1.42  98 1.42 123 1.43
 123  0.249  0.253  0.286- 124 1.42 147 1.42 122 1.43
 124  0.269  0.249  0.255- 123 1.42 100 1.42 125 1.43
 125  0.312  0.261  0.253- 126 1.42 149 1.42 124 1.43
 126  0.330  0.275  0.222- 125 1.42 102 1.42 127 1.43
 127  0.364  0.323  0.220- 128 1.42 151 1.42 126 1.43
 128  0.374  0.350  0.189- 127 1.42 104 1.42 129 1.43
 129  0.387  0.419  0.187- 130 1.42 153 1.42 128 1.43
 130  0.388  0.452  0.156- 129 1.42 106 1.42 131 1.43
 131  0.377  0.521  0.154-   6 1.42  14 1.42 130 1.43
 132  0.362  0.559  0.578- 133 1.42 156 1.42 287 1.42
 133  0.347  0.582  0.546- 132 1.42 134 1.42 109 1.43
 134  0.309  0.617  0.545- 158 1.42 135 1.42 133 1.42
 135  0.290  0.625  0.513- 111 1.42 134 1.42 136 1.42
 136  0.246  0.624  0.512- 137 1.42 160 1.42 135 1.42
 137  0.226  0.614  0.480- 113 1.42 136 1.42 138 1.43
 138  0.189  0.575  0.479- 139 1.42 162 1.42 137 1.43
 139  0.176  0.550  0.447- 138 1.42 115 1.42 140 1.43
 140  0.158  0.485  0.446- 164 1.42 141 1.42 139 1.43
 141  0.155  0.453  0.415- 140 1.42 117 1.42 142 1.43
 142  0.160  0.382  0.413- 143 1.42 166 1.42 141 1.43
 143  0.168  0.351  0.382- 142 1.42 119 1.42 144 1.43
 144  0.195  0.295  0.380- 168 1.42 145 1.42 143 1.43
 145  0.211  0.276  0.349- 144 1.42 121 1.42 146 1.43
 146  0.253  0.251  0.347- 170 1.42 147 1.42 145 1.43
 147  0.273  0.249  0.316- 123 1.42 146 1.42 148 1.43
 148  0.316  0.263  0.314- 149 1.42 172 1.42 147 1.43
 149  0.334  0.279  0.283- 148 1.42 125 1.42 150 1.43
 150  0.366  0.328  0.281- 174 1.42 151 1.42 149 1.43
 151  0.376  0.356  0.250- 150 1.42 127 1.42 152 1.43
 152  0.388  0.425  0.248- 153 1.42 176 1.42 151 1.43
 153  0.387  0.458  0.217- 152 1.42 129 1.42 154 1.43
 154  0.375  0.527  0.215-  14 1.42  26 1.42 153 1.43
 155  0.359  0.565  0.638- 156 1.42 179 1.42 309 1.43
 156  0.344  0.587  0.607- 155 1.42 132 1.42 157 1.42
 157  0.306  0.621  0.605- 158 1.42 181 1.42 156 1.42
 158  0.286  0.627  0.574- 134 1.42 157 1.42 159 1.43
 159  0.242  0.623  0.572- 160 1.42 183 1.42 158 1.43
 160  0.223  0.612  0.541- 159 1.42 136 1.42 161 1.43
 161  0.187  0.570  0.539- 185 1.42 162 1.42 160 1.43
 162  0.174  0.545  0.508- 138 1.42 161 1.42 163 1.43
 163  0.157  0.479  0.506- 164 1.42 187 1.42 162 1.43
 164  0.154  0.446  0.475- 140 1.42 163 1.42 165 1.43
 165  0.161  0.375  0.473- 166 1.42 189 1.42 164 1.43
 166  0.169  0.346  0.442- 165 1.42 142 1.42 167 1.43
 167  0.198  0.291  0.440- 191 1.42 168 1.42 166 1.43
 168  0.215  0.273  0.409- 144 1.42 167 1.42 169 1.43
 169  0.257  0.251  0.407- 170 1.42 193 1.42 168 1.43
 170  0.277  0.249  0.376- 169 1.42 146 1.42 171 1.43
 171  0.320  0.266  0.374- 195 1.42 172 1.42 170 1.43
 172  0.337  0.282  0.343- 171 1.42 148 1.42 173 1.42
 173  0.368  0.333  0.341- 174 1.42 197 1.42 172 1.42
 174  0.378  0.362  0.310- 173 1.42 150 1.42 175 1.43
 175  0.388  0.432  0.308- 176 1.42 199 1.42 174 1.43
 176  0.387  0.465  0.277- 175 1.42 152 1.42 177 1.43
 177  0.373  0.532  0.275-  26 1.42  43 1.42 176 1.43
 178  0.356  0.569  0.699- 179 1.42 201 1.42 328 1.43
 179  0.341  0.591  0.667- 155 1.42 178 1.42 180 1.43
 180  0.302  0.623  0.665- 181 1.42 203 1.42 179 1.43
 181  0.282  0.628  0.634- 180 1.42 157 1.42 182 1.43
 182  0.238  0.621  0.633- 205 1.42 183 1.42 181 1.43
 183  0.219  0.609  0.601- 159 1.42 182 1.42 184 1.43
 184  0.184  0.566  0.600- 185 1.42 207 1.42 183 1.43
 185  0.172  0.539  0.568- 161 1.42 184 1.42 186 1.43
 186  0.156  0.473  0.567- 187 1.42 209 1.42 185 1.43
 187  0.154  0.440  0.535- 186 1.42 163 1.42 188 1.43
 188  0.162  0.369  0.534- 189 1.42 211 1.42 187 1.43
 189  0.171  0.340  0.502- 165 1.42 188 1.42 190 1.43
 190  0.201  0.287  0.501- 191 1.42 213 1.42 189 1.43
 191  0.218  0.270  0.470- 190 1.42 167 1.42 192 1.43
 192  0.261  0.250  0.468- 215 1.42 193 1.42 191 1.43
 193  0.281  0.250  0.437- 192 1.42 169 1.42 194 1.42
 194  0.323  0.271  0.435- 217 1.42 195 1.42 193 1.42
 195  0.340  0.287  0.404- 171 1.42 194 1.42 196 1.42
 196  0.370  0.340  0.402- 197 1.42 195 1.42 219 1.43
 197  0.379  0.368  0.370- 196 1.42 173 1.42 198 1.42
 198  0.388  0.438  0.368- 221 1.42 199 1.42 197 1.42
 199  0.386  0.471  0.337- 198 1.42 175 1.42  42 1.42
 200  0.353  0.574  0.759- 201 1.42 223 1.42 343 1.43
 201  0.338  0.595  0.728- 200 1.42 178 1.42 202 1.43
 202  0.298  0.624  0.726- 203 1.42 225 1.42 201 1.43
 203  0.278  0.629  0.695- 202 1.42 180 1.42 204 1.43
 204  0.234  0.619  0.693- 205 1.42 227 1.42 203 1.43
 205  0.216  0.606  0.662- 204 1.42 182 1.42 206 1.43
 206  0.181  0.561  0.660- 207 1.42 229 1.42 205 1.43
 207  0.170  0.534  0.629- 206 1.42 184 1.42 208 1.43
 208  0.156  0.466  0.627- 209 1.42 231 1.42 207 1.43
 209  0.154  0.433  0.596- 208 1.42 186 1.42 210 1.43
 210  0.164  0.363  0.594- 211 1.42 233 1.42 209 1.43
 211  0.174  0.334  0.563- 210 1.42 188 1.42 212 1.43
 212  0.204  0.283  0.561- 213 1.42 235 1.42 211 1.43
 213  0.222  0.267  0.530- 212 1.42 190 1.42 214 1.43
 214  0.265  0.250  0.528- 215 1.42 237 1.42 213 1.43
 215  0.285  0.251  0.497- 192 1.42 214 1.42 216 1.43
 216  0.327  0.274  0.495- 217 1.42 239 1.42 215 1.43
 217  0.343  0.292  0.464- 216 1.42 194 1.42 218 1.43
 218  0.372  0.346  0.462- 241 1.40 217 1.43 219 1.44
 219  0.381  0.376  0.431- 220 1.40 196 1.43 218 1.44
 220  0.389  0.445  0.428- 219 1.40 221 1.41 243 1.46
 221  0.386  0.478  0.398- 220 1.41 198 1.42  63 1.43
 222  0.351  0.579  0.819- 223 1.42 245 1.42 354 1.43
 223  0.335  0.599  0.788- 222 1.42 200 1.42 224 1.43
 224  0.294  0.626  0.786- 225 1.42 247 1.42 223 1.43
 225  0.274  0.629  0.755- 224 1.42 202 1.42 226 1.43
 226  0.230  0.617  0.753- 227 1.42 249 1.42 225 1.43
 227  0.212  0.603  0.722- 226 1.42 204 1.42 228 1.43
 228  0.179  0.556  0.720- 229 1.42 251 1.42 227 1.43
 229  0.168  0.528  0.689- 228 1.42 206 1.42 230 1.43
 230  0.155  0.460  0.687- 231 1.42 253 1.42 229 1.43
 231  0.155  0.427  0.656- 230 1.42 208 1.42 232 1.43
 232  0.166  0.358  0.655- 233 1.42 255 1.42 231 1.43
 233  0.176  0.329  0.623- 232 1.42 210 1.42 234 1.43
 234  0.208  0.280  0.622- 235 1.42 257 1.42 233 1.43
 235  0.226  0.264  0.590- 234 1.42 212 1.42 236 1.43
 236  0.269  0.249  0.589- 237 1.42 259 1.42 235 1.43
 237  0.289  0.252  0.557- 236 1.42 214 1.42 238 1.43
 238  0.330  0.276  0.556- 261 1.42 239 1.42 237 1.43
 239  0.347  0.296  0.524- 216 1.42 238 1.42 240 1.43
 240  0.375  0.351  0.522- 241 1.41 239 1.43 263 1.43
 241  0.384  0.380  0.491- 218 1.40 240 1.41 242 1.47
 242  0.396  0.452  0.490- 265 1.46 241 1.47 243 1.49 365 2.09
 243  0.392  0.487  0.458- 220 1.46  86 1.47 242 1.49 365 2.09
 244  0.348  0.583  0.880- 245 1.42 267 1.42 361 1.43
 245  0.331  0.602  0.849- 244 1.42 222 1.42 246 1.43
 246  0.290  0.627  0.847- 247 1.42 269 1.42 245 1.43
 247  0.270  0.629  0.816- 246 1.42 224 1.42 248 1.43
 248  0.227  0.615  0.814- 249 1.42 271 1.42 247 1.43
 249  0.209  0.599  0.783- 248 1.42 226 1.42 250 1.43
 250  0.177  0.550  0.781- 251 1.42 273 1.42 249 1.43
 251  0.166  0.522  0.750- 250 1.42 228 1.42 252 1.43
 252  0.155  0.453  0.748- 253 1.42 275 1.42 251 1.43
 253  0.155  0.420  0.717- 252 1.42 230 1.42 254 1.43
 254  0.168  0.352  0.715- 255 1.42 277 1.42 253 1.43
 255  0.178  0.324  0.684- 254 1.42 232 1.42 256 1.43
 256  0.211  0.276  0.682- 257 1.42 279 1.42 255 1.43
 257  0.229  0.262  0.651- 256 1.42 234 1.42 258 1.43
 258  0.273  0.249  0.649- 281 1.42 259 1.42 257 1.43
 259  0.293  0.253  0.618- 236 1.42 258 1.42 260 1.43
 260  0.334  0.279  0.616- 261 1.42 283 1.42 259 1.43
 261  0.350  0.299  0.585- 238 1.42 260 1.42 262 1.43
 262  0.377  0.356  0.583- 263 1.41 285 1.43 261 1.43
 263  0.384  0.386  0.552- 262 1.41 240 1.43 264 1.43
 264  0.388  0.458  0.551- 265 1.41 287 1.42 263 1.43
 265  0.385  0.490  0.520- 109 1.40 264 1.41 242 1.46
 266  0.345  0.587  0.940- 267 1.42 289 1.42 364 1.43
 267  0.328  0.606  0.909- 266 1.42 244 1.42 268 1.43
 268  0.286  0.628  0.907- 269 1.42 291 1.42 267 1.43
 269  0.266  0.629  0.876- 268 1.42 246 1.42 270 1.43
 270  0.223  0.612  0.874- 271 1.42 293 1.42 269 1.43
 271  0.205  0.596  0.843- 270 1.42 248 1.42 272 1.43
 272  0.174  0.545  0.841- 273 1.42 295 1.42 271 1.43
 273  0.164  0.516  0.810- 272 1.42 250 1.42 274 1.43
 274  0.154  0.447  0.808- 275 1.42 297 1.42 273 1.43
 275  0.155  0.414  0.777- 274 1.42 252 1.42 276 1.43
 276  0.169  0.346  0.775- 277 1.42 299 1.42 275 1.43
 277  0.181  0.319  0.744- 276 1.42 254 1.42 278 1.43
 278  0.215  0.273  0.742- 279 1.42 301 1.42 277 1.43
 279  0.233  0.260  0.711- 278 1.42 256 1.42 280 1.43
 280  0.277  0.249  0.709- 281 1.42 303 1.42 279 1.43
 281  0.297  0.254  0.678- 280 1.42 258 1.42 282 1.43
 282  0.337  0.282  0.676- 283 1.42 305 1.42 281 1.43
 283  0.353  0.303  0.645- 282 1.42 260 1.42 284 1.43
 284  0.378  0.362  0.644- 285 1.42 307 1.42 283 1.43
 285  0.385  0.393  0.612- 284 1.42 286 1.42 262 1.43
 286  0.387  0.464  0.611- 287 1.42 309 1.42 285 1.42
 287  0.383  0.496  0.580- 264 1.42 286 1.42 132 1.42
 288  0.341  0.591  0.001- 289 1.42   4 1.42   1 1.43
 289  0.324  0.609  0.970- 288 1.42 266 1.42 290 1.43
 290  0.282  0.628  0.968- 291 1.42 310 1.42 289 1.43
 291  0.262  0.628  0.937- 290 1.42 268 1.42 292 1.43
 292  0.219  0.609  0.935- 293 1.42 312 1.42 291 1.43
 293  0.202  0.592  0.904- 292 1.42 270 1.42 294 1.43
 294  0.172  0.539  0.902- 295 1.42 314 1.42 293 1.43
 295  0.163  0.510  0.871- 294 1.42 272 1.42 296 1.43
 296  0.154  0.440  0.869- 297 1.42 316 1.42 295 1.43
 297  0.156  0.407  0.838- 296 1.42 274 1.42 298 1.43
 298  0.172  0.340  0.836- 299 1.42 318 1.42 297 1.43
 299  0.184  0.314  0.805- 298 1.42 276 1.42 300 1.43
 300  0.218  0.270  0.803- 301 1.42 320 1.42 299 1.43
 301  0.237  0.258  0.772- 300 1.42 278 1.42 302 1.43
 302  0.281  0.250  0.770- 303 1.42 322 1.42 301 1.43
 303  0.301  0.255  0.739- 302 1.42 280 1.42 304 1.43
 304  0.341  0.286  0.737- 305 1.42 324 1.42 303 1.43
 305  0.356  0.308  0.706- 304 1.42 282 1.42 306 1.43
 306  0.380  0.368  0.704- 307 1.42 326 1.42 305 1.43
 307  0.385  0.399  0.673- 306 1.42 284 1.42 308 1.43
 308  0.386  0.471  0.671- 309 1.42 328 1.42 307 1.43
 309  0.381  0.503  0.640- 308 1.42 286 1.42 155 1.43
 310  0.258  0.628  0.997-   5 1.42 290 1.42 311 1.43
 311  0.216  0.606  0.995- 312 1.42  12 1.42 310 1.43
 312  0.199  0.588  0.964- 311 1.42 292 1.42 313 1.43
 313  0.170  0.534  0.962- 314 1.42 329 1.42 312 1.43
 314  0.161  0.504  0.931- 313 1.42 294 1.42 315 1.43
 315  0.154  0.433  0.929- 316 1.42 331 1.42 314 1.43
 316  0.157  0.401  0.898- 315 1.42 296 1.42 317 1.43
 317  0.174  0.335  0.896- 318 1.42 333 1.42 316 1.43
 318  0.186  0.309  0.865- 317 1.42 298 1.42 319 1.43
 319  0.222  0.267  0.863- 320 1.42 335 1.42 318 1.43
 320  0.241  0.256  0.832- 319 1.42 300 1.42 321 1.43
 321  0.285  0.251  0.830- 322 1.42 337 1.42 320 1.43
 322  0.305  0.257  0.799- 321 1.42 302 1.42 323 1.43
 323  0.344  0.290  0.797- 324 1.42 339 1.42 322 1.43
 324  0.358  0.313  0.766- 323 1.42 304 1.42 325 1.43
 325  0.381  0.374  0.764- 326 1.42 341 1.42 324 1.43
 326  0.386  0.406  0.733- 325 1.42 306 1.42 327 1.43
 327  0.386  0.477  0.731- 328 1.42 343 1.42 326 1.43
 328  0.380  0.509  0.700- 327 1.42 308 1.42 178 1.43
 329  0.160  0.498  0.991-  13 1.42 313 1.42 330 1.43
 330  0.155  0.427  0.990- 331 1.42  24 1.42 329 1.43
 331  0.158  0.394  0.958- 330 1.42 315 1.42 332 1.43
 332  0.176  0.329  0.957- 333 1.42 344 1.42 331 1.43
 333  0.189  0.304  0.926- 332 1.42 317 1.42 334 1.43
 334  0.226  0.264  0.924- 335 1.42 346 1.42 333 1.43
 335  0.245  0.254  0.893- 334 1.42 319 1.42 336 1.43
 336  0.289  0.251  0.891- 337 1.42 348 1.42 335 1.43
 337  0.309  0.259  0.860- 336 1.42 321 1.42 338 1.43
 338  0.347  0.294  0.858- 339 1.42 350 1.42 337 1.43
 339  0.361  0.318  0.827- 338 1.42 323 1.42 340 1.43
 340  0.382  0.380  0.825- 341 1.42 352 1.42 339 1.43
 341  0.387  0.412  0.794- 340 1.42 325 1.42 342 1.43
 342  0.385  0.484  0.792- 343 1.42 354 1.42 341 1.43
 343  0.378  0.515  0.761- 342 1.42 327 1.42 200 1.43
 344  0.192  0.300  0.986-  25 1.42 332 1.42 345 1.43
 345  0.229  0.262  0.984- 346 1.42  40 1.42 344 1.43
 346  0.249  0.253  0.953- 345 1.42 334 1.42 347 1.43
 347  0.293  0.253  0.951- 348 1.42 355 1.42 346 1.43
 348  0.312  0.261  0.920- 347 1.42 336 1.42 349 1.43
 349  0.350  0.299  0.918- 350 1.42 357 1.42 348 1.43
 350  0.364  0.323  0.887- 349 1.42 338 1.42 351 1.43
 351  0.384  0.387  0.885- 352 1.42 359 1.42 350 1.43
 352  0.387  0.419  0.854- 351 1.42 340 1.42 353 1.43
 353  0.384  0.490  0.852- 354 1.42 361 1.42 352 1.43
 354  0.377  0.521  0.821- 353 1.42 342 1.42 222 1.43
 355  0.316  0.264  0.980-  41 1.42 347 1.42 356 1.43
 356  0.353  0.303  0.979- 357 1.42  61 1.42 355 1.43
 357  0.366  0.328  0.948- 356 1.42 349 1.42 358 1.43
 358  0.385  0.393  0.946- 359 1.42 362 1.42 357 1.43
 359  0.388  0.426  0.915- 358 1.42 351 1.42 360 1.43
 360  0.383  0.497  0.913- 361 1.42 364 1.42 359 1.43
 361  0.375  0.527  0.882- 360 1.42 353 1.42 244 1.43
 362  0.388  0.432  0.975-  62 1.42 358 1.42 363 1.43
 363  0.381  0.503  0.973- 364 1.42   1 1.42 362 1.43
 364  0.373  0.533  0.942- 363 1.42 360 1.42 266 1.43
 365  0.454  0.484  0.474- 243 2.09 242 2.09
 
  LATTYP: Found a simple orthorhombic cell.
 ALAT       =    19.9214134216
 B/A-ratio  =     1.6250001197
 C/A-ratio  =     2.0303804144
  
  Lattice vectors:
  
 A1 = (   0.0000000000, -19.9214134216,   0.0000000000)
 A2 = (  32.3722991943,   0.0000000000,   0.0000000000)
 A3 = (   0.0000000000,   0.0000000000,  40.4480476379)


Analysis of symmetry for initial positions (statically):
=====================================================================
 Subroutine PRICEL returns:
 Original cell was already a primitive cell.
 

 Routine SETGRP: Setting up the symmetry group for a 
 simple orthorhombic supercell.


 Subroutine GETGRP returns: Found  1 space group operations
 (whereof  1 operations were pure point group operations)
 out of a pool of  8 trial point group operations.


The static configuration has the point symmetry C_1 .


Analysis of symmetry for dynamics (positions and initial velocities):
=====================================================================
 Subroutine PRICEL returns:
 Original cell was already a primitive cell.
 

 Routine SETGRP: Setting up the symmetry group for a 
 simple orthorhombic supercell.


 Subroutine GETGRP returns: Found  1 space group operations
 (whereof  1 operations were pure point group operations)
 out of a pool of  8 trial point group operations.


The dynamic configuration has the point symmetry C_1 .


Analysis of structural, dynamic, and magnetic symmetry:
=====================================================================
 Subroutine PRICEL returns:
 Original cell was already a primitive cell.
 

 Routine SETGRP: Setting up the symmetry group for a 
 simple orthorhombic supercell.


 Subroutine GETGRP returns: Found  1 space group operations
 (whereof  1 operations were pure point group operations)
 out of a pool of  8 trial point group operations.


The overall configuration has the point symmetry C_1 .


 Subroutine INISYM returns: Found  1 space group operations
 (whereof  1 operations are pure point group operations),
 and found     1 'primitive' translations


----------------------------------------------------------------------------------------

                                     Primitive cell                                     

  volume of cell :   26085.0250

  direct lattice vectors                    reciprocal lattice vectors
    32.372299194  0.000000000  0.000000000     0.030890608  0.000000000  0.000000000
     0.000000000 19.921413422  0.000000000     0.000000000  0.050197241  0.000000000
     0.000000000  0.000000000 40.448047638     0.000000000  0.000000000  0.024723072

  length of vectors
    32.372299194 19.921413422 40.448047638     0.030890608  0.050197241  0.024723072

  position of ions in fractional coordinates (direct lattice)
     0.370952315  0.538330162  0.002460319
     0.368783766  0.543838302  0.062893038
     0.338057924  0.595021443  0.061095749
     0.320491965  0.611441250  0.029942494
     0.277809568  0.628813635  0.028130719
     0.366489900  0.549215480  0.123323018
     0.334699216  0.598663823  0.121530019
     0.316798473  0.614084734  0.090380449
     0.273769484  0.629047029  0.088564504
     0.253552963  0.626894857  0.057411586
     0.212101068  0.602923787  0.055601219
     0.195588340  0.583853941  0.024442882
     0.168030960  0.528108428  0.022628586
     0.364047214  0.554444051  0.183754913
     0.331246598  0.602118584  0.181968102
     0.313040579  0.616524329  0.150814149
     0.269727403  0.629075275  0.148998820
     0.249571306  0.625783785  0.117845741
     0.208653155  0.599488081  0.116038966
     0.192556598  0.579503639  0.084882608
     0.166200620  0.522246950  0.083063728
     0.158942115  0.491516747  0.051907147
     0.154981086  0.420307719  0.050085508
     0.158734310  0.387950828  0.018929500
     0.178359727  0.323956497  0.017116825
     0.361485455  0.559536005  0.244169807
     0.327736791  0.605380498  0.242399569
     0.309236620  0.618791349  0.211251055
     0.265672747  0.628917116  0.209438103
     0.245607146  0.624479125  0.178286895
     0.205270452  0.595879638  0.176479393
     0.189614671  0.574990673  0.145321354
     0.164493649  0.516288773  0.143498156
     0.157895101  0.485165828  0.112342092
     0.155444724  0.413773542  0.110525627
     0.159881926  0.381654622  0.079364061
     0.180846489  0.318797204  0.077545952
     0.194999471  0.295229806  0.046393423
     0.233147230  0.259600926  0.044567760
     0.252814024  0.251612852  0.013419262
     0.296793416  0.253833516  0.011613828
     0.371024933  0.538037540  0.335677822
     0.358959762  0.564597783  0.304586262
     0.324205102  0.608536031  0.302832785
     0.305413966  0.620855432  0.271717727
     0.261629397  0.628490459  0.269898874
     0.241673215  0.622927729  0.238734307
     0.201975547  0.592088472  0.236918918
     0.186773370  0.570326403  0.205758389
     0.162926891  0.510231892  0.203933073
     0.156996260  0.478754049  0.172779034
     0.156068571  0.407265833  0.170968054
     0.161164101  0.375416734  0.139802574
     0.183444568  0.313764211  0.137977882
     0.198087988  0.291015801  0.106824378
     0.236968900  0.257548708  0.104998993
     0.256794075  0.250679531  0.073846280
     0.300696899  0.255371875  0.072037983
     0.319796797  0.266421247  0.040892268
     0.355659534  0.307851165  0.039074880
     0.368357723  0.333532271  0.007930172
     0.385529891  0.399365357  0.006132266
     0.369577479  0.544023244  0.396028881
     0.356592598  0.569563780  0.365124795
     0.320595976  0.611105616  0.363327490
     0.301547752  0.622425964  0.332195777
     0.257653380  0.627598965  0.330363304
     0.237799847  0.621085616  0.299179301
     0.198753806  0.588100025  0.297355152
     0.184021740  0.565523835  0.266198737
     0.161473057  0.504104120  0.264371508
     0.156235409  0.472302827  0.233213802
     0.156845138  0.400811570  0.231406037
     0.162607591  0.369262174  0.200246807
     0.186177806  0.308880523  0.198420733
     0.201275568  0.286966275  0.167257090
     0.240830012  0.255679951  0.165433373
     0.260784547  0.249929076  0.134275612
     0.304562476  0.257073716  0.132460661
     0.323420850  0.269209036  0.101320011
     0.358383759  0.312620958  0.099502407
     0.370530827  0.339016069  0.068358317
     0.386299385  0.405764750  0.066563491
     0.388134761  0.438578789  0.035416757
     0.379990203  0.508846897  0.033606836
     0.367680396  0.549540841  0.456662873
     0.353665418  0.573156359  0.425658544
     0.316774424  0.612125616  0.423783757
     0.297593683  0.623138118  0.392605273
     0.253635206  0.626377751  0.390785999
     0.233932687  0.618989539  0.359625617
     0.195539077  0.583944523  0.357792753
     0.181348591  0.560528314  0.326628026
     0.160136382  0.497891726  0.324802180
     0.155592380  0.465817980  0.293644128
     0.157744583  0.394394804  0.291840535
     0.164195959  0.363191771  0.260686447
     0.189031720  0.304170644  0.258863475
     0.204570358  0.283085052  0.227692723
     0.244750308  0.253972649  0.225873303
     0.264799915  0.249347214  0.194714401
     0.308401235  0.258929202  0.192891434
     0.326977692  0.272164153  0.161743377
     0.360986816  0.317516467  0.159925119
     0.372578944  0.344589776  0.128784733
     0.386913095  0.412193258  0.126987766
     0.388063223  0.445100796  0.095850009
     0.378439870  0.514876200  0.094040338
     0.364110169  0.551979508  0.517322402
     0.350542374  0.576244669  0.485687067
     0.313016909  0.613920127  0.484042641
     0.293626765  0.623753506  0.453001105
     0.249539373  0.625175886  0.451198385
     0.230045177  0.616606408  0.420047060
     0.192418014  0.579586920  0.418218180
     0.178718431  0.555422693  0.387046234
     0.158854879  0.491606020  0.385235453
     0.155042857  0.459296167  0.354080476
     0.158728436  0.388035957  0.352277281
     0.165882495  0.357218667  0.321118484
     0.191950575  0.299627447  0.319298950
     0.207936640  0.279400752  0.288143159
     0.248715230  0.252504884  0.286339153
     0.268848335  0.248992883  0.255161667
     0.312205039  0.260989312  0.253327436
     0.330488391  0.275235218  0.222171444
     0.363503960  0.322509633  0.220347202
     0.374491353  0.350251465  0.189213656
     0.387361995  0.418630819  0.187406853
     0.387813707  0.451599136  0.156272500
     0.376719120  0.520785022  0.154469221
     0.361622402  0.559079884  0.577680981
     0.347376802  0.581628380  0.546465737
     0.309335884  0.617321903  0.544565542
     0.289685672  0.624727665  0.513327779
     0.245773075  0.623568053  0.511575751
     0.226306925  0.614118128  0.480428895
     0.189386327  0.575093095  0.478637504
     0.176181946  0.550203636  0.447494476
     0.157706649  0.485261286  0.445693052
     0.154606628  0.452743102  0.414519201
     0.159800496  0.381760382  0.412711564
     0.167593786  0.351338044  0.381558319
     0.194876641  0.295208915  0.379747804
     0.211360066  0.275951423  0.348597579
     0.252687784  0.251424084  0.346809298
     0.272894552  0.248922377  0.315619555
     0.315984463  0.263319786  0.313782636
     0.333948372  0.278519281  0.282626896
     0.365919378  0.327655012  0.280782796
     0.376275911  0.356017761  0.249630358
     0.387645618  0.425069062  0.247798561
     0.387416701  0.458052275  0.216679315
     0.374864980  0.526597699  0.214889310
     0.358999950  0.564507036  0.638096851
     0.344349126  0.587130147  0.606934795
     0.305540086  0.620551130  0.605033756
     0.285773421  0.627124850  0.573796254
     0.241826039  0.622717178  0.572020189
     0.222693042  0.611601263  0.540899461
     0.186734882  0.570433476  0.539097808
     0.173959573  0.544766118  0.507934637
     0.156841340  0.478907848  0.506139700
     0.154315406  0.446253170  0.474975549
     0.160988680  0.375496065  0.473172903
     0.169424381  0.345568670  0.442012882
     0.197854627  0.291004616  0.440211032
     0.214745000  0.272670619  0.409040891
     0.256603296  0.250708590  0.407249660
     0.276895215  0.249341523  0.376120145
     0.319653807  0.266427531  0.374320270
     0.337298315  0.282339179  0.343082270
     0.368171175  0.333112141  0.341191577
     0.377981844  0.361883772  0.310037473
     0.387831881  0.431590589  0.308154477
     0.386870140  0.464509378  0.277067597
     0.372912132  0.532324131  0.275307806
     0.356266690  0.569385564  0.698502446
     0.341176948  0.591356695  0.667342863
     0.301631282  0.622711852  0.665491109
     0.281700953  0.628415416  0.634328444
     0.237931216  0.621251600  0.632510378
     0.219098424  0.609056337  0.601329005
     0.184115117  0.565691244  0.599533944
     0.171899147  0.539318552  0.568389915
     0.156152626  0.472529978  0.566596830
     0.154310789  0.439705055  0.535442477
     0.162439933  0.369454244  0.533628247
     0.171392848  0.339929128  0.502458857
     0.200967383  0.286920914  0.500662141
     0.218138154  0.269538601  0.469514372
     0.260529056  0.250118602  0.467734002
     0.280833504  0.250458131  0.436579267
     0.322965131  0.270612010  0.434807761
     0.340341001  0.287201437  0.403557116
     0.370063079  0.339758324  0.401666866
     0.379487790  0.368234731  0.370454151
     0.387957035  0.438239982  0.368469228
     0.386230248  0.471059930  0.337362443
     0.353483487  0.574130705  0.758919310
     0.337907091  0.595214427  0.727778615
     0.297709474  0.624301795  0.725954365
     0.277649185  0.628948646  0.694789413
     0.234068043  0.619334424  0.692964414
     0.215502089  0.606172703  0.661793177
     0.181498404  0.560772684  0.659988272
     0.169930920  0.533715536  0.628835692
     0.155606431  0.466121734  0.627038276
     0.154444882  0.433222819  0.595880874
     0.164055153  0.363439722  0.594066096
     0.173646090  0.334455286  0.562915385
     0.204343801  0.283204703  0.561118458
     0.221858718  0.266771706  0.529943661
     0.264562658  0.249647961  0.528121639
     0.284739399  0.250848379  0.496966732
     0.326561508  0.273542720  0.495152271
     0.343257200  0.292268838  0.464093088
     0.372147629  0.346433610  0.462457081
     0.380585243  0.376171323  0.430813006
     0.389275980  0.445056243  0.428497508
     0.386311115  0.477630112  0.397614866
     0.350591083  0.578667338  0.819349994
     0.334564247  0.598851567  0.788202588
     0.293772371  0.625625012  0.786392708
     0.273620706  0.629177875  0.755235255
     0.230250395  0.617120943  0.753411977
     0.211976152  0.602936477  0.722257631
     0.178969780  0.555666794  0.720443977
     0.167999181  0.527995926  0.689274464
     0.155114015  0.459632834  0.687470378
     0.154680102  0.426708335  0.656319218
     0.165778087  0.357514219  0.654501984
     0.176017341  0.329102026  0.623347508
     0.207788218  0.279639856  0.621539852
     0.225640011  0.264174107  0.590376283
     0.268717806  0.249342701  0.588541120
     0.288876945  0.251790325  0.557383184
     0.330243469  0.276166759  0.555561672
     0.346528621  0.295902416  0.524365709
     0.374604671  0.350952913  0.522493679
     0.383624164  0.380252707  0.491475761
     0.395703557  0.451530948  0.490139516
     0.392293051  0.487366501  0.457974216
     0.347606061  0.583036101  0.879782483
     0.331166356  0.602312368  0.848631671
     0.289817247  0.626758934  0.846827218
     0.269598401  0.629152201  0.815678974
     0.226511777  0.614661478  0.813854827
     0.208536554  0.599459100  0.782699454
     0.176539708  0.550392187  0.780887223
     0.166156109  0.522142040  0.749722610
     0.154730770  0.453090149  0.747908503
     0.155014487  0.420174407  0.716753907
     0.167578231  0.351654653  0.714935833
     0.178435575  0.323852108  0.683778177
     0.211253377  0.276201147  0.681969439
     0.229465446  0.261794311  0.650816908
     0.272788355  0.249249527  0.648983090
     0.292935907  0.252643791  0.617805365
     0.333884714  0.278843982  0.615978459
     0.350004410  0.298819550  0.584836926
     0.376775186  0.355873591  0.583035194
     0.384486894  0.386490899  0.552118904
     0.388285430  0.457980722  0.550520562
     0.385100607  0.490476466  0.519624793
     0.344517821  0.587219513  0.940218703
     0.327679016  0.605563039  0.909067718
     0.285835056  0.627673280  0.907262712
     0.265578344  0.628917037  0.876112152
     0.222830091  0.612013872  0.874288884
     0.205184145  0.595815889  0.843135271
     0.174234166  0.544990966  0.841326273
     0.164442057  0.516168952  0.810170545
     0.154490525  0.446523634  0.808347380
     0.155468736  0.413644943  0.777187858
     0.169482475  0.345864512  0.775375085
     0.180931439  0.318700818  0.744217498
     0.214736727  0.272924554  0.742408258
     0.233260674  0.259552645  0.711252088
     0.276812484  0.249394501  0.709424085
     0.296891687  0.253755937  0.678265726
     0.337278918  0.282273397  0.676460825
     0.352968239  0.303095979  0.645342327
     0.378105595  0.361847238  0.643577438
     0.384777295  0.392993033  0.612479830
     0.386986171  0.464297884  0.610787916
     0.382609544  0.496408527  0.579662569
     0.341333360  0.591210110  0.000658780
     0.324121746  0.608608290  0.969504514
     0.281835059  0.628362097  0.967696277
     0.261565570  0.628480715  0.936545269
     0.219197383  0.609188121  0.934724783
     0.201909052  0.592001473  0.903571907
     0.172058858  0.539470829  0.901763626
     0.162883530  0.510113523  0.870609062
     0.154408775  0.439957841  0.868782685
     0.156070017  0.407144614  0.837627039
     0.171516290  0.340193735  0.835817355
     0.183531850  0.313686047  0.804658626
     0.218297502  0.269857709  0.802845802
     0.237079631  0.257520281  0.771690534
     0.280833771  0.249835026  0.769873619
     0.300805104  0.255341787  0.738723914
     0.340517662  0.286155353  0.736929135
     0.355731204  0.307891030  0.705781328
     0.379535529  0.367998020  0.703995014
     0.385476537  0.399457721  0.672854163
     0.386342984  0.470953382  0.671091784
     0.381232259  0.502780863  0.639988829
     0.257558370  0.627802282  0.996979125
     0.215623803  0.606150705  0.995163787
     0.198713665  0.588011119  0.964006703
     0.169993073  0.533844254  0.962196332
     0.161446470  0.503988573  0.931043629
     0.154468223  0.433395807  0.929217488
     0.156830512  0.400697083  0.898063854
     0.173689434  0.334657527  0.896255711
     0.186255071  0.308838986  0.865097568
     0.221933287  0.266990366  0.863280081
     0.240969363  0.255731604  0.832128498
     0.284854122  0.250526528  0.830318908
     0.304692513  0.257172860  0.799162597
     0.343714905  0.290191068  0.797363271
     0.358450245  0.312762490  0.766211318
     0.380997669  0.374172132  0.764407786
     0.386233204  0.405958441  0.733271881
     0.385629420  0.477466132  0.731485794
     0.379809603  0.509006838  0.700354062
     0.160134009  0.497787294  0.991475500
     0.154660335  0.426843991  0.989650380
     0.157720550  0.394292751  0.958495965
     0.175971053  0.329235996  0.956687479
     0.189080902  0.304134207  0.925533611
     0.225627892  0.264313713  0.923711788
     0.244895203  0.254140080  0.892560056
     0.288861691  0.251417954  0.890753512
     0.308546378  0.259176368  0.859598172
     0.346853395  0.294365668  0.857791653
     0.361093946  0.317770247  0.826643956
     0.382337799  0.380391987  0.824835825
     0.386895395  0.412468551  0.793687507
     0.384786046  0.483883928  0.791892474
     0.378325056  0.515105672  0.760750379
     0.192002585  0.299604896  0.985965505
     0.229370524  0.261858448  0.984140705
     0.248844475  0.252760390  0.952989814
     0.292846757  0.252511664  0.951186079
     0.312355712  0.261393710  0.920034406
     0.349889035  0.298712621  0.918221909
     0.363629625  0.322904412  0.887071977
     0.383533555  0.386668551  0.885264884
     0.387422995  0.418982615  0.854112660
     0.383794615  0.490245948  0.852313124
     0.376675607  0.521078834  0.821170256
     0.316116229  0.263795544  0.980465249
     0.352833318  0.303199378  0.978649148
     0.366054739  0.328154802  0.947500402
     0.384606282  0.392992136  0.945697633
     0.387806012  0.425513185  0.914546756
     0.382672393  0.496530350  0.912742699
     0.374898587  0.526953643  0.881596057
     0.388046159  0.432047933  0.974980945
     0.381401928  0.502729074  0.973173450
     0.372995484  0.532705119  0.942026160
     0.453583989  0.484188873  0.473989450

  ion indices of the primitive-cell ions
   primitive index   ion index
                 1           1
                 2           2
                 3           3
                 4           4
                 5           5
                 6           6
                 7           7
                 8           8
                 9           9
                10          10
                11          11
                12          12
                13          13
                14          14
                15          15
                16          16
                17          17
                18          18
                19          19
                20          20
                21          21
                22          22
                23          23
                24          24
                25          25
                26          26
                27          27
                28          28
                29          29
                30          30
                31          31
                32          32
                33          33
                34          34
                35          35
                36          36
                37          37
                38          38
                39          39
                40          40
                41          41
                42          42
                43          43
                44          44
                45          45
                46          46
                47          47
                48          48
                49          49
                50          50
                51          51
                52          52
                53          53
                54          54
                55          55
                56          56
                57          57
                58          58
                59          59
                60          60
                61          61
                62          62
                63          63
                64          64
                65          65
                66          66
                67          67
                68          68
                69          69
                70          70
                71          71
                72          72
                73          73
                74          74
                75          75
                76          76
                77          77
                78          78
                79          79
                80          80
                81          81
                82          82
                83          83
                84          84
                85          85
                86          86
                87          87
                88          88
                89          89
                90          90
                91          91
                92          92
                93          93
                94          94
                95          95
                96          96
                97          97
                98          98
                99          99
               100         100
               101         101
               102         102
               103         103
               104         104
               105         105
               106         106
               107         107
               108         108
               109         109
               110         110
               111         111
               112         112
               113         113
               114         114
               115         115
               116         116
               117         117
               118         118
               119         119
               120         120
               121         121
               122         122
               123         123
               124         124
               125         125
               126         126
               127         127
               128         128
               129         129
               130         130
               131         131
               132         132
               133         133
               134         134
               135         135
               136         136
               137         137
               138         138
               139         139
               140         140
               141         141
               142         142
               143         143
               144         144
               145         145
               146         146
               147         147
               148         148
               149         149
               150         150
               151         151
               152         152
               153         153
               154         154
               155         155
               156         156
               157         157
               158         158
               159         159
               160         160
               161         161
               162         162
               163         163
               164         164
               165         165
               166         166
               167         167
               168         168
               169         169
               170         170
               171         171
               172         172
               173         173
               174         174
               175         175
               176         176
               177         177
               178         178
               179         179
               180         180
               181         181
               182         182
               183         183
               184         184
               185         185
               186         186
               187         187
               188         188
               189         189
               190         190
               191         191
               192         192
               193         193
               194         194
               195         195
               196         196
               197         197
               198         198
               199         199
               200         200
               201         201
               202         202
               203         203
               204         204
               205         205
               206         206
               207         207
               208         208
               209         209
               210         210
               211         211
               212         212
               213         213
               214         214
               215         215
               216         216
               217         217
               218         218
               219         219
               220         220
               221         221
               222         222
               223         223
               224         224
               225         225
               226         226
               227         227
               228         228
               229         229
               230         230
               231         231
               232         232
               233         233
               234         234
               235         235
               236         236
               237         237
               238         238
               239         239
               240         240
               241         241
               242         242
               243         243
               244         244
               245         245
               246         246
               247         247
               248         248
               249         249
               250         250
               251         251
               252         252
               253         253
               254         254
               255         255
               256         256
               257         257
               258         258
               259         259
               260         260
               261         261
               262         262
               263         263
               264         264
               265         265
               266         266
               267         267
               268         268
               269         269
               270         270
               271         271
               272         272
               273         273
               274         274
               275         275
               276         276
               277         277
               278         278
               279         279
               280         280
               281         281
               282         282
               283         283
               284         284
               285         285
               286         286
               287         287
               288         288
               289         289
               290         290
               291         291
               292         292
               293         293
               294         294
               295         295
               296         296
               297         297
               298         298
               299         299
               300         300
               301         301
               302         302
               303         303
               304         304
               305         305
               306         306
               307         307
               308         308
               309         309
               310         310
               311         311
               312         312
               313         313
               314         314
               315         315
               316         316
               317         317
               318         318
               319         319
               320         320
               321         321
               322         322
               323         323
               324         324
               325         325
               326         326
               327         327
               328         328
               329         329
               330         330
               331         331
               332         332
               333         333
               334         334
               335         335
               336         336
               337         337
               338         338
               339         339
               340         340
               341         341
               342         342
               343         343
               344         344
               345         345
               346         346
               347         347
               348         348
               349         349
               350         350
               351         351
               352         352
               353         353
               354         354
               355         355
               356         356
               357         357
               358         358
               359         359
               360         360
               361         361
               362         362
               363         363
               364         364
               365         365

----------------------------------------------------------------------------------------

 
 
 KPOINTS: KPOINTS created by Atomic Simulation Env

Automatic generation of k-mesh.
 Grid dimensions read from file:
 generate k-points for:    1    1    2

 Generating k-lattice:

  Cartesian coordinates                     Fractional coordinates (reciprocal lattice)
     0.030890608  0.000000000  0.000000000     1.000000000  0.000000000  0.000000000
     0.000000000  0.050197241  0.000000000     0.000000000  1.000000000  0.000000000
     0.000000000  0.000000000  0.012361536     0.000000000  0.000000000  0.500000000

  Length of vectors
     0.030890608  0.050197241  0.012361536

  Shift w.r.t. Gamma in fractional coordinates (k-lattice)
     0.000000000  0.000000000  0.000000000

 
 Subroutine IBZKPT returns following result:
 ===========================================
 
 Found      2 irreducible k-points:
 
 Following reciprocal coordinates:
            Coordinates               Weight
  0.000000  0.000000  0.000000      1.000000
  0.000000  0.000000  0.500000      1.000000
 
 Following cartesian coordinates:
            Coordinates               Weight
  0.000000  0.000000  0.000000      1.000000
  0.000000  0.000000  0.012362      1.000000
 


--------------------------------------------------------------------------------------------------------




 Dimension of arrays:
   k-points           NKPTS =      2   k-points in BZ     NKDIM =      2   number of bands    NBANDS=    896
   number of dos      NEDOS =    301   number of ions     NIONS =    365
   non local maximal  LDIM  =      5   non local SUM 2l+1 LMDIM =     13
   total plane-waves  NPLWV = ******
   max r-space proj   IRMAX =      1   max aug-charges    IRDMAX=  13848
   dimension x,y,z NGX =   216 NGY =  140 NGZ =  270
   dimension x,y,z NGXF=   432 NGYF=  280 NGZF=  540
   support grid    NGXF=   432 NGYF=  280 NGZF=  540
   ions per type =             364   1
   NGX,Y,Z   is equivalent  to a cutoff of  11.09, 11.68, 11.10 a.u.
   NGXF,Y,Z  is equivalent  to a cutoff of  22.19, 23.37, 22.19 a.u.

 SYSTEM =  02_SCF                                  
 POSCAR =   C Se                                   

 Startparameter for this run:
   NWRITE =      2    write-flag & timer
   PREC   = accura    normal or accurate (medium, high low for compatibility)
   ISTART =      0    job   : 0-new  1-cont  2-samecut
   ICHARG =      2    charge: 1-file 2-atom 10-const
   ISPIN  =      2    spin polarized calculation?
   LNONCOLLINEAR =      F non collinear calculations
   LSORBIT =      F    spin-orbit coupling
   INIWAV =      1    electr: 0-lowe 1-rand  2-diag
   LASPH  =      F    aspherical Exc in radial PAW
 Electronic Relaxation 1
   ENCUT  =  400.0 eV  29.40 Ry    5.42 a.u.  52.79 32.49 65.96*2*pi/ulx,y,z
   ENINI  =  400.0     initial cutoff
   ENAUG  =  644.9 eV  augmentation charge cutoff
   NELM   =     60;   NELMIN=  5; NELMDL=  0     # of ELM steps 
   EDIFF  = 0.1E-05   stopping-criterion for ELM
   LREAL  =      F    real-space projection
   NLSPLINE    = F    spline interpolate recip. space projectors
   LCOMPAT=      F    compatible to vasp.4.4
   GGA_COMPAT  = T    GGA compatible to vasp.4.4-vasp.4.6
   LMAXPAW     = -100 max onsite density
   LMAXMIX     =    2 max onsite mixed and CHGCAR
   VOSKOWN=      0    Vosko Wilk Nusair interpolation
   ROPT   =    0.00000   0.00000
 Ionic relaxation
   EDIFFG = 0.1E-04   stopping-criterion for IOM
   NSW    =      0    number of steps for IOM
   NBLOCK =      1;   KBLOCK =      1    inner block; outer block 
   IBRION =     -1    ionic relax: 0-MD 1-quasi-New 2-CG
   NFREE  =      0    steps in history (QN), initial steepest desc. (CG)
   ISIF   =      2    stress and relaxation
   IWAVPR =     10    prediction:  0-non 1-charg 2-wave 3-comb
   ISYM   =      2    0-nonsym 1-usesym 2-fastsym
   LCORR  =      T    Harris-Foulkes like correction to forces

   POTIM  = 0.5000    time-step for ionic-motion
   TEIN   =    0.0    initial temperature
   TEBEG  =    0.0;   TEEND  =   0.0 temperature during run
   SMASS  =  -3.00    Nose mass-parameter (am)
   estimated Nose-frequenzy (Omega)   =  0.10E-29 period in steps = 0.13E+47 mass=  -0.239E-25a.u.
   SCALEE = 1.0000    scale energy and forces
   NPACO  =    256;   APACO  = 10.0  distance and # of slots for P.C.
   PSTRESS=    0.0 pullay stress

  Mass of Ions in am
   POMASS =  12.01 78.96
  Ionic Valenz
   ZVAL   =   4.00  6.00
  Atomic Wigner-Seitz radii
   RWIGS  =  -1.00 -1.00
  virtual crystal weights 
   VCA    =   1.00  1.00
   NELECT =    1462.0000    total number of electrons
   NUPDOWN=      -1.0000    fix difference up-down

 DOS related values:
   EMIN   =  10.00;   EMAX   =-10.00  energy-range for DOS
   EFERMI =   0.00;   METHOD = LEGACY      
   ISMEAR =     0;   SIGMA  =   0.01  broadening in eV -4-tet -1-fermi 0-gaus

 Electronic relaxation 2 (details)
   IALGO  =     38    algorithm
   LDIAG  =      T    sub-space diagonalisation (order eigenvalues)
   LSUBROT=      F    optimize rotation matrix (better conditioning)
   TURBO    =      0    0=normal 1=particle mesh
   IRESTART =      0    0=no restart 2=restart with 2 vectors
   NREBOOT  =      0    no. of reboots
   NMIN     =      0    reboot dimension
   EREF     =   0.00    reference energy to select bands
   IMIX   =      4    mixing-type and parameters
     AMIX     =   0.40;   BMIX     =  1.00
     AMIX_MAG =   1.60;   BMIX_MAG =  1.00
     AMIN     =   0.10
     WC   =   100.;   INIMIX=   1;  MIXPRE=   1;  MAXMIX= -45

 Intra band minimization:
   WEIMIN = 0.0000     energy-eigenvalue tresh-hold
   EBREAK =  0.28E-09  absolut break condition
   DEPER  =   0.30     relativ break condition  

   TIME   =   0.40     timestep for ELM

  volume/ion in A,a.u.               =      71.47       482.28
  Fermi-wavevector in a.u.,A,eV,Ry     =   0.626508  1.183929  5.340460  0.392513
  Thomas-Fermi vector in A             =   1.687786
 
 Write flags
   LWAVE        =      T    write WAVECAR
   LDOWNSAMPLE  =      F    k-point downsampling of WAVECAR
   LCHARG       =      T    write CHGCAR
   LVTOT        =      F    write LOCPOT, total local potential
   LVHAR        =      F    write LOCPOT, Hartree potential only
   LELF         =      F    write electronic localiz. function (ELF)
   LORBIT       =     11    0 simple, 1 ext, 2 COOP (PROOUT), +10 PAW based schemes


 Dipole corrections
   LMONO  =      F    monopole corrections only (constant potential shift)
   LDIPOL =      F    correct potential (dipole corrections)
   IDIPOL =      0    1-x, 2-y, 3-z, 4-all directions 
   EPSILON=  1.0000000 bulk dielectric constant

 Exchange correlation treatment:
   GGA     =    PE    GGA type
   LEXCH   =     8    internal setting for exchange type
   LIBXC   =     F    Libxc                    
   VOSKOWN =     0    Vosko Wilk Nusair interpolation
   LHFCALC =     F    Hartree Fock is set to
   LHFONE  =     F    Hartree Fock one center treatment
   AEXX    =    0.0000 exact exchange contribution

 Linear response parameters
   LEPSILON=     F    determine dielectric tensor
   LRPA    =     F    only Hartree local field effects (RPA)
   LNABLA  =     F    use nabla operator in PAW spheres
   LVEL    =     F    velocity operator in full k-point grid
   CSHIFT  =0.1000    complex shift for real part using Kramers Kronig
   OMEGAMAX=  -1.0    maximum frequency
   DEG_THRESHOLD= 0.2000000E-02 threshold for treating states as degnerate
   RTIME   =   -0.100 relaxation time in fs
  (WPLASMAI=    0.000 imaginary part of plasma frequency in eV, 0.658/RTIME)
   DFIELD  = 0.0000000 0.0000000 0.0000000 field for delta impulse in time
 
  Optional k-point grid parameters
   LKPOINTS_OPT  =     F    use optional k-point grid
   KPOINTS_OPT_MODE=     1    mode for optional k-point grid
 
 Orbital magnetization related:
   ORBITALMAG=     F  switch on orbital magnetization
   LCHIMAG   =     F  perturbation theory with respect to B field
   DQ        =  0.001000  dq finite difference perturbation B field
   LLRAUG    =     F  two centre corrections for induced B field
   LBONE     =     F  B-component reconstruction in AE one-centre
   LVGVCALC  =     T  calculate vGv susceptibility
   LVGVAPPL  =     F  apply vGv susceptibility instead of pGv for G=0

 Random number generation:
   RANDOM_GENERATOR = DEFAULT
   PCG_SEED         = not used


--------------------------------------------------------------------------------------------------------


 Static calculation
 charge density and potential will be updated during run
 spin polarized calculation
 Variant of blocked Davidson
 Davidson routine will perform the subspace rotation
 perform sub-space diagonalisation
    after iterative eigenvector-optimisation
 modified Broyden-mixing scheme, WC =      100.0
 initial mixing is a Kerker type mixing with AMIX =  0.4000 and BMIX =      1.0000
 Hartree-type preconditioning will be used
 using additional bands           165
 reciprocal scheme for non local part
 use partial core corrections
 calculate Harris-corrections to forces 
   (improved forces if not selfconsistent)
 use gradient corrections 
 use of overlap-Matrix (Vanderbilt PP)
 Gauss-broadening in eV      SIGMA  =   0.01


--------------------------------------------------------------------------------------------------------


  energy-cutoff  :      400.00
  volume of cell :    26085.03
      direct lattice vectors                 reciprocal lattice vectors
    32.372299194  0.000000000  0.000000000     0.030890608  0.000000000  0.000000000
     0.000000000 19.921413422  0.000000000     0.000000000  0.050197241  0.000000000
     0.000000000  0.000000000 40.448047638     0.000000000  0.000000000  0.024723072

  length of vectors
    32.372299194 19.921413422 40.448047638     0.030890608  0.050197241  0.024723072


 
 k-points in units of 2pi/SCALE and weight: KPOINTS created by Atomic Simulation Env
   0.00000000  0.00000000  0.00000000       0.500
   0.00000000  0.00000000  0.01236154       0.500
 
 k-points in reciprocal lattice and weights: KPOINTS created by Atomic Simulation Env
   0.00000000  0.00000000  0.00000000       0.500
   0.00000000  0.00000000  0.50000000       0.500
 
 position of ions in fractional coordinates (direct lattice) 
   0.37095232  0.53833016  0.00246032
   0.36878377  0.54383830  0.06289304
   0.33805792  0.59502144  0.06109575
   0.32049196  0.61144125  0.02994249
   0.27780957  0.62881364  0.02813072
   0.36648990  0.54921548  0.12332302
   0.33469922  0.59866382  0.12153002
   0.31679847  0.61408473  0.09038045
   0.27376948  0.62904703  0.08856450
   0.25355296  0.62689486  0.05741159
   0.21210107  0.60292379  0.05560122
   0.19558834  0.58385394  0.02444288
   0.16803096  0.52810843  0.02262859
   0.36404721  0.55444405  0.18375491
   0.33124660  0.60211858  0.18196810
   0.31304058  0.61652433  0.15081415
   0.26972740  0.62907527  0.14899882
   0.24957131  0.62578379  0.11784574
   0.20865315  0.59948808  0.11603897
   0.19255660  0.57950364  0.08488261
   0.16620062  0.52224695  0.08306373
   0.15894212  0.49151675  0.05190715
   0.15498109  0.42030772  0.05008551
   0.15873431  0.38795083  0.01892950
   0.17835973  0.32395650  0.01711683
   0.36148546  0.55953601  0.24416981
   0.32773679  0.60538050  0.24239957
   0.30923662  0.61879135  0.21125105
   0.26567275  0.62891712  0.20943810
   0.24560715  0.62447913  0.17828690
   0.20527045  0.59587964  0.17647939
   0.18961467  0.57499067  0.14532135
   0.16449365  0.51628877  0.14349816
   0.15789510  0.48516583  0.11234209
   0.15544472  0.41377354  0.11052563
   0.15988193  0.38165462  0.07936406
   0.18084649  0.31879720  0.07754595
   0.19499947  0.29522981  0.04639342
   0.23314723  0.25960093  0.04456776
   0.25281402  0.25161285  0.01341926
   0.29679342  0.25383352  0.01161383
   0.37102493  0.53803754  0.33567782
   0.35895976  0.56459778  0.30458626
   0.32420510  0.60853603  0.30283278
   0.30541397  0.62085543  0.27171773
   0.26162940  0.62849046  0.26989887
   0.24167322  0.62292773  0.23873431
   0.20197555  0.59208847  0.23691892
   0.18677337  0.57032640  0.20575839
   0.16292689  0.51023189  0.20393307
   0.15699626  0.47875405  0.17277903
   0.15606857  0.40726583  0.17096805
   0.16116410  0.37541673  0.13980257
   0.18344457  0.31376421  0.13797788
   0.19808799  0.29101580  0.10682438
   0.23696890  0.25754871  0.10499899
   0.25679407  0.25067953  0.07384628
   0.30069690  0.25537187  0.07203798
   0.31979680  0.26642125  0.04089227
   0.35565953  0.30785116  0.03907488
   0.36835772  0.33353227  0.00793017
   0.38552989  0.39936536  0.00613227
   0.36957748  0.54402324  0.39602888
   0.35659260  0.56956378  0.36512479
   0.32059598  0.61110562  0.36332749
   0.30154775  0.62242596  0.33219578
   0.25765338  0.62759897  0.33036330
   0.23779985  0.62108562  0.29917930
   0.19875381  0.58810002  0.29735515
   0.18402174  0.56552384  0.26619874
   0.16147306  0.50410412  0.26437151
   0.15623541  0.47230283  0.23321380
   0.15684514  0.40081157  0.23140604
   0.16260759  0.36926217  0.20024681
   0.18617781  0.30888052  0.19842073
   0.20127557  0.28696628  0.16725709
   0.24083001  0.25567995  0.16543337
   0.26078455  0.24992908  0.13427561
   0.30456248  0.25707372  0.13246066
   0.32342085  0.26920904  0.10132001
   0.35838376  0.31262096  0.09950241
   0.37053083  0.33901607  0.06835832
   0.38629938  0.40576475  0.06656349
   0.38813476  0.43857879  0.03541676
   0.37999020  0.50884690  0.03360684
   0.36768040  0.54954084  0.45666287
   0.35366542  0.57315636  0.42565854
   0.31677442  0.61212562  0.42378376
   0.29759368  0.62313812  0.39260527
   0.25363521  0.62637775  0.39078600
   0.23393269  0.61898954  0.35962562
   0.19553908  0.58394452  0.35779275
   0.18134859  0.56052831  0.32662803
   0.16013638  0.49789173  0.32480218
   0.15559238  0.46581798  0.29364413
   0.15774458  0.39439480  0.29184053
   0.16419596  0.36319177  0.26068645
   0.18903172  0.30417064  0.25886347
   0.20457036  0.28308505  0.22769272
   0.24475031  0.25397265  0.22587330
   0.26479991  0.24934721  0.19471440
   0.30840123  0.25892920  0.19289143
   0.32697769  0.27216415  0.16174338
   0.36098682  0.31751647  0.15992512
   0.37257894  0.34458978  0.12878473
   0.38691310  0.41219326  0.12698777
   0.38806322  0.44510080  0.09585001
   0.37843987  0.51487620  0.09404034
   0.36411017  0.55197951  0.51732240
   0.35054237  0.57624467  0.48568707
   0.31301691  0.61392013  0.48404264
   0.29362677  0.62375351  0.45300111
   0.24953937  0.62517589  0.45119839
   0.23004518  0.61660641  0.42004706
   0.19241801  0.57958692  0.41821818
   0.17871843  0.55542269  0.38704623
   0.15885488  0.49160602  0.38523545
   0.15504286  0.45929617  0.35408048
   0.15872844  0.38803596  0.35227728
   0.16588250  0.35721867  0.32111848
   0.19195058  0.29962745  0.31929895
   0.20793664  0.27940075  0.28814316
   0.24871523  0.25250488  0.28633915
   0.26884833  0.24899288  0.25516167
   0.31220504  0.26098931  0.25332744
   0.33048839  0.27523522  0.22217144
   0.36350396  0.32250963  0.22034720
   0.37449135  0.35025146  0.18921366
   0.38736199  0.41863082  0.18740685
   0.38781371  0.45159914  0.15627250
   0.37671912  0.52078502  0.15446922
   0.36162240  0.55907988  0.57768098
   0.34737680  0.58162838  0.54646574
   0.30933588  0.61732190  0.54456554
   0.28968567  0.62472767  0.51332778
   0.24577308  0.62356805  0.51157575
   0.22630692  0.61411813  0.48042890
   0.18938633  0.57509310  0.47863750
   0.17618195  0.55020364  0.44749448
   0.15770665  0.48526129  0.44569305
   0.15460663  0.45274310  0.41451920
   0.15980050  0.38176038  0.41271156
   0.16759379  0.35133804  0.38155832
   0.19487664  0.29520891  0.37974780
   0.21136007  0.27595142  0.34859758
   0.25268778  0.25142408  0.34680930
   0.27289455  0.24892238  0.31561956
   0.31598446  0.26331979  0.31378264
   0.33394837  0.27851928  0.28262690
   0.36591938  0.32765501  0.28078280
   0.37627591  0.35601776  0.24963036
   0.38764562  0.42506906  0.24779856
   0.38741670  0.45805228  0.21667932
   0.37486498  0.52659770  0.21488931
   0.35899995  0.56450704  0.63809685
   0.34434913  0.58713015  0.60693480
   0.30554009  0.62055113  0.60503376
   0.28577342  0.62712485  0.57379625
   0.24182604  0.62271718  0.57202019
   0.22269304  0.61160126  0.54089946
   0.18673488  0.57043348  0.53909781
   0.17395957  0.54476612  0.50793464
   0.15684134  0.47890785  0.50613970
   0.15431541  0.44625317  0.47497555
   0.16098868  0.37549607  0.47317290
   0.16942438  0.34556867  0.44201288
   0.19785463  0.29100462  0.44021103
   0.21474500  0.27267062  0.40904089
   0.25660330  0.25070859  0.40724966
   0.27689522  0.24934152  0.37612015
   0.31965381  0.26642753  0.37432027
   0.33729832  0.28233918  0.34308227
   0.36817117  0.33311214  0.34119158
   0.37798184  0.36188377  0.31003747
   0.38783188  0.43159059  0.30815448
   0.38687014  0.46450938  0.27706760
   0.37291213  0.53232413  0.27530781
   0.35626669  0.56938556  0.69850245
   0.34117695  0.59135669  0.66734286
   0.30163128  0.62271185  0.66549111
   0.28170095  0.62841542  0.63432844
   0.23793122  0.62125160  0.63251038
   0.21909842  0.60905634  0.60132901
   0.18411512  0.56569124  0.59953394
   0.17189915  0.53931855  0.56838991
   0.15615263  0.47252998  0.56659683
   0.15431079  0.43970506  0.53544248
   0.16243993  0.36945424  0.53362825
   0.17139285  0.33992913  0.50245886
   0.20096738  0.28692091  0.50066214
   0.21813815  0.26953860  0.46951437
   0.26052906  0.25011860  0.46773400
   0.28083350  0.25045813  0.43657927
   0.32296513  0.27061201  0.43480776
   0.34034100  0.28720144  0.40355712
   0.37006308  0.33975832  0.40166687
   0.37948779  0.36823473  0.37045415
   0.38795703  0.43823998  0.36846923
   0.38623025  0.47105993  0.33736244
   0.35348349  0.57413070  0.75891931
   0.33790709  0.59521443  0.72777862
   0.29770947  0.62430179  0.72595437
   0.27764919  0.62894865  0.69478941
   0.23406804  0.61933442  0.69296441
   0.21550209  0.60617270  0.66179318
   0.18149840  0.56077268  0.65998827
   0.16993092  0.53371554  0.62883569
   0.15560643  0.46612173  0.62703828
   0.15444488  0.43322282  0.59588087
   0.16405515  0.36343972  0.59406610
   0.17364609  0.33445529  0.56291539
   0.20434380  0.28320470  0.56111846
   0.22185872  0.26677171  0.52994366
   0.26456266  0.24964796  0.52812164
   0.28473940  0.25084838  0.49696673
   0.32656151  0.27354272  0.49515227
   0.34325720  0.29226884  0.46409309
   0.37214763  0.34643361  0.46245708
   0.38058524  0.37617132  0.43081301
   0.38927598  0.44505624  0.42849751
   0.38631111  0.47763011  0.39761487
   0.35059108  0.57866734  0.81934999
   0.33456425  0.59885157  0.78820259
   0.29377237  0.62562501  0.78639271
   0.27362071  0.62917787  0.75523525
   0.23025039  0.61712094  0.75341198
   0.21197615  0.60293648  0.72225763
   0.17896978  0.55566679  0.72044398
   0.16799918  0.52799593  0.68927446
   0.15511402  0.45963283  0.68747038
   0.15468010  0.42670833  0.65631922
   0.16577809  0.35751422  0.65450198
   0.17601734  0.32910203  0.62334751
   0.20778822  0.27963986  0.62153985
   0.22564001  0.26417411  0.59037628
   0.26871781  0.24934270  0.58854112
   0.28887695  0.25179032  0.55738318
   0.33024347  0.27616676  0.55556167
   0.34652862  0.29590242  0.52436571
   0.37460467  0.35095291  0.52249368
   0.38362416  0.38025271  0.49147576
   0.39570356  0.45153095  0.49013952
   0.39229305  0.48736650  0.45797422
   0.34760606  0.58303610  0.87978248
   0.33116636  0.60231237  0.84863167
   0.28981725  0.62675893  0.84682722
   0.26959840  0.62915220  0.81567897
   0.22651178  0.61466148  0.81385483
   0.20853655  0.59945910  0.78269945
   0.17653971  0.55039219  0.78088722
   0.16615611  0.52214204  0.74972261
   0.15473077  0.45309015  0.74790850
   0.15501449  0.42017441  0.71675391
   0.16757823  0.35165465  0.71493583
   0.17843557  0.32385211  0.68377818
   0.21125338  0.27620115  0.68196944
   0.22946545  0.26179431  0.65081691
   0.27278836  0.24924953  0.64898309
   0.29293591  0.25264379  0.61780536
   0.33388471  0.27884398  0.61597846
   0.35000441  0.29881955  0.58483693
   0.37677519  0.35587359  0.58303519
   0.38448689  0.38649090  0.55211890
   0.38828543  0.45798072  0.55052056
   0.38510061  0.49047647  0.51962479
   0.34451782  0.58721951  0.94021870
   0.32767902  0.60556304  0.90906772
   0.28583506  0.62767328  0.90726271
   0.26557834  0.62891704  0.87611215
   0.22283009  0.61201387  0.87428888
   0.20518414  0.59581589  0.84313527
   0.17423417  0.54499097  0.84132627
   0.16444206  0.51616895  0.81017055
   0.15449052  0.44652363  0.80834738
   0.15546874  0.41364494  0.77718786
   0.16948248  0.34586451  0.77537508
   0.18093144  0.31870082  0.74421750
   0.21473673  0.27292455  0.74240826
   0.23326067  0.25955264  0.71125209
   0.27681248  0.24939450  0.70942408
   0.29689169  0.25375594  0.67826573
   0.33727892  0.28227340  0.67646082
   0.35296824  0.30309598  0.64534233
   0.37810560  0.36184724  0.64357744
   0.38477730  0.39299303  0.61247983
   0.38698617  0.46429788  0.61078792
   0.38260954  0.49640853  0.57966257
   0.34133336  0.59121011  0.00065878
   0.32412175  0.60860829  0.96950451
   0.28183506  0.62836210  0.96769628
   0.26156557  0.62848071  0.93654527
   0.21919738  0.60918812  0.93472478
   0.20190905  0.59200147  0.90357191
   0.17205886  0.53947083  0.90176363
   0.16288353  0.51011352  0.87060906
   0.15440878  0.43995784  0.86878269
   0.15607002  0.40714461  0.83762704
   0.17151629  0.34019374  0.83581736
   0.18353185  0.31368605  0.80465863
   0.21829750  0.26985771  0.80284580
   0.23707963  0.25752028  0.77169053
   0.28083377  0.24983503  0.76987362
   0.30080510  0.25534179  0.73872391
   0.34051766  0.28615535  0.73692913
   0.35573120  0.30789103  0.70578133
   0.37953553  0.36799802  0.70399501
   0.38547654  0.39945772  0.67285416
   0.38634298  0.47095338  0.67109178
   0.38123226  0.50278086  0.63998883
   0.25755837  0.62780228  0.99697912
   0.21562380  0.60615071  0.99516379
   0.19871367  0.58801112  0.96400670
   0.16999307  0.53384425  0.96219633
   0.16144647  0.50398857  0.93104363
   0.15446822  0.43339581  0.92921749
   0.15683051  0.40069708  0.89806385
   0.17368943  0.33465753  0.89625571
   0.18625507  0.30883899  0.86509757
   0.22193329  0.26699037  0.86328008
   0.24096936  0.25573160  0.83212850
   0.28485412  0.25052653  0.83031891
   0.30469251  0.25717286  0.79916260
   0.34371490  0.29019107  0.79736327
   0.35845024  0.31276249  0.76621132
   0.38099767  0.37417213  0.76440779
   0.38623320  0.40595844  0.73327188
   0.38562942  0.47746613  0.73148579
   0.37980960  0.50900684  0.70035406
   0.16013401  0.49778729  0.99147550
   0.15466033  0.42684399  0.98965038
   0.15772055  0.39429275  0.95849597
   0.17597105  0.32923600  0.95668748
   0.18908090  0.30413421  0.92553361
   0.22562789  0.26431371  0.92371179
   0.24489520  0.25414008  0.89256006
   0.28886169  0.25141795  0.89075351
   0.30854638  0.25917637  0.85959817
   0.34685339  0.29436567  0.85779165
   0.36109395  0.31777025  0.82664396
   0.38233780  0.38039199  0.82483582
   0.38689540  0.41246855  0.79368751
   0.38478605  0.48388393  0.79189247
   0.37832506  0.51510567  0.76075038
   0.19200258  0.29960490  0.98596551
   0.22937052  0.26185845  0.98414070
   0.24884448  0.25276039  0.95298981
   0.29284676  0.25251166  0.95118608
   0.31235571  0.26139371  0.92003441
   0.34988904  0.29871262  0.91822191
   0.36362963  0.32290441  0.88707198
   0.38353355  0.38666855  0.88526488
   0.38742300  0.41898261  0.85411266
   0.38379462  0.49024595  0.85231312
   0.37667561  0.52107883  0.82117026
   0.31611623  0.26379554  0.98046525
   0.35283332  0.30319938  0.97864915
   0.36605474  0.32815480  0.94750040
   0.38460628  0.39299214  0.94569763
   0.38780601  0.42551319  0.91454676
   0.38267239  0.49653035  0.91274270
   0.37489859  0.52695364  0.88159606
   0.38804616  0.43204793  0.97498094
   0.38140193  0.50272907  0.97317345
   0.37299548  0.53270512  0.94202616
   0.45358399  0.48418887  0.47398945
 
 position of ions in cartesian coordinates  (Angst):
  12.00857934 10.72429771  0.09951508
  11.93837841 10.83402766  2.54390060
  10.94371225 11.85366816  2.47120377
  10.37506177 12.18077392  1.21111544
   8.99333446 12.52685639  1.13783266
  11.86412069 10.94114864  4.98817530
  10.83498316 11.92622953  4.91565201
  10.25549494 12.23343587  3.65571272
   8.86254765 12.53150594  3.58226129
   8.20809239 12.48863163  2.32218658
   6.86619922 12.01109402  2.24896074
   6.33164427 11.63119573  0.98866685
   5.43954853 10.52066633  0.91528214
  11.78504532 11.04530917  7.43252749
  10.72321399 11.99505323  7.36025445
  10.13384328 12.28203605  6.10013787
   8.73169618 12.53206862  6.02671137
   8.07919700 12.46649750  4.76663013
   6.75458235 11.94264990  4.69354964
   6.23349980 11.54453157  3.43333577
   5.38029618 10.40389740  3.35976561
   5.14532170  9.79170833  2.09954275
   5.01709408  8.37312384  2.02586100
   5.13859458  7.72852882  0.76566132
   5.77391443  6.45367130  0.69234216
  11.70211532 11.14674809  9.87619197
  10.60959344 12.06003518  9.80458932
  10.01070039 12.32719828  8.54469273
   8.60043767 12.52891788  8.47136237
   7.95086800 12.44050683  7.21135683
   6.64507649 11.87076463  7.13824691
   6.13826287 11.45462690  5.87796505
   5.32503762 10.28520208  5.80422025
   5.11142745  9.66518903  4.54401831
   5.03210312  8.24295379  4.47054582
   5.17574554  7.60309951  3.21012133
   5.85441666  6.35089090  3.13658238
   6.31258122  5.88139503  1.87652337
   7.54751189  5.17161738  1.80267888
   8.18417122  5.01248365  0.54278293
   9.60788526  5.05672242  0.46975668
  12.01093014 10.71846828 13.57751252
  11.62035281 11.24758585 12.31991963
  10.49526455 12.12289786 12.24899491
   9.88695230 12.36831773 10.99045156
   8.46954513 12.52041826 10.91688253
   7.82351763 12.40960082  9.65633663
   6.53841285 11.79523923  9.58290767
   6.04628342 11.36170806  8.32252513
   5.27431807 10.16454047  8.24869464
   5.08232992  9.53745734  6.98857459
   5.05229847  8.11331103  6.91532399
   5.21725250  7.47883196  5.65474118
   5.93852245  6.25062657  5.58093594
   6.41256361  5.79744609  4.32083755
   7.67122813  5.13073428  4.24700428
   8.31301463  4.99389057  2.98693786
   9.73424999  5.08736869  2.91379576
  10.35255761  5.30748780  1.65401240
  11.51351685  6.13283032  1.58050261
  11.92458642  6.64443426  0.32075997
  12.48048897  7.95592239  0.24803818
  11.96407273 10.83771195 16.01859504
  11.54372228 11.34651554 14.76858509
  10.37842885 12.17408761 14.69588761
   9.76179405 12.39960495 13.43667062
   8.34083230 12.50265845 13.36255066
   7.69812780 12.37290332 12.10121863
   6.43411767 11.71578372 12.02743534
   5.95720682 11.26603412 10.76721920
   5.22725410 10.04246658 10.69331136
   5.05769942  9.40893988  9.43304298
   5.07743775  7.98473300  9.35992242
   5.26398159  7.35622443  8.09959241
   6.02700363  6.15333660  8.02573128
   6.51575291  5.71677381  6.76522275
   7.79622121  5.09350601  6.69145694
   8.44219537  4.97894044  5.43118634
   9.85938760  5.12127177  5.35777511
  10.46987653  5.36302450  4.09819665
  11.60170627  6.22785134  4.02467811
  11.99493480  6.75367927  2.76496045
  12.50539927  8.08340733  2.69236326
  12.56481462  8.73710938  1.43253866
  12.30115654 10.13694940  1.35933092
  11.90265978 10.94763028 18.47112165
  11.44896274 11.41808479 17.21705708
  10.25471643 12.19440747 17.14122561
   9.63379176 12.41379206 15.88011677
   8.21075478 12.47833014 15.80653069
   7.57293894 12.33114651 14.54615407
   6.33004950 11.63300026 14.47201830
   5.87067086 11.16651628 13.21146597
   5.18398288  9.91870692 13.13761404
   5.03688309  9.27975255 11.87733168
   5.10655484  7.85690194 11.80437986
   5.31540070  7.23529343 10.54425785
   6.11939139  6.05950915 10.47052216
   6.62241282  5.63945436  9.20972611
   7.92313020  5.05949414  9.13613414
   8.57218207  4.96734894  7.87581737
   9.98365705  5.15823568  7.80208190
  10.58501967  5.42189461  6.54220383
  11.68597321  6.32537681  6.46865882
  12.06123706  6.86471538  5.20909100
  12.52526649  8.21147230  5.13640723
  12.56249876  8.86703696  3.87694573
  12.25096869 10.25706163  3.80374807
  11.78708333 10.99621197 20.92468115
  11.34786261 11.47960828 19.64509362
  10.13307703 12.23015666 19.57857982
   9.50537349 12.42605147 18.32301029
   8.07816325 12.45438730 18.25009378
   7.44709131 12.28367117 16.99008348
   6.22901353 11.54619065 16.91610886
   5.78552653 11.06480510 15.65526452
   5.14249769  9.79348676 15.58202194
   5.01909376  9.14982883 14.32186397
   5.13840444  7.73022473 14.24892824
   5.36999777  7.11630074 12.98861574
   6.21388145  5.96900223 12.91501913
   6.73138714  5.56605788 11.65482821
   8.05148384  5.03025419 11.58185971
   8.70323874  4.96029017 10.32079127
  10.10679495  5.19927599 10.24660019
  10.69866907  5.48307457  8.98640117
  11.76745895  6.42484773  8.91261413
  12.12314614  6.97750423  7.65332297
  12.53979839  8.33971762  7.58024132
  12.55442134  8.99649309  6.32091751
  12.19526406 10.37477374  6.24797842
  11.70654861 11.13766151 23.36606786
  11.24538577 11.58685941 22.10347215
  10.01391377 12.29792485 22.02661299
   9.37779123 12.44545809 20.76310648
   7.95623952 12.42235697 20.69224036
   7.32607547 12.23410112 19.43241083
   6.13087084 11.45666731 19.35995258
   5.70341468 10.96083410 18.10027790
   5.10532683  9.66709070 18.02741379
   5.00497201  9.01928252 16.76649240
   5.17310947  7.60520640 16.69337702
   5.42539620  6.99915043 15.43328907
   6.30860494  5.88097884 15.36005726
   6.84221129  5.49734237 14.10009147
   8.18008454  5.00872311 14.02775902
   8.83422408  4.95888557 12.76619481
  10.22914359  5.24570231 12.69189502
  10.81067662  5.54849774 11.43170615
  11.84565159  6.52735096 11.35711590
  12.18091637  7.09237700 10.09706062
  12.54897992  8.46797652 10.02296801
  12.54156936  9.12504874  8.76425526
  12.13524130 10.49057047  8.69185304
  11.62165380 11.24577804 25.80977182
  11.14737294 11.69646238 24.54932752
   9.89103509 12.36225561 24.47243419
   9.25114268 12.49321339 23.20893822
   7.82846489 12.40540635 23.13709986
   7.20908577 12.18396161 21.87832715
   6.04503746 11.36384110 21.80545384
   5.63147134 10.85251105 20.54496440
   5.07731478  9.54052124 20.47236270
   4.99554449  8.88999390 19.21183362
   5.21157371  7.48041236 19.13892013
   5.48465675  6.88421634 17.87855811
   6.40500919  5.79722326 17.80567680
   6.95178940  5.43198412 16.54490546
   8.30683867  4.99446946 16.47245363
   8.96373476  4.96723556 15.21332556
  10.34792867  5.30761299 15.14052412
  10.91912197  5.62459551 13.87700799
  11.91854742  6.63606469 13.80053317
  12.23614133  7.20923623 12.54041048
  12.55500968  8.59789456 12.46424698
  12.52387591  9.25368336 11.20684338
  12.07202310 10.60464908 11.13566324
  11.53317187 11.34296522 28.25306020
  11.04468225 11.78066119 26.99271592
   9.76449810 12.40530024 26.91781606
   9.11930754 12.51892330 25.65734713
   7.70238051 12.37620997 25.58380989
   7.09271975 12.13326309 24.32258426
   5.96022965 11.26936914 24.24997752
   5.56477061 10.74398783 22.99026236
   5.05501952  9.41346504 22.91773556
   4.99539502  8.75954619 21.65760281
   5.25855410  7.36005074 21.58422077
   5.54838056  6.77186869 20.32347980
   6.50577624  5.71587015 20.25080614
   7.06163360  5.36958990 18.99093969
   8.43392456  4.98271608 18.91892721
   9.09122622  4.98947997 17.65877900
  10.45512384  5.39097372 17.58712503
  11.01762071  5.72145855 16.32309746
  11.97979272  6.76846605 16.24664055
  12.28489226  7.33575631 14.98414714
  12.55906121  8.73035986 14.90386089
  12.50316115  9.38417961 13.64565215
  11.44307319 11.43749513 30.69680441
  10.93882944 11.85751268 29.43722410
   9.63754017 12.43697415 29.36343675
   8.98814249 12.52954600 28.10287528
   7.57732073 12.33801710 28.02905762
   6.97629811 12.07581702 26.76824195
   5.87552063 11.17138448 26.69523708
   5.50105459 10.63236784 25.43517601
   5.03733794  9.28580376 25.36247406
   4.99973592  8.63041089 24.10221800
   5.31084251  7.24023296 24.02881375
   5.62132319  6.66282203 22.76882832
   6.61507867  5.64183797 22.69614613
   7.18207680  5.31446944 21.43518644
   8.56450154  4.97334025 21.36148921
   9.21766902  4.99725427 20.10133404
  10.57154686  5.44935762 20.02794264
  11.11202477  5.82240836 18.77165931
  12.04727440  6.90144717 18.70548604
  12.32041935  7.49386444 17.42554498
  12.60175850  8.86614942 17.33188760
  12.50577899  9.51506691 16.08274503
  11.34943944 11.52787128 33.14110760
  10.83061390 11.92996965 31.88125584
   9.51008710 12.46333451 31.80804971
   8.85773135 12.53411256 30.54779156
   7.45373466 12.29392145 30.47404352
   6.86215542 12.01134682 29.21391108
   5.79366326 11.06966793 29.14055229
   5.43851974 10.51842512 27.87980634
   5.02139732  9.15653571 27.80683459
   5.00735056  8.50063315 26.54683098
   5.36661782  7.12218857 26.47332741
   5.69808602  6.55617752 25.21318971
   6.72658235  5.57082118 25.14007355
   7.30448594  5.26272161 23.87956804
   8.69901320  4.96725903 23.80533925
   9.35161090  5.01601915 22.54506157
  10.69074037  5.50163219 22.47138499
  11.21792821  5.89479436 21.20956916
  12.12681448  6.99147806 21.13384922
  12.41879621  7.57517137 19.87923499
  12.80983394  8.99513468 19.82518650
  12.69942801  9.70902956 18.52416292
  11.25280741 11.61490321 35.58548379
  10.72061634 11.99891369 34.32549425
   9.38205063 12.48592383 34.25250767
   8.72752009 12.53360111 32.99262198
   7.33270703 12.24492541 32.91883879
   6.75080771 11.94207257 31.65866481
   5.71499624 10.96459031 31.58536360
   5.37885528 10.40180744 30.32481585
   5.00899079  9.02619617 30.25143877
   5.01817536  8.37046807 28.99129618
   5.42489264  7.00545773 28.91775865
   5.77636981  6.45159173 27.65749230
   6.83875752  5.50231723 27.58433237
   7.42832407  5.21531270 26.32427330
   8.83078625  4.96540287 26.25009894
   9.48300882  5.03302142 24.98902082
  10.80861585  5.55496625 24.91512607
  11.33044748  5.95290778 23.65551186
  12.19707906  7.08950493 23.58263529
  12.44672476  7.69944498 22.33213175
  12.56969213  9.12362330 22.26748190
  12.46659208  9.77098445 21.01780839
  11.15283398 11.69824269 38.03001089
  10.60772313 12.06367166 36.77001435
   9.25313795 12.50413890 36.69700538
   8.59738160 12.52891630 35.43702606
   7.21352238 12.19218135 35.36327843
   6.64228252 11.86949465 34.10317559
   5.64036056 10.85699034 34.03000515
   5.32336747 10.28281509 32.76981680
   5.00121349  8.89538192 32.69607332
   5.03288045  8.24039192 31.43573150
   5.48653739  6.89010992 31.36240837
   5.85716666  6.34897076 30.10214482
   6.95152159  5.43704287 30.02896460
   7.55118434  5.17065554 28.76875835
   8.96105656  4.96829096 28.69481917
   9.61106653  5.05517694 27.43452438
  10.91849406  5.62328504 27.36151966
  11.42639344  6.03810030 26.10283717
  12.24014746  7.20850843 26.03145089
  12.45612573  7.82897668 24.77361334
  12.52763210  9.24947011 24.70517872
  12.38595062  9.88915950 23.44621920
  11.04974564 11.77774103  0.02664637
  10.49256615 12.12433735 39.21456477
   9.12364887 12.51786110 39.14142509
   8.46747890 12.52022415 37.88142767
   7.09592327 12.13588842 37.80779257
   6.53626024 11.79350609 36.54771952
   5.56994082 10.74702142 36.47457811
   5.27291436 10.16218238 35.21443682
   4.99856706  8.76458204 35.14056344
   5.05234530  8.11089618 33.88037837
   5.55237666  6.77714004 33.80718019
   5.94134796  6.24906942 32.54687045
   7.06679204  5.37594698 32.47354525
   7.67481273  5.13016798 31.21337548
   9.09123485  4.97706685 31.13988480
   9.73775282  5.08676930 29.87994008
  11.02333964  5.70061909 29.80734475
  11.51583696  6.13362450 28.54747677
  12.28643770  7.33104069 28.47522385
  12.47876180  7.95776239 27.21563725
  12.50681068  9.38205703 27.14435245
  12.34136476 10.01610543 25.88629863
   8.33775662 12.50670880 40.32585914
   6.98023826 12.07537880 40.25243226
   6.43281822 11.71401260 38.99218905
   5.50306664 10.63493208 38.91896307
   5.22639342 10.04016473 37.65889707
   5.00049154  8.63385704 37.58503320
   5.07696425  7.98245225 36.32492954
   5.62272633  6.66685094 36.25179370
   6.02950490  6.15250913 34.99150766
   7.18449076  5.31882546 34.91799382
   7.80073231  5.09453500 33.65797311
   9.22138287  4.99084255 33.58477876
   9.86359720  5.12324686 32.32456680
  11.12684174  5.78101624 32.25178756
  11.60385857  6.23067086 30.99175190
  12.33377053  7.45403773 30.91880253
  12.50325683  8.08726594 29.65941597
  12.48371095  9.51180022 29.58717224
  12.29531009 10.14013565 28.32795447
   5.18390605  9.91662648 40.10324826
   5.00671062  8.50333562 40.02942573
   5.10577682  7.85486890 38.76929046
   5.69658757  6.55884639 38.69614073
   6.12098353  6.05878328 37.43602759
   7.30409364  5.26550275 37.36233842
   7.92782077  5.06282959 36.10231165
   9.35111707  5.00860100 36.02924050
   9.98835566  5.16315958 34.76906783
  11.22844188  5.86418018 34.69599763
  11.68944125  6.33043247 33.43613410
  12.37715364  7.57794604 33.36299872
  12.52469349  8.21695653 32.10311008
  12.45640900  9.63965179 32.03050450
  12.24725190 10.26163305 30.77086756
   6.21556511  5.96855299 39.88037973
   7.42525121  5.21659039 39.80657010
   8.05566780  5.03534422 38.54657740
   9.48012283  5.03038924 38.47361983
  10.11167258  5.20733216 37.21359546
  11.32671253  5.95077762 37.14028350
  11.77152702  6.43271229 35.88032957
  12.41586298  7.70298405 35.80723619
  12.54177312  8.34672589 34.54718958
  12.42431411  9.76639222 34.47440184
  12.19385544 10.38062689 33.21473362
  10.23340914  5.25518009 39.65790511
  11.42202574  6.04016016 39.58444736
  11.85003352  6.53730747 38.32454138
  12.45058962  7.82895881 38.25162291
  12.55417226  8.47682408 36.99163076
  12.38798520  9.89158638 36.91866018
  12.13632923 10.49766137 35.65883933
  12.56194635  8.60700550 39.43607569
  12.34685732 10.01507372 39.36296607
  12.07472141 10.61223891 38.10311901
  14.68355662  9.64572672 19.17194787
 


--------------------------------------------------------------------------------------------------------


 k-point   1 :   0.0000 0.0000 0.0000  plane waves:  473959
 k-point   2 :   0.0000 0.0000 0.5000  plane waves:  473680

 maximum and minimum number of plane-waves per node :    118517   118418

 maximum number of plane-waves:    473959
 maximum index in each direction: 
   IXMAX=   52   IYMAX=   32   IZMAX=   65
   IXMIN=  -52   IYMIN=  -32   IZMIN=  -66


 parallel 3D FFT for wavefunctions:
    minimum data exchange during FFTs selected (reduces bandwidth)
 parallel 3D FFT for charge:
    minimum data exchange during FFTs selected (reduces bandwidth)


 total amount of memory used by VASP MPI-rank0  1311686. kBytes
=======================================================================

   base      :      30000. kBytes
   nonl-proj :     741511. kBytes
   fftplans  :     107177. kBytes
   grid      :     217728. kBytes
   one-center:       1492. kBytes
   wavefun   :     213778. kBytes
 
     INWAV:  cpu time      0.0001: real time      0.0003
 Broyden mixing: mesh for mixing (old mesh)
   NGX =105   NGY = 65   NGZ =131
  (NGX  =432   NGY  =280   NGZ  =540)
  gives a total of 894075 points

 initial charge density was supplied:
 charge density of overlapping atoms calculated
 number of electron    1462.0000000 magnetization     365.0000000
 keeping initial charge density in first step


--------------------------------------------------------------------------------------------------------


 Maximum index for augmentation-charges           290 (set IRDMAX)


--------------------------------------------------------------------------------------------------------


 First call to EWALD:  gamma=   0.060
 Maximum number of real-space cells 3x 4x 2
 Maximum number of reciprocal cells 3x 2x 4

    FEWALD:  cpu time      0.2528: real time      0.2529


--------------------------------------- Ionic step        1  -------------------------------------------




--------------------------------------- Iteration      1(   1)  ---------------------------------------


    POTLOK:  cpu time      1.6622: real time      1.6627
    SETDIJ:  cpu time      0.0575: real time      0.0575
     EDDAV:  cpu time    240.1827: real time    240.2313
       DOS:  cpu time      0.0020: real time      0.0021
    --------------------------------------------
      LOOP:  cpu time    241.9045: real time    241.9536

 eigenvalue-minimisations  :  9152
 total energy-change (2. order) : 0.1305176E+05  (-0.4506502E+05)
 number of electron    1462.0000000 magnetization     365.0000000
 augmentation part     1462.0000000 magnetization     365.0000000

 Free energy of the ion-electron system (eV)
  ---------------------------------------------------
  alpha Z        PSCENC =       418.83067969
  Ewald energy   TEWEN  =    465380.35675783
  -Hartree energ DENC   =   -503350.19924470
  -exchange      EXHF   =         0.00000000
  -V(xc)+E(xc)   XCENC  =      5081.30727126
  PAW double counting   =     13841.88350303   -14243.59437371
  entropy T*S    EENTRO =        -0.00957350
  eigenvalues    EBANDS =     -7888.09157773
  atomic energy  EATOM  =     53811.27190059
  Solvation  Ediel_sol  =         0.00000000
  ---------------------------------------------------
  free energy    TOTEN  =     13051.75534277 eV

  energy without entropy =    13051.76491626  energy(sigma->0) =    13051.76012952


--------------------------------------------------------------------------------------------------------




--------------------------------------- Iteration      1(   2)  ---------------------------------------


     EDDAV:  cpu time    274.0056: real time    274.0309
       DOS:  cpu time      0.0014: real time      0.0014
    --------------------------------------------
      LOOP:  cpu time    274.0069: real time    274.0323

 eigenvalue-minimisations  : 10624
 total energy-change (2. order) :-0.1286498E+05  (-0.1209621E+05)
 number of electron    1462.0000000 magnetization     365.0000000
 augmentation part     1462.0000000 magnetization     365.0000000

 Free energy of the ion-electron system (eV)
  ---------------------------------------------------
  alpha Z        PSCENC =       418.83067969
  Ewald energy   TEWEN  =    465380.35675783
  -Hartree energ DENC   =   -503350.19924470
  -exchange      EXHF   =         0.00000000
  -V(xc)+E(xc)   XCENC  =      5081.30727126
  PAW double counting   =     13841.88350303   -14243.59437371
  entropy T*S    EENTRO =        -0.00421561
  eigenvalues    EBANDS =    -20753.07747488
  atomic energy  EATOM  =     53811.27190059
  Solvation  Ediel_sol  =         0.00000000
  ---------------------------------------------------
  free energy    TOTEN  =       186.77480350 eV

  energy without entropy =      186.77901911  energy(sigma->0) =      186.77691131


--------------------------------------------------------------------------------------------------------




--------------------------------------- Iteration      1(   3)  ---------------------------------------


     EDDAV:  cpu time    237.8967: real time    237.9239
       DOS:  cpu time      0.0010: real time      0.0010
    --------------------------------------------
      LOOP:  cpu time    237.8977: real time    237.9249

 eigenvalue-minimisations  :  9024
 total energy-change (2. order) :-0.3390865E+04  (-0.3346449E+04)
 number of electron    1462.0000000 magnetization     365.0000000
 augmentation part     1462.0000000 magnetization     365.0000000

 Free energy of the ion-electron system (eV)
  ---------------------------------------------------
  alpha Z        PSCENC =       418.83067969
  Ewald energy   TEWEN  =    465380.35675783
  -Hartree energ DENC   =   -503350.19924470
  -exchange      EXHF   =         0.00000000
  -V(xc)+E(xc)   XCENC  =      5081.30727126
  PAW double counting   =     13841.88350303   -14243.59437371
  entropy T*S    EENTRO =        -0.00000275
  eigenvalues    EBANDS =    -24143.94637564
  atomic energy  EATOM  =     53811.27190059
  Solvation  Ediel_sol  =         0.00000000
  ---------------------------------------------------
  free energy    TOTEN  =     -3204.08988440 eV

  energy without entropy =    -3204.08988165  energy(sigma->0) =    -3204.08988303


--------------------------------------------------------------------------------------------------------




--------------------------------------- Iteration      1(   4)  ---------------------------------------


     EDDAV:  cpu time    232.6205: real time    232.6473
       DOS:  cpu time      0.0011: real time      0.0011
    --------------------------------------------
      LOOP:  cpu time    232.6216: real time    232.6484

 eigenvalue-minimisations  :  8768
 total energy-change (2. order) :-0.1859543E+03  (-0.1827159E+03)
 number of electron    1462.0000000 magnetization     365.0000000
 augmentation part     1462.0000000 magnetization     365.0000000

 Free energy of the ion-electron system (eV)
  ---------------------------------------------------
  alpha Z        PSCENC =       418.83067969
  Ewald energy   TEWEN  =    465380.35675783
  -Hartree energ DENC   =   -503350.19924470
  -exchange      EXHF   =         0.00000000
  -V(xc)+E(xc)   XCENC  =      5081.30727126
  PAW double counting   =     13841.88350303   -14243.59437371
  entropy T*S    EENTRO =        -0.00202688
  eigenvalues    EBANDS =    -24329.89868810
  atomic energy  EATOM  =     53811.27190059
  Solvation  Ediel_sol  =         0.00000000
  ---------------------------------------------------
  free energy    TOTEN  =     -3390.04422099 eV

  energy without entropy =    -3390.04219411  energy(sigma->0) =    -3390.04320755


--------------------------------------------------------------------------------------------------------




--------------------------------------- Iteration      1(   5)  ---------------------------------------


     EDDAV:  cpu time    249.0267: real time    249.0516
       DOS:  cpu time      0.0012: real time      0.0012
    CHARGE:  cpu time      4.3932: real time      4.3944
    MIXING:  cpu time      0.0568: real time      0.0568
    --------------------------------------------
      LOOP:  cpu time    253.4780: real time    253.5041

 eigenvalue-minimisations  :  9600
 total energy-change (2. order) :-0.5074194E+01  (-0.5011545E+01)
 number of electron    1462.0000020 magnetization     351.5454262
 augmentation part       37.7317492 magnetization     344.0917907

 Broyden mixing:
  rms(total) = 0.11593E+02    rms(broyden)= 0.11590E+02
  rms(prec ) = 0.11713E+02
  weight for this iteration     100.00

 Free energy of the ion-electron system (eV)
  ---------------------------------------------------
  alpha Z        PSCENC =       418.83067969
  Ewald energy   TEWEN  =    465380.35675783
  -Hartree energ DENC   =   -503350.19924470
  -exchange      EXHF   =         0.00000000
  -V(xc)+E(xc)   XCENC  =      5081.30727126
  PAW double counting   =     13841.88350303   -14243.59437371
  entropy T*S    EENTRO =        -0.00227721
  eigenvalues    EBANDS =    -24334.97263219
  atomic energy  EATOM  =     53811.27190059
  Solvation  Ediel_sol  =         0.00000000
  ---------------------------------------------------
  free energy    TOTEN  =     -3395.11841541 eV

  energy without entropy =    -3395.11613820  energy(sigma->0) =    -3395.11727681


--------------------------------------------------------------------------------------------------------




--------------------------------------- Iteration      1(   6)  ---------------------------------------


    POTLOK:  cpu time      1.5265: real time      1.5361
    SETDIJ:  cpu time      0.0341: real time      0.0341
     EDDAV:  cpu time    211.2069: real time    211.2267
       DOS:  cpu time      0.0014: real time      0.0014
    CHARGE:  cpu time      4.2543: real time      4.2552
    MIXING:  cpu time      0.0568: real time      0.0601
    --------------------------------------------
      LOOP:  cpu time    217.0801: real time    217.1136

 eigenvalue-minimisations  :  7680
 total energy-change (2. order) : 0.1090495E+04  (-0.1758157E+03)
 number of electron    1462.0000020 magnetization     335.5743623
 augmentation part       36.7271947 magnetization     323.4909661

 Broyden mixing:
  rms(total) = 0.64180E+01    rms(broyden)= 0.64176E+01
  rms(prec ) = 0.65155E+01
  weight for this iteration     100.00

 eigenvalues of (default mixing * dielectric matrix)
  average eigenvalue GAMMA=   1.0336
  1.0336

 Free energy of the ion-electron system (eV)
  ---------------------------------------------------
  alpha Z        PSCENC =       418.83067969
  Ewald energy   TEWEN  =    465380.35675783
  -Hartree energ DENC   =   -505633.86399092
  -exchange      EXHF   =         0.00000000
  -V(xc)+E(xc)   XCENC  =      5866.61042113
  PAW double counting   =     18859.86557341   -19296.44932535
  entropy T*S    EENTRO =        -0.00196277
  eigenvalues    EBANDS =    -21711.24329324
  atomic energy  EATOM  =     53811.27190059
  Solvation  Ediel_sol  =         0.00000000
  ---------------------------------------------------
  free energy    TOTEN  =     -2304.62323963 eV

  energy without entropy =    -2304.62127686  energy(sigma->0) =    -2304.62225824


--------------------------------------------------------------------------------------------------------




--------------------------------------- Iteration      1(   7)  ---------------------------------------


    POTLOK:  cpu time      1.4844: real time      1.4876
    SETDIJ:  cpu time      0.1000: real time      0.1000
     EDDAV:  cpu time    213.4473: real time    213.4669
       DOS:  cpu time      0.0013: real time      0.0013
    CHARGE:  cpu time      4.1942: real time      4.1945
    MIXING:  cpu time      0.0578: real time      0.0579
    --------------------------------------------
      LOOP:  cpu time    219.2850: real time    219.3082

 eigenvalue-minimisations  :  7968
 total energy-change (2. order) :-0.1939579E+03  (-0.2059955E+02)
 number of electron    1462.0000020 magnetization     314.8079726
 augmentation part       35.8623699 magnetization     306.8601801

 Broyden mixing:
  rms(total) = 0.43046E+01    rms(broyden)= 0.43042E+01
  rms(prec ) = 0.43444E+01
  weight for this iteration     100.00

 eigenvalues of (default mixing * dielectric matrix)
  average eigenvalue GAMMA=   1.2658
  0.8352  1.6965

 Free energy of the ion-electron system (eV)
  ---------------------------------------------------
  alpha Z        PSCENC =       418.83067969
  Ewald energy   TEWEN  =    465380.35675783
  -Hartree energ DENC   =   -507658.78313271
  -exchange      EXHF   =         0.00000000
  -V(xc)+E(xc)   XCENC  =      5742.89819467
  PAW double counting   =     23025.44490677   -23482.77819324
  entropy T*S    EENTRO =        -0.00147596
  eigenvalues    EBANDS =    -19735.82080057
  atomic energy  EATOM  =     53811.27190059
  Solvation  Ediel_sol  =         0.00000000
  ---------------------------------------------------
  free energy    TOTEN  =     -2498.58116293 eV

  energy without entropy =    -2498.57968697  energy(sigma->0) =    -2498.58042495


--------------------------------------------------------------------------------------------------------




--------------------------------------- Iteration      1(   8)  ---------------------------------------


    POTLOK:  cpu time      1.4834: real time      1.4880
    SETDIJ:  cpu time      0.1203: real time      0.1205
     EDDAV:  cpu time    212.8592: real time    212.8784
       DOS:  cpu time      0.0012: real time      0.0012
    CHARGE:  cpu time      4.2113: real time      4.2120
    MIXING:  cpu time      0.0593: real time      0.0593
    --------------------------------------------
      LOOP:  cpu time    218.7348: real time    218.7594

 eigenvalue-minimisations  :  7808
 total energy-change (2. order) :-0.1319363E+03  (-0.1218488E+02)
 number of electron    1462.0000019 magnetization     297.7699401
 augmentation part       34.6902665 magnetization     292.0416130

 Broyden mixing:
  rms(total) = 0.32463E+01    rms(broyden)= 0.32461E+01
  rms(prec ) = 0.32569E+01
  weight for this iteration     100.00

 eigenvalues of (default mixing * dielectric matrix)
  average eigenvalue GAMMA=   1.2278
  2.0103  1.0008  0.6723

 Free energy of the ion-electron system (eV)
  ---------------------------------------------------
  alpha Z        PSCENC =       418.83067969
  Ewald energy   TEWEN  =    465380.35675783
  -Hartree energ DENC   =   -509392.75623451
  -exchange      EXHF   =         0.00000000
  -V(xc)+E(xc)   XCENC  =      5694.73713430
  PAW double counting   =     26096.57596950   -26563.66768133
  entropy T*S    EENTRO =        -0.00029730
  eigenvalues    EBANDS =    -18075.86565392
  atomic energy  EATOM  =     53811.27190059
  Solvation  Ediel_sol  =         0.00000000
  ---------------------------------------------------
  free energy    TOTEN  =     -2630.51742515 eV

  energy without entropy =    -2630.51712785  energy(sigma->0) =    -2630.51727650


--------------------------------------------------------------------------------------------------------




--------------------------------------- Iteration      1(   9)  ---------------------------------------


    POTLOK:  cpu time      1.4832: real time      1.4868
    SETDIJ:  cpu time      0.0879: real time      0.0880
     EDDAV:  cpu time    212.3369: real time    212.3566
       DOS:  cpu time      0.0011: real time      0.0011
    CHARGE:  cpu time      4.1649: real time      4.1654
    MIXING:  cpu time      0.0577: real time      0.0577
    --------------------------------------------
      LOOP:  cpu time    218.1319: real time    218.1558

 eigenvalue-minimisations  :  7872
 total energy-change (2. order) :-0.1113671E+03  (-0.4564749E+01)
 number of electron    1462.0000019 magnetization     262.4728288
 augmentation part       34.2672374 magnetization     257.8426864

 Broyden mixing:
  rms(total) = 0.27511E+01    rms(broyden)= 0.27511E+01
  rms(prec ) = 0.27550E+01
  weight for this iteration     100.00

 eigenvalues of (default mixing * dielectric matrix)
  average eigenvalue GAMMA=   1.3932
  2.4769  1.5730  0.8683  0.6547

 Free energy of the ion-electron system (eV)
  ---------------------------------------------------
  alpha Z        PSCENC =       418.83067969
  Ewald energy   TEWEN  =    465380.35675783
  -Hartree energ DENC   =   -509921.27238079
  -exchange      EXHF   =         0.00000000
  -V(xc)+E(xc)   XCENC  =      5634.94105946
  PAW double counting   =     26588.94079620   -27054.21781802
  entropy T*S    EENTRO =        -0.00000617
  eigenvalues    EBANDS =    -17600.73554913
  atomic energy  EATOM  =     53811.27190059
  Solvation  Ediel_sol  =         0.00000000
  ---------------------------------------------------
  free energy    TOTEN  =     -2741.88456034 eV

  energy without entropy =    -2741.88455417  energy(sigma->0) =    -2741.88455726


--------------------------------------------------------------------------------------------------------




--------------------------------------- Iteration      1(  10)  ---------------------------------------


    POTLOK:  cpu time      1.4864: real time      1.4888
    SETDIJ:  cpu time      0.0987: real time      0.0987
     EDDAV:  cpu time    212.1832: real time    212.2018
       DOS:  cpu time      0.0013: real time      0.0013
    CHARGE:  cpu time      4.1838: real time      4.1843
    MIXING:  cpu time      0.0590: real time      0.0590
    --------------------------------------------
      LOOP:  cpu time    218.0122: real time    218.0338

 eigenvalue-minimisations  :  7840
 total energy-change (2. order) :-0.2308291E+03  (-0.1400828E+02)
 number of electron    1462.0000019 magnetization     227.1762686
 augmentation part       34.0288302 magnetization     224.0078982

 Broyden mixing:
  rms(total) = 0.20555E+01    rms(broyden)= 0.20554E+01
  rms(prec ) = 0.20630E+01
  weight for this iteration     100.00

 eigenvalues of (default mixing * dielectric matrix)
  average eigenvalue GAMMA=   1.6331
  3.7014  1.9759  0.9077  0.9077  0.6728

 Free energy of the ion-electron system (eV)
  ---------------------------------------------------
  alpha Z        PSCENC =       418.83067969
  Ewald energy   TEWEN  =    465380.35675783
  -Hartree energ DENC   =   -510426.71160697
  -exchange      EXHF   =         0.00000000
  -V(xc)+E(xc)   XCENC  =      5498.85460619
  PAW double counting   =     26355.96856838   -26812.01335238
  entropy T*S    EENTRO =        -0.00245754
  eigenvalues    EBANDS =    -17199.26873791
  atomic energy  EATOM  =     53811.27190059
  Solvation  Ediel_sol  =         0.00000000
  ---------------------------------------------------
  free energy    TOTEN  =     -2972.71364213 eV

  energy without entropy =    -2972.71118459  energy(sigma->0) =    -2972.71241336


--------------------------------------------------------------------------------------------------------




--------------------------------------- Iteration      1(  11)  ---------------------------------------


    POTLOK:  cpu time      1.4834: real time      1.4855
    SETDIJ:  cpu time      0.1191: real time      0.1191
     EDDAV:  cpu time    210.9220: real time    210.9414
       DOS:  cpu time      0.0007: real time      0.0008
    CHARGE:  cpu time      4.2028: real time      4.2034
    MIXING:  cpu time      0.0570: real time      0.0570
    --------------------------------------------
      LOOP:  cpu time    216.7850: real time    216.8072

 eigenvalue-minimisations  :  7744
 total energy-change (2. order) :-0.1515919E+03  (-0.1258919E+02)
 number of electron    1462.0000018 magnetization     203.4358805
 augmentation part       33.7399888 magnetization     202.6940145

 Broyden mixing:
  rms(total) = 0.16180E+01    rms(broyden)= 0.16179E+01
  rms(prec ) = 0.16230E+01
  weight for this iteration     100.00

 eigenvalues of (default mixing * dielectric matrix)
  average eigenvalue GAMMA=   1.7925
  5.3151  2.0766  1.0637  0.8268  0.7648  0.7079

 Free energy of the ion-electron system (eV)
  ---------------------------------------------------
  alpha Z        PSCENC =       418.83067969
  Ewald energy   TEWEN  =    465380.35675783
  -Hartree energ DENC   =   -510666.29207659
  -exchange      EXHF   =         0.00000000
  -V(xc)+E(xc)   XCENC  =      5407.12438075
  PAW double counting   =     25873.71635968   -26324.23994823
  entropy T*S    EENTRO =        -0.00000000
  eigenvalues    EBANDS =    -17025.07363785
  atomic energy  EATOM  =     53811.27190059
  Solvation  Ediel_sol  =         0.00000000
  ---------------------------------------------------
  free energy    TOTEN  =     -3124.30558414 eV

  energy without entropy =    -3124.30558414  energy(sigma->0) =    -3124.30558414


--------------------------------------------------------------------------------------------------------




--------------------------------------- Iteration      1(  12)  ---------------------------------------


    POTLOK:  cpu time      1.4806: real time      1.4895
    SETDIJ:  cpu time      0.1121: real time      0.1121
     EDDAV:  cpu time    216.9812: real time    216.9995
       DOS:  cpu time      0.0006: real time      0.0006
    CHARGE:  cpu time      4.1813: real time      4.1819
    MIXING:  cpu time      0.0598: real time      0.0598
    --------------------------------------------
      LOOP:  cpu time    222.8156: real time    222.8435

 eigenvalue-minimisations  :  8000
 total energy-change (2. order) :-0.7347804E+02  (-0.3600399E+01)
 number of electron    1462.0000018 magnetization     174.2779216
 augmentation part       33.6127909 magnetization     173.9025142

 Broyden mixing:
  rms(total) = 0.14033E+01    rms(broyden)= 0.14032E+01
  rms(prec ) = 0.14080E+01
  weight for this iteration     100.00

 eigenvalues of (default mixing * dielectric matrix)
  average eigenvalue GAMMA=   1.8672
  6.2956  2.0874  1.4012  1.0823  0.7825  0.7825  0.6386

 Free energy of the ion-electron system (eV)
  ---------------------------------------------------
  alpha Z        PSCENC =       418.83067969
  Ewald energy   TEWEN  =    465380.35675783
  -Hartree energ DENC   =   -510652.73454712
  -exchange      EXHF   =         0.00000000
  -V(xc)+E(xc)   XCENC  =      5350.64065416
  PAW double counting   =     25621.99427778   -26072.24898636
  entropy T*S    EENTRO =        -0.00000000
  eigenvalues    EBANDS =    -17055.89436565
  atomic energy  EATOM  =     53811.27190059
  Solvation  Ediel_sol  =         0.00000000
  ---------------------------------------------------
  free energy    TOTEN  =     -3197.78362908 eV

  energy without entropy =    -3197.78362908  energy(sigma->0) =    -3197.78362908


--------------------------------------------------------------------------------------------------------




--------------------------------------- Iteration      1(  13)  ---------------------------------------


    POTLOK:  cpu time      1.4922: real time      1.4977
    SETDIJ:  cpu time      0.0926: real time      0.0926
     EDDAV:  cpu time    210.3401: real time    210.3582
       DOS:  cpu time      0.0007: real time      0.0007
    CHARGE:  cpu time      4.1871: real time      4.1876
    MIXING:  cpu time      0.0596: real time      0.0596
    --------------------------------------------
      LOOP:  cpu time    216.1723: real time    216.1963

 eigenvalue-minimisations  :  7840
 total energy-change (2. order) :-0.5649425E+02  (-0.1612544E+01)
 number of electron    1462.0000018 magnetization     140.2105681
 augmentation part       33.5751331 magnetization     139.9684162

 Broyden mixing:
  rms(total) = 0.11575E+01    rms(broyden)= 0.11575E+01
  rms(prec ) = 0.11600E+01
  weight for this iteration     100.00

 eigenvalues of (default mixing * dielectric matrix)
  average eigenvalue GAMMA=   2.0422
  7.4568  2.4375  2.2571  1.0298  0.9388  0.7955  0.7955  0.6262

 Free energy of the ion-electron system (eV)
  ---------------------------------------------------
  alpha Z        PSCENC =       418.83067969
  Ewald energy   TEWEN  =    465380.35675783
  -Hartree energ DENC   =   -510430.92537839
  -exchange      EXHF   =         0.00000000
  -V(xc)+E(xc)   XCENC  =      5295.40178906
  PAW double counting   =     25443.42378484   -25896.71932158
  entropy T*S    EENTRO =        -0.00000000
  eigenvalues    EBANDS =    -17275.91808942
  atomic energy  EATOM  =     53811.27190059
  Solvation  Ediel_sol  =         0.00000000
  ---------------------------------------------------
  free energy    TOTEN  =     -3254.27787739 eV

  energy without entropy =    -3254.27787739  energy(sigma->0) =    -3254.27787739


--------------------------------------------------------------------------------------------------------




--------------------------------------- Iteration      1(  14)  ---------------------------------------


    POTLOK:  cpu time      1.4871: real time      1.4877
    SETDIJ:  cpu time      0.7998: real time      0.7998
     EDDAV:  cpu time    208.4992: real time    208.5187
       DOS:  cpu time      0.0007: real time      0.0007
    CHARGE:  cpu time      4.1561: real time      4.1566
    MIXING:  cpu time      0.0590: real time      0.0590
    --------------------------------------------
      LOOP:  cpu time    215.0018: real time    215.0225

 eigenvalue-minimisations  :  7712
 total energy-change (2. order) :-0.1900285E+02  (-0.8081413E+00)
 number of electron    1462.0000018 magnetization     112.3141972
 augmentation part       33.5879043 magnetization     112.1844181

 Broyden mixing:
  rms(total) = 0.93629E+00    rms(broyden)= 0.93627E+00
  rms(prec ) = 0.93829E+00
  weight for this iteration     100.00

 eigenvalues of (default mixing * dielectric matrix)
  average eigenvalue GAMMA=   2.1676
  8.7513  3.3920  2.1640  1.1013  1.1013  0.8202  0.8202  0.7355  0.6231

 Free energy of the ion-electron system (eV)
  ---------------------------------------------------
  alpha Z        PSCENC =       418.83067969
  Ewald energy   TEWEN  =    465380.35675783
  -Hartree energ DENC   =   -510115.95924833
  -exchange      EXHF   =         0.00000000
  -V(xc)+E(xc)   XCENC  =      5271.01755246
  PAW double counting   =     25369.46101845   -25825.71491159
  entropy T*S    EENTRO =        -0.00000000
  eigenvalues    EBANDS =    -17582.54447375
  atomic energy  EATOM  =     53811.27190059
  Solvation  Ediel_sol  =         0.00000000
  ---------------------------------------------------
  free energy    TOTEN  =     -3273.28072464 eV

  energy without entropy =    -3273.28072464  energy(sigma->0) =    -3273.28072464


--------------------------------------------------------------------------------------------------------




--------------------------------------- Iteration      1(  15)  ---------------------------------------


    POTLOK:  cpu time      1.4890: real time      1.4936
    SETDIJ:  cpu time      0.0871: real time      0.0871
     EDDAV:  cpu time    208.2437: real time    208.2633
       DOS:  cpu time      0.0006: real time      0.0006
    CHARGE:  cpu time      4.1418: real time      4.1421
    MIXING:  cpu time      0.0586: real time      0.0586
    --------------------------------------------
      LOOP:  cpu time    214.0208: real time    214.0454

 eigenvalue-minimisations  :  7648
 total energy-change (2. order) :-0.8707217E+01  (-0.3180490E+00)
 number of electron    1462.0000018 magnetization      75.9559998
 augmentation part       33.5856093 magnetization      75.8650040

 Broyden mixing:
  rms(total) = 0.77417E+00    rms(broyden)= 0.77416E+00
  rms(prec ) = 0.77629E+00
  weight for this iteration     100.00

 eigenvalues of (default mixing * dielectric matrix)
  average eigenvalue GAMMA=   2.3495
 10.2345  4.2307  1.9996  1.9996  1.0534  1.0534  0.7973  0.7973  0.7086  0.6200

 Free energy of the ion-electron system (eV)
  ---------------------------------------------------
  alpha Z        PSCENC =       418.83067969
  Ewald energy   TEWEN  =    465380.35675783
  -Hartree energ DENC   =   -509909.27885815
  -exchange      EXHF   =         0.00000000
  -V(xc)+E(xc)   XCENC  =      5260.64668335
  PAW double counting   =     25426.36163061   -25882.87362957
  entropy T*S    EENTRO =        -0.00000000
  eigenvalues    EBANDS =    -17787.30310626
  atomic energy  EATOM  =     53811.27190059
  Solvation  Ediel_sol  =         0.00000000
  ---------------------------------------------------
  free energy    TOTEN  =     -3281.98794192 eV

  energy without entropy =    -3281.98794192  energy(sigma->0) =    -3281.98794192


--------------------------------------------------------------------------------------------------------




--------------------------------------- Iteration      1(  16)  ---------------------------------------


    POTLOK:  cpu time      1.4891: real time      1.4938
    SETDIJ:  cpu time      0.0951: real time      0.0952
     EDDAV:  cpu time    207.7369: real time    207.7569
       DOS:  cpu time      0.0038: real time      0.0038
    CHARGE:  cpu time      4.2253: real time      4.2258
    MIXING:  cpu time      0.0603: real time      0.0603
    --------------------------------------------
      LOOP:  cpu time    213.6106: real time    213.6358

 eigenvalue-minimisations  :  7712
 total energy-change (2. order) :-0.1402435E+02  (-0.3723810E+00)
 number of electron    1462.0000018 magnetization      48.6860240
 augmentation part       33.5729425 magnetization      48.6322463

 Broyden mixing:
  rms(total) = 0.56668E+00    rms(broyden)= 0.56667E+00
  rms(prec ) = 0.56896E+00
  weight for this iteration     100.00

 eigenvalues of (default mixing * dielectric matrix)
  average eigenvalue GAMMA=   2.6309
 12.8661  5.3869  2.3448  2.3448  1.1113  1.1113  0.8420  0.8420  0.7770  0.6966
  0.6166

 Free energy of the ion-electron system (eV)
  ---------------------------------------------------
  alpha Z        PSCENC =       418.83067969
  Ewald energy   TEWEN  =    465380.35675783
  -Hartree energ DENC   =   -509695.59098301
  -exchange      EXHF   =         0.00000000
  -V(xc)+E(xc)   XCENC  =      5247.30020679
  PAW double counting   =     25553.96113207   -26009.20058370
  entropy T*S    EENTRO =        -0.00000000
  eigenvalues    EBANDS =    -18002.94140530
  atomic energy  EATOM  =     53811.27190059
  Solvation  Ediel_sol  =         0.00000000
  ---------------------------------------------------
  free energy    TOTEN  =     -3296.01229506 eV

  energy without entropy =    -3296.01229506  energy(sigma->0) =    -3296.01229506


--------------------------------------------------------------------------------------------------------




--------------------------------------- Iteration      1(  17)  ---------------------------------------


    POTLOK:  cpu time      1.4877: real time      1.4932
    SETDIJ:  cpu time      0.0818: real time      0.0818
     EDDAV:  cpu time    210.6584: real time    210.6786
       DOS:  cpu time      0.0006: real time      0.0006
    CHARGE:  cpu time      4.1949: real time      4.1954
    MIXING:  cpu time      0.0604: real time      0.0604
    --------------------------------------------
      LOOP:  cpu time    216.4838: real time    216.5100

 eigenvalue-minimisations  :  7904
 total energy-change (2. order) :-0.6679134E+01  (-0.1676444E+00)
 number of electron    1462.0000018 magnetization      31.6694342
 augmentation part       33.5582657 magnetization      31.6499870

 Broyden mixing:
  rms(total) = 0.42757E+00    rms(broyden)= 0.42757E+00
  rms(prec ) = 0.42983E+00
  weight for this iteration     100.00

 eigenvalues of (default mixing * dielectric matrix)
  average eigenvalue GAMMA=   2.7560
 14.9426  5.9698  2.6454  2.3368  1.3520  1.0822  1.0822  0.8115  0.8115  0.7499
  0.6722  0.6157

 Free energy of the ion-electron system (eV)
  ---------------------------------------------------
  alpha Z        PSCENC =       418.83067969
  Ewald energy   TEWEN  =    465380.35675783
  -Hartree energ DENC   =   -509582.44373784
  -exchange      EXHF   =         0.00000000
  -V(xc)+E(xc)   XCENC  =      5241.97868746
  PAW double counting   =     25598.18418752   -26052.23061469
  entropy T*S    EENTRO =        -0.00000000
  eigenvalues    EBANDS =    -18118.63928922
  atomic energy  EATOM  =     53811.27190059
  Solvation  Ediel_sol  =         0.00000000
  ---------------------------------------------------
  free energy    TOTEN  =     -3302.69142867 eV

  energy without entropy =    -3302.69142867  energy(sigma->0) =    -3302.69142867


--------------------------------------------------------------------------------------------------------




--------------------------------------- Iteration      1(  18)  ---------------------------------------


    POTLOK:  cpu time      1.4934: real time      1.4983
    SETDIJ:  cpu time      0.0694: real time      0.0694
     EDDAV:  cpu time    207.8931: real time    207.9116
       DOS:  cpu time      0.0006: real time      0.0006
    CHARGE:  cpu time      4.1656: real time      4.1661
    MIXING:  cpu time      0.0638: real time      0.0638
    --------------------------------------------
      LOOP:  cpu time    213.6860: real time    213.7099

 eigenvalue-minimisations  :  7648
 total energy-change (2. order) : 0.2416343E+01  (-0.4753658E-01)
 number of electron    1462.0000018 magnetization      15.3180389
 augmentation part       33.5490440 magnetization      15.3043416

 Broyden mixing:
  rms(total) = 0.31649E+00    rms(broyden)= 0.31648E+00
  rms(prec ) = 0.31789E+00
  weight for this iteration     100.00

 eigenvalues of (default mixing * dielectric matrix)
  average eigenvalue GAMMA=   2.9873
 17.6535  6.6673  3.3275  2.2875  2.1056  1.1314  1.1314  0.8910  0.8181  0.8181
  0.7334  0.6165  0.6539

 Free energy of the ion-electron system (eV)
  ---------------------------------------------------
  alpha Z        PSCENC =       418.83067969
  Ewald energy   TEWEN  =    465380.35675783
  -Hartree energ DENC   =   -509556.21977823
  -exchange      EXHF   =         0.00000000
  -V(xc)+E(xc)   XCENC  =      5246.01400865
  PAW double counting   =     25566.53622372   -26020.23270976
  entropy T*S    EENTRO =        -0.00000000
  eigenvalues    EBANDS =    -18146.83216779
  atomic energy  EATOM  =     53811.27190059
  Solvation  Ediel_sol  =         0.00000000
  ---------------------------------------------------
  free energy    TOTEN  =     -3300.27508530 eV

  energy without entropy =    -3300.27508530  energy(sigma->0) =    -3300.27508530


--------------------------------------------------------------------------------------------------------




--------------------------------------- Iteration      1(  19)  ---------------------------------------


    POTLOK:  cpu time      1.4861: real time      1.4912
    SETDIJ:  cpu time      0.0852: real time      0.0852
     EDDAV:  cpu time    207.1740: real time    207.1925
       DOS:  cpu time      0.0195: real time      0.0195
    CHARGE:  cpu time      4.1929: real time      4.1937
    MIXING:  cpu time      0.0662: real time      0.0662
    --------------------------------------------
      LOOP:  cpu time    213.0239: real time    213.0483

 eigenvalue-minimisations  :  7680
 total energy-change (2. order) : 0.6042683E+00  (-0.6183193E-01)
 number of electron    1462.0000018 magnetization       7.9338397
 augmentation part       33.5373401 magnetization       7.9335622

 Broyden mixing:
  rms(total) = 0.20052E+00    rms(broyden)= 0.20051E+00
  rms(prec ) = 0.20205E+00
  weight for this iteration     100.00

 eigenvalues of (default mixing * dielectric matrix)
  average eigenvalue GAMMA=   3.1284
 20.0236  7.3422  3.9544  2.3169  2.3169  1.1545  1.1257  1.1257  0.8254  0.8254
  0.8121  0.7124  0.6176  0.6442

 Free energy of the ion-electron system (eV)
  ---------------------------------------------------
  alpha Z        PSCENC =       418.83067969
  Ewald energy   TEWEN  =    465380.35675783
  -Hartree energ DENC   =   -509545.02418242
  -exchange      EXHF   =         0.00000000
  -V(xc)+E(xc)   XCENC  =      5248.44114186
  PAW double counting   =     25522.52685661   -25976.53104700
  entropy T*S    EENTRO =        -0.00000000
  eigenvalues    EBANDS =    -18159.54292419
  atomic energy  EATOM  =     53811.27190059
  Solvation  Ediel_sol  =         0.00000000
  ---------------------------------------------------
  free energy    TOTEN  =     -3299.67081704 eV

  energy without entropy =    -3299.67081704  energy(sigma->0) =    -3299.67081704


--------------------------------------------------------------------------------------------------------




--------------------------------------- Iteration      1(  20)  ---------------------------------------


    POTLOK:  cpu time      1.4869: real time      1.4876
    SETDIJ:  cpu time      0.0866: real time      0.0866
     EDDAV:  cpu time    208.3497: real time    208.3683
       DOS:  cpu time      0.0006: real time      0.0006
    CHARGE:  cpu time      4.1670: real time      4.1677
    MIXING:  cpu time      0.7344: real time      0.7344
    --------------------------------------------
      LOOP:  cpu time    214.8252: real time    214.8453

 eigenvalue-minimisations  :  7680
 total energy-change (2. order) :-0.2827652E+01  (-0.2106276E-01)
 number of electron    1462.0000018 magnetization       2.7119734
 augmentation part       33.5327962 magnetization       2.7104360

 Broyden mixing:
  rms(total) = 0.12724E+00    rms(broyden)= 0.12724E+00
  rms(prec ) = 0.12829E+00
  weight for this iteration     100.00

 eigenvalues of (default mixing * dielectric matrix)
  average eigenvalue GAMMA=   3.3603
 23.1177  8.3474  4.6715  2.4388  2.4388  1.7354  1.1634  1.1634  0.9670  0.8201
  0.8201  0.7592  0.7082  0.6181  0.6351

 Free energy of the ion-electron system (eV)
  ---------------------------------------------------
  alpha Z        PSCENC =       418.83067969
  Ewald energy   TEWEN  =    465380.35675783
  -Hartree energ DENC   =   -509533.97510548
  -exchange      EXHF   =         0.00000000
  -V(xc)+E(xc)   XCENC  =      5245.91872498
  PAW double counting   =     25508.00065296   -25962.36455566
  entropy T*S    EENTRO =        -0.00000000
  eigenvalues    EBANDS =    -18170.53752403
  atomic energy  EATOM  =     53811.27190059
  Solvation  Ediel_sol  =         0.00000000
  ---------------------------------------------------
  free energy    TOTEN  =     -3302.49846912 eV

  energy without entropy =    -3302.49846912  energy(sigma->0) =    -3302.49846912


--------------------------------------------------------------------------------------------------------




--------------------------------------- Iteration      1(  21)  ---------------------------------------


    POTLOK:  cpu time      1.5000: real time      1.5027
    SETDIJ:  cpu time      0.1368: real time      0.1358
     EDDAV:  cpu time    209.3355: real time    209.3550
       DOS:  cpu time      0.0036: real time      0.0036
    CHARGE:  cpu time      4.2315: real time      4.2321
    MIXING:  cpu time      0.0675: real time      0.0675
    --------------------------------------------
      LOOP:  cpu time    215.2748: real time    215.2966

 eigenvalue-minimisations  :  7648
 total energy-change (2. order) :-0.2602150E+01  (-0.2192869E-01)
 number of electron    1462.0000018 magnetization       1.2960264
 augmentation part       33.5289391 magnetization       1.2961077

 Broyden mixing:
  rms(total) = 0.68865E-01    rms(broyden)= 0.68858E-01
  rms(prec ) = 0.70501E-01
  weight for this iteration     100.00

 eigenvalues of (default mixing * dielectric matrix)
  average eigenvalue GAMMA=   3.4022
 24.9564  8.9764  5.0458  2.5104  2.5104  1.8301  1.1331  1.1331  1.1295  0.9006
  0.8183  0.8183  0.7348  0.6895  0.6182  0.6295

 Free energy of the ion-electron system (eV)
  ---------------------------------------------------
  alpha Z        PSCENC =       418.83067969
  Ewald energy   TEWEN  =    465380.35675783
  -Hartree energ DENC   =   -509531.74498691
  -exchange      EXHF   =         0.00000000
  -V(xc)+E(xc)   XCENC  =      5243.19560305
  PAW double counting   =     25505.07399894   -25959.55343585
  entropy T*S    EENTRO =        -0.00000000
  eigenvalues    EBANDS =    -18172.53113630
  atomic energy  EATOM  =     53811.27190059
  Solvation  Ediel_sol  =         0.00000000
  ---------------------------------------------------
  free energy    TOTEN  =     -3305.10061896 eV

  energy without entropy =    -3305.10061896  energy(sigma->0) =    -3305.10061896


--------------------------------------------------------------------------------------------------------




--------------------------------------- Iteration      1(  22)  ---------------------------------------


    POTLOK:  cpu time      1.4942: real time      1.4968
    SETDIJ:  cpu time      0.1121: real time      0.1121
     EDDAV:  cpu time    204.2759: real time    204.2953
       DOS:  cpu time      0.0036: real time      0.0036
    CHARGE:  cpu time      4.2383: real time      4.2389
    MIXING:  cpu time      0.0702: real time      0.0702
    --------------------------------------------
      LOOP:  cpu time    210.1943: real time    210.2169

 eigenvalue-minimisations  :  7552
 total energy-change (2. order) :-0.9757590E+00  (-0.7278449E-02)
 number of electron    1462.0000018 magnetization       0.7402384
 augmentation part       33.5285279 magnetization       0.7395380

 Broyden mixing:
  rms(total) = 0.50642E-01    rms(broyden)= 0.50636E-01
  rms(prec ) = 0.51896E-01
  weight for this iteration     100.00

 eigenvalues of (default mixing * dielectric matrix)
  average eigenvalue GAMMA=   3.3357
 25.5307  9.1994  5.1747  2.5726  2.5012  1.6383  1.4153  1.4153  1.0797  1.0797
  0.8271  0.8271  0.7835  0.7444  0.6734  0.6175  0.6271

 Free energy of the ion-electron system (eV)
  ---------------------------------------------------
  alpha Z        PSCENC =       418.83067969
  Ewald energy   TEWEN  =    465380.35675783
  -Hartree energ DENC   =   -509536.49556823
  -exchange      EXHF   =         0.00000000
  -V(xc)+E(xc)   XCENC  =      5242.00288013
  PAW double counting   =     25507.75991095   -25962.20909690
  entropy T*S    EENTRO =        -0.00000000
  eigenvalues    EBANDS =    -18167.59384206
  atomic energy  EATOM  =     53811.27190059
  Solvation  Ediel_sol  =         0.00000000
  ---------------------------------------------------
  free energy    TOTEN  =     -3306.07637800 eV

  energy without entropy =    -3306.07637800  energy(sigma->0) =    -3306.07637800


--------------------------------------------------------------------------------------------------------




--------------------------------------- Iteration      1(  23)  ---------------------------------------


    POTLOK:  cpu time      1.4968: real time      1.5017
    SETDIJ:  cpu time      0.1129: real time      0.1129
     EDDAV:  cpu time    221.7821: real time    221.8031
       DOS:  cpu time      0.0007: real time      0.0007
    CHARGE:  cpu time      4.2074: real time      4.2082
    MIXING:  cpu time      0.0688: real time      0.0688
    --------------------------------------------
      LOOP:  cpu time    227.6687: real time    227.6953

 eigenvalue-minimisations  :  8224
 total energy-change (2. order) :-0.1454927E+01  (-0.4510811E-02)
 number of electron    1462.0000018 magnetization       0.2768211
 augmentation part       33.5313222 magnetization       0.2763179

 Broyden mixing:
  rms(total) = 0.33952E-01    rms(broyden)= 0.33951E-01
  rms(prec ) = 0.34710E-01
  weight for this iteration     100.00

 eigenvalues of (default mixing * dielectric matrix)
  average eigenvalue GAMMA=   3.3387
 26.0699  9.4795  5.3976  3.1246  2.5198  2.2368  1.5201  1.5201  1.1275  1.1275
  0.9381  0.8230  0.8230  0.7591  0.7245  0.6643  0.6184  0.6231

 Free energy of the ion-electron system (eV)
  ---------------------------------------------------
  alpha Z        PSCENC =       418.83067969
  Ewald energy   TEWEN  =    465380.35675783
  -Hartree energ DENC   =   -509539.80021049
  -exchange      EXHF   =         0.00000000
  -V(xc)+E(xc)   XCENC  =      5240.23869449
  PAW double counting   =     25511.63808835   -25966.02972401
  entropy T*S    EENTRO =        -0.00000000
  eigenvalues    EBANDS =    -18164.03749140
  atomic energy  EATOM  =     53811.27190059
  Solvation  Ediel_sol  =         0.00000000
  ---------------------------------------------------
  free energy    TOTEN  =     -3307.53130495 eV

  energy without entropy =    -3307.53130495  energy(sigma->0) =    -3307.53130495


--------------------------------------------------------------------------------------------------------




--------------------------------------- Iteration      1(  24)  ---------------------------------------


    POTLOK:  cpu time      1.4801: real time      1.4872
    SETDIJ:  cpu time      0.0792: real time      0.0792
     EDDAV:  cpu time    211.9169: real time    211.9366
       DOS:  cpu time      0.0007: real time      0.0007
    CHARGE:  cpu time      4.1708: real time      4.1712
    MIXING:  cpu time      0.0699: real time      0.0699
    --------------------------------------------
      LOOP:  cpu time    217.7176: real time    217.7449

 eigenvalue-minimisations  :  7808
 total energy-change (2. order) :-0.1394111E+01  (-0.7135477E-02)
 number of electron    1462.0000018 magnetization       0.1255949
 augmentation part       33.5351423 magnetization       0.1259933

 Broyden mixing:
  rms(total) = 0.19426E-01    rms(broyden)= 0.19422E-01
  rms(prec ) = 0.19884E-01
  weight for this iteration     100.00

 eigenvalues of (default mixing * dielectric matrix)
  average eigenvalue GAMMA=   3.2823
 26.3167  9.6653  5.6190  3.7782  2.6054  2.2721  1.3930  1.3396  1.3396  1.0803
  1.0803  0.8723  0.8231  0.8231  0.7495  0.7137  0.6538  0.6191  0.6191

 Free energy of the ion-electron system (eV)
  ---------------------------------------------------
  alpha Z        PSCENC =       418.83067969
  Ewald energy   TEWEN  =    465380.35675783
  -Hartree energ DENC   =   -509544.30974954
  -exchange      EXHF   =         0.00000000
  -V(xc)+E(xc)   XCENC  =      5238.51921720
  PAW double counting   =     25517.63289117   -25971.94386696
  entropy T*S    EENTRO =        -0.00000000
  eigenvalues    EBANDS =    -18159.28324558
  atomic energy  EATOM  =     53811.27190059
  Solvation  Ediel_sol  =         0.00000000
  ---------------------------------------------------
  free energy    TOTEN  =     -3308.92541561 eV

  energy without entropy =    -3308.92541561  energy(sigma->0) =    -3308.92541561


--------------------------------------------------------------------------------------------------------




--------------------------------------- Iteration      1(  25)  ---------------------------------------


    POTLOK:  cpu time      1.4821: real time      1.4875
    SETDIJ:  cpu time      0.1482: real time      0.1482
     EDDAV:  cpu time    218.8846: real time    218.9047
       DOS:  cpu time      0.0024: real time      0.0024
    CHARGE:  cpu time      4.1950: real time      4.1955
    MIXING:  cpu time      0.0720: real time      0.0720
    --------------------------------------------
      LOOP:  cpu time    224.7844: real time    224.8104

 eigenvalue-minimisations  :  8192
 total energy-change (2. order) :-0.5507318E+00  (-0.1406963E-02)
 number of electron    1462.0000018 magnetization       0.0514986
 augmentation part       33.5344066 magnetization       0.0516298

 Broyden mixing:
  rms(total) = 0.13414E-01    rms(broyden)= 0.13413E-01
  rms(prec ) = 0.13675E-01
  weight for this iteration     100.00

 eigenvalues of (default mixing * dielectric matrix)
  average eigenvalue GAMMA=   3.2352
 26.4260  9.7584  5.8259  4.1236  2.5540  2.3411  1.5321  1.5321  1.5475  1.1348
  1.1348  0.9641  0.8224  0.8224  0.8577  0.7379  0.7059  0.6474  0.6170  0.6193

 Free energy of the ion-electron system (eV)
  ---------------------------------------------------
  alpha Z        PSCENC =       418.83067969
  Ewald energy   TEWEN  =    465380.35675783
  -Hartree energ DENC   =   -509548.64942299
  -exchange      EXHF   =         0.00000000
  -V(xc)+E(xc)   XCENC  =      5237.94886529
  PAW double counting   =     25520.36707335   -25974.68111073
  entropy T*S    EENTRO =        -0.00000000
  eigenvalues    EBANDS =    -18154.92089044
  atomic energy  EATOM  =     53811.27190059
  Solvation  Ediel_sol  =         0.00000000
  ---------------------------------------------------
  free energy    TOTEN  =     -3309.47614741 eV

  energy without entropy =    -3309.47614741  energy(sigma->0) =    -3309.47614741


--------------------------------------------------------------------------------------------------------




--------------------------------------- Iteration      1(  26)  ---------------------------------------


    POTLOK:  cpu time      1.4907: real time      1.4917
    SETDIJ:  cpu time      0.1404: real time      0.1404
     EDDAV:  cpu time    231.4502: real time    231.4711
       DOS:  cpu time      0.0637: real time      0.0637
    CHARGE:  cpu time      4.4376: real time      4.4381
    MIXING:  cpu time      0.0719: real time      0.0719
    --------------------------------------------
      LOOP:  cpu time    237.6545: real time    237.6768

 eigenvalue-minimisations  :  8672
 total energy-change (2. order) :-0.4392104E+00  (-0.1022404E-02)
 number of electron    1462.0000018 magnetization       0.0185079
 augmentation part       33.5331131 magnetization       0.0188901

 Broyden mixing:
  rms(total) = 0.70024E-02    rms(broyden)= 0.70009E-02
  rms(prec ) = 0.71511E-02
  weight for this iteration     100.00

 eigenvalues of (default mixing * dielectric matrix)
  average eigenvalue GAMMA=   3.2179
 26.5243  9.9052  6.3092  4.6400  2.5847  2.5847  2.0150  1.5001  1.5001  1.1497
  1.1142  1.1142  0.9254  0.8212  0.8212  0.7733  0.7306  0.6866  0.6415  0.6146
  0.6194

 Free energy of the ion-electron system (eV)
  ---------------------------------------------------
  alpha Z        PSCENC =       418.83067969
  Ewald energy   TEWEN  =    465380.35675783
  -Hartree energ DENC   =   -509552.95474870
  -exchange      EXHF   =         0.00000000
  -V(xc)+E(xc)   XCENC  =      5237.51476440
  PAW double counting   =     25518.00492033   -25972.34570842
  entropy T*S    EENTRO =        -0.00000000
  eigenvalues    EBANDS =    -18150.59392351
  atomic energy  EATOM  =     53811.27190059
  Solvation  Ediel_sol  =         0.00000000
  ---------------------------------------------------
  free energy    TOTEN  =     -3309.91535779 eV

  energy without entropy =    -3309.91535779  energy(sigma->0) =    -3309.91535779


--------------------------------------------------------------------------------------------------------




--------------------------------------- Iteration      1(  27)  ---------------------------------------


    POTLOK:  cpu time      1.4874: real time      1.4902
    SETDIJ:  cpu time      0.1324: real time      0.1324
     EDDAV:  cpu time    215.5206: real time    215.5411
       DOS:  cpu time      0.0012: real time      0.0012
    CHARGE:  cpu time      4.1785: real time      4.1794
    MIXING:  cpu time      0.0798: real time      0.0798
    --------------------------------------------
      LOOP:  cpu time    221.3998: real time    221.4241

 eigenvalue-minimisations  :  7904
 total energy-change (2. order) :-0.1908911E+00  (-0.4790075E-03)
 number of electron    1462.0000018 magnetization       0.0048992
 augmentation part       33.5327334 magnetization       0.0049230

 Broyden mixing:
  rms(total) = 0.50212E-02    rms(broyden)= 0.50189E-02
  rms(prec ) = 0.51833E-02
  weight for this iteration     100.00

 eigenvalues of (default mixing * dielectric matrix)
  average eigenvalue GAMMA=   3.1522
 26.5538  9.9706  6.5871  4.8231  2.6911  2.6911  2.1431  1.3454  1.3454  1.3558
  1.1359  1.1359  1.0107  0.8953  0.8216  0.8216  0.7580  0.7175  0.6760  0.6359
  0.6119  0.6206

 Free energy of the ion-electron system (eV)
  ---------------------------------------------------
  alpha Z        PSCENC =       418.83067969
  Ewald energy   TEWEN  =    465380.35675783
  -Hartree energ DENC   =   -509555.80611912
  -exchange      EXHF   =         0.00000000
  -V(xc)+E(xc)   XCENC  =      5237.35625880
  PAW double counting   =     25516.74731786   -25971.10012437
  entropy T*S    EENTRO =        -0.00000000
  eigenvalues    EBANDS =    -18147.76292019
  atomic energy  EATOM  =     53811.27190059
  Solvation  Ediel_sol  =         0.00000000
  ---------------------------------------------------
  free energy    TOTEN  =     -3310.10624892 eV

  energy without entropy =    -3310.10624892  energy(sigma->0) =    -3310.10624892


--------------------------------------------------------------------------------------------------------




--------------------------------------- Iteration      1(  28)  ---------------------------------------


    POTLOK:  cpu time      1.4855: real time      1.4913
    SETDIJ:  cpu time      0.1437: real time      0.1437
     EDDAV:  cpu time    227.9722: real time    227.9923
       DOS:  cpu time      0.0010: real time      0.0010
    CHARGE:  cpu time      4.1952: real time      4.1972
    MIXING:  cpu time      0.0744: real time      0.0744
    --------------------------------------------
      LOOP:  cpu time    233.8719: real time    233.8998

 eigenvalue-minimisations  :  8512
 total energy-change (2. order) :-0.4477940E-01  (-0.6257651E-04)
 number of electron    1462.0000018 magnetization      -0.0002547
 augmentation part       33.5326924 magnetization      -0.0002388

 Broyden mixing:
  rms(total) = 0.24891E-02    rms(broyden)= 0.24887E-02
  rms(prec ) = 0.25974E-02
  weight for this iteration     100.00

 eigenvalues of (default mixing * dielectric matrix)
  average eigenvalue GAMMA=   3.0930
 26.5648  9.9957  6.7240  4.8988  2.7500  2.7500  2.1736  1.5390  1.5390  1.4495
  1.1080  1.1080  1.1267  0.9384  0.8188  0.8188  0.8355  0.7370  0.7304  0.6693
  0.6323  0.6111  0.6207

 Free energy of the ion-electron system (eV)
  ---------------------------------------------------
  alpha Z        PSCENC =       418.83067969
  Ewald energy   TEWEN  =    465380.35675783
  -Hartree energ DENC   =   -509556.94029077
  -exchange      EXHF   =         0.00000000
  -V(xc)+E(xc)   XCENC  =      5237.33392067
  PAW double counting   =     25516.46137339   -25970.81701695
  entropy T*S    EENTRO =        -0.00000000
  eigenvalues    EBANDS =    -18146.64835275
  atomic energy  EATOM  =     53811.27190059
  Solvation  Ediel_sol  =         0.00000000
  ---------------------------------------------------
  free energy    TOTEN  =     -3310.15102831 eV

  energy without entropy =    -3310.15102831  energy(sigma->0) =    -3310.15102831


--------------------------------------------------------------------------------------------------------




--------------------------------------- Iteration      1(  29)  ---------------------------------------


    POTLOK:  cpu time      1.4868: real time      1.4916
    SETDIJ:  cpu time      0.1106: real time      0.1106
     EDDAV:  cpu time    220.9342: real time    220.9538
       DOS:  cpu time      0.0055: real time      0.0055
    CHARGE:  cpu time      4.1934: real time      4.1989
    MIXING:  cpu time      0.0753: real time      0.0753
    --------------------------------------------
      LOOP:  cpu time    226.8058: real time    226.8357

 eigenvalue-minimisations  :  8384
 total energy-change (2. order) :-0.2109990E-01  (-0.4151515E-04)
 number of electron    1462.0000018 magnetization       0.0000174
 augmentation part       33.5327453 magnetization       0.0000328

 Broyden mixing:
  rms(total) = 0.18130E-02    rms(broyden)= 0.18120E-02
  rms(prec ) = 0.18980E-02
  weight for this iteration     100.00

 eigenvalues of (default mixing * dielectric matrix)
  average eigenvalue GAMMA=   3.0421
 26.5696 10.0225  6.8470  4.9873  2.8863  2.8863  2.1938  1.8600  1.4514  1.4514
  1.2723  1.1373  1.1373  0.9878  0.9177  0.8223  0.8223  0.8010  0.7300  0.7130
  0.6572  0.6286  0.6180  0.6093

 Free energy of the ion-electron system (eV)
  ---------------------------------------------------
  alpha Z        PSCENC =       418.83067969
  Ewald energy   TEWEN  =    465380.35675783
  -Hartree energ DENC   =   -509557.43821990
  -exchange      EXHF   =         0.00000000
  -V(xc)+E(xc)   XCENC  =      5237.31962344
  PAW double counting   =     25516.13562294   -25970.49157216
  entropy T*S    EENTRO =        -0.00000000
  eigenvalues    EBANDS =    -18146.15692063
  atomic energy  EATOM  =     53811.27190059
  Solvation  Ediel_sol  =         0.00000000
  ---------------------------------------------------
  free energy    TOTEN  =     -3310.17212821 eV

  energy without entropy =    -3310.17212821  energy(sigma->0) =    -3310.17212821


--------------------------------------------------------------------------------------------------------




--------------------------------------- Iteration      1(  30)  ---------------------------------------


    POTLOK:  cpu time      1.4867: real time      1.4983
    SETDIJ:  cpu time      0.7351: real time      0.7351
     EDDAV:  cpu time    220.1252: real time    220.1455
       DOS:  cpu time      0.0044: real time      0.0044
    CHARGE:  cpu time      4.2151: real time      4.2198
    MIXING:  cpu time      0.0760: real time      0.0760
    --------------------------------------------
      LOOP:  cpu time    226.6425: real time    226.6791

 eigenvalue-minimisations  :  8192
 total energy-change (2. order) :-0.8444552E-02  (-0.1127693E-04)
 number of electron    1462.0000018 magnetization       0.0003434
 augmentation part       33.5326636 magnetization       0.0003483

 Broyden mixing:
  rms(total) = 0.13882E-02    rms(broyden)= 0.13878E-02
  rms(prec ) = 0.14492E-02
  weight for this iteration     100.00

 eigenvalues of (default mixing * dielectric matrix)
  average eigenvalue GAMMA=   2.9768
 26.5695 10.0347  6.8871  5.0322  3.0517  2.8691  2.2287  2.1070  1.3642  1.3642
  1.3593  1.1137  1.1137  1.0381  1.0381  0.8226  0.8226  0.8525  0.8086  0.7320
  0.7025  0.6535  0.6278  0.6174  0.6087

 Free energy of the ion-electron system (eV)
  ---------------------------------------------------
  alpha Z        PSCENC =       418.83067969
  Ewald energy   TEWEN  =    465380.35675783
  -Hartree energ DENC   =   -509557.69743492
  -exchange      EXHF   =         0.00000000
  -V(xc)+E(xc)   XCENC  =      5237.31612070
  PAW double counting   =     25516.04688465   -25970.40187097
  entropy T*S    EENTRO =        -0.00000000
  eigenvalues    EBANDS =    -18145.90361033
  atomic energy  EATOM  =     53811.27190059
  Solvation  Ediel_sol  =         0.00000000
  ---------------------------------------------------
  free energy    TOTEN  =     -3310.18057276 eV

  energy without entropy =    -3310.18057276  energy(sigma->0) =    -3310.18057276


--------------------------------------------------------------------------------------------------------




--------------------------------------- Iteration      1(  31)  ---------------------------------------


    POTLOK:  cpu time      1.4947: real time      1.4972
    SETDIJ:  cpu time      0.0761: real time      0.0765
     EDDAV:  cpu time    222.2583: real time    222.2821
       DOS:  cpu time      0.0207: real time      0.0207
    CHARGE:  cpu time      4.1913: real time      4.1962
    MIXING:  cpu time      0.0764: real time      0.0764
    --------------------------------------------
      LOOP:  cpu time    228.1174: real time    228.1492

 eigenvalue-minimisations  :  8352
 total energy-change (2. order) :-0.2919519E-02  (-0.3979893E-05)
 number of electron    1462.0000018 magnetization      -0.0000337
 augmentation part       33.5325587 magnetization      -0.0000472

 Broyden mixing:
  rms(total) = 0.53957E-03    rms(broyden)= 0.53937E-03
  rms(prec ) = 0.59226E-03
  weight for this iteration     100.00

 eigenvalues of (default mixing * dielectric matrix)
  average eigenvalue GAMMA=   2.9276
 26.5697 10.0404  6.9167  5.0646  3.2495  2.8759  2.2716  2.1807  1.4387  1.4387
  1.4589  1.1326  1.1326  1.0797  1.0797  0.9687  0.8981  0.8205  0.8205  0.7610
  0.7232  0.6956  0.6490  0.6261  0.6167  0.6072

 Free energy of the ion-electron system (eV)
  ---------------------------------------------------
  alpha Z        PSCENC =       418.83067969
  Ewald energy   TEWEN  =    465380.35675783
  -Hartree energ DENC   =   -509557.82789663
  -exchange      EXHF   =         0.00000000
  -V(xc)+E(xc)   XCENC  =      5237.31730253
  PAW double counting   =     25516.09931890   -25970.45297489
  entropy T*S    EENTRO =        -0.00000000
  eigenvalues    EBANDS =    -18145.77858029
  atomic energy  EATOM  =     53811.27190059
  Solvation  Ediel_sol  =         0.00000000
  ---------------------------------------------------
  free energy    TOTEN  =     -3310.18349228 eV

  energy without entropy =    -3310.18349228  energy(sigma->0) =    -3310.18349228


--------------------------------------------------------------------------------------------------------




--------------------------------------- Iteration      1(  32)  ---------------------------------------


    POTLOK:  cpu time      1.4820: real time      1.4850
    SETDIJ:  cpu time      0.1511: real time      0.1515
     EDDAV:  cpu time    216.3230: real time    216.3440
       DOS:  cpu time      0.0026: real time      0.0026
    CHARGE:  cpu time      4.1505: real time      4.1551
    MIXING:  cpu time      0.0783: real time      0.0783
    --------------------------------------------
      LOOP:  cpu time    222.1875: real time    222.2166

 eigenvalue-minimisations  :  8064
 total energy-change (2. order) :-0.2217815E-02  (-0.3179605E-05)
 number of electron    1462.0000018 magnetization       0.0000892
 augmentation part       33.5324982 magnetization       0.0000805

 Broyden mixing:
  rms(total) = 0.34560E-03    rms(broyden)= 0.34531E-03
  rms(prec ) = 0.38153E-03
  weight for this iteration     100.00

 eigenvalues of (default mixing * dielectric matrix)
  average eigenvalue GAMMA=   2.8904
 26.5696 10.0455  6.9431  5.1087  3.6503  2.8823  2.4239  2.1952  1.7200  1.4064
  1.4064  1.2193  1.1293  1.1293  1.1057  1.1057  0.8211  0.8211  0.8600  0.8600
  0.7464  0.7178  0.6842  0.6443  0.6245  0.6162  0.6059

 Free energy of the ion-electron system (eV)
  ---------------------------------------------------
  alpha Z        PSCENC =       418.83067969
  Ewald energy   TEWEN  =    465380.35675783
  -Hartree energ DENC   =   -509557.89210316
  -exchange      EXHF   =         0.00000000
  -V(xc)+E(xc)   XCENC  =      5237.31698304
  PAW double counting   =     25516.09601658   -25970.44876765
  entropy T*S    EENTRO =        -0.00000000
  eigenvalues    EBANDS =    -18145.71717702
  atomic energy  EATOM  =     53811.27190059
  Solvation  Ediel_sol  =         0.00000000
  ---------------------------------------------------
  free energy    TOTEN  =     -3310.18571010 eV

  energy without entropy =    -3310.18571010  energy(sigma->0) =    -3310.18571010


--------------------------------------------------------------------------------------------------------




--------------------------------------- Iteration      1(  33)  ---------------------------------------


    POTLOK:  cpu time      1.4816: real time      1.4854
    SETDIJ:  cpu time      0.1359: real time      0.1359
     EDDAV:  cpu time    192.6582: real time    192.6762
       DOS:  cpu time      0.0010: real time      0.0010
    CHARGE:  cpu time      4.1295: real time      4.1347
    MIXING:  cpu time      0.0784: real time      0.0784
    --------------------------------------------
      LOOP:  cpu time    198.4846: real time    198.5115

 eigenvalue-minimisations  :  6976
 total energy-change (2. order) :-0.1008560E-02  (-0.1251812E-05)
 number of electron    1462.0000018 magnetization       0.0001344
 augmentation part       33.5324686 magnetization       0.0001253

 Broyden mixing:
  rms(total) = 0.30189E-03    rms(broyden)= 0.30185E-03
  rms(prec ) = 0.32372E-03
  weight for this iteration     100.00

 eigenvalues of (default mixing * dielectric matrix)
  average eigenvalue GAMMA=   2.8442
 26.5695 10.0473  6.9541  5.1409  3.9425  2.8665  2.5854  2.2300  1.8608  1.3526
  1.3526  1.2184  1.2184  1.2105  1.0838  1.0838  0.9542  0.9107  0.8212  0.8212
  0.8013  0.7264  0.7264  0.6722  0.6400  0.6234  0.6156  0.6063

 Free energy of the ion-electron system (eV)
  ---------------------------------------------------
  alpha Z        PSCENC =       418.83067969
  Ewald energy   TEWEN  =    465380.35675783
  -Hartree energ DENC   =   -509557.91340988
  -exchange      EXHF   =         0.00000000
  -V(xc)+E(xc)   XCENC  =      5237.31755890
  PAW double counting   =     25516.12649864   -25970.47846562
  entropy T*S    EENTRO =        -0.00000000
  eigenvalues    EBANDS =    -18145.69823880
  atomic energy  EATOM  =     53811.27190059
  Solvation  Ediel_sol  =         0.00000000
  ---------------------------------------------------
  free energy    TOTEN  =     -3310.18671866 eV

  energy without entropy =    -3310.18671866  energy(sigma->0) =    -3310.18671866


--------------------------------------------------------------------------------------------------------




--------------------------------------- Iteration      1(  34)  ---------------------------------------


    POTLOK:  cpu time      1.4915: real time      1.4941
    SETDIJ:  cpu time      0.1451: real time      0.1457
     EDDAV:  cpu time    185.9618: real time    185.9823
       DOS:  cpu time      0.0009: real time      0.0009
    CHARGE:  cpu time      4.1831: real time      4.1886
    MIXING:  cpu time      0.0797: real time      0.0797
    --------------------------------------------
      LOOP:  cpu time    191.8620: real time    191.8913

 eigenvalue-minimisations  :  6720
 total energy-change (2. order) :-0.3243577E-03  (-0.3202684E-06)
 number of electron    1462.0000018 magnetization      -0.0000435
 augmentation part       33.5324676 magnetization      -0.0000483

 Broyden mixing:
  rms(total) = 0.18618E-03    rms(broyden)= 0.18617E-03
  rms(prec ) = 0.20106E-03
  weight for this iteration     100.00

 eigenvalues of (default mixing * dielectric matrix)
  average eigenvalue GAMMA=   2.8205
 26.5697 10.0474  6.9709  5.1882  4.3381  2.8272  2.8272  2.2602  2.0353  1.4096
  1.4096  1.3265  1.3265  1.2006  1.1166  1.1166  0.9875  0.9875  0.8210  0.8210
  0.8618  0.7727  0.7210  0.7134  0.6624  0.6355  0.6216  0.6146  0.6055

 Free energy of the ion-electron system (eV)
  ---------------------------------------------------
  alpha Z        PSCENC =       418.83067969
  Ewald energy   TEWEN  =    465380.35675783
  -Hartree energ DENC   =   -509557.90052274
  -exchange      EXHF   =         0.00000000
  -V(xc)+E(xc)   XCENC  =      5237.31746379
  PAW double counting   =     25516.13500427   -25970.48653638
  entropy T*S    EENTRO =        -0.00000000
  eigenvalues    EBANDS =    -18145.71179006
  atomic energy  EATOM  =     53811.27190059
  Solvation  Ediel_sol  =         0.00000000
  ---------------------------------------------------
  free energy    TOTEN  =     -3310.18704301 eV

  energy without entropy =    -3310.18704301  energy(sigma->0) =    -3310.18704301


--------------------------------------------------------------------------------------------------------




--------------------------------------- Iteration      1(  35)  ---------------------------------------


    POTLOK:  cpu time      1.4727: real time      1.4778
    SETDIJ:  cpu time      0.0970: real time      0.0970
     EDDAV:  cpu time    182.0499: real time    182.0669
       DOS:  cpu time      0.0012: real time      0.0012
    CHARGE:  cpu time      4.1377: real time      4.1443
    MIXING:  cpu time      0.0901: real time      0.0901
    --------------------------------------------
      LOOP:  cpu time    187.8487: real time    187.8774

 eigenvalue-minimisations  :  6560
 total energy-change (2. order) :-0.1603813E-03  (-0.2210832E-06)
 number of electron    1462.0000018 magnetization      -0.0000572
 augmentation part       33.5324724 magnetization      -0.0000606

 Broyden mixing:
  rms(total) = 0.85473E-04    rms(broyden)= 0.85411E-04
  rms(prec ) = 0.94778E-04
  weight for this iteration     100.00

 eigenvalues of (default mixing * dielectric matrix)
  average eigenvalue GAMMA=   2.7922
 26.5699 10.0467  6.9910  5.3009  4.7547  2.9314  2.9314  2.3034  2.1937  1.4095
  1.4095  1.4827  1.2315  1.2315  1.0716  1.0716  1.0925  1.0925  0.9001  0.8225
  0.8225  0.8101  0.7650  0.7099  0.7005  0.6531  0.6308  0.6182  0.6125  0.6050

 Free energy of the ion-electron system (eV)
  ---------------------------------------------------
  alpha Z        PSCENC =       418.83067969
  Ewald energy   TEWEN  =    465380.35675783
  -Hartree energ DENC   =   -509557.88173925
  -exchange      EXHF   =         0.00000000
  -V(xc)+E(xc)   XCENC  =      5237.31729495
  PAW double counting   =     25516.13287029   -25970.48451113
  entropy T*S    EENTRO =        -0.00000000
  eigenvalues    EBANDS =    -18145.73045636
  atomic energy  EATOM  =     53811.27190059
  Solvation  Ediel_sol  =         0.00000000
  ---------------------------------------------------
  free energy    TOTEN  =     -3310.18720339 eV

  energy without entropy =    -3310.18720339  energy(sigma->0) =    -3310.18720339


--------------------------------------------------------------------------------------------------------




--------------------------------------- Iteration      1(  36)  ---------------------------------------


    POTLOK:  cpu time      1.4889: real time      1.4990
    SETDIJ:  cpu time      0.0679: real time      0.0679
     EDDAV:  cpu time    162.9450: real time    162.9624
       DOS:  cpu time      0.0030: real time      0.0029
    CHARGE:  cpu time      4.1613: real time      4.1682
    MIXING:  cpu time      0.0855: real time      0.0855
    --------------------------------------------
      LOOP:  cpu time    168.7515: real time    168.7859

 eigenvalue-minimisations  :  5536
 total energy-change (2. order) :-0.4114897E-04  ( 0.1154257E-07)
 number of electron    1462.0000018 magnetization      -0.0000051
 augmentation part       33.5324760 magnetization      -0.0000075

 Broyden mixing:
  rms(total) = 0.10033E-03    rms(broyden)= 0.10031E-03
  rms(prec ) = 0.10552E-03
  weight for this iteration     100.00

 eigenvalues of (default mixing * dielectric matrix)
  average eigenvalue GAMMA=   2.7607
 26.5699 10.0466  7.0013  5.4240  4.8850  2.9943  2.9943  2.3455  2.2092  1.3914
  1.3914  1.5977  1.3218  1.3218  1.1705  1.1705  1.0621  1.0621  0.9905  0.9067
  0.8205  0.8205  0.8119  0.7487  0.7226  0.6888  0.6502  0.6292  0.6161  0.6112
  0.6049

 Free energy of the ion-electron system (eV)
  ---------------------------------------------------
  alpha Z        PSCENC =       418.83067969
  Ewald energy   TEWEN  =    465380.35675783
  -Hartree energ DENC   =   -509557.87740505
  -exchange      EXHF   =         0.00000000
  -V(xc)+E(xc)   XCENC  =      5237.31728722
  PAW double counting   =     25516.13130404   -25970.48309556
  entropy T*S    EENTRO =        -0.00000000
  eigenvalues    EBANDS =    -18145.73467330
  atomic energy  EATOM  =     53811.27190059
  Solvation  Ediel_sol  =         0.00000000
  ---------------------------------------------------
  free energy    TOTEN  =     -3310.18724454 eV

  energy without entropy =    -3310.18724454  energy(sigma->0) =    -3310.18724454


--------------------------------------------------------------------------------------------------------




--------------------------------------- Iteration      1(  37)  ---------------------------------------


    POTLOK:  cpu time      1.4990: real time      1.5017
    SETDIJ:  cpu time      0.0677: real time      0.0680
     EDDAV:  cpu time    164.1177: real time    164.1344
       DOS:  cpu time      0.0043: real time      0.0043
    CHARGE:  cpu time      4.1401: real time      4.1459
    MIXING:  cpu time      0.0862: real time      0.0862
    --------------------------------------------
      LOOP:  cpu time    169.9152: real time    169.9405

 eigenvalue-minimisations  :  5504
 total energy-change (2. order) :-0.4974229E-04  ( 0.3666904E-07)
 number of electron    1462.0000018 magnetization       0.0000057
 augmentation part       33.5324752 magnetization       0.0000048

 Broyden mixing:
  rms(total) = 0.43153E-04    rms(broyden)= 0.43145E-04
  rms(prec ) = 0.46860E-04
  weight for this iteration     100.00

 eigenvalues of (default mixing * dielectric matrix)
  average eigenvalue GAMMA=   2.7470
 26.5699 10.0466  7.0140  5.6556  5.0004  3.3102  2.9584  2.4275  2.2792  2.0043
  1.4288  1.4288  1.5619  1.2561  1.2561  1.0908  1.0908  1.0417  1.0417  0.9326
  0.8208  0.8208  0.8604  0.7531  0.7531  0.7158  0.6807  0.6467  0.6284  0.6160
  0.6050  0.6082

 Free energy of the ion-electron system (eV)
  ---------------------------------------------------
  alpha Z        PSCENC =       418.83067969
  Ewald energy   TEWEN  =    465380.35675783
  -Hartree energ DENC   =   -509557.87692787
  -exchange      EXHF   =         0.00000000
  -V(xc)+E(xc)   XCENC  =      5237.31709799
  PAW double counting   =     25516.12994625   -25970.48183002
  entropy T*S    EENTRO =        -0.00000000
  eigenvalues    EBANDS =    -18145.73491875
  atomic energy  EATOM  =     53811.27190059
  Solvation  Ediel_sol  =         0.00000000
  ---------------------------------------------------
  free energy    TOTEN  =     -3310.18729429 eV

  energy without entropy =    -3310.18729429  energy(sigma->0) =    -3310.18729429


--------------------------------------------------------------------------------------------------------




--------------------------------------- Iteration      1(  38)  ---------------------------------------


    POTLOK:  cpu time      1.4964: real time      1.4970
    SETDIJ:  cpu time      0.0636: real time      0.0636
     EDDAV:  cpu time    160.4110: real time    160.4272
       DOS:  cpu time      0.0057: real time      0.0056
    CHARGE:  cpu time      4.1542: real time      4.1596
    MIXING:  cpu time      0.1108: real time      0.1108
    --------------------------------------------
      LOOP:  cpu time    166.2417: real time    166.2640

 eigenvalue-minimisations  :  5376
 total energy-change (2. order) :-0.4773459E-04  ( 0.4124130E-07)
 number of electron    1462.0000018 magnetization       0.0000083
 augmentation part       33.5324737 magnetization       0.0000069

 Broyden mixing:
  rms(total) = 0.42722E-04    rms(broyden)= 0.42712E-04
  rms(prec ) = 0.44699E-04
  weight for this iteration     100.00

 eigenvalues of (default mixing * dielectric matrix)
  average eigenvalue GAMMA=   2.7234
 26.5699 10.0464  7.0269  5.9264  5.0668  3.6408  2.9015  2.6591  2.2871  2.0836
  1.4089  1.4089  1.6221  1.2380  1.2380  1.1327  1.1327  1.0421  1.0421  1.0498
  0.9152  0.8209  0.8209  0.8266  0.7644  0.7289  0.7065  0.6691  0.6426  0.6271
  0.6163  0.6052  0.6052

 Free energy of the ion-electron system (eV)
  ---------------------------------------------------
  alpha Z        PSCENC =       418.83067969
  Ewald energy   TEWEN  =    465380.35675783
  -Hartree energ DENC   =   -509557.88169431
  -exchange      EXHF   =         0.00000000
  -V(xc)+E(xc)   XCENC  =      5237.31688351
  PAW double counting   =     25516.12856293   -25970.48052661
  entropy T*S    EENTRO =        -0.00000000
  eigenvalues    EBANDS =    -18145.72990565
  atomic energy  EATOM  =     53811.27190059
  Solvation  Ediel_sol  =         0.00000000
  ---------------------------------------------------
  free energy    TOTEN  =     -3310.18734202 eV

  energy without entropy =    -3310.18734202  energy(sigma->0) =    -3310.18734202


--------------------------------------------------------------------------------------------------------




--------------------------------------- Iteration      1(  39)  ---------------------------------------


    POTLOK:  cpu time      1.4946: real time      1.4994
    SETDIJ:  cpu time      0.0594: real time      0.0598
     EDDAV:  cpu time    156.2590: real time    156.2751
       DOS:  cpu time      0.0080: real time      0.0080
    CHARGE:  cpu time      4.1513: real time      4.1569
    MIXING:  cpu time      0.1764: real time      0.1764
    --------------------------------------------
      LOOP:  cpu time    162.1487: real time    162.1755

 eigenvalue-minimisations  :  5216
 total energy-change (2. order) :-0.2943096E-04  ( 0.5813382E-07)
 number of electron    1462.0000018 magnetization       0.0000070
 augmentation part       33.5324734 magnetization       0.0000061

 Broyden mixing:
  rms(total) = 0.38912E-04    rms(broyden)= 0.38908E-04
  rms(prec ) = 0.40297E-04
  weight for this iteration     100.00

 eigenvalues of (default mixing * dielectric matrix)
  average eigenvalue GAMMA=   2.7258
 26.5699 10.0465  7.0616  6.4631  5.1218  4.1461  2.8729  2.8729  2.2979  2.1284
  1.4204  1.4204  1.6389  1.3954  1.3954  1.3191  1.1111  1.1111  1.0573  1.0573
  0.9076  0.9076  0.8206  0.8206  0.7684  0.7684  0.7253  0.6951  0.6638  0.6415
  0.6257  0.6171  0.6042  0.6042

 Free energy of the ion-electron system (eV)
  ---------------------------------------------------
  alpha Z        PSCENC =       418.83067969
  Ewald energy   TEWEN  =    465380.35675783
  -Hartree energ DENC   =   -509557.88922920
  -exchange      EXHF   =         0.00000000
  -V(xc)+E(xc)   XCENC  =      5237.31673552
  PAW double counting   =     25516.12852744   -25970.48050720
  entropy T*S    EENTRO =        -0.00000000
  eigenvalues    EBANDS =    -18145.72223611
  atomic energy  EATOM  =     53811.27190059
  Solvation  Ediel_sol  =         0.00000000
  ---------------------------------------------------
  free energy    TOTEN  =     -3310.18737145 eV

  energy without entropy =    -3310.18737145  energy(sigma->0) =    -3310.18737145


--------------------------------------------------------------------------------------------------------




--------------------------------------- Iteration      1(  40)  ---------------------------------------


    POTLOK:  cpu time      1.4919: real time      1.4957
    SETDIJ:  cpu time      0.0361: real time      0.0362
     EDDAV:  cpu time    152.9108: real time    152.9242
       DOS:  cpu time      0.0026: real time      0.0026
    CHARGE:  cpu time      4.2062: real time      4.2117
    MIXING:  cpu time      0.1000: real time      0.1000
    --------------------------------------------
      LOOP:  cpu time    158.7477: real time    158.7703

 eigenvalue-minimisations  :  5088
 total energy-change (2. order) :-0.2397317E-04  ( 0.5631782E-07)
 number of electron    1462.0000018 magnetization       0.0000037
 augmentation part       33.5324741 magnetization       0.0000030

 Broyden mixing:
  rms(total) = 0.12931E-04    rms(broyden)= 0.12925E-04
  rms(prec ) = 0.13789E-04
  weight for this iteration     100.00

 eigenvalues of (default mixing * dielectric matrix)
  average eigenvalue GAMMA=   2.7191
 26.5699 10.0468  7.3986  6.9156  5.1769  4.5230  2.9276  2.9276  2.3572  2.1519
  1.6950  1.6950  1.4313  1.4313  1.2558  1.2558  1.1299  1.1299  1.0492  1.0492
  0.9765  0.9765  0.8211  0.8211  0.8083  0.7884  0.7269  0.7269  0.6801  0.6503
  0.6309  0.6192  0.6192  0.6020  0.6020

 Free energy of the ion-electron system (eV)
  ---------------------------------------------------
  alpha Z        PSCENC =       418.83067969
  Ewald energy   TEWEN  =    465380.35675783
  -Hartree energ DENC   =   -509557.89972647
  -exchange      EXHF   =         0.00000000
  -V(xc)+E(xc)   XCENC  =      5237.31658810
  PAW double counting   =     25516.12901436   -25970.48095883
  entropy T*S    EENTRO =        -0.00000000
  eigenvalues    EBANDS =    -18145.71165070
  atomic energy  EATOM  =     53811.27190059
  Solvation  Ediel_sol  =         0.00000000
  ---------------------------------------------------
  free energy    TOTEN  =     -3310.18739542 eV

  energy without entropy =    -3310.18739542  energy(sigma->0) =    -3310.18739542


--------------------------------------------------------------------------------------------------------




--------------------------------------- Iteration      1(  41)  ---------------------------------------


    POTLOK:  cpu time      1.4892: real time      1.4947
    SETDIJ:  cpu time      0.0656: real time      0.0665
     EDDAV:  cpu time    151.6285: real time    151.6476
       DOS:  cpu time      0.0053: real time      0.0052
    CHARGE:  cpu time      4.2238: real time      4.2320
    MIXING:  cpu time      0.1786: real time      0.1786
    --------------------------------------------
      LOOP:  cpu time    157.5911: real time    157.6246

 eigenvalue-minimisations  :  5184
 total energy-change (2. order) :-0.6146845E-05  ( 0.6744388E-07)
 number of electron    1462.0000018 magnetization       0.0000042
 augmentation part       33.5324750 magnetization       0.0000036

 Broyden mixing:
  rms(total) = 0.15948E-04    rms(broyden)= 0.15944E-04
  rms(prec ) = 0.16585E-04
  weight for this iteration     100.00

 eigenvalues of (default mixing * dielectric matrix)
  average eigenvalue GAMMA=   2.6928
 26.5699 10.0467  7.7749  6.9551  5.2000  4.6067  2.9388  2.9388  2.3798  2.1507
  1.7162  1.7162  1.4150  1.4150  1.3324  1.3324  1.1050  1.1050  1.1103  1.1103
  1.1157  0.9226  0.9226  0.8206  0.8206  0.8266  0.7495  0.7495  0.7051  0.6834
  0.6465  0.6285  0.6150  0.6150  0.6031  0.5967

 Free energy of the ion-electron system (eV)
  ---------------------------------------------------
  alpha Z        PSCENC =       418.83067969
  Ewald energy   TEWEN  =    465380.35675783
  -Hartree energ DENC   =   -509557.90631060
  -exchange      EXHF   =         0.00000000
  -V(xc)+E(xc)   XCENC  =      5237.31656368
  PAW double counting   =     25516.12969820   -25970.48162578
  entropy T*S    EENTRO =        -0.00000000
  eigenvalues    EBANDS =    -18145.70506518
  atomic energy  EATOM  =     53811.27190059
  Solvation  Ediel_sol  =         0.00000000
  ---------------------------------------------------
  free energy    TOTEN  =     -3310.18740157 eV

  energy without entropy =    -3310.18740157  energy(sigma->0) =    -3310.18740157


--------------------------------------------------------------------------------------------------------




--------------------------------------- Iteration      1(  42)  ---------------------------------------


    POTLOK:  cpu time      1.5142: real time      1.5187
    SETDIJ:  cpu time      0.0376: real time      0.0376
     EDDAV:  cpu time    146.2307: real time    146.2452
       DOS:  cpu time      0.0019: real time      0.0019
    CHARGE:  cpu time      4.1398: real time      4.1445
    MIXING:  cpu time      0.1059: real time      0.1059
    --------------------------------------------
      LOOP:  cpu time    152.0301: real time    152.0537

 eigenvalue-minimisations  :  4832
 total energy-change (2. order) :-0.2491870E-05  ( 0.7208855E-07)
 number of electron    1462.0000018 magnetization       0.0000031
 augmentation part       33.5324754 magnetization       0.0000028

 Broyden mixing:
  rms(total) = 0.94089E-05    rms(broyden)= 0.94065E-05
  rms(prec ) = 0.99267E-05
  weight for this iteration     100.00

 eigenvalues of (default mixing * dielectric matrix)
  average eigenvalue GAMMA=   2.6928
 26.5699 10.0469  8.3411  6.9755  5.2398  4.7462  3.0225  3.0225  2.3019  2.3019
  1.8086  1.8086  1.4382  1.4382  1.5042  1.5042  1.2618  1.2618  1.0885  1.0885
  1.0411  1.0411  0.9498  0.8209  0.8209  0.8575  0.7675  0.7675  0.7299  0.7054
  0.6734  0.6445  0.6268  0.6161  0.6108  0.6025  0.5883

 Free energy of the ion-electron system (eV)
  ---------------------------------------------------
  alpha Z        PSCENC =       418.83067969
  Ewald energy   TEWEN  =    465380.35675783
  -Hartree energ DENC   =   -509557.91189981
  -exchange      EXHF   =         0.00000000
  -V(xc)+E(xc)   XCENC  =      5237.31658071
  PAW double counting   =     25516.13001573   -25970.48194728
  entropy T*S    EENTRO =        -0.00000000
  eigenvalues    EBANDS =    -18145.69949154
  atomic energy  EATOM  =     53811.27190059
  Solvation  Ediel_sol  =         0.00000000
  ---------------------------------------------------
  free energy    TOTEN  =     -3310.18740406 eV

  energy without entropy =    -3310.18740406  energy(sigma->0) =    -3310.18740406


--------------------------------------------------------------------------------------------------------




--------------------------------------- Iteration      1(  43)  ---------------------------------------


    POTLOK:  cpu time      1.4919: real time      1.4963
    SETDIJ:  cpu time      0.0615: real time      0.0622
     EDDAV:  cpu time    150.2236: real time    150.2404
       DOS:  cpu time      0.0083: real time      0.0082
    CHARGE:  cpu time      4.1370: real time      4.1428
    MIXING:  cpu time      0.1869: real time      0.1869
    --------------------------------------------
      LOOP:  cpu time    156.1092: real time    156.1369

 eigenvalue-minimisations  :  5024
 total energy-change (2. order) :-0.2471381E-05  ( 0.7231758E-07)
 number of electron    1462.0000018 magnetization       0.0000019
 augmentation part       33.5324753 magnetization       0.0000016

 Broyden mixing:
  rms(total) = 0.56826E-05    rms(broyden)= 0.56808E-05
  rms(prec ) = 0.59731E-05
  weight for this iteration     100.00

 eigenvalues of (default mixing * dielectric matrix)
  average eigenvalue GAMMA=   2.6790
 26.5699 10.0478  8.7824  6.9856  5.3225  4.9167  3.3787  3.0201  2.5409  2.3857
  2.0569  1.4369  1.4369  1.3640  1.3640  1.4194  1.4194  1.4090  1.1206  1.1206
  1.0582  1.0582  0.9308  0.9308  0.8206  0.8206  0.8291  0.7593  0.7593  0.7113
  0.6948  0.6593  0.6416  0.6254  0.6172  0.6080  0.6023  0.5766

 Free energy of the ion-electron system (eV)
  ---------------------------------------------------
  alpha Z        PSCENC =       418.83067969
  Ewald energy   TEWEN  =    465380.35675783
  -Hartree energ DENC   =   -509557.92123068
  -exchange      EXHF   =         0.00000000
  -V(xc)+E(xc)   XCENC  =      5237.31661229
  PAW double counting   =     25516.12996177   -25970.48189098
  entropy T*S    EENTRO =        -0.00000000
  eigenvalues    EBANDS =    -18145.69019705
  atomic energy  EATOM  =     53811.27190059
  Solvation  Ediel_sol  =         0.00000000
  ---------------------------------------------------
  free energy    TOTEN  =     -3310.18740653 eV

  energy without entropy =    -3310.18740653  energy(sigma->0) =    -3310.18740653


--------------------------------------------------------------------------------------------------------




--------------------------------------- Iteration      1(  44)  ---------------------------------------


    POTLOK:  cpu time      1.4907: real time      1.4954
    SETDIJ:  cpu time      0.0525: real time      0.0525
     EDDAV:  cpu time    147.3768: real time    147.3914
       DOS:  cpu time      0.0078: real time      0.0077
    --------------------------------------------
      LOOP:  cpu time    148.9277: real time    148.9470

 eigenvalue-minimisations  :  4832
 total energy-change (2. order) :-0.3860332E-06  ( 0.7442294E-07)
 number of electron    1462.0000018 magnetization       0.0000019
 augmentation part       33.5324753 magnetization       0.0000016

 Free energy of the ion-electron system (eV)
  ---------------------------------------------------
  alpha Z        PSCENC =       418.83067969
  Ewald energy   TEWEN  =    465380.35675783
  -Hartree energ DENC   =   -509557.92450451
  -exchange      EXHF   =         0.00000000
  -V(xc)+E(xc)   XCENC  =      5237.31662734
  PAW double counting   =     25516.12987790   -25970.48180017
  entropy T*S    EENTRO =        -0.00000000
  eigenvalues    EBANDS =    -18145.68694559
  atomic energy  EATOM  =     53811.27190059
  Solvation  Ediel_sol  =         0.00000000
  ---------------------------------------------------
  free energy    TOTEN  =     -3310.18740692 eV

  energy without entropy =    -3310.18740692  energy(sigma->0) =    -3310.18740692


--------------------------------------------------------------------------------------------------------




 average (electrostatic) potential at core
  the test charge radii are     0.6991  1.0808
  (the norm of the test charge is              1.0000)
       1 -58.7615       2 -58.7614       3 -58.7617       4 -58.7616       5 -58.7618
       6 -58.7613       7 -58.7622       8 -58.7620       9 -58.7615      10 -58.7616
      11 -58.7617      12 -58.7616      13 -58.7619      14 -58.7611      15 -58.7608
      16 -58.7619      17 -58.7621      18 -58.7619      19 -58.7635      20 -58.7622
      21 -58.7626      22 -58.7619      23 -58.7615      24 -58.7613      25 -58.7610
      26 -58.7598      27 -58.7628      28 -58.7630      29 -58.7665      30 -58.7637
      31 -58.7644      32 -58.7626      33 -58.7619      34 -58.7620      35 -58.7621
      36 -58.7616      37 -58.7617      38 -58.7611      39 -58.7608      40 -58.7609
      41 -58.7606      42 -58.7608      43 -58.7594      44 -58.7689      45 -58.7665
      46 -58.7673      47 -58.7649      48 -58.7631      49 -58.7633      50 -58.7631
      51 -58.7622      52 -58.7632      53 -58.7621      54 -58.7613      55 -58.7610
      56 -58.7607      57 -58.7606      58 -58.7609      59 -58.7604      60 -58.7607
      61 -58.7611      62 -58.7609      63 -58.7573      64 -58.7680      65 -58.7649
      66 -58.7663      67 -58.7638      68 -58.7661      69 -58.7652      70 -58.7645
      71 -58.7648      72 -58.7623      73 -58.7617      74 -58.7622      75 -58.7620
      76 -58.7613      77 -58.7621      78 -58.7604      79 -58.7601      80 -58.7602
      81 -58.7602      82 -58.7607      83 -58.7612      84 -58.7611      85 -58.7617
      86 -58.8047      87 -58.7606      88 -58.7527      89 -58.7631      90 -58.7630
      91 -58.7694      92 -58.7676      93 -58.7639      94 -58.7631      95 -58.7631
      96 -58.7634      97 -58.7621      98 -58.7639      99 -58.7619     100 -58.7613
     101 -58.7605     102 -58.7602     103 -58.7601     104 -58.7607     105 -58.7602
     106 -58.7607     107 -58.7612     108 -58.7611     109 -58.7792     110 -58.8306
     111 -58.7554     112 -58.7720     113 -58.7642     114 -58.7621     115 -58.7661
     116 -58.7669     117 -58.7679     118 -58.7648     119 -58.7661     120 -58.7625
     121 -58.7620     122 -58.7627     123 -58.7635     124 -58.7619     125 -58.7628
     126 -58.7594     127 -58.7593     128 -58.7598     129 -58.7583     130 -58.7600
     131 -58.7612     132 -58.7323     133 -58.7407     134 -58.7498     135 -58.7596
     136 -58.7598     137 -58.7771     138 -58.7718     139 -58.7703     140 -58.7714
     141 -58.7655     142 -58.7643     143 -58.7663     144 -58.7674     145 -58.7646
     146 -58.7685     147 -58.7638     148 -58.7610     149 -58.7577     150 -58.7568
     151 -58.7586     152 -58.7573     153 -58.7574     154 -58.7599     155 -58.7501
     156 -58.7571     157 -58.7581     158 -58.7643     159 -58.7623     160 -58.7607
     161 -58.7664     162 -58.7697     163 -58.7685     164 -58.7742     165 -58.7741
     166 -58.7682     167 -58.7700     168 -58.7671     169 -58.7614     170 -58.7635
     171 -58.7653     172 -58.7582     173 -58.7570     174 -58.7497     175 -58.7478
     176 -58.7543     177 -58.7554     178 -58.7590     179 -58.7570     180 -58.7581
     181 -58.7607     182 -58.7632     183 -58.7680     184 -58.7641     185 -58.7672
     186 -58.7665     187 -58.7645     188 -58.7656     189 -58.7712     190 -58.7705
     191 -58.7723     192 -58.7773     193 -58.7607     194 -58.7606     195 -58.7503
     196 -58.7404     197 -58.7312     198 -58.7350     199 -58.7487     200 -58.7604
     201 -58.7598     202 -58.7603     203 -58.7634     204 -58.7622     205 -58.7635
     206 -58.7626     207 -58.7622     208 -58.7627     209 -58.7662     210 -58.7648
     211 -58.7677     212 -58.7667     213 -58.7662     214 -58.7617     215 -58.7644
     216 -58.7724     217 -58.7559     218 -58.8301     219 -58.7778     220 -58.8505
     221 -58.7133     222 -58.7606     223 -58.7615     224 -58.7612     225 -58.7613
     226 -58.7611     227 -58.7616     228 -58.7623     229 -58.7642     230 -58.7620
     231 -58.7634     232 -58.7631     233 -58.7628     234 -58.7636     235 -58.7671
     236 -58.7686     237 -58.7625     238 -58.7633     239 -58.7530     240 -58.7611
     241 -58.8046     242 -59.5117     243 -59.5114     244 -58.7613     245 -58.7610
     246 -58.7613     247 -58.7612     248 -58.7613     249 -58.7625     250 -58.7617
     251 -58.7625     252 -58.7620     253 -58.7617     254 -58.7625     255 -58.7644
     256 -58.7639     257 -58.7647     258 -58.7654     259 -58.7629     260 -58.7663
     261 -58.7654     262 -58.7688     263 -58.7584     264 -58.7153     265 -58.8514
     266 -58.7618     267 -58.7617     268 -58.7612     269 -58.7617     270 -58.7613
     271 -58.7612     272 -58.7614     273 -58.7618     274 -58.7619     275 -58.7631
     276 -58.7626     277 -58.7633     278 -58.7632     279 -58.7626     280 -58.7642
     281 -58.7664     282 -58.7661     283 -58.7690     284 -58.7597     285 -58.7617
     286 -58.7503     287 -58.7366     288 -58.7615     289 -58.7619     290 -58.7613
     291 -58.7612     292 -58.7616     293 -58.7612     294 -58.7612     295 -58.7620
     296 -58.7613     297 -58.7620     298 -58.7622     299 -58.7621     300 -58.7625
     301 -58.7642     302 -58.7635     303 -58.7658     304 -58.7623     305 -58.7624
     306 -58.7594     307 -58.7556     308 -58.7550     309 -58.7489     310 -58.7613
     311 -58.7616     312 -58.7615     313 -58.7609     314 -58.7612     315 -58.7613
     316 -58.7612     317 -58.7618     318 -58.7627     319 -58.7619     320 -58.7631
     321 -58.7618     322 -58.7617     323 -58.7611     324 -58.7600     325 -58.7604
     326 -58.7595     327 -58.7576     328 -58.7580     329 -58.7612     330 -58.7616
     331 -58.7616     332 -58.7611     333 -58.7618     334 -58.7612     335 -58.7611
     336 -58.7614     337 -58.7613     338 -58.7612     339 -58.7614     340 -58.7606
     341 -58.7607     342 -58.7599     343 -58.7588     344 -58.7608     345 -58.7612
     346 -58.7611     347 -58.7612     348 -58.7615     349 -58.7608     350 -58.7609
     351 -58.7609     352 -58.7605     353 -58.7608     354 -58.7607     355 -58.7609
     356 -58.7611     357 -58.7608     358 -58.7612     359 -58.7614     360 -58.7609
     361 -58.7614     362 -58.7613     363 -58.7613     364 -58.7612     365 -61.6250
 
 
 
 E-fermi :  -3.4779     XC(G=0):  -1.6381     alpha+bet : -1.4091

 Fermi energy:        -3.4778565619

 spin component 1

 k-point     1 :       0.0000    0.0000    0.0000
  band No.  band energies     occupation 
      1     -22.9919      1.00000
      2     -22.9292      1.00000
      3     -22.9208      1.00000
      4     -22.7859      1.00000
      5     -22.7738      1.00000
      6     -22.7340      1.00000
      7     -22.7227      1.00000
      8     -22.7171      1.00000
      9     -22.7090      1.00000
     10     -22.7084      1.00000
     11     -22.7068      1.00000
     12     -22.5245      1.00000
     13     -22.5120      1.00000
     14     -22.5109      1.00000
     15     -22.5086      1.00000
     16     -22.3989      1.00000
     17     -22.3932      1.00000
     18     -22.2012      1.00000
     19     -22.1837      1.00000
     20     -22.1814      1.00000
     21     -22.1801      1.00000
     22     -22.1541      1.00000
     23     -22.1432      1.00000
     24     -22.0953      1.00000
     25     -22.0794      1.00000
     26     -22.0780      1.00000
     27     -22.0775      1.00000
     28     -21.9406      1.00000
     29     -21.9334      1.00000
     30     -21.8988      1.00000
     31     -21.8847      1.00000
     32     -21.8821      1.00000
     33     -21.8814      1.00000
     34     -21.7361      1.00000
     35     -21.7256      1.00000
     36     -21.7227      1.00000
     37     -21.7217      1.00000
     38     -21.5740      1.00000
     39     -21.5599      1.00000
     40     -21.5565      1.00000
     41     -21.5556      1.00000
     42     -21.3538      1.00000
     43     -21.3453      1.00000
     44     -21.1771      1.00000
     45     -21.1402      1.00000
     46     -21.1372      1.00000
     47     -21.1365      1.00000
     48     -21.1336      1.00000
     49     -21.1256      1.00000
     50     -21.1129      1.00000
     51     -21.1065      1.00000
     52     -21.1028      1.00000
     53     -21.1014      1.00000
     54     -21.0757      1.00000
     55     -21.0619      1.00000
     56     -21.0613      1.00000
     57     -21.0611      1.00000
     58     -20.8897      1.00000
     59     -20.8704      1.00000
     60     -20.8686      1.00000
     61     -20.8684      1.00000
     62     -20.6454      1.00000
     63     -20.6336      1.00000
     64     -20.5790      1.00000
     65     -20.5512      1.00000
     66     -20.5493      1.00000
     67     -20.5486      1.00000
     68     -20.5336      1.00000
     69     -20.5279      1.00000
     70     -20.5237      1.00000
     71     -20.5218      1.00000
     72     -20.4414      1.00000
     73     -20.4311      1.00000
     74     -20.4273      1.00000
     75     -20.4272      1.00000
     76     -20.1309      1.00000
     77     -20.1065      1.00000
     78     -20.1040      1.00000
     79     -20.1040      1.00000
     80     -19.8674      1.00000
     81     -19.8289      1.00000
     82     -19.8239      1.00000
     83     -19.8226      1.00000
     84     -19.8095      1.00000
     85     -19.8045      1.00000
     86     -19.7844      1.00000
     87     -19.7639      1.00000
     88     -19.7281      1.00000
     89     -19.7024      1.00000
     90     -19.7013      1.00000
     91     -19.7011      1.00000
     92     -19.6219      1.00000
     93     -19.6056      1.00000
     94     -19.6031      1.00000
     95     -19.6018      1.00000
     96     -19.5640      1.00000
     97     -19.5410      1.00000
     98     -19.5372      1.00000
     99     -19.5366      1.00000
    100     -19.5270      1.00000
    101     -19.5153      1.00000
    102     -19.5150      1.00000
    103     -19.5144      1.00000
    104     -19.2385      1.00000
    105     -19.2065      1.00000
    106     -19.2064      1.00000
    107     -19.2049      1.00000
    108     -19.0378      1.00000
    109     -19.0190      1.00000
    110     -19.0129      1.00000
    111     -19.0118      1.00000
    112     -18.9005      1.00000
    113     -18.8686      1.00000
    114     -18.8653      1.00000
    115     -18.8614      1.00000
    116     -18.8574      1.00000
    117     -18.8565      1.00000
    118     -18.8021      1.00000
    119     -18.7790      1.00000
    120     -18.7773      1.00000
    121     -18.7750      1.00000
    122     -18.6881      1.00000
    123     -18.6764      1.00000
    124     -18.6741      1.00000
    125     -18.6717      1.00000
    126     -18.3405      1.00000
    127     -18.2386      1.00000
    128     -18.2361      1.00000
    129     -18.2343      1.00000
    130     -18.2051      1.00000
    131     -18.1717      1.00000
    132     -18.1525      1.00000
    133     -18.1320      1.00000
    134     -18.1288      1.00000
    135     -18.1216      1.00000
    136     -18.1190      1.00000
    137     -18.1161      1.00000
    138     -18.1117      1.00000
    139     -18.1072      1.00000
    140     -18.1000      1.00000
    141     -18.0975      1.00000
    142     -18.0952      1.00000
    143     -18.0945      1.00000
    144     -17.9769      1.00000
    145     -17.9482      1.00000
    146     -17.9354      1.00000
    147     -17.9256      1.00000
    148     -17.8499      1.00000
    149     -17.8425      1.00000
    150     -17.7256      1.00000
    151     -17.6885      1.00000
    152     -17.6862      1.00000
    153     -17.6694      1.00000
    154     -17.6665      1.00000
    155     -17.6641      1.00000
    156     -17.6452      1.00000
    157     -17.6297      1.00000
    158     -17.6252      1.00000
    159     -17.6201      1.00000
    160     -17.6058      1.00000
    161     -17.6058      1.00000
    162     -17.5527      1.00000
    163     -17.5136      1.00000
    164     -17.5129      1.00000
    165     -17.3691      1.00000
    166     -17.3426      1.00000
    167     -17.2972      1.00000
    168     -17.2735      1.00000
    169     -17.2401      1.00000
    170     -17.2258      1.00000
    171     -17.0772      1.00000
    172     -17.0751      1.00000
    173     -16.8548      1.00000
    174     -16.7882      1.00000
    175     -16.7871      1.00000
    176     -16.7788      1.00000
    177     -16.7659      1.00000
    178     -16.7521      1.00000
    179     -16.7314      1.00000
    180     -16.7228      1.00000
    181     -16.5391      1.00000
    182     -16.5341      1.00000
    183     -16.5015      1.00000
    184     -16.3155      1.00000
    185     -16.3093      1.00000
    186     -16.2847      1.00000
    187     -16.2549      1.00000
    188     -16.1742      1.00000
    189     -16.0712      1.00000
    190     -16.0035      1.00000
    191     -15.9004      1.00000
    192     -15.8934      1.00000
    193     -15.8893      1.00000
    194     -15.8766      1.00000
    195     -15.8592      1.00000
    196     -15.8416      1.00000
    197     -15.8109      1.00000
    198     -15.8050      1.00000
    199     -15.8048      1.00000
    200     -15.7799      1.00000
    201     -15.7452      1.00000
    202     -15.7375      1.00000
    203     -15.7109      1.00000
    204     -15.7087      1.00000
    205     -15.7082      1.00000
    206     -15.7017      1.00000
    207     -15.6934      1.00000
    208     -15.6755      1.00000
    209     -15.6687      1.00000
    210     -15.6606      1.00000
    211     -15.6511      1.00000
    212     -15.6498      1.00000
    213     -15.6483      1.00000
    214     -15.6318      1.00000
    215     -15.6160      1.00000
    216     -15.4930      1.00000
    217     -15.4302      1.00000
    218     -15.4189      1.00000
    219     -15.4025      1.00000
    220     -15.3862      1.00000
    221     -15.3577      1.00000
    222     -15.3315      1.00000
    223     -15.3305      1.00000
    224     -15.3071      1.00000
    225     -15.2787      1.00000
    226     -15.2342      1.00000
    227     -15.1627      1.00000
    228     -15.1463      1.00000
    229     -15.1357      1.00000
    230     -15.1029      1.00000
    231     -15.0922      1.00000
    232     -15.0422      1.00000
    233     -14.8935      1.00000
    234     -14.8877      1.00000
    235     -14.8308      1.00000
    236     -14.8292      1.00000
    237     -14.8248      1.00000
    238     -14.8087      1.00000
    239     -14.7577      1.00000
    240     -14.7377      1.00000
    241     -14.7017      1.00000
    242     -14.6897      1.00000
    243     -14.6278      1.00000
    244     -14.6232      1.00000
    245     -14.5689      1.00000
    246     -14.5577      1.00000
    247     -14.5524      1.00000
    248     -14.5247      1.00000
    249     -14.2913      1.00000
    250     -14.2824      1.00000
    251     -14.1546      1.00000
    252     -14.1438      1.00000
    253     -13.8153      1.00000
    254     -13.8105      1.00000
    255     -13.7958      1.00000
    256     -13.7916      1.00000
    257     -13.7571      1.00000
    258     -13.7490      1.00000
    259     -13.7208      1.00000
    260     -13.7167      1.00000
    261     -13.6982      1.00000
    262     -13.6930      1.00000
    263     -13.6870      1.00000
    264     -13.6816      1.00000
    265     -13.6804      1.00000
    266     -13.6786      1.00000
    267     -13.6782      1.00000
    268     -13.6704      1.00000
    269     -13.6633      1.00000
    270     -13.6538      1.00000
    271     -13.6462      1.00000
    272     -13.6408      1.00000
    273     -13.6380      1.00000
    274     -13.6310      1.00000
    275     -13.6226      1.00000
    276     -13.6169      1.00000
    277     -13.6110      1.00000
    278     -13.6053      1.00000
    279     -13.4256      1.00000
    280     -13.4158      1.00000
    281     -13.3541      1.00000
    282     -13.3523      1.00000
    283     -13.3499      1.00000
    284     -13.3468      1.00000
    285     -13.3305      1.00000
    286     -13.3295      1.00000
    287     -13.3247      1.00000
    288     -13.3216      1.00000
    289     -13.2924      1.00000
    290     -13.2923      1.00000
    291     -13.2794      1.00000
    292     -13.2730      1.00000
    293     -13.1410      1.00000
    294     -13.1389      1.00000
    295     -12.8427      1.00000
    296     -12.8422      1.00000
    297     -12.6662      1.00000
    298     -12.6643      1.00000
    299     -12.6368      1.00000
    300     -12.6348      1.00000
    301     -12.5367      1.00000
    302     -12.5309      1.00000
    303     -12.5266      1.00000
    304     -12.5261      1.00000
    305     -12.4720      1.00000
    306     -12.4668      1.00000
    307     -12.4210      1.00000
    308     -12.4186      1.00000
    309     -12.4144      1.00000
    310     -12.4099      1.00000
    311     -12.3356      1.00000
    312     -12.3337      1.00000
    313     -12.2998      1.00000
    314     -12.2969      1.00000
    315     -12.2796      1.00000
    316     -12.2784      1.00000
    317     -12.2467      1.00000
    318     -12.2447      1.00000
    319     -12.1738      1.00000
    320     -12.1734      1.00000
    321     -12.1522      1.00000
    322     -12.1495      1.00000
    323     -11.9660      1.00000
    324     -11.9628      1.00000
    325     -11.9199      1.00000
    326     -11.9167      1.00000
    327     -11.8549      1.00000
    328     -11.8508      1.00000
    329     -11.8194      1.00000
    330     -11.8183      1.00000
    331     -11.7799      1.00000
    332     -11.7682      1.00000
    333     -11.7407      1.00000
    334     -11.7384      1.00000
    335     -11.6718      1.00000
    336     -11.6622      1.00000
    337     -11.6505      1.00000
    338     -11.6332      1.00000
    339     -11.6276      1.00000
    340     -11.6217      1.00000
    341     -11.5965      1.00000
    342     -11.5912      1.00000
    343     -11.5630      1.00000
    344     -11.5580      1.00000
    345     -11.4886      1.00000
    346     -11.4842      1.00000
    347     -11.4661      1.00000
    348     -11.4650      1.00000
    349     -11.4019      1.00000
    350     -11.3930      1.00000
    351     -11.3726      1.00000
    352     -11.3709      1.00000
    353     -11.3270      1.00000
    354     -11.3266      1.00000
    355     -11.3069      1.00000
    356     -11.3017      1.00000
    357     -11.2862      1.00000
    358     -11.2845      1.00000
    359     -11.2811      1.00000
    360     -11.2765      1.00000
    361     -11.2198      1.00000
    362     -11.2183      1.00000
    363     -11.2035      1.00000
    364     -11.2021      1.00000
    365     -11.1631      1.00000
    366     -11.1628      1.00000
    367     -11.1012      1.00000
    368     -11.0714      1.00000
    369     -11.0693      1.00000
    370     -11.0278      1.00000
    371     -11.0205      1.00000
    372     -10.9996      1.00000
    373     -10.9941      1.00000
    374     -10.9031      1.00000
    375     -10.9014      1.00000
    376     -10.8635      1.00000
    377     -10.8580      1.00000
    378     -10.8003      1.00000
    379     -10.7977      1.00000
    380     -10.7918      1.00000
    381     -10.7881      1.00000
    382     -10.7879      1.00000
    383     -10.7698      1.00000
    384     -10.7662      1.00000
    385     -10.7622      1.00000
    386     -10.7393      1.00000
    387     -10.7294      1.00000
    388     -10.6973      1.00000
    389     -10.6891      1.00000
    390     -10.6804      1.00000
    391     -10.6743      1.00000
    392     -10.5767      1.00000
    393     -10.5734      1.00000
    394     -10.5713      1.00000
    395     -10.5646      1.00000
    396     -10.5588      1.00000
    397     -10.5583      1.00000
    398     -10.5564      1.00000
    399     -10.5512      1.00000
    400     -10.5209      1.00000
    401     -10.5173      1.00000
    402     -10.4776      1.00000
    403     -10.4671      1.00000
    404     -10.4266      1.00000
    405     -10.4195      1.00000
    406     -10.3756      1.00000
    407     -10.3492      1.00000
    408     -10.3394      1.00000
    409     -10.3393      1.00000
    410     -10.3290      1.00000
    411     -10.3241      1.00000
    412     -10.3218      1.00000
    413     -10.3107      1.00000
    414     -10.3048      1.00000
    415     -10.3037      1.00000
    416     -10.2970      1.00000
    417     -10.2891      1.00000
    418     -10.2681      1.00000
    419     -10.2566      1.00000
    420     -10.2557      1.00000
    421     -10.2396      1.00000
    422     -10.2379      1.00000
    423     -10.2363      1.00000
    424     -10.2328      1.00000
    425     -10.2313      1.00000
    426     -10.2275      1.00000
    427     -10.2264      1.00000
    428     -10.2156      1.00000
    429     -10.2131      1.00000
    430     -10.2127      1.00000
    431     -10.2089      1.00000
    432     -10.1972      1.00000
    433     -10.1876      1.00000
    434     -10.1422      1.00000
    435     -10.1415      1.00000
    436     -10.1374      1.00000
    437     -10.1330      1.00000
    438     -10.1292      1.00000
    439     -10.1270      1.00000
    440     -10.1214      1.00000
    441     -10.1197      1.00000
    442     -10.1080      1.00000
    443     -10.1028      1.00000
    444     -10.0736      1.00000
    445     -10.0664      1.00000
    446     -10.0619      1.00000
    447     -10.0532      1.00000
    448     -10.0463      1.00000
    449     -10.0443      1.00000
    450      -9.9553      1.00000
    451      -9.9415      1.00000
    452      -9.9351      1.00000
    453      -9.9344      1.00000
    454      -9.9263      1.00000
    455      -9.9223      1.00000
    456      -9.8325      1.00000
    457      -9.8241      1.00000
    458      -9.8122      1.00000
    459      -9.7944      1.00000
    460      -9.7763      1.00000
    461      -9.7731      1.00000
    462      -9.7664      1.00000
    463      -9.7615      1.00000
    464      -9.7449      1.00000
    465      -9.6680      1.00000
    466      -9.6549      1.00000
    467      -9.6409      1.00000
    468      -9.6363      1.00000
    469      -9.6314      1.00000
    470      -9.6269      1.00000
    471      -9.6151      1.00000
    472      -9.6133      1.00000
    473      -9.6027      1.00000
    474      -9.5994      1.00000
    475      -9.5950      1.00000
    476      -9.5896      1.00000
    477      -9.5328      1.00000
    478      -9.5113      1.00000
    479      -9.5103      1.00000
    480      -9.4948      1.00000
    481      -9.4750      1.00000
    482      -9.4607      1.00000
    483      -9.4569      1.00000
    484      -9.4484      1.00000
    485      -9.4444      1.00000
    486      -9.4307      1.00000
    487      -9.4005      1.00000
    488      -9.3883      1.00000
    489      -9.3760      1.00000
    490      -9.3713      1.00000
    491      -9.3610      1.00000
    492      -9.3593      1.00000
    493      -9.3126      1.00000
    494      -9.2958      1.00000
    495      -9.2922      1.00000
    496      -9.2869      1.00000
    497      -9.2815      1.00000
    498      -9.2789      1.00000
    499      -9.2745      1.00000
    500      -9.2669      1.00000
    501      -9.2658      1.00000
    502      -9.2557      1.00000
    503      -9.2482      1.00000
    504      -9.2475      1.00000
    505      -9.1992      1.00000
    506      -9.1923      1.00000
    507      -9.1838      1.00000
    508      -9.1829      1.00000
    509      -9.1664      1.00000
    510      -9.1569      1.00000
    511      -9.0546      1.00000
    512      -9.0536      1.00000
    513      -8.9641      1.00000
    514      -8.9399      1.00000
    515      -8.8644      1.00000
    516      -8.8642      1.00000
    517      -8.8493      1.00000
    518      -8.8490      1.00000
    519      -8.8446      1.00000
    520      -8.8336      1.00000
    521      -8.8092      1.00000
    522      -8.7996      1.00000
    523      -8.7982      1.00000
    524      -8.7916      1.00000
    525      -8.7874      1.00000
    526      -8.7856      1.00000
    527      -8.7569      1.00000
    528      -8.7557      1.00000
    529      -8.6282      1.00000
    530      -8.6228      1.00000
    531      -8.6144      1.00000
    532      -8.6117      1.00000
    533      -8.5765      1.00000
    534      -8.5687      1.00000
    535      -8.5210      1.00000
    536      -8.5083      1.00000
    537      -8.5055      1.00000
    538      -8.5044      1.00000
    539      -8.4988      1.00000
    540      -8.4946      1.00000
    541      -8.4443      1.00000
    542      -8.4405      1.00000
    543      -8.4262      1.00000
    544      -8.4242      1.00000
    545      -8.4235      1.00000
    546      -8.4147      1.00000
    547      -8.3587      1.00000
    548      -8.3566      1.00000
    549      -8.3283      1.00000
    550      -8.3210      1.00000
    551      -8.3082      1.00000
    552      -8.3078      1.00000
    553      -8.2929      1.00000
    554      -8.2927      1.00000
    555      -8.2653      1.00000
    556      -8.2609      1.00000
    557      -8.2534      1.00000
    558      -8.2438      1.00000
    559      -8.2231      1.00000
    560      -8.2218      1.00000
    561      -8.1933      1.00000
    562      -8.1900      1.00000
    563      -8.1783      1.00000
    564      -8.1728      1.00000
    565      -8.1004      1.00000
    566      -8.0968      1.00000
    567      -8.0874      1.00000
    568      -8.0860      1.00000
    569      -8.0435      1.00000
    570      -8.0210      1.00000
    571      -7.9978      1.00000
    572      -7.9939      1.00000
    573      -7.9809      1.00000
    574      -7.9803      1.00000
    575      -7.9698      1.00000
    576      -7.9685      1.00000
    577      -7.9647      1.00000
    578      -7.9609      1.00000
    579      -7.9508      1.00000
    580      -7.9498      1.00000
    581      -7.8822      1.00000
    582      -7.8782      1.00000
    583      -7.8513      1.00000
    584      -7.8487      1.00000
    585      -7.7794      1.00000
    586      -7.7738      1.00000
    587      -7.6848      1.00000
    588      -7.6816      1.00000
    589      -7.6461      1.00000
    590      -7.6398      1.00000
    591      -7.5966      1.00000
    592      -7.5831      1.00000
    593      -7.5390      1.00000
    594      -7.5364      1.00000
    595      -7.5070      1.00000
    596      -7.5029      1.00000
    597      -7.4847      1.00000
    598      -7.4813      1.00000
    599      -7.4803      1.00000
    600      -7.4769      1.00000
    601      -7.4047      1.00000
    602      -7.3812      1.00000
    603      -7.3440      1.00000
    604      -7.3367      1.00000
    605      -7.3312      1.00000
    606      -7.3216      1.00000
    607      -7.3092      1.00000
    608      -7.3045      1.00000
    609      -7.3000      1.00000
    610      -7.2992      1.00000
    611      -7.2355      1.00000
    612      -7.2296      1.00000
    613      -7.2253      1.00000
    614      -7.1981      1.00000
    615      -7.1852      1.00000
    616      -7.1773      1.00000
    617      -7.1742      1.00000
    618      -7.1732      1.00000
    619      -7.1679      1.00000
    620      -7.1571      1.00000
    621      -7.1435      1.00000
    622      -7.1420      1.00000
    623      -7.1258      1.00000
    624      -7.1226      1.00000
    625      -7.0727      1.00000
    626      -7.0659      1.00000
    627      -7.0514      1.00000
    628      -7.0505      1.00000
    629      -6.9612      1.00000
    630      -6.9538      1.00000
    631      -6.9385      1.00000
    632      -6.9277      1.00000
    633      -6.9122      1.00000
    634      -6.9091      1.00000
    635      -6.8675      1.00000
    636      -6.8588      1.00000
    637      -6.8433      1.00000
    638      -6.8391      1.00000
    639      -6.8089      1.00000
    640      -6.7991      1.00000
    641      -6.7937      1.00000
    642      -6.7895      1.00000
    643      -6.6465      1.00000
    644      -6.6198      1.00000
    645      -6.5817      1.00000
    646      -6.5649      1.00000
    647      -6.5598      1.00000
    648      -6.5472      1.00000
    649      -6.5391      1.00000
    650      -6.5387      1.00000
    651      -6.5157      1.00000
    652      -6.5149      1.00000
    653      -6.5020      1.00000
    654      -6.5006      1.00000
    655      -6.4602      1.00000
    656      -6.4513      1.00000
    657      -6.4256      1.00000
    658      -6.4133      1.00000
    659      -6.3744      1.00000
    660      -6.3337      1.00000
    661      -6.3294      1.00000
    662      -6.3138      1.00000
    663      -6.2794      1.00000
    664      -6.2430      1.00000
    665      -6.2325      1.00000
    666      -6.1979      1.00000
    667      -6.1849      1.00000
    668      -6.1752      1.00000
    669      -6.0945      1.00000
    670      -6.0776      1.00000
    671      -6.0620      1.00000
    672      -6.0481      1.00000
    673      -5.9209      1.00000
    674      -5.8644      1.00000
    675      -5.8225      1.00000
    676      -5.7818      1.00000
    677      -5.7645      1.00000
    678      -5.7631      1.00000
    679      -5.7426      1.00000
    680      -5.7027      1.00000
    681      -5.6713      1.00000
    682      -5.6207      1.00000
    683      -5.5988      1.00000
    684      -5.5960      1.00000
    685      -5.5806      1.00000
    686      -5.5720      1.00000
    687      -5.5616      1.00000
    688      -5.5325      1.00000
    689      -5.5099      1.00000
    690      -5.5095      1.00000
    691      -5.5007      1.00000
    692      -5.4831      1.00000
    693      -5.4651      1.00000
    694      -5.4061      1.00000
    695      -5.4034      1.00000
    696      -5.3733      1.00000
    697      -5.3577      1.00000
    698      -5.3280      1.00000
    699      -5.3276      1.00000
    700      -5.2922      1.00000
    701      -5.2666      1.00000
    702      -5.2411      1.00000
    703      -5.2310      1.00000
    704      -5.2131      1.00000
    705      -5.2129      1.00000
    706      -5.2021      1.00000
    707      -5.1974      1.00000
    708      -5.0958      1.00000
    709      -5.0691      1.00000
    710      -5.0316      1.00000
    711      -4.9999      1.00000
    712      -4.9163      1.00000
    713      -4.9063      1.00000
    714      -4.8989      1.00000
    715      -4.8462      1.00000
    716      -4.6512      1.00000
    717      -4.6146      1.00000
    718      -4.5119      1.00000
    719      -4.4857      1.00000
    720      -4.4704      1.00000
    721      -4.3899      1.00000
    722      -4.3588      1.00000
    723      -4.3095      1.00000
    724      -4.2748      1.00000
    725      -4.1428      1.00000
    726      -4.1422      1.00000
    727      -4.0668      1.00000
    728      -4.0270      1.00000
    729      -3.9074      1.00000
    730      -3.6384      1.00000
    731      -3.5435      1.00000
    732      -2.9298      0.00000
    733      -2.7077      0.00000
    734      -2.5261      0.00000
    735      -2.3039      0.00000
    736      -2.2791      0.00000
    737      -2.2411      0.00000
    738      -2.2269      0.00000
    739      -2.1305      0.00000
    740      -2.1128      0.00000
    741      -2.0710      0.00000
    742      -2.0670      0.00000
    743      -1.9760      0.00000
    744      -1.9688      0.00000
    745      -1.9533      0.00000
    746      -1.8658      0.00000
    747      -1.8603      0.00000
    748      -1.8496      0.00000
    749      -1.8154      0.00000
    750      -1.7965      0.00000
    751      -1.7890      0.00000
    752      -1.7462      0.00000
    753      -1.7280      0.00000
    754      -1.6566      0.00000
    755      -1.6413      0.00000
    756      -1.6204      0.00000
    757      -1.6097      0.00000
    758      -1.5936      0.00000
    759      -1.5830      0.00000
    760      -1.5773      0.00000
    761      -1.5711      0.00000
    762      -1.5613      0.00000
    763      -1.5434      0.00000
    764      -1.5309      0.00000
    765      -1.4937      0.00000
    766      -1.4817      0.00000
    767      -1.4751      0.00000
    768      -1.4603      0.00000
    769      -1.4213      0.00000
    770      -1.3945      0.00000
    771      -1.3887      0.00000
    772      -1.3708      0.00000
    773      -1.3412      0.00000
    774      -1.3228      0.00000
    775      -1.3225      0.00000
    776      -1.3070      0.00000
    777      -1.2997      0.00000
    778      -1.2939      0.00000
    779      -1.2913      0.00000
    780      -1.2734      0.00000
    781      -1.2665      0.00000
    782      -1.2455      0.00000
    783      -1.2016      0.00000
    784      -1.1907      0.00000
    785      -1.0585      0.00000
    786      -0.9613      0.00000
    787      -0.9576      0.00000
    788      -0.9430      0.00000
    789      -0.9058      0.00000
    790      -0.8711      0.00000
    791      -0.8300      0.00000
    792      -0.7861      0.00000
    793      -0.7469      0.00000
    794      -0.7269      0.00000
    795      -0.7019      0.00000
    796      -0.6993      0.00000
    797      -0.5664      0.00000
    798      -0.5332      0.00000
    799      -0.5052      0.00000
    800      -0.4573      0.00000
    801      -0.3992      0.00000
    802      -0.3314      0.00000
    803      -0.2863      0.00000
    804      -0.2854      0.00000
    805      -0.2631      0.00000
    806      -0.1742      0.00000
    807      -0.1486      0.00000
    808      -0.1091      0.00000
    809      -0.0607      0.00000
    810      -0.0522      0.00000
    811       0.0463      0.00000
    812       0.0842      0.00000
    813       0.0866      0.00000
    814       0.1103      0.00000
    815       0.1414      0.00000
    816       0.1837      0.00000
    817       0.1863      0.00000
    818       0.2080      0.00000
    819       0.2095      0.00000
    820       0.2299      0.00000
    821       0.2338      0.00000
    822       0.2365      0.00000
    823       0.2378      0.00000
    824       0.2836      0.00000
    825       0.3221      0.00000
    826       0.3522      0.00000
    827       0.3626      0.00000
    828       0.3691      0.00000
    829       0.4543      0.00000
    830       0.4739      0.00000
    831       0.4928      0.00000
    832       0.5176      0.00000
    833       0.5204      0.00000
    834       0.5331      0.00000
    835       0.5499      0.00000
    836       0.5594      0.00000
    837       0.5639      0.00000
    838       0.5651      0.00000
    839       0.5834      0.00000
    840       0.6063      0.00000
    841       0.6081      0.00000
    842       0.6192      0.00000
    843       0.6497      0.00000
    844       0.6513      0.00000
    845       0.6553      0.00000
    846       0.6594      0.00000
    847       0.8379      0.00000
    848       0.8670      0.00000
    849       0.8838      0.00000
    850       0.8875      0.00000
    851       0.9004      0.00000
    852       0.9182      0.00000
    853       0.9206      0.00000
    854       0.9212      0.00000
    855       0.9268      0.00000
    856       0.9344      0.00000
    857       0.9411      0.00000
    858       0.9872      0.00000
    859       1.0045      0.00000
    860       1.0054      0.00000
    861       1.0171      0.00000
    862       1.0262      0.00000
    863       1.0282      0.00000
    864       1.0419      0.00000
    865       1.0576      0.00000
    866       1.0854      0.00000
    867       1.0906      0.00000
    868       1.1121      0.00000
    869       1.1308      0.00000
    870       1.1987      0.00000
    871       1.2002      0.00000
    872       1.2164      0.00000
    873       1.2174      0.00000
    874       1.2290      0.00000
    875       1.2601      0.00000
    876       1.2657      0.00000
    877       1.2675      0.00000
    878       1.2768      0.00000
    879       1.2777      0.00000
    880       1.2982      0.00000
    881       1.3036      0.00000
    882       1.3075      0.00000
    883       1.3120      0.00000
    884       1.3357      0.00000
    885       1.3419      0.00000
    886       1.3515      0.00000
    887       1.3670      0.00000
    888       1.3679      0.00000
    889       1.3684      0.00000
    890       1.3748      0.00000
    891       1.4053      0.00000
    892       1.4616      0.00000
    893       1.4676      0.00000
    894       1.4931      0.00000
    895       1.4943      0.00000
    896       1.5005      0.00000

 k-point     2 :       0.0000    0.0000    0.5000
  band No.  band energies     occupation 
      1     -22.9795      1.00000
      2     -22.9705      1.00000
      3     -22.8471      1.00000
      4     -22.8381      1.00000
      5     -22.7752      1.00000
      6     -22.7578      1.00000
      7     -22.7573      1.00000
      8     -22.7570      1.00000
      9     -22.6405      1.00000
     10     -22.6271      1.00000
     11     -22.6264      1.00000
     12     -22.6238      1.00000
     13     -22.5794      1.00000
     14     -22.5744      1.00000
     15     -22.3768      1.00000
     16     -22.3642      1.00000
     17     -22.3625      1.00000
     18     -22.3607      1.00000
     19     -22.1878      1.00000
     20     -22.1795      1.00000
     21     -22.1494      1.00000
     22     -22.1281      1.00000
     23     -22.1276      1.00000
     24     -22.1261      1.00000
     25     -22.0184      1.00000
     26     -21.9984      1.00000
     27     -21.9962      1.00000
     28     -21.9959      1.00000
     29     -21.9763      1.00000
     30     -21.9706      1.00000
     31     -21.9681      1.00000
     32     -21.9669      1.00000
     33     -21.7538      1.00000
     34     -21.7385      1.00000
     35     -21.7354      1.00000
     36     -21.7346      1.00000
     37     -21.6610      1.00000
     38     -21.6551      1.00000
     39     -21.4622      1.00000
     40     -21.4485      1.00000
     41     -21.4456      1.00000
     42     -21.4445      1.00000
     43     -21.3629      1.00000
     44     -21.3492      1.00000
     45     -21.3456      1.00000
     46     -21.3444      1.00000
     47     -21.1402      1.00000
     48     -21.1099      1.00000
     49     -21.1097      1.00000
     50     -21.1093      1.00000
     51     -21.0192      1.00000
     52     -21.0044      1.00000
     53     -20.9976      1.00000
     54     -20.9821      1.00000
     55     -20.9810      1.00000
     56     -20.9806      1.00000
     57     -20.8515      1.00000
     58     -20.8332      1.00000
     59     -20.8288      1.00000
     60     -20.8275      1.00000
     61     -20.8080      1.00000
     62     -20.8005      1.00000
     63     -20.7972      1.00000
     64     -20.7961      1.00000
     65     -20.7417      1.00000
     66     -20.7268      1.00000
     67     -20.7243      1.00000
     68     -20.7242      1.00000
     69     -20.3693      1.00000
     70     -20.3440      1.00000
     71     -20.3422      1.00000
     72     -20.3419      1.00000
     73     -20.2448      1.00000
     74     -20.2335      1.00000
     75     -20.2050      1.00000
     76     -20.1928      1.00000
     77     -20.1886      1.00000
     78     -20.1861      1.00000
     79     -20.0478      1.00000
     80     -20.0324      1.00000
     81     -20.0294      1.00000
     82     -20.0284      1.00000
     83     -19.8726      1.00000
     84     -19.8387      1.00000
     85     -19.8354      1.00000
     86     -19.8353      1.00000
     87     -19.7799      1.00000
     88     -19.7488      1.00000
     89     -19.7483      1.00000
     90     -19.7479      1.00000
     91     -19.6522      1.00000
     92     -19.6245      1.00000
     93     -19.6236      1.00000
     94     -19.6232      1.00000
     95     -19.4605      1.00000
     96     -19.4367      1.00000
     97     -19.4309      1.00000
     98     -19.4303      1.00000
     99     -19.4011      1.00000
    100     -19.3763      1.00000
    101     -19.3757      1.00000
    102     -19.3751      1.00000
    103     -19.3536      1.00000
    104     -19.3486      1.00000
    105     -19.2341      1.00000
    106     -19.2152      1.00000
    107     -19.2105      1.00000
    108     -19.2102      1.00000
    109     -19.1626      1.00000
    110     -19.1524      1.00000
    111     -19.1503      1.00000
    112     -19.1486      1.00000
    113     -19.0338      1.00000
    114     -19.0073      1.00000
    115     -19.0065      1.00000
    116     -19.0045      1.00000
    117     -18.6290      1.00000
    118     -18.5803      1.00000
    119     -18.5744      1.00000
    120     -18.5711      1.00000
    121     -18.5515      1.00000
    122     -18.5223      1.00000
    123     -18.5200      1.00000
    124     -18.5175      1.00000
    125     -18.4949      1.00000
    126     -18.4867      1.00000
    127     -18.4827      1.00000
    128     -18.4822      1.00000
    129     -18.3729      1.00000
    130     -18.3638      1.00000
    131     -18.2544      1.00000
    132     -18.1833      1.00000
    133     -18.1822      1.00000
    134     -18.1762      1.00000
    135     -18.1747      1.00000
    136     -18.1590      1.00000
    137     -18.1560      1.00000
    138     -18.1542      1.00000
    139     -18.0808      1.00000
    140     -18.0471      1.00000
    141     -18.0388      1.00000
    142     -18.0309      1.00000
    143     -17.9546      1.00000
    144     -17.9310      1.00000
    145     -17.9301      1.00000
    146     -17.9293      1.00000
    147     -17.8510      1.00000
    148     -17.8211      1.00000
    149     -17.8049      1.00000
    150     -17.7918      1.00000
    151     -17.7496      1.00000
    152     -17.7336      1.00000
    153     -17.7260      1.00000
    154     -17.7251      1.00000
    155     -17.7174      1.00000
    156     -17.7146      1.00000
    157     -17.6850      1.00000
    158     -17.6752      1.00000
    159     -17.5163      1.00000
    160     -17.4832      1.00000
    161     -17.4568      1.00000
    162     -17.4403      1.00000
    163     -17.3774      1.00000
    164     -17.3569      1.00000
    165     -17.3167      1.00000
    166     -17.3110      1.00000
    167     -17.2896      1.00000
    168     -17.2876      1.00000
    169     -17.2463      1.00000
    170     -17.2463      1.00000
    171     -17.1737      1.00000
    172     -17.1593      1.00000
    173     -17.0688      1.00000
    174     -17.0380      1.00000
    175     -17.0070      1.00000
    176     -16.9911      1.00000
    177     -16.6413      1.00000
    178     -16.5803      1.00000
    179     -16.5277      1.00000
    180     -16.5039      1.00000
    181     -16.3821      1.00000
    182     -16.3350      1.00000
    183     -16.3342      1.00000
    184     -16.3310      1.00000
    185     -16.3268      1.00000
    186     -16.3250      1.00000
    187     -16.2481      1.00000
    188     -16.2086      1.00000
    189     -16.1562      1.00000
    190     -16.1553      1.00000
    191     -16.1198      1.00000
    192     -16.0687      1.00000
    193     -16.0614      1.00000
    194     -16.0402      1.00000
    195     -15.9426      1.00000
    196     -15.8487      1.00000
    197     -15.8453      1.00000
    198     -15.8450      1.00000
    199     -15.8115      1.00000
    200     -15.7457      1.00000
    201     -15.7393      1.00000
    202     -15.7392      1.00000
    203     -15.7240      1.00000
    204     -15.6856      1.00000
    205     -15.6854      1.00000
    206     -15.6847      1.00000
    207     -15.6727      1.00000
    208     -15.6567      1.00000
    209     -15.5854      1.00000
    210     -15.5460      1.00000
    211     -15.5394      1.00000
    212     -15.5389      1.00000
    213     -15.5111      1.00000
    214     -15.4912      1.00000
    215     -15.4545      1.00000
    216     -15.3859      1.00000
    217     -15.3784      1.00000
    218     -15.3770      1.00000
    219     -15.3729      1.00000
    220     -15.3691      1.00000
    221     -15.3398      1.00000
    222     -15.3259      1.00000
    223     -15.2952      1.00000
    224     -15.2517      1.00000
    225     -15.2481      1.00000
    226     -15.2461      1.00000
    227     -15.2161      1.00000
    228     -15.2012      1.00000
    229     -15.1840      1.00000
    230     -15.1780      1.00000
    231     -15.1656      1.00000
    232     -15.1446      1.00000
    233     -15.0825      1.00000
    234     -15.0117      1.00000
    235     -15.0084      1.00000
    236     -14.9809      1.00000
    237     -14.9551      1.00000
    238     -14.9536      1.00000
    239     -14.9149      1.00000
    240     -14.7301      1.00000
    241     -14.7141      1.00000
    242     -14.6291      1.00000
    243     -14.6082      1.00000
    244     -14.2608      1.00000
    245     -14.2530      1.00000
    246     -14.2496      1.00000
    247     -14.2410      1.00000
    248     -14.2347      1.00000
    249     -14.2205      1.00000
    250     -14.1746      1.00000
    251     -14.1667      1.00000
    252     -14.1280      1.00000
    253     -14.1161      1.00000
    254     -14.0945      1.00000
    255     -14.0888      1.00000
    256     -13.9509      1.00000
    257     -13.9440      1.00000
    258     -13.8307      1.00000
    259     -13.8264      1.00000
    260     -13.8257      1.00000
    261     -13.8203      1.00000
    262     -13.8110      1.00000
    263     -13.8079      1.00000
    264     -13.7930      1.00000
    265     -13.7869      1.00000
    266     -13.7607      1.00000
    267     -13.7559      1.00000
    268     -13.6956      1.00000
    269     -13.6882      1.00000
    270     -13.6855      1.00000
    271     -13.6788      1.00000
    272     -13.6370      1.00000
    273     -13.6352      1.00000
    274     -13.5389      1.00000
    275     -13.5387      1.00000
    276     -13.5260      1.00000
    277     -13.5155      1.00000
    278     -13.3621      1.00000
    279     -13.3595      1.00000
    280     -13.3557      1.00000
    281     -13.3464      1.00000
    282     -13.3305      1.00000
    283     -13.3226      1.00000
    284     -13.1752      1.00000
    285     -13.1703      1.00000
    286     -13.1262      1.00000
    287     -13.1252      1.00000
    288     -13.1170      1.00000
    289     -13.1116      1.00000
    290     -13.0973      1.00000
    291     -13.0893      1.00000
    292     -13.0524      1.00000
    293     -13.0479      1.00000
    294     -13.0331      1.00000
    295     -13.0275      1.00000
    296     -12.9850      1.00000
    297     -12.9842      1.00000
    298     -12.8839      1.00000
    299     -12.8818      1.00000
    300     -12.8146      1.00000
    301     -12.8134      1.00000
    302     -12.7869      1.00000
    303     -12.7861      1.00000
    304     -12.7063      1.00000
    305     -12.7052      1.00000
    306     -12.5129      1.00000
    307     -12.5112      1.00000
    308     -12.3850      1.00000
    309     -12.3821      1.00000
    310     -12.2771      1.00000
    311     -12.2738      1.00000
    312     -12.2571      1.00000
    313     -12.2546      1.00000
    314     -12.1390      1.00000
    315     -12.1381      1.00000
    316     -12.0519      1.00000
    317     -12.0504      1.00000
    318     -12.0314      1.00000
    319     -12.0179      1.00000
    320     -11.9583      1.00000
    321     -11.9506      1.00000
    322     -11.9308      1.00000
    323     -11.9291      1.00000
    324     -11.9042      1.00000
    325     -11.9018      1.00000
    326     -11.8867      1.00000
    327     -11.8803      1.00000
    328     -11.8372      1.00000
    329     -11.8334      1.00000
    330     -11.8032      1.00000
    331     -11.8018      1.00000
    332     -11.7697      1.00000
    333     -11.7666      1.00000
    334     -11.7637      1.00000
    335     -11.7623      1.00000
    336     -11.7287      1.00000
    337     -11.7274      1.00000
    338     -11.7039      1.00000
    339     -11.6919      1.00000
    340     -11.6499      1.00000
    341     -11.6414      1.00000
    342     -11.6157      1.00000
    343     -11.6149      1.00000
    344     -11.5996      1.00000
    345     -11.5943      1.00000
    346     -11.5635      1.00000
    347     -11.5576      1.00000
    348     -11.5273      1.00000
    349     -11.5254      1.00000
    350     -11.5158      1.00000
    351     -11.5132      1.00000
    352     -11.4532      1.00000
    353     -11.4365      1.00000
    354     -11.4323      1.00000
    355     -11.4301      1.00000
    356     -11.4293      1.00000
    357     -11.4281      1.00000
    358     -11.4178      1.00000
    359     -11.4173      1.00000
    360     -11.0859      1.00000
    361     -11.0783      1.00000
    362     -11.0483      1.00000
    363     -11.0356      1.00000
    364     -11.0266      1.00000
    365     -11.0247      1.00000
    366     -11.0166      1.00000
    367     -11.0143      1.00000
    368     -10.9913      1.00000
    369     -10.9809      1.00000
    370     -10.9646      1.00000
    371     -10.9645      1.00000
    372     -10.9320      1.00000
    373     -10.9262      1.00000
    374     -10.8459      1.00000
    375     -10.8450      1.00000
    376     -10.8441      1.00000
    377     -10.8302      1.00000
    378     -10.7665      1.00000
    379     -10.7586      1.00000
    380     -10.7551      1.00000
    381     -10.7512      1.00000
    382     -10.7359      1.00000
    383     -10.7336      1.00000
    384     -10.7107      1.00000
    385     -10.7046      1.00000
    386     -10.7002      1.00000
    387     -10.6958      1.00000
    388     -10.6939      1.00000
    389     -10.6834      1.00000
    390     -10.6826      1.00000
    391     -10.6793      1.00000
    392     -10.6664      1.00000
    393     -10.6584      1.00000
    394     -10.6309      1.00000
    395     -10.6224      1.00000
    396     -10.5968      1.00000
    397     -10.5939      1.00000
    398     -10.5710      1.00000
    399     -10.5654      1.00000
    400     -10.5607      1.00000
    401     -10.5537      1.00000
    402     -10.5056      1.00000
    403     -10.4966      1.00000
    404     -10.4915      1.00000
    405     -10.4808      1.00000
    406     -10.4569      1.00000
    407     -10.4492      1.00000
    408     -10.4174      1.00000
    409     -10.4123      1.00000
    410     -10.3963      1.00000
    411     -10.3918      1.00000
    412     -10.3873      1.00000
    413     -10.3845      1.00000
    414     -10.3668      1.00000
    415     -10.3615      1.00000
    416     -10.3551      1.00000
    417     -10.3317      1.00000
    418     -10.3289      1.00000
    419     -10.3251      1.00000
    420     -10.3109      1.00000
    421     -10.3036      1.00000
    422     -10.2690      1.00000
    423     -10.2547      1.00000
    424     -10.2422      1.00000
    425     -10.2330      1.00000
    426     -10.2170      1.00000
    427     -10.2124      1.00000
    428     -10.2045      1.00000
    429     -10.1966      1.00000
    430     -10.1900      1.00000
    431     -10.1879      1.00000
    432     -10.1809      1.00000
    433     -10.1774      1.00000
    434     -10.1562      1.00000
    435     -10.1549      1.00000
    436     -10.0969      1.00000
    437     -10.0888      1.00000
    438     -10.0760      1.00000
    439     -10.0718      1.00000
    440     -10.0513      1.00000
    441     -10.0502      1.00000
    442     -10.0421      1.00000
    443     -10.0326      1.00000
    444     -10.0009      1.00000
    445      -9.9931      1.00000
    446      -9.9913      1.00000
    447      -9.9853      1.00000
    448      -9.9722      1.00000
    449      -9.9681      1.00000
    450      -9.9477      1.00000
    451      -9.9419      1.00000
    452      -9.9287      1.00000
    453      -9.9166      1.00000
    454      -9.8729      1.00000
    455      -9.8701      1.00000
    456      -9.8640      1.00000
    457      -9.8565      1.00000
    458      -9.8089      1.00000
    459      -9.8028      1.00000
    460      -9.7642      1.00000
    461      -9.7571      1.00000
    462      -9.7539      1.00000
    463      -9.7354      1.00000
    464      -9.7351      1.00000
    465      -9.7296      1.00000
    466      -9.7192      1.00000
    467      -9.7125      1.00000
    468      -9.6859      1.00000
    469      -9.6838      1.00000
    470      -9.6282      1.00000
    471      -9.6131      1.00000
    472      -9.5758      1.00000
    473      -9.5582      1.00000
    474      -9.5521      1.00000
    475      -9.5517      1.00000
    476      -9.5429      1.00000
    477      -9.5422      1.00000
    478      -9.5361      1.00000
    479      -9.5269      1.00000
    480      -9.4567      1.00000
    481      -9.4479      1.00000
    482      -9.4286      1.00000
    483      -9.4265      1.00000
    484      -9.4082      1.00000
    485      -9.4043      1.00000
    486      -9.3940      1.00000
    487      -9.3846      1.00000
    488      -9.3772      1.00000
    489      -9.3696      1.00000
    490      -9.3607      1.00000
    491      -9.3587      1.00000
    492      -9.3551      1.00000
    493      -9.3533      1.00000
    494      -9.3514      1.00000
    495      -9.3502      1.00000
    496      -9.3423      1.00000
    497      -9.3288      1.00000
    498      -9.3253      1.00000
    499      -9.3106      1.00000
    500      -9.3033      1.00000
    501      -9.2937      1.00000
    502      -9.2691      1.00000
    503      -9.2595      1.00000
    504      -9.2199      1.00000
    505      -9.2151      1.00000
    506      -9.2045      1.00000
    507      -9.1975      1.00000
    508      -9.1849      1.00000
    509      -9.1765      1.00000
    510      -9.1611      1.00000
    511      -9.1596      1.00000
    512      -9.1004      1.00000
    513      -9.0829      1.00000
    514      -8.9090      1.00000
    515      -8.8794      1.00000
    516      -8.8777      1.00000
    517      -8.8718      1.00000
    518      -8.8657      1.00000
    519      -8.8644      1.00000
    520      -8.8197      1.00000
    521      -8.8066      1.00000
    522      -8.7835      1.00000
    523      -8.7766      1.00000
    524      -8.7316      1.00000
    525      -8.7258      1.00000
    526      -8.6471      1.00000
    527      -8.6467      1.00000
    528      -8.6132      1.00000
    529      -8.6065      1.00000
    530      -8.5977      1.00000
    531      -8.5938      1.00000
    532      -8.5519      1.00000
    533      -8.5481      1.00000
    534      -8.5415      1.00000
    535      -8.5354      1.00000
    536      -8.5156      1.00000
    537      -8.5090      1.00000
    538      -8.4920      1.00000
    539      -8.4876      1.00000
    540      -8.4483      1.00000
    541      -8.4416      1.00000
    542      -8.4327      1.00000
    543      -8.4326      1.00000
    544      -8.4257      1.00000
    545      -8.4244      1.00000
    546      -8.3682      1.00000
    547      -8.3604      1.00000
    548      -8.3566      1.00000
    549      -8.3515      1.00000
    550      -8.3481      1.00000
    551      -8.3445      1.00000
    552      -8.3330      1.00000
    553      -8.3316      1.00000
    554      -8.3234      1.00000
    555      -8.3232      1.00000
    556      -8.3218      1.00000
    557      -8.3138      1.00000
    558      -8.3024      1.00000
    559      -8.3021      1.00000
    560      -8.2904      1.00000
    561      -8.2903      1.00000
    562      -8.2367      1.00000
    563      -8.2241      1.00000
    564      -8.1710      1.00000
    565      -8.1682      1.00000
    566      -8.1660      1.00000
    567      -8.1653      1.00000
    568      -8.1520      1.00000
    569      -8.1518      1.00000
    570      -8.0281      1.00000
    571      -8.0207      1.00000
    572      -7.9496      1.00000
    573      -7.9465      1.00000
    574      -7.8656      1.00000
    575      -7.8593      1.00000
    576      -7.8549      1.00000
    577      -7.8447      1.00000
    578      -7.8330      1.00000
    579      -7.8284      1.00000
    580      -7.8245      1.00000
    581      -7.8233      1.00000
    582      -7.7739      1.00000
    583      -7.7733      1.00000
    584      -7.7486      1.00000
    585      -7.7478      1.00000
    586      -7.6897      1.00000
    587      -7.6894      1.00000
    588      -7.6588      1.00000
    589      -7.6517      1.00000
    590      -7.6469      1.00000
    591      -7.6454      1.00000
    592      -7.6107      1.00000
    593      -7.6077      1.00000
    594      -7.5899      1.00000
    595      -7.5887      1.00000
    596      -7.5739      1.00000
    597      -7.5700      1.00000
    598      -7.5342      1.00000
    599      -7.5229      1.00000
    600      -7.5210      1.00000
    601      -7.5207      1.00000
    602      -7.5168      1.00000
    603      -7.5141      1.00000
    604      -7.4390      1.00000
    605      -7.4329      1.00000
    606      -7.3815      1.00000
    607      -7.3664      1.00000
    608      -7.2776      1.00000
    609      -7.2684      1.00000
    610      -7.2379      1.00000
    611      -7.2343      1.00000
    612      -7.2165      1.00000
    613      -7.2117      1.00000
    614      -7.2024      1.00000
    615      -7.1978      1.00000
    616      -7.1771      1.00000
    617      -7.1719      1.00000
    618      -7.1356      1.00000
    619      -7.1216      1.00000
    620      -7.1054      1.00000
    621      -7.1051      1.00000
    622      -7.0381      1.00000
    623      -7.0215      1.00000
    624      -7.0118      1.00000
    625      -7.0104      1.00000
    626      -6.9906      1.00000
    627      -6.9819      1.00000
    628      -6.9630      1.00000
    629      -6.9599      1.00000
    630      -6.9599      1.00000
    631      -6.9380      1.00000
    632      -6.9334      1.00000
    633      -6.9270      1.00000
    634      -6.8890      1.00000
    635      -6.8804      1.00000
    636      -6.7907      1.00000
    637      -6.7730      1.00000
    638      -6.7538      1.00000
    639      -6.7415      1.00000
    640      -6.7136      1.00000
    641      -6.7021      1.00000
    642      -6.6917      1.00000
    643      -6.6885      1.00000
    644      -6.6858      1.00000
    645      -6.6817      1.00000
    646      -6.6717      1.00000
    647      -6.6691      1.00000
    648      -6.6491      1.00000
    649      -6.6458      1.00000
    650      -6.6375      1.00000
    651      -6.6321      1.00000
    652      -6.6308      1.00000
    653      -6.6197      1.00000
    654      -6.6171      1.00000
    655      -6.6010      1.00000
    656      -6.4625      1.00000
    657      -6.4535      1.00000
    658      -6.3498      1.00000
    659      -6.3455      1.00000
    660      -6.2926      1.00000
    661      -6.2889      1.00000
    662      -6.2594      1.00000
    663      -6.2496      1.00000
    664      -6.2295      1.00000
    665      -6.1761      1.00000
    666      -6.1535      1.00000
    667      -6.1454      1.00000
    668      -6.0555      1.00000
    669      -6.0505      1.00000
    670      -6.0162      1.00000
    671      -5.9701      1.00000
    672      -5.9005      1.00000
    673      -5.8951      1.00000
    674      -5.8340      1.00000
    675      -5.8217      1.00000
    676      -5.8188      1.00000
    677      -5.7914      1.00000
    678      -5.7713      1.00000
    679      -5.7708      1.00000
    680      -5.7165      1.00000
    681      -5.6998      1.00000
    682      -5.6541      1.00000
    683      -5.6371      1.00000
    684      -5.6078      1.00000
    685      -5.5964      1.00000
    686      -5.5810      1.00000
    687      -5.5806      1.00000
    688      -5.5778      1.00000
    689      -5.5740      1.00000
    690      -5.5387      1.00000
    691      -5.5184      1.00000
    692      -5.5079      1.00000
    693      -5.4937      1.00000
    694      -5.4631      1.00000
    695      -5.4511      1.00000
    696      -5.4177      1.00000
    697      -5.4052      1.00000
    698      -5.3701      1.00000
    699      -5.3621      1.00000
    700      -5.3103      1.00000
    701      -5.2618      1.00000
    702      -5.2309      1.00000
    703      -5.2307      1.00000
    704      -5.1673      1.00000
    705      -5.1456      1.00000
    706      -5.1117      1.00000
    707      -5.1069      1.00000
    708      -5.0947      1.00000
    709      -5.0277      1.00000
    710      -4.9407      1.00000
    711      -4.8682      1.00000
    712      -4.8441      1.00000
    713      -4.8339      1.00000
    714      -4.8081      1.00000
    715      -4.8050      1.00000
    716      -4.7639      1.00000
    717      -4.7546      1.00000
    718      -4.6937      1.00000
    719      -4.6900      1.00000
    720      -4.4964      1.00000
    721      -4.3464      1.00000
    722      -4.3273      1.00000
    723      -4.2655      1.00000
    724      -4.2371      1.00000
    725      -4.1597      1.00000
    726      -4.1277      1.00000
    727      -4.0784      1.00000
    728      -3.8807      1.00000
    729      -3.8201      1.00000
    730      -3.7555      1.00000
    731      -3.6256      1.00000
    732      -2.8755      0.00000
    733      -2.5772      0.00000
    734      -2.5597      0.00000
    735      -2.5054      0.00000
    736      -2.3407      0.00000
    737      -2.2454      0.00000
    738      -2.2443      0.00000
    739      -2.0783      0.00000
    740      -2.0637      0.00000
    741      -2.0334      0.00000
    742      -2.0309      0.00000
    743      -1.9005      0.00000
    744      -1.8897      0.00000
    745      -1.8690      0.00000
    746      -1.8669      0.00000
    747      -1.8618      0.00000
    748      -1.8598      0.00000
    749      -1.8455      0.00000
    750      -1.7933      0.00000
    751      -1.7759      0.00000
    752      -1.7444      0.00000
    753      -1.7377      0.00000
    754      -1.7236      0.00000
    755      -1.7147      0.00000
    756      -1.6997      0.00000
    757      -1.6702      0.00000
    758      -1.6682      0.00000
    759      -1.6559      0.00000
    760      -1.6540      0.00000
    761      -1.6355      0.00000
    762      -1.6028      0.00000
    763      -1.5609      0.00000
    764      -1.4967      0.00000
    765      -1.4461      0.00000
    766      -1.4308      0.00000
    767      -1.3777      0.00000
    768      -1.3716      0.00000
    769      -1.3564      0.00000
    770      -1.3476      0.00000
    771      -1.3093      0.00000
    772      -1.3022      0.00000
    773      -1.2975      0.00000
    774      -1.2962      0.00000
    775      -1.2929      0.00000
    776      -1.2904      0.00000
    777      -1.2861      0.00000
    778      -1.2714      0.00000
    779      -1.2708      0.00000
    780      -1.2707      0.00000
    781      -1.2486      0.00000
    782      -1.2182      0.00000
    783      -1.2014      0.00000
    784      -1.1937      0.00000
    785      -1.1749      0.00000
    786      -1.1222      0.00000
    787      -1.1143      0.00000
    788      -0.9848      0.00000
    789      -0.9458      0.00000
    790      -0.9432      0.00000
    791      -0.9223      0.00000
    792      -0.8102      0.00000
    793      -0.6967      0.00000
    794      -0.6513      0.00000
    795      -0.6222      0.00000
    796      -0.6062      0.00000
    797      -0.6051      0.00000
    798      -0.5217      0.00000
    799      -0.4130      0.00000
    800      -0.3747      0.00000
    801      -0.3276      0.00000
    802      -0.2779      0.00000
    803      -0.2672      0.00000
    804      -0.2397      0.00000
    805      -0.2397      0.00000
    806      -0.1686      0.00000
    807      -0.1287      0.00000
    808      -0.1205      0.00000
    809      -0.1192      0.00000
    810      -0.0862      0.00000
    811      -0.0768      0.00000
    812      -0.0388      0.00000
    813      -0.0065      0.00000
    814       0.0163      0.00000
    815       0.0453      0.00000
    816       0.0519      0.00000
    817       0.0522      0.00000
    818       0.0926      0.00000
    819       0.2290      0.00000
    820       0.2459      0.00000
    821       0.3267      0.00000
    822       0.3809      0.00000
    823       0.3918      0.00000
    824       0.4055      0.00000
    825       0.4061      0.00000
    826       0.4064      0.00000
    827       0.4154      0.00000
    828       0.4325      0.00000
    829       0.4900      0.00000
    830       0.5179      0.00000
    831       0.5290      0.00000
    832       0.5336      0.00000
    833       0.5496      0.00000
    834       0.5512      0.00000
    835       0.5544      0.00000
    836       0.5705      0.00000
    837       0.5713      0.00000
    838       0.5807      0.00000
    839       0.5919      0.00000
    840       0.5937      0.00000
    841       0.6128      0.00000
    842       0.6439      0.00000
    843       0.6671      0.00000
    844       0.6862      0.00000
    845       0.6910      0.00000
    846       0.7085      0.00000
    847       0.7237      0.00000
    848       0.7337      0.00000
    849       0.7635      0.00000
    850       0.7668      0.00000
    851       0.7999      0.00000
    852       0.8040      0.00000
    853       0.8553      0.00000
    854       0.8675      0.00000
    855       0.9314      0.00000
    856       0.9378      0.00000
    857       0.9386      0.00000
    858       0.9490      0.00000
    859       0.9546      0.00000
    860       0.9738      0.00000
    861       1.0256      0.00000
    862       1.0408      0.00000
    863       1.0431      0.00000
    864       1.0436      0.00000
    865       1.0872      0.00000
    866       1.0873      0.00000
    867       1.1202      0.00000
    868       1.1212      0.00000
    869       1.1244      0.00000
    870       1.1256      0.00000
    871       1.1421      0.00000
    872       1.1509      0.00000
    873       1.2336      0.00000
    874       1.2488      0.00000
    875       1.2750      0.00000
    876       1.2950      0.00000
    877       1.3249      0.00000
    878       1.3886      0.00000
    879       1.3911      0.00000
    880       1.4016      0.00000
    881       1.4023      0.00000
    882       1.4093      0.00000
    883       1.4170      0.00000
    884       1.4238      0.00000
    885       1.4254      0.00000
    886       1.4480      0.00000
    887       1.4648      0.00000
    888       1.4688      0.00000
    889       1.4788      0.00000
    890       1.4872      0.00000
    891       1.5001      0.00000
    892       1.5048      0.00000
    893       1.5124      0.00000
    894       1.5257      0.00000
    895       1.5694      0.00000
    896       1.5761      0.00000
 Fermi energy:        -3.4778565619

 spin component 2

 k-point     1 :       0.0000    0.0000    0.0000
  band No.  band energies     occupation 
      1     -22.9919      1.00000
      2     -22.9292      1.00000
      3     -22.9208      1.00000
      4     -22.7859      1.00000
      5     -22.7738      1.00000
      6     -22.7340      1.00000
      7     -22.7227      1.00000
      8     -22.7171      1.00000
      9     -22.7090      1.00000
     10     -22.7084      1.00000
     11     -22.7068      1.00000
     12     -22.5245      1.00000
     13     -22.5120      1.00000
     14     -22.5109      1.00000
     15     -22.5086      1.00000
     16     -22.3989      1.00000
     17     -22.3932      1.00000
     18     -22.2012      1.00000
     19     -22.1837      1.00000
     20     -22.1814      1.00000
     21     -22.1801      1.00000
     22     -22.1541      1.00000
     23     -22.1432      1.00000
     24     -22.0953      1.00000
     25     -22.0794      1.00000
     26     -22.0780      1.00000
     27     -22.0775      1.00000
     28     -21.9406      1.00000
     29     -21.9334      1.00000
     30     -21.8988      1.00000
     31     -21.8847      1.00000
     32     -21.8821      1.00000
     33     -21.8814      1.00000
     34     -21.7361      1.00000
     35     -21.7256      1.00000
     36     -21.7227      1.00000
     37     -21.7217      1.00000
     38     -21.5740      1.00000
     39     -21.5599      1.00000
     40     -21.5565      1.00000
     41     -21.5556      1.00000
     42     -21.3538      1.00000
     43     -21.3453      1.00000
     44     -21.1771      1.00000
     45     -21.1402      1.00000
     46     -21.1372      1.00000
     47     -21.1365      1.00000
     48     -21.1336      1.00000
     49     -21.1256      1.00000
     50     -21.1129      1.00000
     51     -21.1065      1.00000
     52     -21.1028      1.00000
     53     -21.1014      1.00000
     54     -21.0757      1.00000
     55     -21.0619      1.00000
     56     -21.0613      1.00000
     57     -21.0611      1.00000
     58     -20.8897      1.00000
     59     -20.8704      1.00000
     60     -20.8686      1.00000
     61     -20.8684      1.00000
     62     -20.6454      1.00000
     63     -20.6336      1.00000
     64     -20.5790      1.00000
     65     -20.5512      1.00000
     66     -20.5493      1.00000
     67     -20.5486      1.00000
     68     -20.5336      1.00000
     69     -20.5279      1.00000
     70     -20.5237      1.00000
     71     -20.5218      1.00000
     72     -20.4414      1.00000
     73     -20.4311      1.00000
     74     -20.4273      1.00000
     75     -20.4272      1.00000
     76     -20.1309      1.00000
     77     -20.1065      1.00000
     78     -20.1040      1.00000
     79     -20.1040      1.00000
     80     -19.8674      1.00000
     81     -19.8289      1.00000
     82     -19.8239      1.00000
     83     -19.8226      1.00000
     84     -19.8095      1.00000
     85     -19.8045      1.00000
     86     -19.7844      1.00000
     87     -19.7639      1.00000
     88     -19.7281      1.00000
     89     -19.7024      1.00000
     90     -19.7013      1.00000
     91     -19.7011      1.00000
     92     -19.6219      1.00000
     93     -19.6056      1.00000
     94     -19.6031      1.00000
     95     -19.6018      1.00000
     96     -19.5640      1.00000
     97     -19.5410      1.00000
     98     -19.5372      1.00000
     99     -19.5366      1.00000
    100     -19.5270      1.00000
    101     -19.5153      1.00000
    102     -19.5150      1.00000
    103     -19.5144      1.00000
    104     -19.2385      1.00000
    105     -19.2065      1.00000
    106     -19.2064      1.00000
    107     -19.2049      1.00000
    108     -19.0378      1.00000
    109     -19.0190      1.00000
    110     -19.0129      1.00000
    111     -19.0118      1.00000
    112     -18.9005      1.00000
    113     -18.8686      1.00000
    114     -18.8653      1.00000
    115     -18.8614      1.00000
    116     -18.8574      1.00000
    117     -18.8565      1.00000
    118     -18.8021      1.00000
    119     -18.7790      1.00000
    120     -18.7773      1.00000
    121     -18.7750      1.00000
    122     -18.6881      1.00000
    123     -18.6764      1.00000
    124     -18.6741      1.00000
    125     -18.6717      1.00000
    126     -18.3405      1.00000
    127     -18.2386      1.00000
    128     -18.2361      1.00000
    129     -18.2343      1.00000
    130     -18.2051      1.00000
    131     -18.1717      1.00000
    132     -18.1525      1.00000
    133     -18.1320      1.00000
    134     -18.1288      1.00000
    135     -18.1216      1.00000
    136     -18.1190      1.00000
    137     -18.1161      1.00000
    138     -18.1117      1.00000
    139     -18.1072      1.00000
    140     -18.1000      1.00000
    141     -18.0975      1.00000
    142     -18.0952      1.00000
    143     -18.0945      1.00000
    144     -17.9769      1.00000
    145     -17.9482      1.00000
    146     -17.9354      1.00000
    147     -17.9256      1.00000
    148     -17.8499      1.00000
    149     -17.8425      1.00000
    150     -17.7256      1.00000
    151     -17.6885      1.00000
    152     -17.6862      1.00000
    153     -17.6694      1.00000
    154     -17.6665      1.00000
    155     -17.6641      1.00000
    156     -17.6452      1.00000
    157     -17.6297      1.00000
    158     -17.6252      1.00000
    159     -17.6201      1.00000
    160     -17.6058      1.00000
    161     -17.6058      1.00000
    162     -17.5527      1.00000
    163     -17.5136      1.00000
    164     -17.5129      1.00000
    165     -17.3691      1.00000
    166     -17.3426      1.00000
    167     -17.2972      1.00000
    168     -17.2735      1.00000
    169     -17.2401      1.00000
    170     -17.2258      1.00000
    171     -17.0772      1.00000
    172     -17.0751      1.00000
    173     -16.8548      1.00000
    174     -16.7882      1.00000
    175     -16.7871      1.00000
    176     -16.7788      1.00000
    177     -16.7659      1.00000
    178     -16.7521      1.00000
    179     -16.7314      1.00000
    180     -16.7228      1.00000
    181     -16.5391      1.00000
    182     -16.5341      1.00000
    183     -16.5015      1.00000
    184     -16.3155      1.00000
    185     -16.3093      1.00000
    186     -16.2847      1.00000
    187     -16.2549      1.00000
    188     -16.1742      1.00000
    189     -16.0712      1.00000
    190     -16.0035      1.00000
    191     -15.9004      1.00000
    192     -15.8934      1.00000
    193     -15.8893      1.00000
    194     -15.8766      1.00000
    195     -15.8592      1.00000
    196     -15.8416      1.00000
    197     -15.8109      1.00000
    198     -15.8050      1.00000
    199     -15.8048      1.00000
    200     -15.7799      1.00000
    201     -15.7452      1.00000
    202     -15.7375      1.00000
    203     -15.7109      1.00000
    204     -15.7087      1.00000
    205     -15.7082      1.00000
    206     -15.7017      1.00000
    207     -15.6934      1.00000
    208     -15.6755      1.00000
    209     -15.6687      1.00000
    210     -15.6606      1.00000
    211     -15.6511      1.00000
    212     -15.6498      1.00000
    213     -15.6483      1.00000
    214     -15.6318      1.00000
    215     -15.6160      1.00000
    216     -15.4930      1.00000
    217     -15.4302      1.00000
    218     -15.4189      1.00000
    219     -15.4025      1.00000
    220     -15.3862      1.00000
    221     -15.3577      1.00000
    222     -15.3315      1.00000
    223     -15.3305      1.00000
    224     -15.3071      1.00000
    225     -15.2787      1.00000
    226     -15.2342      1.00000
    227     -15.1627      1.00000
    228     -15.1463      1.00000
    229     -15.1357      1.00000
    230     -15.1029      1.00000
    231     -15.0922      1.00000
    232     -15.0422      1.00000
    233     -14.8935      1.00000
    234     -14.8877      1.00000
    235     -14.8308      1.00000
    236     -14.8292      1.00000
    237     -14.8248      1.00000
    238     -14.8087      1.00000
    239     -14.7577      1.00000
    240     -14.7377      1.00000
    241     -14.7017      1.00000
    242     -14.6897      1.00000
    243     -14.6278      1.00000
    244     -14.6232      1.00000
    245     -14.5689      1.00000
    246     -14.5577      1.00000
    247     -14.5524      1.00000
    248     -14.5247      1.00000
    249     -14.2913      1.00000
    250     -14.2824      1.00000
    251     -14.1546      1.00000
    252     -14.1438      1.00000
    253     -13.8153      1.00000
    254     -13.8105      1.00000
    255     -13.7958      1.00000
    256     -13.7916      1.00000
    257     -13.7571      1.00000
    258     -13.7490      1.00000
    259     -13.7208      1.00000
    260     -13.7167      1.00000
    261     -13.6982      1.00000
    262     -13.6930      1.00000
    263     -13.6870      1.00000
    264     -13.6816      1.00000
    265     -13.6804      1.00000
    266     -13.6786      1.00000
    267     -13.6782      1.00000
    268     -13.6704      1.00000
    269     -13.6633      1.00000
    270     -13.6538      1.00000
    271     -13.6462      1.00000
    272     -13.6408      1.00000
    273     -13.6380      1.00000
    274     -13.6310      1.00000
    275     -13.6226      1.00000
    276     -13.6169      1.00000
    277     -13.6110      1.00000
    278     -13.6053      1.00000
    279     -13.4256      1.00000
    280     -13.4158      1.00000
    281     -13.3541      1.00000
    282     -13.3523      1.00000
    283     -13.3499      1.00000
    284     -13.3468      1.00000
    285     -13.3305      1.00000
    286     -13.3295      1.00000
    287     -13.3247      1.00000
    288     -13.3216      1.00000
    289     -13.2924      1.00000
    290     -13.2923      1.00000
    291     -13.2794      1.00000
    292     -13.2730      1.00000
    293     -13.1410      1.00000
    294     -13.1389      1.00000
    295     -12.8427      1.00000
    296     -12.8422      1.00000
    297     -12.6662      1.00000
    298     -12.6643      1.00000
    299     -12.6368      1.00000
    300     -12.6348      1.00000
    301     -12.5367      1.00000
    302     -12.5309      1.00000
    303     -12.5266      1.00000
    304     -12.5261      1.00000
    305     -12.4720      1.00000
    306     -12.4668      1.00000
    307     -12.4210      1.00000
    308     -12.4186      1.00000
    309     -12.4144      1.00000
    310     -12.4099      1.00000
    311     -12.3356      1.00000
    312     -12.3337      1.00000
    313     -12.2998      1.00000
    314     -12.2969      1.00000
    315     -12.2796      1.00000
    316     -12.2784      1.00000
    317     -12.2467      1.00000
    318     -12.2447      1.00000
    319     -12.1738      1.00000
    320     -12.1734      1.00000
    321     -12.1522      1.00000
    322     -12.1495      1.00000
    323     -11.9660      1.00000
    324     -11.9628      1.00000
    325     -11.9199      1.00000
    326     -11.9167      1.00000
    327     -11.8549      1.00000
    328     -11.8508      1.00000
    329     -11.8194      1.00000
    330     -11.8183      1.00000
    331     -11.7799      1.00000
    332     -11.7682      1.00000
    333     -11.7407      1.00000
    334     -11.7384      1.00000
    335     -11.6718      1.00000
    336     -11.6622      1.00000
    337     -11.6505      1.00000
    338     -11.6332      1.00000
    339     -11.6276      1.00000
    340     -11.6217      1.00000
    341     -11.5965      1.00000
    342     -11.5912      1.00000
    343     -11.5630      1.00000
    344     -11.5580      1.00000
    345     -11.4886      1.00000
    346     -11.4842      1.00000
    347     -11.4661      1.00000
    348     -11.4650      1.00000
    349     -11.4019      1.00000
    350     -11.3930      1.00000
    351     -11.3726      1.00000
    352     -11.3709      1.00000
    353     -11.3270      1.00000
    354     -11.3266      1.00000
    355     -11.3069      1.00000
    356     -11.3017      1.00000
    357     -11.2862      1.00000
    358     -11.2845      1.00000
    359     -11.2811      1.00000
    360     -11.2765      1.00000
    361     -11.2198      1.00000
    362     -11.2183      1.00000
    363     -11.2035      1.00000
    364     -11.2021      1.00000
    365     -11.1631      1.00000
    366     -11.1628      1.00000
    367     -11.1012      1.00000
    368     -11.0714      1.00000
    369     -11.0693      1.00000
    370     -11.0278      1.00000
    371     -11.0205      1.00000
    372     -10.9996      1.00000
    373     -10.9941      1.00000
    374     -10.9031      1.00000
    375     -10.9014      1.00000
    376     -10.8635      1.00000
    377     -10.8580      1.00000
    378     -10.8003      1.00000
    379     -10.7977      1.00000
    380     -10.7918      1.00000
    381     -10.7881      1.00000
    382     -10.7879      1.00000
    383     -10.7698      1.00000
    384     -10.7662      1.00000
    385     -10.7622      1.00000
    386     -10.7393      1.00000
    387     -10.7294      1.00000
    388     -10.6973      1.00000
    389     -10.6891      1.00000
    390     -10.6804      1.00000
    391     -10.6743      1.00000
    392     -10.5767      1.00000
    393     -10.5734      1.00000
    394     -10.5713      1.00000
    395     -10.5646      1.00000
    396     -10.5588      1.00000
    397     -10.5583      1.00000
    398     -10.5564      1.00000
    399     -10.5512      1.00000
    400     -10.5209      1.00000
    401     -10.5173      1.00000
    402     -10.4776      1.00000
    403     -10.4671      1.00000
    404     -10.4266      1.00000
    405     -10.4195      1.00000
    406     -10.3756      1.00000
    407     -10.3492      1.00000
    408     -10.3394      1.00000
    409     -10.3393      1.00000
    410     -10.3290      1.00000
    411     -10.3241      1.00000
    412     -10.3218      1.00000
    413     -10.3107      1.00000
    414     -10.3048      1.00000
    415     -10.3037      1.00000
    416     -10.2970      1.00000
    417     -10.2891      1.00000
    418     -10.2681      1.00000
    419     -10.2566      1.00000
    420     -10.2557      1.00000
    421     -10.2396      1.00000
    422     -10.2379      1.00000
    423     -10.2363      1.00000
    424     -10.2328      1.00000
    425     -10.2313      1.00000
    426     -10.2275      1.00000
    427     -10.2264      1.00000
    428     -10.2156      1.00000
    429     -10.2131      1.00000
    430     -10.2127      1.00000
    431     -10.2089      1.00000
    432     -10.1972      1.00000
    433     -10.1876      1.00000
    434     -10.1422      1.00000
    435     -10.1415      1.00000
    436     -10.1374      1.00000
    437     -10.1330      1.00000
    438     -10.1292      1.00000
    439     -10.1270      1.00000
    440     -10.1214      1.00000
    441     -10.1197      1.00000
    442     -10.1080      1.00000
    443     -10.1028      1.00000
    444     -10.0736      1.00000
    445     -10.0664      1.00000
    446     -10.0619      1.00000
    447     -10.0532      1.00000
    448     -10.0463      1.00000
    449     -10.0443      1.00000
    450      -9.9553      1.00000
    451      -9.9415      1.00000
    452      -9.9351      1.00000
    453      -9.9344      1.00000
    454      -9.9263      1.00000
    455      -9.9223      1.00000
    456      -9.8325      1.00000
    457      -9.8241      1.00000
    458      -9.8122      1.00000
    459      -9.7944      1.00000
    460      -9.7763      1.00000
    461      -9.7731      1.00000
    462      -9.7664      1.00000
    463      -9.7615      1.00000
    464      -9.7449      1.00000
    465      -9.6680      1.00000
    466      -9.6549      1.00000
    467      -9.6409      1.00000
    468      -9.6363      1.00000
    469      -9.6314      1.00000
    470      -9.6269      1.00000
    471      -9.6151      1.00000
    472      -9.6133      1.00000
    473      -9.6027      1.00000
    474      -9.5994      1.00000
    475      -9.5950      1.00000
    476      -9.5896      1.00000
    477      -9.5328      1.00000
    478      -9.5113      1.00000
    479      -9.5103      1.00000
    480      -9.4948      1.00000
    481      -9.4750      1.00000
    482      -9.4607      1.00000
    483      -9.4569      1.00000
    484      -9.4484      1.00000
    485      -9.4444      1.00000
    486      -9.4307      1.00000
    487      -9.4005      1.00000
    488      -9.3883      1.00000
    489      -9.3760      1.00000
    490      -9.3713      1.00000
    491      -9.3610      1.00000
    492      -9.3593      1.00000
    493      -9.3126      1.00000
    494      -9.2958      1.00000
    495      -9.2922      1.00000
    496      -9.2869      1.00000
    497      -9.2815      1.00000
    498      -9.2789      1.00000
    499      -9.2745      1.00000
    500      -9.2669      1.00000
    501      -9.2658      1.00000
    502      -9.2557      1.00000
    503      -9.2482      1.00000
    504      -9.2475      1.00000
    505      -9.1992      1.00000
    506      -9.1923      1.00000
    507      -9.1838      1.00000
    508      -9.1829      1.00000
    509      -9.1664      1.00000
    510      -9.1569      1.00000
    511      -9.0546      1.00000
    512      -9.0536      1.00000
    513      -8.9641      1.00000
    514      -8.9399      1.00000
    515      -8.8644      1.00000
    516      -8.8642      1.00000
    517      -8.8493      1.00000
    518      -8.8490      1.00000
    519      -8.8446      1.00000
    520      -8.8336      1.00000
    521      -8.8092      1.00000
    522      -8.7996      1.00000
    523      -8.7982      1.00000
    524      -8.7916      1.00000
    525      -8.7874      1.00000
    526      -8.7856      1.00000
    527      -8.7569      1.00000
    528      -8.7557      1.00000
    529      -8.6282      1.00000
    530      -8.6228      1.00000
    531      -8.6144      1.00000
    532      -8.6117      1.00000
    533      -8.5765      1.00000
    534      -8.5687      1.00000
    535      -8.5210      1.00000
    536      -8.5083      1.00000
    537      -8.5055      1.00000
    538      -8.5044      1.00000
    539      -8.4988      1.00000
    540      -8.4946      1.00000
    541      -8.4443      1.00000
    542      -8.4405      1.00000
    543      -8.4262      1.00000
    544      -8.4242      1.00000
    545      -8.4235      1.00000
    546      -8.4147      1.00000
    547      -8.3587      1.00000
    548      -8.3566      1.00000
    549      -8.3283      1.00000
    550      -8.3210      1.00000
    551      -8.3082      1.00000
    552      -8.3078      1.00000
    553      -8.2929      1.00000
    554      -8.2927      1.00000
    555      -8.2653      1.00000
    556      -8.2609      1.00000
    557      -8.2534      1.00000
    558      -8.2438      1.00000
    559      -8.2231      1.00000
    560      -8.2218      1.00000
    561      -8.1933      1.00000
    562      -8.1900      1.00000
    563      -8.1783      1.00000
    564      -8.1728      1.00000
    565      -8.1004      1.00000
    566      -8.0968      1.00000
    567      -8.0874      1.00000
    568      -8.0860      1.00000
    569      -8.0435      1.00000
    570      -8.0210      1.00000
    571      -7.9978      1.00000
    572      -7.9939      1.00000
    573      -7.9809      1.00000
    574      -7.9803      1.00000
    575      -7.9698      1.00000
    576      -7.9685      1.00000
    577      -7.9647      1.00000
    578      -7.9609      1.00000
    579      -7.9508      1.00000
    580      -7.9498      1.00000
    581      -7.8822      1.00000
    582      -7.8782      1.00000
    583      -7.8513      1.00000
    584      -7.8487      1.00000
    585      -7.7794      1.00000
    586      -7.7738      1.00000
    587      -7.6848      1.00000
    588      -7.6816      1.00000
    589      -7.6461      1.00000
    590      -7.6398      1.00000
    591      -7.5966      1.00000
    592      -7.5831      1.00000
    593      -7.5390      1.00000
    594      -7.5364      1.00000
    595      -7.5070      1.00000
    596      -7.5029      1.00000
    597      -7.4847      1.00000
    598      -7.4813      1.00000
    599      -7.4803      1.00000
    600      -7.4769      1.00000
    601      -7.4047      1.00000
    602      -7.3812      1.00000
    603      -7.3440      1.00000
    604      -7.3367      1.00000
    605      -7.3312      1.00000
    606      -7.3216      1.00000
    607      -7.3092      1.00000
    608      -7.3045      1.00000
    609      -7.3000      1.00000
    610      -7.2992      1.00000
    611      -7.2355      1.00000
    612      -7.2296      1.00000
    613      -7.2253      1.00000
    614      -7.1981      1.00000
    615      -7.1852      1.00000
    616      -7.1773      1.00000
    617      -7.1742      1.00000
    618      -7.1732      1.00000
    619      -7.1679      1.00000
    620      -7.1571      1.00000
    621      -7.1435      1.00000
    622      -7.1420      1.00000
    623      -7.1258      1.00000
    624      -7.1226      1.00000
    625      -7.0727      1.00000
    626      -7.0659      1.00000
    627      -7.0514      1.00000
    628      -7.0505      1.00000
    629      -6.9612      1.00000
    630      -6.9538      1.00000
    631      -6.9385      1.00000
    632      -6.9277      1.00000
    633      -6.9122      1.00000
    634      -6.9091      1.00000
    635      -6.8675      1.00000
    636      -6.8588      1.00000
    637      -6.8433      1.00000
    638      -6.8391      1.00000
    639      -6.8089      1.00000
    640      -6.7991      1.00000
    641      -6.7937      1.00000
    642      -6.7895      1.00000
    643      -6.6465      1.00000
    644      -6.6198      1.00000
    645      -6.5817      1.00000
    646      -6.5649      1.00000
    647      -6.5598      1.00000
    648      -6.5472      1.00000
    649      -6.5391      1.00000
    650      -6.5387      1.00000
    651      -6.5157      1.00000
    652      -6.5149      1.00000
    653      -6.5020      1.00000
    654      -6.5006      1.00000
    655      -6.4602      1.00000
    656      -6.4513      1.00000
    657      -6.4256      1.00000
    658      -6.4133      1.00000
    659      -6.3744      1.00000
    660      -6.3337      1.00000
    661      -6.3294      1.00000
    662      -6.3138      1.00000
    663      -6.2794      1.00000
    664      -6.2430      1.00000
    665      -6.2325      1.00000
    666      -6.1979      1.00000
    667      -6.1849      1.00000
    668      -6.1752      1.00000
    669      -6.0945      1.00000
    670      -6.0776      1.00000
    671      -6.0620      1.00000
    672      -6.0481      1.00000
    673      -5.9209      1.00000
    674      -5.8644      1.00000
    675      -5.8225      1.00000
    676      -5.7818      1.00000
    677      -5.7645      1.00000
    678      -5.7631      1.00000
    679      -5.7426      1.00000
    680      -5.7027      1.00000
    681      -5.6713      1.00000
    682      -5.6207      1.00000
    683      -5.5988      1.00000
    684      -5.5960      1.00000
    685      -5.5806      1.00000
    686      -5.5720      1.00000
    687      -5.5616      1.00000
    688      -5.5325      1.00000
    689      -5.5099      1.00000
    690      -5.5095      1.00000
    691      -5.5007      1.00000
    692      -5.4831      1.00000
    693      -5.4651      1.00000
    694      -5.4061      1.00000
    695      -5.4034      1.00000
    696      -5.3733      1.00000
    697      -5.3577      1.00000
    698      -5.3280      1.00000
    699      -5.3276      1.00000
    700      -5.2922      1.00000
    701      -5.2666      1.00000
    702      -5.2411      1.00000
    703      -5.2310      1.00000
    704      -5.2131      1.00000
    705      -5.2129      1.00000
    706      -5.2021      1.00000
    707      -5.1974      1.00000
    708      -5.0958      1.00000
    709      -5.0691      1.00000
    710      -5.0316      1.00000
    711      -4.9999      1.00000
    712      -4.9163      1.00000
    713      -4.9063      1.00000
    714      -4.8989      1.00000
    715      -4.8462      1.00000
    716      -4.6512      1.00000
    717      -4.6146      1.00000
    718      -4.5119      1.00000
    719      -4.4857      1.00000
    720      -4.4704      1.00000
    721      -4.3899      1.00000
    722      -4.3588      1.00000
    723      -4.3095      1.00000
    724      -4.2748      1.00000
    725      -4.1428      1.00000
    726      -4.1422      1.00000
    727      -4.0668      1.00000
    728      -4.0270      1.00000
    729      -3.9074      1.00000
    730      -3.6384      1.00000
    731      -3.5435      1.00000
    732      -2.9298      0.00000
    733      -2.7077      0.00000
    734      -2.5261      0.00000
    735      -2.3039      0.00000
    736      -2.2791      0.00000
    737      -2.2411      0.00000
    738      -2.2269      0.00000
    739      -2.1305      0.00000
    740      -2.1128      0.00000
    741      -2.0710      0.00000
    742      -2.0670      0.00000
    743      -1.9760      0.00000
    744      -1.9688      0.00000
    745      -1.9533      0.00000
    746      -1.8658      0.00000
    747      -1.8603      0.00000
    748      -1.8496      0.00000
    749      -1.8154      0.00000
    750      -1.7965      0.00000
    751      -1.7890      0.00000
    752      -1.7462      0.00000
    753      -1.7280      0.00000
    754      -1.6566      0.00000
    755      -1.6413      0.00000
    756      -1.6204      0.00000
    757      -1.6097      0.00000
    758      -1.5936      0.00000
    759      -1.5830      0.00000
    760      -1.5773      0.00000
    761      -1.5711      0.00000
    762      -1.5613      0.00000
    763      -1.5434      0.00000
    764      -1.5309      0.00000
    765      -1.4937      0.00000
    766      -1.4817      0.00000
    767      -1.4751      0.00000
    768      -1.4603      0.00000
    769      -1.4213      0.00000
    770      -1.3945      0.00000
    771      -1.3887      0.00000
    772      -1.3708      0.00000
    773      -1.3412      0.00000
    774      -1.3228      0.00000
    775      -1.3225      0.00000
    776      -1.3070      0.00000
    777      -1.2997      0.00000
    778      -1.2939      0.00000
    779      -1.2913      0.00000
    780      -1.2734      0.00000
    781      -1.2665      0.00000
    782      -1.2455      0.00000
    783      -1.2016      0.00000
    784      -1.1907      0.00000
    785      -1.0585      0.00000
    786      -0.9613      0.00000
    787      -0.9576      0.00000
    788      -0.9430      0.00000
    789      -0.9058      0.00000
    790      -0.8711      0.00000
    791      -0.8300      0.00000
    792      -0.7861      0.00000
    793      -0.7469      0.00000
    794      -0.7269      0.00000
    795      -0.7019      0.00000
    796      -0.6993      0.00000
    797      -0.5664      0.00000
    798      -0.5332      0.00000
    799      -0.5052      0.00000
    800      -0.4573      0.00000
    801      -0.3992      0.00000
    802      -0.3314      0.00000
    803      -0.2863      0.00000
    804      -0.2854      0.00000
    805      -0.2631      0.00000
    806      -0.1742      0.00000
    807      -0.1486      0.00000
    808      -0.1090      0.00000
    809      -0.0606      0.00000
    810      -0.0522      0.00000
    811       0.0463      0.00000
    812       0.0842      0.00000
    813       0.0866      0.00000
    814       0.1103      0.00000
    815       0.1414      0.00000
    816       0.1837      0.00000
    817       0.1863      0.00000
    818       0.2081      0.00000
    819       0.2095      0.00000
    820       0.2299      0.00000
    821       0.2338      0.00000
    822       0.2365      0.00000
    823       0.2378      0.00000
    824       0.2836      0.00000
    825       0.3221      0.00000
    826       0.3522      0.00000
    827       0.3626      0.00000
    828       0.3691      0.00000
    829       0.4543      0.00000
    830       0.4739      0.00000
    831       0.4928      0.00000
    832       0.5176      0.00000
    833       0.5204      0.00000
    834       0.5331      0.00000
    835       0.5500      0.00000
    836       0.5594      0.00000
    837       0.5640      0.00000
    838       0.5651      0.00000
    839       0.5835      0.00000
    840       0.6063      0.00000
    841       0.6081      0.00000
    842       0.6191      0.00000
    843       0.6498      0.00000
    844       0.6514      0.00000
    845       0.6553      0.00000
    846       0.6594      0.00000
    847       0.8393      0.00000
    848       0.8670      0.00000
    849       0.8838      0.00000
    850       0.8875      0.00000
    851       0.9002      0.00000
    852       0.9182      0.00000
    853       0.9207      0.00000
    854       0.9213      0.00000
    855       0.9280      0.00000
    856       0.9355      0.00000
    857       0.9411      0.00000
    858       0.9872      0.00000
    859       1.0042      0.00000
    860       1.0053      0.00000
    861       1.0169      0.00000
    862       1.0261      0.00000
    863       1.0281      0.00000
    864       1.0416      0.00000
    865       1.0577      0.00000
    866       1.0854      0.00000
    867       1.0906      0.00000
    868       1.1122      0.00000
    869       1.1310      0.00000
    870       1.1999      0.00000
    871       1.2013      0.00000
    872       1.2178      0.00000
    873       1.2185      0.00000
    874       1.2319      0.00000
    875       1.2605      0.00000
    876       1.2657      0.00000
    877       1.2676      0.00000
    878       1.2770      0.00000
    879       1.2779      0.00000
    880       1.2980      0.00000
    881       1.3035      0.00000
    882       1.3092      0.00000
    883       1.3127      0.00000
    884       1.3354      0.00000
    885       1.3416      0.00000
    886       1.3516      0.00000
    887       1.3667      0.00000
    888       1.3679      0.00000
    889       1.3684      0.00000
    890       1.3748      0.00000
    891       1.4032      0.00000
    892       1.4614      0.00000
    893       1.4678      0.00000
    894       1.4918      0.00000
    895       1.4964      0.00000
    896       1.4981      0.00000

 k-point     2 :       0.0000    0.0000    0.5000
  band No.  band energies     occupation 
      1     -22.9795      1.00000
      2     -22.9705      1.00000
      3     -22.8471      1.00000
      4     -22.8381      1.00000
      5     -22.7752      1.00000
      6     -22.7578      1.00000
      7     -22.7573      1.00000
      8     -22.7570      1.00000
      9     -22.6405      1.00000
     10     -22.6271      1.00000
     11     -22.6264      1.00000
     12     -22.6238      1.00000
     13     -22.5794      1.00000
     14     -22.5744      1.00000
     15     -22.3768      1.00000
     16     -22.3642      1.00000
     17     -22.3625      1.00000
     18     -22.3607      1.00000
     19     -22.1878      1.00000
     20     -22.1795      1.00000
     21     -22.1494      1.00000
     22     -22.1281      1.00000
     23     -22.1276      1.00000
     24     -22.1261      1.00000
     25     -22.0184      1.00000
     26     -21.9984      1.00000
     27     -21.9962      1.00000
     28     -21.9959      1.00000
     29     -21.9763      1.00000
     30     -21.9706      1.00000
     31     -21.9681      1.00000
     32     -21.9669      1.00000
     33     -21.7538      1.00000
     34     -21.7385      1.00000
     35     -21.7354      1.00000
     36     -21.7346      1.00000
     37     -21.6610      1.00000
     38     -21.6551      1.00000
     39     -21.4622      1.00000
     40     -21.4485      1.00000
     41     -21.4456      1.00000
     42     -21.4445      1.00000
     43     -21.3629      1.00000
     44     -21.3492      1.00000
     45     -21.3456      1.00000
     46     -21.3444      1.00000
     47     -21.1402      1.00000
     48     -21.1099      1.00000
     49     -21.1097      1.00000
     50     -21.1093      1.00000
     51     -21.0192      1.00000
     52     -21.0044      1.00000
     53     -20.9976      1.00000
     54     -20.9821      1.00000
     55     -20.9810      1.00000
     56     -20.9806      1.00000
     57     -20.8515      1.00000
     58     -20.8332      1.00000
     59     -20.8288      1.00000
     60     -20.8275      1.00000
     61     -20.8080      1.00000
     62     -20.8005      1.00000
     63     -20.7972      1.00000
     64     -20.7961      1.00000
     65     -20.7417      1.00000
     66     -20.7268      1.00000
     67     -20.7243      1.00000
     68     -20.7242      1.00000
     69     -20.3693      1.00000
     70     -20.3440      1.00000
     71     -20.3422      1.00000
     72     -20.3419      1.00000
     73     -20.2448      1.00000
     74     -20.2335      1.00000
     75     -20.2050      1.00000
     76     -20.1928      1.00000
     77     -20.1886      1.00000
     78     -20.1861      1.00000
     79     -20.0478      1.00000
     80     -20.0324      1.00000
     81     -20.0294      1.00000
     82     -20.0284      1.00000
     83     -19.8726      1.00000
     84     -19.8387      1.00000
     85     -19.8354      1.00000
     86     -19.8353      1.00000
     87     -19.7799      1.00000
     88     -19.7488      1.00000
     89     -19.7483      1.00000
     90     -19.7479      1.00000
     91     -19.6522      1.00000
     92     -19.6245      1.00000
     93     -19.6236      1.00000
     94     -19.6232      1.00000
     95     -19.4605      1.00000
     96     -19.4367      1.00000
     97     -19.4309      1.00000
     98     -19.4303      1.00000
     99     -19.4011      1.00000
    100     -19.3763      1.00000
    101     -19.3757      1.00000
    102     -19.3751      1.00000
    103     -19.3536      1.00000
    104     -19.3486      1.00000
    105     -19.2341      1.00000
    106     -19.2152      1.00000
    107     -19.2105      1.00000
    108     -19.2102      1.00000
    109     -19.1626      1.00000
    110     -19.1524      1.00000
    111     -19.1503      1.00000
    112     -19.1486      1.00000
    113     -19.0338      1.00000
    114     -19.0073      1.00000
    115     -19.0065      1.00000
    116     -19.0045      1.00000
    117     -18.6290      1.00000
    118     -18.5803      1.00000
    119     -18.5744      1.00000
    120     -18.5711      1.00000
    121     -18.5515      1.00000
    122     -18.5223      1.00000
    123     -18.5200      1.00000
    124     -18.5175      1.00000
    125     -18.4949      1.00000
    126     -18.4867      1.00000
    127     -18.4827      1.00000
    128     -18.4822      1.00000
    129     -18.3729      1.00000
    130     -18.3638      1.00000
    131     -18.2544      1.00000
    132     -18.1833      1.00000
    133     -18.1822      1.00000
    134     -18.1762      1.00000
    135     -18.1747      1.00000
    136     -18.1590      1.00000
    137     -18.1560      1.00000
    138     -18.1542      1.00000
    139     -18.0808      1.00000
    140     -18.0471      1.00000
    141     -18.0388      1.00000
    142     -18.0309      1.00000
    143     -17.9546      1.00000
    144     -17.9310      1.00000
    145     -17.9301      1.00000
    146     -17.9293      1.00000
    147     -17.8510      1.00000
    148     -17.8211      1.00000
    149     -17.8049      1.00000
    150     -17.7918      1.00000
    151     -17.7496      1.00000
    152     -17.7336      1.00000
    153     -17.7260      1.00000
    154     -17.7251      1.00000
    155     -17.7174      1.00000
    156     -17.7146      1.00000
    157     -17.6850      1.00000
    158     -17.6752      1.00000
    159     -17.5163      1.00000
    160     -17.4832      1.00000
    161     -17.4568      1.00000
    162     -17.4403      1.00000
    163     -17.3774      1.00000
    164     -17.3569      1.00000
    165     -17.3167      1.00000
    166     -17.3110      1.00000
    167     -17.2896      1.00000
    168     -17.2876      1.00000
    169     -17.2463      1.00000
    170     -17.2463      1.00000
    171     -17.1737      1.00000
    172     -17.1593      1.00000
    173     -17.0688      1.00000
    174     -17.0380      1.00000
    175     -17.0070      1.00000
    176     -16.9911      1.00000
    177     -16.6413      1.00000
    178     -16.5803      1.00000
    179     -16.5277      1.00000
    180     -16.5039      1.00000
    181     -16.3821      1.00000
    182     -16.3350      1.00000
    183     -16.3342      1.00000
    184     -16.3310      1.00000
    185     -16.3268      1.00000
    186     -16.3250      1.00000
    187     -16.2481      1.00000
    188     -16.2086      1.00000
    189     -16.1562      1.00000
    190     -16.1553      1.00000
    191     -16.1198      1.00000
    192     -16.0687      1.00000
    193     -16.0614      1.00000
    194     -16.0402      1.00000
    195     -15.9426      1.00000
    196     -15.8487      1.00000
    197     -15.8453      1.00000
    198     -15.8450      1.00000
    199     -15.8115      1.00000
    200     -15.7457      1.00000
    201     -15.7393      1.00000
    202     -15.7392      1.00000
    203     -15.7240      1.00000
    204     -15.6856      1.00000
    205     -15.6854      1.00000
    206     -15.6847      1.00000
    207     -15.6727      1.00000
    208     -15.6567      1.00000
    209     -15.5854      1.00000
    210     -15.5460      1.00000
    211     -15.5394      1.00000
    212     -15.5389      1.00000
    213     -15.5111      1.00000
    214     -15.4912      1.00000
    215     -15.4545      1.00000
    216     -15.3859      1.00000
    217     -15.3784      1.00000
    218     -15.3770      1.00000
    219     -15.3729      1.00000
    220     -15.3691      1.00000
    221     -15.3398      1.00000
    222     -15.3259      1.00000
    223     -15.2952      1.00000
    224     -15.2517      1.00000
    225     -15.2481      1.00000
    226     -15.2461      1.00000
    227     -15.2161      1.00000
    228     -15.2012      1.00000
    229     -15.1840      1.00000
    230     -15.1780      1.00000
    231     -15.1656      1.00000
    232     -15.1446      1.00000
    233     -15.0825      1.00000
    234     -15.0117      1.00000
    235     -15.0084      1.00000
    236     -14.9809      1.00000
    237     -14.9551      1.00000
    238     -14.9536      1.00000
    239     -14.9149      1.00000
    240     -14.7301      1.00000
    241     -14.7141      1.00000
    242     -14.6291      1.00000
    243     -14.6082      1.00000
    244     -14.2608      1.00000
    245     -14.2530      1.00000
    246     -14.2496      1.00000
    247     -14.2410      1.00000
    248     -14.2347      1.00000
    249     -14.2205      1.00000
    250     -14.1746      1.00000
    251     -14.1667      1.00000
    252     -14.1280      1.00000
    253     -14.1161      1.00000
    254     -14.0945      1.00000
    255     -14.0888      1.00000
    256     -13.9509      1.00000
    257     -13.9440      1.00000
    258     -13.8307      1.00000
    259     -13.8264      1.00000
    260     -13.8257      1.00000
    261     -13.8203      1.00000
    262     -13.8110      1.00000
    263     -13.8079      1.00000
    264     -13.7930      1.00000
    265     -13.7869      1.00000
    266     -13.7607      1.00000
    267     -13.7559      1.00000
    268     -13.6956      1.00000
    269     -13.6882      1.00000
    270     -13.6855      1.00000
    271     -13.6788      1.00000
    272     -13.6370      1.00000
    273     -13.6352      1.00000
    274     -13.5389      1.00000
    275     -13.5387      1.00000
    276     -13.5260      1.00000
    277     -13.5155      1.00000
    278     -13.3621      1.00000
    279     -13.3595      1.00000
    280     -13.3557      1.00000
    281     -13.3464      1.00000
    282     -13.3305      1.00000
    283     -13.3226      1.00000
    284     -13.1752      1.00000
    285     -13.1703      1.00000
    286     -13.1262      1.00000
    287     -13.1252      1.00000
    288     -13.1170      1.00000
    289     -13.1116      1.00000
    290     -13.0973      1.00000
    291     -13.0893      1.00000
    292     -13.0524      1.00000
    293     -13.0479      1.00000
    294     -13.0331      1.00000
    295     -13.0275      1.00000
    296     -12.9850      1.00000
    297     -12.9842      1.00000
    298     -12.8839      1.00000
    299     -12.8818      1.00000
    300     -12.8146      1.00000
    301     -12.8134      1.00000
    302     -12.7869      1.00000
    303     -12.7861      1.00000
    304     -12.7063      1.00000
    305     -12.7052      1.00000
    306     -12.5129      1.00000
    307     -12.5112      1.00000
    308     -12.3850      1.00000
    309     -12.3821      1.00000
    310     -12.2771      1.00000
    311     -12.2738      1.00000
    312     -12.2571      1.00000
    313     -12.2546      1.00000
    314     -12.1390      1.00000
    315     -12.1381      1.00000
    316     -12.0519      1.00000
    317     -12.0504      1.00000
    318     -12.0314      1.00000
    319     -12.0179      1.00000
    320     -11.9583      1.00000
    321     -11.9506      1.00000
    322     -11.9308      1.00000
    323     -11.9291      1.00000
    324     -11.9042      1.00000
    325     -11.9018      1.00000
    326     -11.8867      1.00000
    327     -11.8803      1.00000
    328     -11.8372      1.00000
    329     -11.8334      1.00000
    330     -11.8032      1.00000
    331     -11.8018      1.00000
    332     -11.7697      1.00000
    333     -11.7666      1.00000
    334     -11.7637      1.00000
    335     -11.7623      1.00000
    336     -11.7287      1.00000
    337     -11.7274      1.00000
    338     -11.7039      1.00000
    339     -11.6919      1.00000
    340     -11.6499      1.00000
    341     -11.6414      1.00000
    342     -11.6157      1.00000
    343     -11.6149      1.00000
    344     -11.5996      1.00000
    345     -11.5943      1.00000
    346     -11.5635      1.00000
    347     -11.5576      1.00000
    348     -11.5273      1.00000
    349     -11.5254      1.00000
    350     -11.5158      1.00000
    351     -11.5132      1.00000
    352     -11.4532      1.00000
    353     -11.4365      1.00000
    354     -11.4323      1.00000
    355     -11.4301      1.00000
    356     -11.4293      1.00000
    357     -11.4281      1.00000
    358     -11.4178      1.00000
    359     -11.4173      1.00000
    360     -11.0859      1.00000
    361     -11.0783      1.00000
    362     -11.0483      1.00000
    363     -11.0356      1.00000
    364     -11.0266      1.00000
    365     -11.0247      1.00000
    366     -11.0166      1.00000
    367     -11.0143      1.00000
    368     -10.9913      1.00000
    369     -10.9809      1.00000
    370     -10.9646      1.00000
    371     -10.9645      1.00000
    372     -10.9320      1.00000
    373     -10.9262      1.00000
    374     -10.8459      1.00000
    375     -10.8450      1.00000
    376     -10.8441      1.00000
    377     -10.8302      1.00000
    378     -10.7665      1.00000
    379     -10.7586      1.00000
    380     -10.7551      1.00000
    381     -10.7512      1.00000
    382     -10.7359      1.00000
    383     -10.7336      1.00000
    384     -10.7107      1.00000
    385     -10.7046      1.00000
    386     -10.7002      1.00000
    387     -10.6958      1.00000
    388     -10.6939      1.00000
    389     -10.6834      1.00000
    390     -10.6826      1.00000
    391     -10.6793      1.00000
    392     -10.6664      1.00000
    393     -10.6584      1.00000
    394     -10.6309      1.00000
    395     -10.6224      1.00000
    396     -10.5968      1.00000
    397     -10.5939      1.00000
    398     -10.5710      1.00000
    399     -10.5654      1.00000
    400     -10.5607      1.00000
    401     -10.5537      1.00000
    402     -10.5056      1.00000
    403     -10.4966      1.00000
    404     -10.4915      1.00000
    405     -10.4808      1.00000
    406     -10.4569      1.00000
    407     -10.4492      1.00000
    408     -10.4174      1.00000
    409     -10.4123      1.00000
    410     -10.3963      1.00000
    411     -10.3918      1.00000
    412     -10.3873      1.00000
    413     -10.3845      1.00000
    414     -10.3668      1.00000
    415     -10.3615      1.00000
    416     -10.3551      1.00000
    417     -10.3317      1.00000
    418     -10.3289      1.00000
    419     -10.3251      1.00000
    420     -10.3109      1.00000
    421     -10.3036      1.00000
    422     -10.2690      1.00000
    423     -10.2547      1.00000
    424     -10.2422      1.00000
    425     -10.2330      1.00000
    426     -10.2170      1.00000
    427     -10.2124      1.00000
    428     -10.2045      1.00000
    429     -10.1966      1.00000
    430     -10.1900      1.00000
    431     -10.1879      1.00000
    432     -10.1809      1.00000
    433     -10.1774      1.00000
    434     -10.1562      1.00000
    435     -10.1549      1.00000
    436     -10.0969      1.00000
    437     -10.0888      1.00000
    438     -10.0760      1.00000
    439     -10.0718      1.00000
    440     -10.0513      1.00000
    441     -10.0502      1.00000
    442     -10.0421      1.00000
    443     -10.0326      1.00000
    444     -10.0009      1.00000
    445      -9.9931      1.00000
    446      -9.9913      1.00000
    447      -9.9853      1.00000
    448      -9.9722      1.00000
    449      -9.9681      1.00000
    450      -9.9477      1.00000
    451      -9.9419      1.00000
    452      -9.9287      1.00000
    453      -9.9166      1.00000
    454      -9.8729      1.00000
    455      -9.8701      1.00000
    456      -9.8640      1.00000
    457      -9.8565      1.00000
    458      -9.8089      1.00000
    459      -9.8028      1.00000
    460      -9.7642      1.00000
    461      -9.7571      1.00000
    462      -9.7539      1.00000
    463      -9.7354      1.00000
    464      -9.7351      1.00000
    465      -9.7296      1.00000
    466      -9.7192      1.00000
    467      -9.7125      1.00000
    468      -9.6859      1.00000
    469      -9.6838      1.00000
    470      -9.6282      1.00000
    471      -9.6131      1.00000
    472      -9.5758      1.00000
    473      -9.5582      1.00000
    474      -9.5521      1.00000
    475      -9.5517      1.00000
    476      -9.5429      1.00000
    477      -9.5422      1.00000
    478      -9.5361      1.00000
    479      -9.5269      1.00000
    480      -9.4567      1.00000
    481      -9.4479      1.00000
    482      -9.4286      1.00000
    483      -9.4265      1.00000
    484      -9.4082      1.00000
    485      -9.4043      1.00000
    486      -9.3940      1.00000
    487      -9.3846      1.00000
    488      -9.3772      1.00000
    489      -9.3696      1.00000
    490      -9.3607      1.00000
    491      -9.3587      1.00000
    492      -9.3551      1.00000
    493      -9.3533      1.00000
    494      -9.3514      1.00000
    495      -9.3502      1.00000
    496      -9.3423      1.00000
    497      -9.3288      1.00000
    498      -9.3253      1.00000
    499      -9.3106      1.00000
    500      -9.3033      1.00000
    501      -9.2937      1.00000
    502      -9.2691      1.00000
    503      -9.2595      1.00000
    504      -9.2199      1.00000
    505      -9.2151      1.00000
    506      -9.2045      1.00000
    507      -9.1975      1.00000
    508      -9.1849      1.00000
    509      -9.1765      1.00000
    510      -9.1611      1.00000
    511      -9.1596      1.00000
    512      -9.1004      1.00000
    513      -9.0829      1.00000
    514      -8.9090      1.00000
    515      -8.8794      1.00000
    516      -8.8777      1.00000
    517      -8.8718      1.00000
    518      -8.8657      1.00000
    519      -8.8644      1.00000
    520      -8.8197      1.00000
    521      -8.8066      1.00000
    522      -8.7835      1.00000
    523      -8.7766      1.00000
    524      -8.7316      1.00000
    525      -8.7258      1.00000
    526      -8.6471      1.00000
    527      -8.6467      1.00000
    528      -8.6132      1.00000
    529      -8.6065      1.00000
    530      -8.5977      1.00000
    531      -8.5938      1.00000
    532      -8.5519      1.00000
    533      -8.5481      1.00000
    534      -8.5415      1.00000
    535      -8.5354      1.00000
    536      -8.5156      1.00000
    537      -8.5090      1.00000
    538      -8.4920      1.00000
    539      -8.4876      1.00000
    540      -8.4483      1.00000
    541      -8.4416      1.00000
    542      -8.4327      1.00000
    543      -8.4326      1.00000
    544      -8.4257      1.00000
    545      -8.4244      1.00000
    546      -8.3682      1.00000
    547      -8.3604      1.00000
    548      -8.3566      1.00000
    549      -8.3515      1.00000
    550      -8.3481      1.00000
    551      -8.3445      1.00000
    552      -8.3330      1.00000
    553      -8.3316      1.00000
    554      -8.3234      1.00000
    555      -8.3232      1.00000
    556      -8.3218      1.00000
    557      -8.3138      1.00000
    558      -8.3024      1.00000
    559      -8.3021      1.00000
    560      -8.2904      1.00000
    561      -8.2903      1.00000
    562      -8.2367      1.00000
    563      -8.2241      1.00000
    564      -8.1710      1.00000
    565      -8.1682      1.00000
    566      -8.1660      1.00000
    567      -8.1653      1.00000
    568      -8.1520      1.00000
    569      -8.1518      1.00000
    570      -8.0281      1.00000
    571      -8.0207      1.00000
    572      -7.9496      1.00000
    573      -7.9465      1.00000
    574      -7.8656      1.00000
    575      -7.8593      1.00000
    576      -7.8549      1.00000
    577      -7.8447      1.00000
    578      -7.8330      1.00000
    579      -7.8284      1.00000
    580      -7.8245      1.00000
    581      -7.8233      1.00000
    582      -7.7739      1.00000
    583      -7.7733      1.00000
    584      -7.7486      1.00000
    585      -7.7478      1.00000
    586      -7.6897      1.00000
    587      -7.6894      1.00000
    588      -7.6588      1.00000
    589      -7.6517      1.00000
    590      -7.6469      1.00000
    591      -7.6454      1.00000
    592      -7.6107      1.00000
    593      -7.6077      1.00000
    594      -7.5899      1.00000
    595      -7.5887      1.00000
    596      -7.5739      1.00000
    597      -7.5700      1.00000
    598      -7.5342      1.00000
    599      -7.5229      1.00000
    600      -7.5210      1.00000
    601      -7.5207      1.00000
    602      -7.5168      1.00000
    603      -7.5141      1.00000
    604      -7.4390      1.00000
    605      -7.4329      1.00000
    606      -7.3815      1.00000
    607      -7.3664      1.00000
    608      -7.2776      1.00000
    609      -7.2684      1.00000
    610      -7.2379      1.00000
    611      -7.2343      1.00000
    612      -7.2165      1.00000
    613      -7.2117      1.00000
    614      -7.2024      1.00000
    615      -7.1978      1.00000
    616      -7.1771      1.00000
    617      -7.1719      1.00000
    618      -7.1356      1.00000
    619      -7.1216      1.00000
    620      -7.1054      1.00000
    621      -7.1051      1.00000
    622      -7.0381      1.00000
    623      -7.0215      1.00000
    624      -7.0118      1.00000
    625      -7.0104      1.00000
    626      -6.9906      1.00000
    627      -6.9819      1.00000
    628      -6.9630      1.00000
    629      -6.9599      1.00000
    630      -6.9599      1.00000
    631      -6.9380      1.00000
    632      -6.9334      1.00000
    633      -6.9270      1.00000
    634      -6.8890      1.00000
    635      -6.8804      1.00000
    636      -6.7907      1.00000
    637      -6.7730      1.00000
    638      -6.7538      1.00000
    639      -6.7415      1.00000
    640      -6.7136      1.00000
    641      -6.7021      1.00000
    642      -6.6917      1.00000
    643      -6.6885      1.00000
    644      -6.6858      1.00000
    645      -6.6817      1.00000
    646      -6.6717      1.00000
    647      -6.6691      1.00000
    648      -6.6491      1.00000
    649      -6.6458      1.00000
    650      -6.6375      1.00000
    651      -6.6321      1.00000
    652      -6.6308      1.00000
    653      -6.6197      1.00000
    654      -6.6171      1.00000
    655      -6.6010      1.00000
    656      -6.4625      1.00000
    657      -6.4535      1.00000
    658      -6.3498      1.00000
    659      -6.3455      1.00000
    660      -6.2926      1.00000
    661      -6.2889      1.00000
    662      -6.2594      1.00000
    663      -6.2496      1.00000
    664      -6.2295      1.00000
    665      -6.1761      1.00000
    666      -6.1535      1.00000
    667      -6.1454      1.00000
    668      -6.0555      1.00000
    669      -6.0505      1.00000
    670      -6.0162      1.00000
    671      -5.9701      1.00000
    672      -5.9005      1.00000
    673      -5.8951      1.00000
    674      -5.8340      1.00000
    675      -5.8217      1.00000
    676      -5.8188      1.00000
    677      -5.7914      1.00000
    678      -5.7713      1.00000
    679      -5.7708      1.00000
    680      -5.7165      1.00000
    681      -5.6998      1.00000
    682      -5.6541      1.00000
    683      -5.6371      1.00000
    684      -5.6078      1.00000
    685      -5.5964      1.00000
    686      -5.5810      1.00000
    687      -5.5806      1.00000
    688      -5.5778      1.00000
    689      -5.5740      1.00000
    690      -5.5387      1.00000
    691      -5.5184      1.00000
    692      -5.5079      1.00000
    693      -5.4937      1.00000
    694      -5.4631      1.00000
    695      -5.4511      1.00000
    696      -5.4177      1.00000
    697      -5.4052      1.00000
    698      -5.3701      1.00000
    699      -5.3621      1.00000
    700      -5.3103      1.00000
    701      -5.2618      1.00000
    702      -5.2309      1.00000
    703      -5.2307      1.00000
    704      -5.1673      1.00000
    705      -5.1456      1.00000
    706      -5.1117      1.00000
    707      -5.1069      1.00000
    708      -5.0947      1.00000
    709      -5.0277      1.00000
    710      -4.9407      1.00000
    711      -4.8682      1.00000
    712      -4.8441      1.00000
    713      -4.8339      1.00000
    714      -4.8081      1.00000
    715      -4.8050      1.00000
    716      -4.7639      1.00000
    717      -4.7546      1.00000
    718      -4.6937      1.00000
    719      -4.6900      1.00000
    720      -4.4964      1.00000
    721      -4.3464      1.00000
    722      -4.3273      1.00000
    723      -4.2655      1.00000
    724      -4.2371      1.00000
    725      -4.1597      1.00000
    726      -4.1277      1.00000
    727      -4.0784      1.00000
    728      -3.8807      1.00000
    729      -3.8201      1.00000
    730      -3.7555      1.00000
    731      -3.6256      1.00000
    732      -2.8755      0.00000
    733      -2.5772      0.00000
    734      -2.5597      0.00000
    735      -2.5054      0.00000
    736      -2.3407      0.00000
    737      -2.2454      0.00000
    738      -2.2443      0.00000
    739      -2.0783      0.00000
    740      -2.0637      0.00000
    741      -2.0334      0.00000
    742      -2.0309      0.00000
    743      -1.9005      0.00000
    744      -1.8897      0.00000
    745      -1.8690      0.00000
    746      -1.8669      0.00000
    747      -1.8618      0.00000
    748      -1.8598      0.00000
    749      -1.8455      0.00000
    750      -1.7933      0.00000
    751      -1.7759      0.00000
    752      -1.7444      0.00000
    753      -1.7377      0.00000
    754      -1.7236      0.00000
    755      -1.7147      0.00000
    756      -1.6997      0.00000
    757      -1.6702      0.00000
    758      -1.6682      0.00000
    759      -1.6559      0.00000
    760      -1.6540      0.00000
    761      -1.6355      0.00000
    762      -1.6028      0.00000
    763      -1.5609      0.00000
    764      -1.4967      0.00000
    765      -1.4461      0.00000
    766      -1.4308      0.00000
    767      -1.3777      0.00000
    768      -1.3716      0.00000
    769      -1.3564      0.00000
    770      -1.3476      0.00000
    771      -1.3093      0.00000
    772      -1.3022      0.00000
    773      -1.2975      0.00000
    774      -1.2962      0.00000
    775      -1.2929      0.00000
    776      -1.2904      0.00000
    777      -1.2861      0.00000
    778      -1.2714      0.00000
    779      -1.2708      0.00000
    780      -1.2707      0.00000
    781      -1.2486      0.00000
    782      -1.2182      0.00000
    783      -1.2014      0.00000
    784      -1.1937      0.00000
    785      -1.1749      0.00000
    786      -1.1222      0.00000
    787      -1.1143      0.00000
    788      -0.9848      0.00000
    789      -0.9458      0.00000
    790      -0.9432      0.00000
    791      -0.9223      0.00000
    792      -0.8102      0.00000
    793      -0.6967      0.00000
    794      -0.6513      0.00000
    795      -0.6222      0.00000
    796      -0.6062      0.00000
    797      -0.6051      0.00000
    798      -0.5217      0.00000
    799      -0.4130      0.00000
    800      -0.3747      0.00000
    801      -0.3276      0.00000
    802      -0.2779      0.00000
    803      -0.2672      0.00000
    804      -0.2397      0.00000
    805      -0.2397      0.00000
    806      -0.1686      0.00000
    807      -0.1286      0.00000
    808      -0.1205      0.00000
    809      -0.1192      0.00000
    810      -0.0862      0.00000
    811      -0.0768      0.00000
    812      -0.0388      0.00000
    813      -0.0065      0.00000
    814       0.0163      0.00000
    815       0.0453      0.00000
    816       0.0519      0.00000
    817       0.0523      0.00000
    818       0.0926      0.00000
    819       0.2290      0.00000
    820       0.2459      0.00000
    821       0.3267      0.00000
    822       0.3809      0.00000
    823       0.3918      0.00000
    824       0.4055      0.00000
    825       0.4061      0.00000
    826       0.4064      0.00000
    827       0.4154      0.00000
    828       0.4325      0.00000
    829       0.4899      0.00000
    830       0.5179      0.00000
    831       0.5290      0.00000
    832       0.5338      0.00000
    833       0.5495      0.00000
    834       0.5512      0.00000
    835       0.5543      0.00000
    836       0.5705      0.00000
    837       0.5713      0.00000
    838       0.5811      0.00000
    839       0.5918      0.00000
    840       0.5937      0.00000
    841       0.6128      0.00000
    842       0.6439      0.00000
    843       0.6671      0.00000
    844       0.6862      0.00000
    845       0.6910      0.00000
    846       0.7085      0.00000
    847       0.7236      0.00000
    848       0.7335      0.00000
    849       0.7636      0.00000
    850       0.7669      0.00000
    851       0.7999      0.00000
    852       0.8040      0.00000
    853       0.8578      0.00000
    854       0.8675      0.00000
    855       0.9319      0.00000
    856       0.9379      0.00000
    857       0.9387      0.00000
    858       0.9484      0.00000
    859       0.9550      0.00000
    860       0.9732      0.00000
    861       1.0256      0.00000
    862       1.0419      0.00000
    863       1.0437      0.00000
    864       1.0442      0.00000
    865       1.0876      0.00000
    866       1.0877      0.00000
    867       1.1202      0.00000
    868       1.1214      0.00000
    869       1.1239      0.00000
    870       1.1250      0.00000
    871       1.1418      0.00000
    872       1.1507      0.00000
    873       1.2344      0.00000
    874       1.2504      0.00000
    875       1.2767      0.00000
    876       1.2933      0.00000
    877       1.3259      0.00000
    878       1.3890      0.00000
    879       1.3921      0.00000
    880       1.4028      0.00000
    881       1.4035      0.00000
    882       1.4090      0.00000
    883       1.4179      0.00000
    884       1.4252      0.00000
    885       1.4259      0.00000
    886       1.4457      0.00000
    887       1.4643      0.00000
    888       1.4680      0.00000
    889       1.4786      0.00000
    890       1.4867      0.00000
    891       1.4997      0.00000
    892       1.5050      0.00000
    893       1.5141      0.00000
    894       1.5206      0.00000
    895       1.5560      0.00000
    896       1.5773      0.00000


--------------------------------------------------------------------------------------------------------


 soft charge-density along one line, spin component            1
         0         1         2         3         4         5         6         7         8         9
 total charge-density along one line
 
 soft charge-density along one line, spin component            2
         0         1         2         3         4         5         6         7         8         9
 total charge-density along one line
 
 pseudopotential strength for first ion, spin component:            1
 10.262   0.000   0.020   0.000  -0.000  -0.000  -0.000  -0.000  -0.000   0.000   0.000   0.000  -0.000   0.000   0.000  -0.000
  0.020   0.000  -0.001   0.000  -0.000   0.000   0.000   0.000  -0.000  -0.000   0.000   0.000  -0.000   0.000   0.000  -0.000
 -0.000  -0.000  -0.000   0.000  -4.372  -0.000  -0.000  -0.000   0.003  -0.000  -0.017  -0.000  -0.000  -0.000   0.001  -0.000
 -0.000  -0.000   0.000   0.000  -0.000  -0.000  -4.375  -0.000  -0.000  -0.000  -0.000  -0.000  -0.018  -0.000  -0.000  -0.000
 -0.000   0.000  -0.000  -0.000   0.003  -0.000  -0.000  -0.000  -4.372  -0.000   0.001  -0.000  -0.000  -0.000  -0.016  -0.000
  0.000   0.000   0.000   0.000  -0.017  -0.000  -0.000  -0.000   0.001  -0.000  -0.773  -0.000  -0.000  -0.000   0.000  -0.000
 -0.000   0.000  -0.000   0.000  -0.000  -0.000  -0.018  -0.000  -0.000  -0.000  -0.000  -0.000  -0.773  -0.000  -0.000  -0.000
  0.000  -0.000   0.000  -0.000   0.001  -0.000  -0.000  -0.000  -0.016  -0.000   0.000  -0.000  -0.000  -0.000  -0.773  -0.000
 pseudopotential strength for first ion, spin component:            2
 10.262   0.000   0.020   0.000  -0.000  -0.000  -0.000  -0.000  -0.000   0.000   0.000   0.000  -0.000   0.000   0.000  -0.000
  0.020   0.000  -0.001   0.000  -0.000   0.000   0.000   0.000  -0.000  -0.000   0.000   0.000  -0.000   0.000   0.000  -0.000
 -0.000  -0.000  -0.000   0.000  -4.372  -0.000  -0.000  -0.000   0.003  -0.000  -0.017  -0.000  -0.000  -0.000   0.001  -0.000
 -0.000  -0.000   0.000   0.000  -0.000  -0.000  -4.375  -0.000  -0.000  -0.000  -0.000  -0.000  -0.018  -0.000  -0.000  -0.000
 -0.000   0.000  -0.000  -0.000   0.003  -0.000  -0.000  -0.000  -4.372  -0.000   0.001  -0.000  -0.000  -0.000  -0.016  -0.000
  0.000   0.000   0.000   0.000  -0.017  -0.000  -0.000  -0.000   0.001  -0.000  -0.773  -0.000  -0.000  -0.000   0.000  -0.000
 -0.000   0.000  -0.000   0.000  -0.000  -0.000  -0.018  -0.000  -0.000  -0.000  -0.000  -0.000  -0.773  -0.000  -0.000  -0.000
  0.000  -0.000   0.000  -0.000   0.001  -0.000  -0.000  -0.000  -0.016  -0.000   0.000  -0.000  -0.000  -0.000  -0.773  -0.000
 total augmentation occupancy for first ion, spin component:            1
  1.473  -1.150  -0.019   0.001  -0.020  -0.011   0.000  -0.012
 -1.150   1.107   0.047  -0.002   0.056   0.016  -0.001   0.019
 -0.019   0.047   1.123   0.001  -0.122   0.187   0.001  -0.056
  0.001  -0.002   0.001   1.227   0.001   0.001   0.230   0.001
 -0.020   0.056  -0.122   0.001   1.020  -0.056   0.001   0.153
 -0.011   0.016   0.187   0.001  -0.056   0.036   0.000  -0.016
  0.000  -0.001   0.001   0.230   0.001   0.000   0.049   0.000
 -0.012   0.019  -0.056   0.001   0.153  -0.016   0.000   0.027
 total augmentation occupancy for first ion, spin component:            2
 -0.000  -0.000  -0.000   0.000  -0.000   0.000  -0.000  -0.000
 -0.000   0.000   0.000  -0.000  -0.000  -0.000   0.000  -0.000
 -0.000   0.000  -0.000  -0.000  -0.000  -0.000   0.000   0.000
  0.000  -0.000  -0.000  -0.000   0.000   0.000  -0.000   0.000
 -0.000  -0.000  -0.000   0.000  -0.000   0.000   0.000   0.000
  0.000  -0.000  -0.000   0.000   0.000  -0.000   0.000   0.000
 -0.000   0.000   0.000  -0.000   0.000   0.000   0.000   0.000
 -0.000  -0.000   0.000   0.000   0.000   0.000   0.000   0.000


------------------------ aborting loop because EDIFF is reached ----------------------------------------





 total charge

# of ion       s       p       d       tot
------------------------------------------
    1        0.868   1.790   0.000   2.658
    2        0.868   1.790   0.000   2.658
    3        0.868   1.790   0.000   2.658
    4        0.868   1.790   0.000   2.658
    5        0.868   1.790   0.000   2.658
    6        0.868   1.790   0.000   2.658
    7        0.868   1.790   0.000   2.658
    8        0.868   1.790   0.000   2.658
    9        0.868   1.790   0.000   2.658
   10        0.868   1.790   0.000   2.658
   11        0.868   1.790   0.000   2.658
   12        0.868   1.790   0.000   2.658
   13        0.868   1.790   0.000   2.658
   14        0.868   1.791   0.000   2.659
   15        0.868   1.790   0.000   2.658
   16        0.868   1.790   0.000   2.658
   17        0.868   1.790   0.000   2.658
   18        0.868   1.790   0.000   2.658
   19        0.868   1.790   0.000   2.658
   20        0.868   1.790   0.000   2.658
   21        0.868   1.790   0.000   2.658
   22        0.868   1.790   0.000   2.658
   23        0.868   1.790   0.000   2.658
   24        0.868   1.790   0.000   2.658
   25        0.868   1.791   0.000   2.659
   26        0.868   1.791   0.000   2.659
   27        0.868   1.790   0.000   2.658
   28        0.868   1.790   0.000   2.658
   29        0.868   1.790   0.000   2.658
   30        0.868   1.790   0.000   2.658
   31        0.868   1.790   0.000   2.658
   32        0.868   1.790   0.000   2.658
   33        0.868   1.790   0.000   2.658
   34        0.868   1.790   0.000   2.658
   35        0.868   1.790   0.000   2.658
   36        0.868   1.790   0.000   2.658
   37        0.868   1.790   0.000   2.658
   38        0.868   1.791   0.000   2.658
   39        0.868   1.791   0.000   2.658
   40        0.868   1.791   0.000   2.658
   41        0.868   1.791   0.000   2.659
   42        0.868   1.790   0.000   2.659
   43        0.868   1.791   0.000   2.659
   44        0.868   1.789   0.000   2.657
   45        0.868   1.790   0.000   2.658
   46        0.868   1.790   0.000   2.657
   47        0.868   1.790   0.000   2.658
   48        0.868   1.790   0.000   2.658
   49        0.868   1.790   0.000   2.658
   50        0.868   1.790   0.000   2.658
   51        0.868   1.790   0.000   2.658
   52        0.868   1.790   0.000   2.658
   53        0.868   1.790   0.000   2.658
   54        0.868   1.790   0.000   2.658
   55        0.868   1.791   0.000   2.658
   56        0.868   1.791   0.000   2.658
   57        0.868   1.791   0.000   2.658
   58        0.868   1.791   0.000   2.659
   59        0.868   1.791   0.000   2.659
   60        0.868   1.791   0.000   2.659
   61        0.868   1.790   0.000   2.658
   62        0.868   1.790   0.000   2.658
   63        0.867   1.788   0.000   2.655
   64        0.868   1.789   0.000   2.657
   65        0.867   1.789   0.000   2.657
   66        0.868   1.789   0.000   2.657
   67        0.868   1.790   0.000   2.658
   68        0.868   1.790   0.000   2.658
   69        0.868   1.790   0.000   2.658
   70        0.868   1.790   0.000   2.658
   71        0.868   1.790   0.000   2.658
   72        0.868   1.790   0.000   2.658
   73        0.868   1.790   0.000   2.658
   74        0.868   1.790   0.000   2.658
   75        0.868   1.790   0.000   2.658
   76        0.868   1.790   0.000   2.658
   77        0.868   1.790   0.000   2.658
   78        0.868   1.791   0.000   2.658
   79        0.868   1.791   0.000   2.659
   80        0.868   1.791   0.000   2.659
   81        0.868   1.791   0.000   2.659
   82        0.868   1.791   0.000   2.659
   83        0.868   1.790   0.000   2.658
   84        0.868   1.790   0.000   2.658
   85        0.868   1.790   0.000   2.658
   86        0.865   1.782   0.000   2.648
   87        0.867   1.790   0.000   2.658
   88        0.868   1.792   0.000   2.660
   89        0.868   1.790   0.000   2.658
   90        0.868   1.790   0.000   2.658
   91        0.868   1.790   0.000   2.658
   92        0.868   1.790   0.000   2.658
   93        0.868   1.790   0.000   2.658
   94        0.868   1.790   0.000   2.658
   95        0.868   1.790   0.000   2.658
   96        0.868   1.790   0.000   2.658
   97        0.868   1.790   0.000   2.658
   98        0.868   1.790   0.000   2.658
   99        0.868   1.790   0.000   2.658
  100        0.868   1.790   0.000   2.658
  101        0.868   1.790   0.000   2.658
  102        0.868   1.791   0.000   2.659
  103        0.868   1.791   0.000   2.659
  104        0.868   1.791   0.000   2.659
  105        0.868   1.791   0.000   2.659
  106        0.868   1.791   0.000   2.659
  107        0.868   1.790   0.000   2.658
  108        0.868   1.790   0.000   2.658
  109        0.868   1.792   0.000   2.660
  110        0.868   1.786   0.000   2.654
  111        0.868   1.792   0.000   2.660
  112        0.869   1.791   0.000   2.660
  113        0.868   1.792   0.000   2.660
  114        0.868   1.791   0.000   2.659
  115        0.868   1.791   0.000   2.658
  116        0.868   1.790   0.000   2.658
  117        0.868   1.790   0.000   2.658
  118        0.868   1.790   0.000   2.658
  119        0.868   1.790   0.000   2.658
  120        0.868   1.790   0.000   2.658
  121        0.868   1.790   0.000   2.658
  122        0.868   1.790   0.000   2.658
  123        0.868   1.790   0.000   2.657
  124        0.868   1.790   0.000   2.658
  125        0.868   1.790   0.000   2.658
  126        0.868   1.790   0.000   2.658
  127        0.868   1.791   0.000   2.659
  128        0.868   1.791   0.000   2.659
  129        0.868   1.791   0.000   2.659
  130        0.868   1.791   0.000   2.659
  131        0.868   1.790   0.000   2.658
  132        0.868   1.794   0.000   2.662
  133        0.868   1.792   0.000   2.660
  134        0.868   1.791   0.000   2.659
  135        0.868   1.791   0.000   2.659
  136        0.868   1.792   0.000   2.660
  137        0.868   1.790   0.000   2.659
  138        0.868   1.791   0.000   2.659
  139        0.868   1.790   0.000   2.658
  140        0.868   1.790   0.000   2.658
  141        0.868   1.790   0.000   2.658
  142        0.868   1.790   0.000   2.658
  143        0.868   1.790   0.000   2.658
  144        0.868   1.790   0.000   2.658
  145        0.868   1.790   0.000   2.658
  146        0.868   1.789   0.000   2.657
  147        0.868   1.790   0.000   2.657
  148        0.868   1.790   0.000   2.657
  149        0.868   1.790   0.000   2.658
  150        0.868   1.790   0.000   2.658
  151        0.868   1.791   0.000   2.659
  152        0.868   1.791   0.000   2.659
  153        0.868   1.791   0.000   2.659
  154        0.868   1.791   0.000   2.659
  155        0.868   1.791   0.000   2.659
  156        0.868   1.791   0.000   2.659
  157        0.868   1.790   0.000   2.658
  158        0.868   1.789   0.000   2.657
  159        0.868   1.790   0.000   2.658
  160        0.868   1.791   0.000   2.659
  161        0.868   1.790   0.000   2.658
  162        0.868   1.790   0.000   2.658
  163        0.868   1.790   0.000   2.658
  164        0.868   1.789   0.000   2.657
  165        0.868   1.789   0.000   2.657
  166        0.868   1.790   0.000   2.658
  167        0.868   1.790   0.000   2.658
  168        0.868   1.790   0.000   2.658
  169        0.868   1.790   0.000   2.658
  170        0.868   1.790   0.000   2.657
  171        0.868   1.789   0.000   2.656
  172        0.868   1.790   0.000   2.658
  173        0.868   1.791   0.000   2.659
  174        0.868   1.791   0.000   2.659
  175        0.868   1.792   0.000   2.661
  176        0.868   1.792   0.000   2.660
  177        0.868   1.791   0.000   2.659
  178        0.868   1.791   0.000   2.659
  179        0.868   1.791   0.000   2.659
  180        0.868   1.790   0.000   2.658
  181        0.868   1.790   0.000   2.657
  182        0.868   1.790   0.000   2.658
  183        0.868   1.789   0.000   2.657
  184        0.868   1.790   0.000   2.658
  185        0.868   1.790   0.000   2.658
  186        0.868   1.790   0.000   2.658
  187        0.868   1.790   0.000   2.658
  188        0.868   1.790   0.000   2.658
  189        0.868   1.790   0.000   2.658
  190        0.868   1.790   0.000   2.658
  191        0.868   1.790   0.000   2.658
  192        0.868   1.790   0.000   2.659
  193        0.868   1.791   0.000   2.660
  194        0.868   1.791   0.000   2.659
  195        0.868   1.791   0.000   2.659
  196        0.868   1.792   0.000   2.660
  197        0.869   1.794   0.000   2.662
  198        0.870   1.795   0.000   2.665
  199        0.869   1.794   0.000   2.663
  200        0.868   1.790   0.000   2.658
  201        0.868   1.791   0.000   2.659
  202        0.868   1.790   0.000   2.658
  203        0.868   1.790   0.000   2.658
  204        0.868   1.790   0.000   2.658
  205        0.868   1.790   0.000   2.658
  206        0.868   1.790   0.000   2.658
  207        0.868   1.790   0.000   2.658
  208        0.868   1.790   0.000   2.658
  209        0.868   1.790   0.000   2.658
  210        0.868   1.790   0.000   2.658
  211        0.868   1.790   0.000   2.658
  212        0.868   1.790   0.000   2.658
  213        0.868   1.790   0.000   2.658
  214        0.868   1.791   0.000   2.659
  215        0.868   1.791   0.000   2.659
  216        0.869   1.791   0.000   2.660
  217        0.868   1.792   0.000   2.660
  218        0.868   1.786   0.000   2.654
  219        0.868   1.792   0.000   2.660
  220        0.871   1.784   0.000   2.654
  221        0.869   1.799   0.000   2.668
  222        0.868   1.790   0.000   2.658
  223        0.868   1.790   0.000   2.658
  224        0.868   1.790   0.000   2.658
  225        0.868   1.790   0.000   2.658
  226        0.868   1.790   0.000   2.658
  227        0.868   1.790   0.000   2.658
  228        0.868   1.790   0.000   2.658
  229        0.868   1.790   0.000   2.658
  230        0.868   1.790   0.000   2.658
  231        0.868   1.790   0.000   2.658
  232        0.868   1.790   0.000   2.658
  233        0.868   1.790   0.000   2.658
  234        0.868   1.790   0.000   2.658
  235        0.868   1.790   0.000   2.658
  236        0.868   1.790   0.000   2.658
  237        0.868   1.790   0.000   2.658
  238        0.868   1.790   0.000   2.658
  239        0.868   1.791   0.000   2.659
  240        0.867   1.790   0.000   2.657
  241        0.865   1.782   0.000   2.647
  242        0.844   1.720   0.000   2.564
  243        0.844   1.721   0.000   2.565
  244        0.868   1.790   0.000   2.658
  245        0.868   1.790   0.000   2.658
  246        0.868   1.790   0.000   2.658
  247        0.868   1.790   0.000   2.658
  248        0.868   1.790   0.000   2.658
  249        0.868   1.790   0.000   2.658
  250        0.868   1.790   0.000   2.658
  251        0.868   1.790   0.000   2.658
  252        0.868   1.790   0.000   2.658
  253        0.868   1.790   0.000   2.658
  254        0.868   1.790   0.000   2.658
  255        0.868   1.790   0.000   2.658
  256        0.868   1.790   0.000   2.658
  257        0.868   1.790   0.000   2.658
  258        0.868   1.790   0.000   2.658
  259        0.868   1.790   0.000   2.658
  260        0.868   1.789   0.000   2.657
  261        0.867   1.789   0.000   2.656
  262        0.868   1.789   0.000   2.656
  263        0.867   1.787   0.000   2.654
  264        0.869   1.798   0.000   2.667
  265        0.870   1.783   0.000   2.654
  266        0.868   1.790   0.000   2.658
  267        0.868   1.790   0.000   2.658
  268        0.868   1.790   0.000   2.658
  269        0.868   1.790   0.000   2.658
  270        0.868   1.790   0.000   2.658
  271        0.868   1.790   0.000   2.658
  272        0.868   1.790   0.000   2.658
  273        0.868   1.790   0.000   2.658
  274        0.868   1.790   0.000   2.658
  275        0.868   1.790   0.000   2.658
  276        0.868   1.790   0.000   2.658
  277        0.868   1.790   0.000   2.658
  278        0.868   1.790   0.000   2.658
  279        0.868   1.790   0.000   2.658
  280        0.868   1.790   0.000   2.658
  281        0.868   1.790   0.000   2.657
  282        0.868   1.790   0.000   2.657
  283        0.868   1.789   0.000   2.657
  284        0.868   1.791   0.000   2.659
  285        0.868   1.790   0.000   2.658
  286        0.869   1.793   0.000   2.662
  287        0.870   1.795   0.000   2.665
  288        0.868   1.790   0.000   2.658
  289        0.868   1.790   0.000   2.658
  290        0.868   1.790   0.000   2.658
  291        0.868   1.790   0.000   2.658
  292        0.868   1.790   0.000   2.658
  293        0.868   1.790   0.000   2.658
  294        0.868   1.790   0.000   2.658
  295        0.868   1.790   0.000   2.658
  296        0.868   1.790   0.000   2.658
  297        0.868   1.790   0.000   2.658
  298        0.868   1.790   0.000   2.658
  299        0.868   1.790   0.000   2.658
  300        0.868   1.790   0.000   2.658
  301        0.868   1.790   0.000   2.658
  302        0.868   1.790   0.000   2.658
  303        0.868   1.790   0.000   2.658
  304        0.868   1.790   0.000   2.658
  305        0.868   1.790   0.000   2.658
  306        0.868   1.791   0.000   2.659
  307        0.868   1.791   0.000   2.659
  308        0.868   1.792   0.000   2.660
  309        0.868   1.792   0.000   2.661
  310        0.868   1.790   0.000   2.658
  311        0.868   1.790   0.000   2.658
  312        0.868   1.790   0.000   2.658
  313        0.868   1.790   0.000   2.658
  314        0.868   1.790   0.000   2.658
  315        0.868   1.790   0.000   2.658
  316        0.868   1.790   0.000   2.658
  317        0.868   1.790   0.000   2.658
  318        0.868   1.790   0.000   2.658
  319        0.868   1.790   0.000   2.658
  320        0.868   1.790   0.000   2.658
  321        0.868   1.790   0.000   2.658
  322        0.868   1.790   0.000   2.658
  323        0.868   1.791   0.000   2.658
  324        0.868   1.790   0.000   2.658
  325        0.868   1.791   0.000   2.659
  326        0.868   1.791   0.000   2.659
  327        0.868   1.791   0.000   2.659
  328        0.868   1.791   0.000   2.659
  329        0.868   1.790   0.000   2.658
  330        0.868   1.790   0.000   2.658
  331        0.868   1.790   0.000   2.658
  332        0.868   1.791   0.000   2.658
  333        0.868   1.790   0.000   2.658
  334        0.868   1.790   0.000   2.658
  335        0.868   1.790   0.000   2.658
  336        0.868   1.790   0.000   2.658
  337        0.868   1.790   0.000   2.658
  338        0.868   1.790   0.000   2.658
  339        0.868   1.790   0.000   2.658
  340        0.868   1.790   0.000   2.658
  341        0.868   1.790   0.000   2.658
  342        0.868   1.791   0.000   2.659
  343        0.868   1.791   0.000   2.659
  344        0.868   1.791   0.000   2.658
  345        0.868   1.791   0.000   2.659
  346        0.868   1.790   0.000   2.658
  347        0.868   1.790   0.000   2.658
  348        0.868   1.790   0.000   2.658
  349        0.868   1.791   0.000   2.658
  350        0.868   1.790   0.000   2.658
  351        0.868   1.790   0.000   2.658
  352        0.868   1.790   0.000   2.658
  353        0.868   1.791   0.000   2.658
  354        0.868   1.791   0.000   2.659
  355        0.868   1.790   0.000   2.658
  356        0.868   1.790   0.000   2.658
  357        0.868   1.791   0.000   2.658
  358        0.868   1.790   0.000   2.658
  359        0.868   1.790   0.000   2.658
  360        0.868   1.790   0.000   2.658
  361        0.868   1.790   0.000   2.658
  362        0.868   1.790   0.000   2.658
  363        0.868   1.790   0.000   2.658
  364        0.868   1.790   0.000   2.658
  365        1.487   2.243   0.042   3.772
--------------------------------------------------
tot        317.372 653.791   0.042 971.205



 magnetization (x)

# of ion       s       p       d       tot
------------------------------------------
    1       -0.000  -0.000   0.000  -0.000
    2       -0.000  -0.000   0.000  -0.000
    3       -0.000  -0.000   0.000  -0.000
    4       -0.000  -0.000   0.000  -0.000
    5       -0.000  -0.000   0.000  -0.000
    6       -0.000  -0.000   0.000  -0.000
    7       -0.000  -0.000   0.000  -0.000
    8       -0.000  -0.000   0.000  -0.000
    9       -0.000  -0.000   0.000  -0.000
   10       -0.000  -0.000   0.000  -0.000
   11       -0.000  -0.000   0.000  -0.000
   12       -0.000  -0.000   0.000  -0.000
   13       -0.000  -0.000   0.000  -0.000
   14       -0.000  -0.000   0.000  -0.000
   15       -0.000  -0.000   0.000  -0.000
   16       -0.000  -0.000   0.000  -0.000
   17       -0.000  -0.000   0.000  -0.000
   18       -0.000  -0.000   0.000  -0.000
   19       -0.000  -0.000   0.000  -0.000
   20       -0.000  -0.000   0.000  -0.000
   21       -0.000  -0.000   0.000  -0.000
   22       -0.000  -0.000   0.000  -0.000
   23       -0.000  -0.000   0.000  -0.000
   24       -0.000  -0.000   0.000  -0.000
   25       -0.000  -0.000   0.000  -0.000
   26        0.000   0.000   0.000   0.000
   27        0.000   0.000   0.000   0.000
   28        0.000   0.000   0.000   0.000
   29       -0.000  -0.000   0.000  -0.000
   30       -0.000  -0.000   0.000  -0.000
   31       -0.000  -0.000   0.000  -0.000
   32       -0.000  -0.000   0.000  -0.000
   33       -0.000  -0.000   0.000  -0.000
   34       -0.000  -0.000   0.000  -0.000
   35       -0.000  -0.000   0.000  -0.000
   36       -0.000  -0.000   0.000  -0.000
   37       -0.000  -0.000   0.000  -0.000
   38       -0.000  -0.000   0.000  -0.000
   39       -0.000  -0.000   0.000  -0.000
   40       -0.000  -0.000   0.000  -0.000
   41       -0.000  -0.000   0.000  -0.000
   42        0.000   0.000   0.000   0.000
   43        0.000   0.000   0.000   0.000
   44        0.000   0.000   0.000   0.000
   45        0.000   0.000   0.000   0.000
   46        0.000   0.000   0.000   0.000
   47        0.000   0.000   0.000   0.000
   48       -0.000  -0.000   0.000  -0.000
   49       -0.000  -0.000   0.000  -0.000
   50       -0.000  -0.000   0.000  -0.000
   51       -0.000  -0.000   0.000  -0.000
   52       -0.000  -0.000   0.000  -0.000
   53       -0.000  -0.000   0.000  -0.000
   54       -0.000  -0.000   0.000  -0.000
   55       -0.000  -0.000   0.000  -0.000
   56       -0.000  -0.000   0.000  -0.000
   57       -0.000  -0.000   0.000  -0.000
   58       -0.000  -0.000   0.000  -0.000
   59       -0.000  -0.000   0.000  -0.000
   60       -0.000  -0.000   0.000  -0.000
   61       -0.000  -0.000   0.000  -0.000
   62       -0.000  -0.000   0.000  -0.000
   63        0.000   0.000   0.000   0.000
   64        0.000   0.000   0.000   0.000
   65        0.000   0.000   0.000   0.000
   66        0.000   0.000   0.000   0.000
   67        0.000   0.000   0.000   0.000
   68        0.000   0.000   0.000   0.000
   69       -0.000  -0.000   0.000  -0.000
   70       -0.000  -0.000   0.000  -0.000
   71       -0.000  -0.000   0.000  -0.000
   72       -0.000  -0.000   0.000  -0.000
   73       -0.000  -0.000   0.000  -0.000
   74       -0.000  -0.000   0.000  -0.000
   75       -0.000  -0.000   0.000  -0.000
   76       -0.000  -0.000   0.000  -0.000
   77       -0.000  -0.000   0.000  -0.000
   78       -0.000  -0.000   0.000  -0.000
   79       -0.000  -0.000   0.000  -0.000
   80       -0.000  -0.000   0.000  -0.000
   81       -0.000  -0.000   0.000  -0.000
   82       -0.000  -0.000   0.000  -0.000
   83       -0.000  -0.000   0.000  -0.000
   84       -0.000  -0.000   0.000  -0.000
   85       -0.000  -0.000   0.000  -0.000
   86        0.000   0.000   0.000   0.000
   87        0.000   0.000   0.000   0.000
   88        0.000   0.000   0.000   0.000
   89        0.000   0.000   0.000   0.000
   90        0.000   0.000   0.000   0.000
   91        0.000   0.000   0.000   0.000
   92       -0.000   0.000   0.000   0.000
   93        0.000   0.000   0.000   0.000
   94       -0.000  -0.000   0.000  -0.000
   95       -0.000  -0.000   0.000  -0.000
   96        0.000  -0.000   0.000  -0.000
   97       -0.000  -0.000   0.000  -0.000
   98        0.000   0.000   0.000   0.000
   99       -0.000  -0.000   0.000  -0.000
  100        0.000  -0.000   0.000   0.000
  101       -0.000  -0.000   0.000  -0.000
  102       -0.000  -0.000   0.000  -0.000
  103       -0.000  -0.000   0.000  -0.000
  104       -0.000  -0.000   0.000  -0.000
  105       -0.000  -0.000   0.000  -0.000
  106       -0.000  -0.000   0.000  -0.000
  107       -0.000  -0.000   0.000  -0.000
  108       -0.000  -0.000   0.000  -0.000
  109        0.000   0.000   0.000   0.000
  110        0.000   0.000   0.000   0.000
  111        0.000   0.000   0.000   0.000
  112        0.000   0.000   0.000   0.000
  113        0.000   0.000   0.000   0.000
  114        0.000   0.000   0.000   0.000
  115        0.000   0.000   0.000   0.000
  116        0.000   0.000   0.000   0.000
  117       -0.000  -0.000   0.000  -0.000
  118       -0.000  -0.000   0.000  -0.000
  119        0.000  -0.000   0.000  -0.000
  120       -0.000  -0.000   0.000  -0.000
  121        0.000   0.000   0.000   0.000
  122       -0.000  -0.000   0.000  -0.000
  123        0.000   0.000   0.000   0.000
  124        0.000   0.000   0.000   0.000
  125        0.000   0.000   0.000   0.000
  126        0.000   0.000   0.000   0.000
  127        0.000   0.000   0.000   0.000
  128       -0.000  -0.000   0.000  -0.000
  129        0.000   0.000   0.000   0.000
  130       -0.000  -0.000   0.000  -0.000
  131       -0.000  -0.000   0.000  -0.000
  132        0.000   0.000   0.000   0.000
  133        0.000   0.000   0.000   0.000
  134        0.000   0.000   0.000   0.000
  135        0.000   0.000   0.000   0.000
  136        0.000   0.000   0.000   0.000
  137        0.000   0.000   0.000   0.000
  138        0.000   0.000   0.000   0.000
  139        0.000   0.000   0.000   0.000
  140       -0.000  -0.000   0.000  -0.000
  141       -0.000  -0.000   0.000  -0.000
  142        0.000  -0.000   0.000   0.000
  143       -0.000  -0.000   0.000  -0.000
  144        0.000   0.000   0.000   0.000
  145       -0.000   0.000   0.000   0.000
  146        0.000   0.000   0.000   0.000
  147        0.000   0.000   0.000   0.000
  148        0.000   0.000   0.000   0.000
  149        0.000   0.000   0.000   0.000
  150        0.000   0.000   0.000   0.000
  151        0.000   0.000   0.000   0.000
  152        0.000   0.000   0.000   0.000
  153        0.000   0.000   0.000   0.000
  154        0.000   0.000   0.000   0.000
  155        0.000   0.000   0.000   0.000
  156        0.000   0.000   0.000   0.000
  157        0.000   0.000   0.000   0.000
  158        0.000   0.000   0.000   0.000
  159        0.000   0.000   0.000   0.000
  160        0.000   0.000   0.000   0.000
  161        0.000   0.000   0.000   0.000
  162        0.000   0.000   0.000   0.000
  163       -0.000  -0.000   0.000  -0.000
  164        0.000  -0.000   0.000  -0.000
  165        0.000  -0.000   0.000  -0.000
  166       -0.000  -0.000   0.000  -0.000
  167        0.000   0.000   0.000   0.000
  168        0.000   0.000   0.000   0.000
  169        0.000   0.000   0.000   0.000
  170        0.000   0.000   0.000   0.000
  171        0.000   0.000   0.000   0.000
  172        0.000   0.000   0.000   0.000
  173        0.000   0.000   0.000   0.000
  174        0.000   0.000   0.000   0.000
  175        0.000   0.000   0.000   0.000
  176        0.000   0.000   0.000   0.000
  177        0.000   0.000   0.000   0.000
  178        0.000   0.000   0.000   0.000
  179        0.000   0.000   0.000   0.000
  180        0.000   0.000   0.000   0.000
  181        0.000   0.000   0.000   0.000
  182        0.000   0.000   0.000   0.000
  183        0.000   0.000   0.000   0.000
  184       -0.000  -0.000   0.000  -0.000
  185        0.000   0.000   0.000   0.000
  186       -0.000  -0.000   0.000  -0.000
  187       -0.000  -0.000   0.000  -0.000
  188        0.000  -0.000   0.000  -0.000
  189       -0.000  -0.000   0.000  -0.000
  190        0.000   0.000   0.000   0.000
  191        0.000   0.000   0.000   0.000
  192        0.000   0.000   0.000   0.000
  193        0.000   0.000   0.000   0.000
  194        0.000   0.000   0.000   0.000
  195        0.000   0.000   0.000   0.000
  196        0.000   0.000   0.000   0.000
  197        0.000   0.000   0.000   0.000
  198        0.000   0.000   0.000   0.000
  199        0.000   0.000   0.000   0.000
  200       -0.000  -0.000   0.000  -0.000
  201        0.000   0.000   0.000   0.000
  202        0.000  -0.000   0.000  -0.000
  203        0.000   0.000   0.000   0.000
  204       -0.000   0.000   0.000   0.000
  205        0.000   0.000   0.000   0.000
  206       -0.000  -0.000   0.000  -0.000
  207        0.000  -0.000   0.000   0.000
  208       -0.000  -0.000   0.000  -0.000
  209        0.000  -0.000   0.000  -0.000
  210        0.000  -0.000   0.000  -0.000
  211       -0.000  -0.000   0.000  -0.000
  212        0.000   0.000   0.000   0.000
  213        0.000   0.000   0.000   0.000
  214        0.000   0.000   0.000   0.000
  215        0.000   0.000   0.000   0.000
  216        0.000   0.000   0.000   0.000
  217        0.000   0.000   0.000   0.000
  218        0.000   0.000   0.000   0.000
  219        0.000   0.000   0.000   0.000
  220        0.000  -0.000   0.000   0.000
  221        0.000   0.000   0.000   0.000
  222       -0.000  -0.000   0.000  -0.000
  223       -0.000  -0.000   0.000  -0.000
  224       -0.000  -0.000   0.000  -0.000
  225       -0.000  -0.000   0.000  -0.000
  226       -0.000  -0.000   0.000  -0.000
  227       -0.000  -0.000   0.000  -0.000
  228       -0.000  -0.000   0.000  -0.000
  229       -0.000  -0.000   0.000  -0.000
  230       -0.000  -0.000   0.000  -0.000
  231       -0.000  -0.000   0.000  -0.000
  232       -0.000  -0.000   0.000  -0.000
  233       -0.000  -0.000   0.000  -0.000
  234        0.000   0.000   0.000   0.000
  235        0.000   0.000   0.000   0.000
  236        0.000   0.000   0.000   0.000
  237        0.000   0.000   0.000   0.000
  238        0.000   0.000   0.000   0.000
  239        0.000   0.000   0.000   0.000
  240        0.000   0.000   0.000   0.000
  241        0.000   0.000   0.000   0.000
  242        0.000  -0.000   0.000  -0.000
  243        0.000  -0.000   0.000  -0.000
  244       -0.000  -0.000   0.000  -0.000
  245       -0.000  -0.000   0.000  -0.000
  246       -0.000  -0.000   0.000  -0.000
  247       -0.000  -0.000   0.000  -0.000
  248       -0.000  -0.000   0.000  -0.000
  249       -0.000  -0.000   0.000  -0.000
  250       -0.000  -0.000   0.000  -0.000
  251       -0.000  -0.000   0.000  -0.000
  252       -0.000  -0.000   0.000  -0.000
  253       -0.000  -0.000   0.000  -0.000
  254       -0.000  -0.000   0.000  -0.000
  255       -0.000  -0.000   0.000  -0.000
  256        0.000   0.000   0.000   0.000
  257       -0.000   0.000   0.000   0.000
  258        0.000   0.000   0.000   0.000
  259        0.000   0.000   0.000   0.000
  260        0.000   0.000   0.000   0.000
  261        0.000   0.000   0.000   0.000
  262        0.000   0.000   0.000   0.000
  263        0.000   0.000   0.000   0.000
  264        0.000   0.000   0.000   0.000
  265        0.000  -0.000   0.000   0.000
  266       -0.000  -0.000   0.000  -0.000
  267       -0.000  -0.000   0.000  -0.000
  268       -0.000  -0.000   0.000  -0.000
  269       -0.000  -0.000   0.000  -0.000
  270       -0.000  -0.000   0.000  -0.000
  271       -0.000  -0.000   0.000  -0.000
  272       -0.000  -0.000   0.000  -0.000
  273       -0.000  -0.000   0.000  -0.000
  274       -0.000  -0.000   0.000  -0.000
  275       -0.000  -0.000   0.000  -0.000
  276       -0.000  -0.000   0.000  -0.000
  277       -0.000  -0.000   0.000  -0.000
  278       -0.000  -0.000   0.000  -0.000
  279       -0.000  -0.000   0.000  -0.000
  280        0.000   0.000   0.000   0.000
  281        0.000   0.000   0.000   0.000
  282        0.000   0.000   0.000   0.000
  283        0.000   0.000   0.000   0.000
  284        0.000   0.000   0.000   0.000
  285        0.000   0.000   0.000   0.000
  286        0.000   0.000   0.000   0.000
  287        0.000   0.000   0.000   0.000
  288       -0.000  -0.000   0.000  -0.000
  289       -0.000  -0.000   0.000  -0.000
  290       -0.000  -0.000   0.000  -0.000
  291       -0.000  -0.000   0.000  -0.000
  292       -0.000  -0.000   0.000  -0.000
  293       -0.000  -0.000   0.000  -0.000
  294       -0.000  -0.000   0.000  -0.000
  295       -0.000  -0.000   0.000  -0.000
  296       -0.000  -0.000   0.000  -0.000
  297       -0.000  -0.000   0.000  -0.000
  298       -0.000  -0.000   0.000  -0.000
  299       -0.000  -0.000   0.000  -0.000
  300       -0.000  -0.000   0.000  -0.000
  301       -0.000  -0.000   0.000  -0.000
  302       -0.000  -0.000   0.000  -0.000
  303       -0.000  -0.000   0.000  -0.000
  304        0.000   0.000   0.000   0.000
  305        0.000   0.000   0.000   0.000
  306        0.000   0.000   0.000   0.000
  307        0.000   0.000   0.000   0.000
  308        0.000   0.000   0.000   0.000
  309        0.000   0.000   0.000   0.000
  310       -0.000  -0.000   0.000  -0.000
  311       -0.000  -0.000   0.000  -0.000
  312       -0.000  -0.000   0.000  -0.000
  313       -0.000  -0.000   0.000  -0.000
  314       -0.000  -0.000   0.000  -0.000
  315       -0.000  -0.000   0.000  -0.000
  316       -0.000  -0.000   0.000  -0.000
  317       -0.000  -0.000   0.000  -0.000
  318       -0.000  -0.000   0.000  -0.000
  319       -0.000  -0.000   0.000  -0.000
  320       -0.000  -0.000   0.000  -0.000
  321       -0.000  -0.000   0.000  -0.000
  322       -0.000  -0.000   0.000  -0.000
  323       -0.000  -0.000   0.000  -0.000
  324       -0.000  -0.000   0.000  -0.000
  325        0.000  -0.000   0.000  -0.000
  326        0.000   0.000   0.000   0.000
  327        0.000   0.000   0.000   0.000
  328        0.000   0.000   0.000   0.000
  329       -0.000  -0.000   0.000  -0.000
  330       -0.000  -0.000   0.000  -0.000
  331       -0.000  -0.000   0.000  -0.000
  332       -0.000  -0.000   0.000  -0.000
  333       -0.000  -0.000   0.000  -0.000
  334       -0.000  -0.000   0.000  -0.000
  335       -0.000  -0.000   0.000  -0.000
  336       -0.000  -0.000   0.000  -0.000
  337       -0.000  -0.000   0.000  -0.000
  338       -0.000  -0.000   0.000  -0.000
  339       -0.000  -0.000   0.000  -0.000
  340       -0.000  -0.000   0.000  -0.000
  341       -0.000  -0.000   0.000  -0.000
  342       -0.000  -0.000   0.000  -0.000
  343        0.000   0.000   0.000   0.000
  344       -0.000  -0.000   0.000  -0.000
  345       -0.000  -0.000   0.000  -0.000
  346       -0.000  -0.000   0.000  -0.000
  347       -0.000  -0.000   0.000  -0.000
  348       -0.000  -0.000   0.000  -0.000
  349       -0.000  -0.000   0.000  -0.000
  350       -0.000  -0.000   0.000  -0.000
  351       -0.000  -0.000   0.000  -0.000
  352       -0.000  -0.000   0.000  -0.000
  353       -0.000  -0.000   0.000  -0.000
  354       -0.000  -0.000   0.000  -0.000
  355       -0.000  -0.000   0.000  -0.000
  356       -0.000  -0.000   0.000  -0.000
  357       -0.000  -0.000   0.000  -0.000
  358       -0.000  -0.000   0.000  -0.000
  359       -0.000  -0.000   0.000  -0.000
  360       -0.000  -0.000   0.000  -0.000
  361       -0.000  -0.000   0.000  -0.000
  362       -0.000  -0.000   0.000  -0.000
  363       -0.000  -0.000   0.000  -0.000
  364       -0.000  -0.000   0.000  -0.000
  365        0.000   0.000   0.000   0.000
--------------------------------------------------
tot          0.000   0.000   0.000   0.000
 
    CHARGE:  cpu time      4.1472: real time      4.1534
    FORLOC:  cpu time      0.6243: real time      0.6244
    FORNL :  cpu time     87.1268: real time     87.1345
    STRESS:  cpu time    320.7985: real time    320.8226
    FORCOR:  cpu time      1.2988: real time      1.2989
    FORHAR:  cpu time      0.7759: real time      0.7759
    MIXING:  cpu time      0.1142: real time      0.1142
    OFIELD:  cpu time      0.0001: real time      0.0001

 ---------------------------------------------------------------------------------------------

         DFTD3 V3.0 Rev 1        
 IVDW         = 11
 DF pbe       
 parameters
 VDW_S6       =    1.0000
 VDW_S8       =    0.7220
 VDW_SR       =    1.2170
 rs18     =    1.0000
 alpha6   =   14.0000
 alpha8   =   16.0000
 k1-k3    =   16.0000    1.3333   -4.0000
 VDW_RADIUS   =   50.2022 A
 VDW_CNRADIUS =   21.1671 A
 Edisp (eV)  -14.08311

 E6    (eV) :    -8.0813
 E8    (eV) :    -6.0019
 % E8        : 42.62
    FORVDW:  cpu time      2.5929: real time      2.5954

  FORCE on cell =-STRESS in cart. coord.  units (eV):
  Direction    XX          YY          ZZ          XY          YZ          ZX
  --------------------------------------------------------------------------------------
  Alpha Z   418.83068   418.83068   418.83068
  Ewald  ************202121.79981514303.32220   427.78955   -16.90338     2.38425
  Hartree************226393.76653507370.70615   371.29447    -5.40659     0.77444
  E(xc)   -5437.72559 -5439.34961 -5335.94672     0.25627    -0.09298     0.01268
  Local  458087.36519************************  -794.29083    17.63503    -2.46560
  n-local -1172.20570 -1170.14397 -1246.79243    -0.31543     0.80957    -0.12576
  augment  -137.34290  -138.91960  -144.43958     0.24480    -0.33106     0.04967
  Kinetic 23452.32003 23482.39073 22091.34174    -4.71818     4.29532    -0.59060
  Fock        0.00000     0.00000     0.00000     0.00000     0.00000     0.00000
  vdW        -3.05829    -3.18593    -2.39939    -0.00056    -0.00491     0.00081
  -------------------------------------------------------------------------------------
  Total     -43.73090   -45.27581   127.94926     0.26009     0.00099     0.03989
  in kB      -2.68601    -2.78090     7.85882     0.01598     0.00006     0.00245
  external pressure =        0.80 kB  Pullay stress =        0.00 kB


 VOLUME and BASIS-vectors are now :
 -----------------------------------------------------------------------------
  energy-cutoff  :      400.00
  volume of cell :    26085.03
      direct lattice vectors                 reciprocal lattice vectors
    32.372299194  0.000000000  0.000000000     0.030890608  0.000000000  0.000000000
     0.000000000 19.921413422  0.000000000     0.000000000  0.050197241  0.000000000
     0.000000000  0.000000000 40.448047638     0.000000000  0.000000000  0.024723072

  length of vectors
    32.372299194 19.921413422 40.448047638     0.030890608  0.050197241  0.024723072


 FORCES acting on ions
    electron-ion (+dipol)            ewald-force                    non-local-force                 convergence-correction
 -----------------------------------------------------------------------------------------------
   -.416E+03 -.205E+03 0.627E+00   0.416E+03 0.206E+03 -.621E+00   -.286E+00 -.126E+00 -.963E-02   0.424E-05 0.120E-05 0.338E-06
   -.407E+03 -.217E+03 0.115E+01   0.407E+03 0.217E+03 -.114E+01   -.282E+00 -.136E+00 -.808E-02   0.431E-05 0.144E-05 0.105E-05
   -.285E+03 -.313E+03 0.287E+00   0.285E+03 0.313E+03 -.295E+00   -.144E+00 -.278E+00 0.706E-02   0.291E-05 0.173E-05 0.189E-05
   -.206E+03 -.347E+03 0.767E+00   0.206E+03 0.348E+03 -.758E+00   -.169E+00 -.262E+00 -.119E-01   0.159E-05 0.173E-05 0.755E-06
   -.309E+02 -.378E+03 -.373E-01   0.309E+02 0.379E+03 0.300E-01   0.217E-01 -.313E+00 0.112E-01   -.796E-07 0.144E-05 0.992E-06
   -.397E+03 -.227E+03 0.175E+01   0.398E+03 0.227E+03 -.175E+01   -.280E+00 -.145E+00 -.425E-02   0.402E-05 0.234E-05 0.233E-05
   -.271E+03 -.320E+03 0.793E+00   0.271E+03 0.320E+03 -.800E+00   -.135E+00 -.283E+00 0.710E-02   0.221E-05 0.262E-05 0.290E-05
   -.190E+03 -.352E+03 0.133E+01   0.190E+03 0.353E+03 -.132E+01   -.159E+00 -.270E+00 -.144E-01   0.154E-05 0.211E-05 0.235E-05
   -.136E+02 -.379E+03 0.461E+00   0.136E+02 0.379E+03 -.468E+00   0.342E-01 -.311E+00 0.146E-01   0.223E-06 0.177E-05 0.190E-05
   0.792E+02 -.375E+03 0.956E+00   -.792E+02 0.375E+03 -.950E+00   0.826E-02 -.312E+00 -.902E-02   -.623E-06 0.162E-05 0.154E-05
   0.248E+03 -.331E+03 0.146E+00   -.249E+03 0.332E+03 -.156E+00   0.193E+00 -.247E+00 0.918E-02   -.181E-05 0.153E-05 0.128E-05
   0.322E+03 -.291E+03 0.657E+00   -.323E+03 0.291E+03 -.648E+00   0.169E+00 -.266E+00 -.973E-02   -.298E-05 0.108E-05 0.547E-06
   0.431E+03 -.185E+03 -.801E-01   -.431E+03 0.185E+03 0.733E-01   0.293E+00 -.109E+00 0.964E-02   -.360E-05 0.115E-05 0.875E-06
   -.387E+03 -.238E+03 0.271E+01   0.387E+03 0.238E+03 -.270E+01   -.272E+00 -.155E+00 -.756E-02   0.327E-05 0.319E-05 0.420E-05
   -.257E+03 -.327E+03 0.150E+01   0.257E+03 0.327E+03 -.150E+01   -.123E+00 -.288E+00 0.522E-02   0.202E-05 0.269E-05 0.404E-05
   -.174E+03 -.357E+03 0.193E+01   0.174E+03 0.357E+03 -.192E+01   -.152E+00 -.274E+00 -.159E-01   0.151E-05 0.243E-05 0.406E-05
   0.393E+01 -.379E+03 0.898E+00   -.398E+01 0.380E+03 -.906E+00   0.423E-01 -.310E+00 0.160E-01   0.245E-06 0.223E-05 0.408E-05
   0.964E+02 -.372E+03 0.140E+01   -.964E+02 0.373E+03 -.139E+01   0.158E-01 -.314E+00 -.712E-02   -.459E-06 0.208E-05 0.290E-05
   0.263E+03 -.325E+03 0.508E+00   -.263E+03 0.325E+03 -.517E+00   0.199E+00 -.238E+00 0.837E-02   -.225E-05 0.193E-05 0.246E-05
   0.335E+03 -.282E+03 0.105E+01   -.335E+03 0.282E+03 -.104E+01   0.178E+00 -.258E+00 -.105E-01   -.324E-05 0.139E-05 0.183E-05
   0.438E+03 -.173E+03 0.280E+00   -.438E+03 0.173E+03 -.287E+00   0.295E+00 -.972E-01 0.117E-01   -.403E-05 0.123E-05 0.129E-05
   0.469E+03 -.105E+03 0.801E+00   -.470E+03 0.105E+03 -.794E+00   0.289E+00 -.126E+00 -.113E-01   -.423E-05 0.817E-06 0.126E-05
   0.485E+03 0.355E+02 0.100E+00   -.485E+03 -.355E+02 -.110E+00   0.306E+00 0.704E-01 0.119E-01   -.419E-05 0.268E-06 0.105E-05
   0.468E+03 0.108E+03 0.623E+00   -.469E+03 -.108E+03 -.613E+00   0.311E+00 0.433E-01 -.871E-02   -.389E-05 -.864E-06 0.388E-06
   0.392E+03 0.232E+03 -.329E-01   -.393E+03 -.232E+03 0.260E-01   0.219E+00 0.219E+00 0.730E-02   -.336E-05 -.107E-05 0.932E-06
   -.376E+03 -.248E+03 0.396E+01   0.376E+03 0.248E+03 -.396E+01   -.265E+00 -.163E+00 -.772E-02   0.297E-05 0.254E-05 0.511E-05
   -.241E+03 -.334E+03 0.223E+01   0.241E+03 0.334E+03 -.224E+01   -.117E+00 -.295E+00 0.731E-02   0.157E-05 0.249E-05 0.442E-05
   -.158E+03 -.362E+03 0.254E+01   0.158E+03 0.362E+03 -.253E+01   -.145E+00 -.280E+00 -.130E-01   0.116E-05 0.225E-05 0.435E-05
   0.216E+02 -.379E+03 0.127E+01   -.217E+02 0.380E+03 -.128E+01   0.568E-01 -.311E+00 0.162E-01   -.150E-06 0.227E-05 0.441E-05
   0.114E+03 -.370E+03 0.191E+01   -.114E+03 0.370E+03 -.191E+01   0.270E-01 -.314E+00 -.572E-02   -.118E-06 0.238E-05 0.442E-05
   0.277E+03 -.318E+03 0.938E+00   -.278E+03 0.318E+03 -.945E+00   0.210E+00 -.229E+00 0.610E-02   -.198E-05 0.247E-05 0.399E-05
   0.347E+03 -.273E+03 0.141E+01   -.347E+03 0.274E+03 -.140E+01   0.189E+00 -.250E+00 -.135E-01   -.308E-05 0.237E-05 0.334E-05
   0.445E+03 -.161E+03 0.602E+00   -.446E+03 0.161E+03 -.610E+00   0.302E+00 -.891E-01 0.145E-01   -.445E-05 0.163E-05 0.274E-05
   0.474E+03 -.915E+02 0.114E+01   -.474E+03 0.916E+02 -.113E+01   0.291E+00 -.115E+00 -.988E-02   -.466E-05 0.860E-06 0.184E-05
   0.483E+03 0.489E+02 0.432E+00   -.483E+03 -.490E+02 -.442E+00   0.304E+00 0.822E-01 0.965E-02   -.459E-05 -.312E-06 0.198E-05
   0.464E+03 0.121E+03 0.967E+00   -.464E+03 -.121E+03 -.957E+00   0.307E+00 0.540E-01 -.832E-02   -.420E-05 -.110E-05 0.158E-05
   0.382E+03 0.242E+03 0.329E+00   -.383E+03 -.243E+03 -.336E+00   0.214E+00 0.228E+00 0.917E-02   -.331E-05 -.145E-05 0.124E-05
   0.320E+03 0.294E+03 0.823E+00   -.320E+03 -.294E+03 -.815E+00   0.235E+00 0.209E+00 -.139E-01   -.245E-05 -.168E-05 0.108E-05
   0.166E+03 0.359E+03 0.218E+00   -.166E+03 -.359E+03 -.228E+00   0.633E-01 0.307E+00 0.148E-01   -.141E-05 -.126E-05 0.111E-05
   0.757E+02 0.375E+03 0.693E+00   -.758E+02 -.376E+03 -.685E+00   0.874E-01 0.300E+00 -.795E-02   -.400E-06 -.128E-05 0.378E-06
   -.105E+03 0.371E+03 0.985E-02   0.106E+03 -.372E+03 -.180E-01   -.109E+00 0.294E+00 0.722E-02   0.705E-06 -.141E-05 0.100E-05
   -.414E+03 -.202E+03 0.741E+01   0.415E+03 0.202E+03 -.741E+01   -.275E+00 -.219E+00 -.321E-02   0.455E-05 -.536E-06 0.841E-05
   -.364E+03 -.259E+03 0.604E+01   0.364E+03 0.260E+03 -.603E+01   -.264E+00 -.175E+00 -.633E-02   0.377E-05 0.824E-06 0.543E-05
   -.225E+03 -.341E+03 0.287E+01   0.225E+03 0.341E+03 -.288E+01   -.104E+00 -.323E+00 0.109E-01   0.100E-05 0.223E-05 0.466E-05
   -.140E+03 -.366E+03 0.350E+01   0.141E+03 0.366E+03 -.349E+01   -.133E+00 -.286E+00 -.198E-01   0.831E-06 0.172E-05 0.390E-05
   0.394E+02 -.379E+03 0.184E+01   -.394E+02 0.379E+03 -.185E+01   0.748E-01 -.308E+00 0.126E-01   -.615E-06 0.194E-05 0.456E-05
   0.131E+03 -.367E+03 0.222E+01   -.131E+03 0.368E+03 -.221E+01   0.405E-01 -.309E+00 -.780E-02   -.130E-06 0.221E-05 0.449E-05
   0.292E+03 -.311E+03 0.127E+01   -.292E+03 0.311E+03 -.128E+01   0.215E+00 -.223E+00 0.844E-02   -.217E-05 0.260E-05 0.463E-05
   0.359E+03 -.264E+03 0.168E+01   -.359E+03 0.264E+03 -.167E+01   0.196E+00 -.243E+00 -.154E-01   -.289E-05 0.303E-05 0.444E-05
   0.452E+03 -.149E+03 0.907E+00   -.452E+03 0.149E+03 -.917E+00   0.303E+00 -.760E-01 0.166E-01   -.448E-05 0.213E-05 0.384E-05
   0.477E+03 -.783E+02 0.148E+01   -.478E+03 0.784E+02 -.148E+01   0.293E+00 -.104E+00 -.683E-02   -.496E-05 0.140E-05 0.331E-05
   0.481E+03 0.623E+02 0.731E+00   -.481E+03 -.624E+02 -.740E+00   0.300E+00 0.952E-01 0.675E-02   -.492E-05 -.521E-06 0.268E-05
   0.459E+03 0.134E+03 0.125E+01   -.459E+03 -.134E+03 -.124E+01   0.307E+00 0.653E-01 -.960E-02   -.475E-05 -.103E-05 0.240E-05
   0.372E+03 0.252E+03 0.624E+00   -.372E+03 -.253E+03 -.632E+00   0.208E+00 0.236E+00 0.124E-01   -.318E-05 -.194E-05 0.262E-05
   0.307E+03 0.302E+03 0.123E+01   -.307E+03 -.302E+03 -.122E+01   0.226E+00 0.216E+00 -.135E-01   -.204E-05 -.219E-05 0.188E-05
   0.150E+03 0.363E+03 0.694E+00   -.150E+03 -.363E+03 -.704E+00   0.504E-01 0.308E+00 0.129E-01   -.701E-06 -.182E-05 0.262E-05
   0.588E+02 0.377E+03 0.112E+01   -.589E+02 -.377E+03 -.111E+01   0.782E-01 0.304E+00 -.634E-02   0.226E-06 -.158E-05 0.182E-05
   -.122E+03 0.368E+03 0.508E+00   0.122E+03 -.369E+03 -.514E+00   -.120E+00 0.289E+00 0.831E-02   0.119E-05 -.158E-05 0.181E-05
   -.209E+03 0.345E+03 0.924E+00   0.209E+03 -.346E+03 -.917E+00   -.922E-01 0.298E+00 -.137E-01   0.192E-05 -.161E-05 0.143E-05
   -.353E+03 0.269E+03 0.247E+00   0.353E+03 -.269E+03 -.256E+00   -.253E+00 0.184E+00 0.160E-01   0.308E-05 -.189E-05 0.119E-05
   -.409E+03 0.213E+03 0.726E+00   0.409E+03 -.213E+03 -.719E+00   -.234E+00 0.203E+00 -.737E-02   0.411E-05 -.124E-05 0.689E-06
   -.475E+03 0.851E+02 -.518E-01   0.476E+03 -.852E+02 0.437E-01   -.313E+00 0.228E-01 0.636E-02   0.443E-05 -.883E-06 0.571E-06
   -.402E+03 -.220E+03 0.107E+02   0.403E+03 0.220E+03 -.107E+02   -.451E+00 -.376E+00 0.276E-01   0.126E-05 0.165E-05 0.650E-05
   -.349E+03 -.273E+03 0.101E+02   0.349E+03 0.273E+03 -.100E+02   -.244E+00 -.177E+00 -.865E-01   0.358E-05 0.613E-06 0.588E-05
   -.208E+03 -.347E+03 0.417E+01   0.208E+03 0.347E+03 -.417E+01   -.676E-01 -.311E+00 0.110E-01   0.242E-05 0.702E-06 0.861E-05
   -.123E+03 -.369E+03 0.379E+01   0.123E+03 0.369E+03 -.376E+01   -.118E+00 -.285E+00 -.302E-01   0.363E-06 0.110E-05 0.503E-05
   0.574E+02 -.378E+03 0.206E+01   -.575E+02 0.378E+03 -.207E+01   0.628E-01 -.289E+00 0.108E-01   -.118E-05 0.175E-05 0.516E-05
   0.148E+03 -.364E+03 0.213E+01   -.148E+03 0.364E+03 -.212E+01   0.417E-01 -.306E+00 -.705E-02   0.487E-06 0.230E-05 0.486E-05
   0.305E+03 -.304E+03 0.134E+01   -.306E+03 0.304E+03 -.135E+01   0.221E+00 -.218E+00 0.106E-01   -.148E-05 0.314E-05 0.293E-05
   0.371E+03 -.255E+03 0.202E+01   -.371E+03 0.255E+03 -.201E+01   0.202E+00 -.240E+00 -.125E-01   -.221E-05 0.373E-05 0.409E-05
   0.458E+03 -.137E+03 0.123E+01   -.459E+03 0.137E+03 -.124E+01   0.307E+00 -.652E-01 0.160E-01   -.409E-05 0.260E-05 0.316E-05
   0.480E+03 -.650E+02 0.173E+01   -.481E+03 0.651E+02 -.173E+01   0.299E+00 -.918E-01 -.454E-02   -.485E-05 0.203E-05 0.391E-05
   0.478E+03 0.756E+02 0.935E+00   -.478E+03 -.757E+02 -.944E+00   0.296E+00 0.104E+00 0.730E-02   -.482E-05 -.816E-06 0.398E-05
   0.453E+03 0.146E+03 0.156E+01   -.453E+03 -.146E+03 -.155E+01   0.304E+00 0.748E-01 -.150E-01   -.458E-05 -.193E-05 0.342E-05
   0.361E+03 0.262E+03 0.930E+00   -.362E+03 -.262E+03 -.936E+00   0.198E+00 0.244E+00 0.117E-01   -.257E-05 -.298E-05 0.440E-05
   0.294E+03 0.309E+03 0.158E+01   -.294E+03 -.310E+03 -.157E+01   0.222E+00 0.223E+00 -.102E-01   -.148E-05 -.292E-05 0.348E-05
   0.134E+03 0.366E+03 0.107E+01   -.134E+03 -.367E+03 -.108E+01   0.433E-01 0.307E+00 0.847E-02   -.167E-06 -.227E-05 0.342E-05
   0.420E+02 0.378E+03 0.154E+01   -.420E+02 -.378E+03 -.153E+01   0.694E-01 0.309E+00 -.792E-02   -.729E-07 -.200E-05 0.330E-05
   -.138E+03 0.365E+03 0.106E+01   0.138E+03 -.366E+03 -.107E+01   -.127E+00 0.285E+00 0.102E-01   0.885E-06 -.198E-05 0.250E-05
   -.224E+03 0.340E+03 0.147E+01   0.224E+03 -.340E+03 -.146E+01   -.104E+00 0.295E+00 -.158E-01   0.194E-05 -.195E-05 0.218E-05
   -.364E+03 0.260E+03 0.877E+00   0.364E+03 -.260E+03 -.886E+00   -.261E+00 0.175E+00 0.155E-01   0.320E-05 -.220E-05 0.193E-05
   -.417E+03 0.202E+03 0.122E+01   0.418E+03 -.202E+03 -.122E+01   -.241E+00 0.196E+00 -.627E-02   0.431E-05 -.118E-05 0.156E-05
   -.478E+03 0.720E+02 0.466E+00   0.479E+03 -.720E+02 -.473E+00   -.313E+00 0.149E-01 0.697E-02   0.463E-05 -.877E-06 0.178E-05
   -.486E+03 -.208E+01 0.905E+00   0.487E+03 0.204E+01 -.897E+00   -.313E+00 0.414E-01 -.147E-01   0.464E-05 0.258E-06 0.103E-05
   -.455E+03 -.140E+03 0.116E+00   0.455E+03 0.140E+03 -.124E+00   -.273E+00 -.151E+00 0.142E-01   0.462E-05 0.737E-06 0.667E-06
   -.371E+03 -.227E+03 0.524E+01   0.371E+03 0.227E+03 -.526E+01   0.192E+00 -.405E+00 0.204E-01   -.787E-06 0.288E-05 0.167E-05
   -.322E+03 -.279E+03 0.943E+01   0.322E+03 0.279E+03 -.943E+01   -.181E+00 -.193E+00 -.112E-01   -.442E-05 0.579E-05 0.127E-05
   -.184E+03 -.347E+03 0.363E+01   0.185E+03 0.347E+03 -.365E+01   -.880E-01 -.219E+00 0.305E-01   0.171E-06 0.162E-05 0.950E-05
   -.103E+03 -.370E+03 0.224E+01   0.103E+03 0.371E+03 -.226E+01   -.118E+00 -.259E+00 0.840E-02   0.403E-05 -.164E-07 0.119E-04
   0.754E+02 -.377E+03 0.118E+01   -.754E+02 0.377E+03 -.119E+01   0.684E-01 -.290E+00 0.122E-01   0.247E-05 0.140E-05 0.538E-05
   0.165E+03 -.361E+03 0.234E+01   -.165E+03 0.361E+03 -.234E+01   0.467E-01 -.311E+00 -.431E-02   0.325E-05 0.308E-05 0.491E-05
   0.320E+03 -.297E+03 0.136E+01   -.320E+03 0.297E+03 -.137E+01   0.241E+00 -.213E+00 0.127E-01   0.444E-06 0.434E-05 0.311E-05
   0.382E+03 -.245E+03 0.219E+01   -.382E+03 0.245E+03 -.218E+01   0.213E+00 -.228E+00 -.910E-02   -.126E-05 0.471E-05 0.259E-05
   0.464E+03 -.124E+03 0.127E+01   -.464E+03 0.124E+03 -.128E+01   0.306E+00 -.567E-01 0.151E-01   -.405E-05 0.220E-05 0.225E-05
   0.483E+03 -.516E+02 0.193E+01   -.484E+03 0.516E+02 -.192E+01   0.302E+00 -.840E-01 -.538E-02   -.461E-05 0.150E-05 0.252E-05
   0.475E+03 0.888E+02 0.114E+01   -.475E+03 -.889E+02 -.115E+01   0.290E+00 0.115E+00 0.765E-02   -.444E-05 -.195E-05 0.369E-05
   0.447E+03 0.159E+03 0.186E+01   -.447E+03 -.159E+03 -.185E+01   0.301E+00 0.867E-01 -.130E-01   -.408E-05 -.263E-05 0.361E-05
   0.350E+03 0.271E+03 0.122E+01   -.350E+03 -.272E+03 -.122E+01   0.189E+00 0.252E+00 0.135E-01   -.218E-05 -.320E-05 0.347E-05
   0.281E+03 0.317E+03 0.179E+01   -.281E+03 -.317E+03 -.179E+01   0.209E+00 0.233E+00 -.422E-02   -.183E-05 -.275E-05 0.442E-05
   0.117E+03 0.370E+03 0.128E+01   -.117E+03 -.370E+03 -.129E+01   0.304E-01 0.313E+00 0.901E-02   -.238E-06 -.208E-05 0.424E-05
   0.252E+02 0.379E+03 0.208E+01   -.252E+02 -.380E+03 -.206E+01   0.588E-01 0.312E+00 -.135E-01   -.635E-07 -.220E-05 0.383E-05
   -.154E+03 0.362E+03 0.170E+01   0.155E+03 -.363E+03 -.171E+01   -.138E+00 0.281E+00 0.812E-02   0.436E-06 -.253E-05 0.374E-05
   -.239E+03 0.334E+03 0.201E+01   0.239E+03 -.335E+03 -.200E+01   -.112E+00 0.292E+00 -.149E-01   0.158E-05 -.266E-05 0.317E-05
   -.375E+03 0.250E+03 0.156E+01   0.375E+03 -.250E+03 -.157E+01   -.266E+00 0.167E+00 0.142E-01   0.328E-05 -.268E-05 0.237E-05
   -.426E+03 0.191E+03 0.178E+01   0.426E+03 -.191E+03 -.178E+01   -.249E+00 0.188E+00 -.560E-02   0.444E-05 -.165E-05 0.189E-05
   -.481E+03 0.588E+02 0.109E+01   0.481E+03 -.588E+02 -.110E+01   -.314E+00 0.429E-02 0.938E-02   0.500E-05 -.855E-06 0.144E-05
   -.486E+03 -.156E+02 0.151E+01   0.486E+03 0.156E+02 -.150E+01   -.312E+00 0.291E-01 -.156E-01   0.503E-05 -.261E-06 0.165E-05
   -.449E+03 -.152E+03 0.692E+00   0.449E+03 0.152E+03 -.700E+00   -.269E+00 -.161E+00 0.160E-01   0.491E-05 0.650E-06 0.170E-05
   -.356E+03 -.237E+03 -.720E+01   0.356E+03 0.237E+03 0.731E+01   -.238E+00 -.325E+00 -.943E-01   0.863E-06 0.473E-05 -.172E-05
   -.302E+03 -.284E+03 -.779E+01   0.302E+03 0.284E+03 0.770E+01   -.255E+00 -.255E+00 0.888E-01   -.178E-05 0.338E-05 0.757E-06
   -.169E+03 -.350E+03 -.262E+01   0.169E+03 0.351E+03 0.260E+01   -.556E-01 -.299E+00 0.252E-01   -.211E-05 0.269E-05 -.502E-05
   -.833E+02 -.373E+03 0.108E+01   0.834E+02 0.373E+03 -.109E+01   -.127E+00 -.246E+00 0.128E-03   0.675E-05 -.557E-06 0.816E-06
   0.927E+02 -.377E+03 0.331E+00   -.928E+02 0.377E+03 -.354E+00   0.125E+00 -.333E+00 0.242E-01   0.957E-05 0.915E-06 0.308E-05
   0.182E+03 -.358E+03 0.183E+01   -.182E+03 0.358E+03 -.183E+01   0.680E-01 -.304E+00 -.514E-03   0.617E-05 0.328E-05 0.412E-05
   0.334E+03 -.289E+03 0.683E+00   -.334E+03 0.289E+03 -.692E+00   0.241E+00 -.209E+00 0.164E-01   0.115E-05 0.462E-05 0.311E-05
   0.394E+03 -.235E+03 0.176E+01   -.394E+03 0.235E+03 -.176E+01   0.215E+00 -.222E+00 -.415E-02   -.538E-06 0.571E-05 0.350E-05
   0.470E+03 -.111E+03 0.838E+00   -.470E+03 0.111E+03 -.847E+00   0.312E+00 -.420E-01 0.110E-01   -.386E-05 0.182E-05 0.326E-05
   0.486E+03 -.381E+02 0.197E+01   -.486E+03 0.381E+02 -.196E+01   0.304E+00 -.753E-01 -.609E-02   -.445E-05 0.706E-06 0.195E-05
   0.472E+03 0.102E+03 0.124E+01   -.472E+03 -.102E+03 -.124E+01   0.286E+00 0.125E+00 0.779E-02   -.400E-05 -.299E-05 0.210E-05
   0.440E+03 0.171E+03 0.186E+01   -.441E+03 -.171E+03 -.186E+01   0.292E+00 0.101E+00 -.120E-01   -.399E-05 -.257E-05 0.290E-05
   0.339E+03 0.281E+03 0.124E+01   -.339E+03 -.281E+03 -.125E+01   0.181E+00 0.259E+00 0.199E-01   -.198E-05 -.297E-05 0.354E-05
   0.267E+03 0.324E+03 0.207E+01   -.267E+03 -.324E+03 -.206E+01   0.200E+00 0.237E+00 -.682E-02   -.157E-05 -.260E-05 0.318E-05
   0.101E+03 0.373E+03 0.162E+01   -.101E+03 -.373E+03 -.162E+01   0.161E-01 0.320E+00 0.300E-02   0.772E-06 -.233E-05 0.389E-05
   0.862E+01 0.380E+03 0.232E+01   -.867E+01 -.380E+03 -.231E+01   0.468E-01 0.316E+00 -.140E-01   0.145E-06 -.232E-05 0.417E-05
   -.170E+03 0.359E+03 0.212E+01   0.170E+03 -.359E+03 -.212E+01   -.148E+00 0.275E+00 0.107E-01   0.626E-06 -.244E-05 0.473E-05
   -.253E+03 0.329E+03 0.258E+01   0.253E+03 -.329E+03 -.257E+01   -.123E+00 0.292E+00 -.102E-01   0.959E-06 -.337E-05 0.415E-05
   -.385E+03 0.241E+03 0.241E+01   0.385E+03 -.241E+03 -.243E+01   -.273E+00 0.160E+00 0.120E-01   0.295E-05 -.315E-05 0.348E-05
   -.433E+03 0.179E+03 0.264E+01   0.433E+03 -.179E+03 -.263E+01   -.254E+00 0.179E+00 -.127E-01   0.429E-05 -.252E-05 0.285E-05
   -.483E+03 0.456E+02 0.212E+01   0.483E+03 -.456E+02 -.212E+01   -.314E+00 -.658E-02 0.935E-02   0.516E-05 -.884E-06 0.242E-05
   -.485E+03 -.290E+02 0.223E+01   0.485E+03 0.290E+02 -.222E+01   -.313E+00 0.177E-01 -.144E-01   0.528E-05 0.542E-06 0.171E-05
   -.442E+03 -.164E+03 0.135E+01   0.442E+03 0.165E+03 -.136E+01   -.261E+00 -.169E+00 0.156E-01   0.461E-05 0.226E-05 0.339E-05
   -.373E+03 -.247E+03 -.104E+02   0.374E+03 0.248E+03 0.103E+02   -.271E+00 -.326E+00 0.220E-01   0.445E-05 -.837E-06 -.748E-05
   -.306E+03 -.296E+03 -.448E+01   0.306E+03 0.296E+03 0.454E+01   -.235E+00 -.239E+00 -.599E-01   0.325E-05 0.412E-06 0.675E-06
   -.157E+03 -.360E+03 -.239E+01   0.158E+03 0.360E+03 0.242E+01   -.985E-01 -.341E+00 -.209E-01   0.412E-05 -.337E-06 -.515E-05
   -.697E+02 -.373E+03 -.121E+01   0.698E+02 0.373E+03 0.123E+01   -.113E+00 -.343E+00 -.216E-01   0.563E-05 -.478E-06 -.645E-05
   0.110E+03 -.372E+03 -.131E+01   -.110E+03 0.372E+03 0.132E+01   0.785E-01 -.319E+00 -.133E-01   0.498E-05 0.150E-05 -.525E-05
   0.198E+03 -.353E+03 -.502E+00   -.199E+03 0.353E+03 0.502E+00   0.639E-01 -.303E+00 -.685E-02   0.811E-05 0.453E-05 -.545E-06
   0.347E+03 -.281E+03 -.693E+00   -.347E+03 0.281E+03 0.681E+00   0.282E+00 -.188E+00 0.186E-01   0.234E-05 0.517E-05 -.864E-07
   0.405E+03 -.225E+03 0.113E+01   -.405E+03 0.225E+03 -.113E+01   0.221E+00 -.213E+00 -.202E-02   -.700E-06 0.455E-05 0.158E-06
   0.475E+03 -.981E+02 0.307E+00   -.476E+03 0.981E+02 -.321E+00   0.313E+00 -.251E-01 0.130E-01   -.345E-05 0.150E-05 0.141E-05
   0.488E+03 -.247E+02 0.128E+01   -.488E+03 0.248E+02 -.127E+01   0.304E+00 -.545E-01 -.580E-02   -.410E-05 0.637E-06 0.327E-05
   0.468E+03 0.115E+03 0.607E+00   -.468E+03 -.115E+03 -.618E+00   0.279E+00 0.128E+00 0.143E-01   -.377E-05 -.216E-05 0.239E-05
   0.434E+03 0.183E+03 0.161E+01   -.434E+03 -.183E+03 -.160E+01   0.295E+00 0.106E+00 -.157E-01   -.327E-05 -.323E-05 0.249E-05
   0.328E+03 0.290E+03 0.126E+01   -.328E+03 -.290E+03 -.128E+01   0.168E+00 0.266E+00 0.194E-01   -.572E-06 -.412E-05 0.358E-05
   0.253E+03 0.331E+03 0.205E+01   -.254E+03 -.331E+03 -.205E+01   0.186E+00 0.244E+00 -.297E-02   -.478E-06 -.290E-05 0.344E-05
   0.846E+02 0.376E+03 0.165E+01   -.846E+02 -.376E+03 -.166E+01   0.207E-02 0.326E+00 0.745E-02   0.257E-05 -.217E-05 0.429E-05
   -.804E+01 0.381E+03 0.214E+01   0.801E+01 -.381E+03 -.214E+01   0.292E-01 0.314E+00 -.652E-02   0.499E-06 -.216E-05 0.495E-05
   -.185E+03 0.356E+03 0.210E+01   0.186E+03 -.356E+03 -.211E+01   -.164E+00 0.277E+00 0.208E-01   0.294E-05 -.114E-05 0.655E-05
   -.267E+03 0.323E+03 0.343E+01   0.267E+03 -.324E+03 -.341E+01   -.136E+00 0.293E+00 -.194E-01   0.230E-05 -.238E-05 0.515E-05
   -.394E+03 0.231E+03 0.391E+01   0.394E+03 -.231E+03 -.391E+01   -.275E+00 0.149E+00 -.269E-02   0.316E-05 -.246E-05 0.697E-05
   -.439E+03 0.168E+03 0.373E+01   0.440E+03 -.168E+03 -.371E+01   -.262E+00 0.173E+00 -.164E-01   0.415E-05 -.204E-05 0.576E-05
   -.483E+03 0.325E+02 0.356E+01   0.483E+03 -.325E+02 -.358E+01   -.314E+00 -.932E-02 0.172E-01   0.507E-05 0.889E-06 0.668E-05
   -.483E+03 -.424E+02 0.340E+01   0.483E+03 0.424E+02 -.340E+01   -.314E+00 0.942E-02 -.802E-02   0.481E-05 0.199E-05 0.436E-05
   -.434E+03 -.176E+03 0.237E+01   0.434E+03 0.176E+03 -.238E+01   -.256E+00 -.176E+00 0.137E-01   0.368E-05 0.386E-05 0.400E-05
   -.369E+03 -.254E+03 -.577E+01   0.369E+03 0.254E+03 0.576E+01   -.215E+00 -.253E+00 0.133E-01   0.376E-05 0.103E-05 -.943E-05
   -.302E+03 -.304E+03 -.491E+01   0.302E+03 0.305E+03 0.493E+01   -.220E+00 -.240E+00 -.173E-01   0.437E-05 -.639E-06 -.122E-04
   -.145E+03 -.365E+03 -.337E+01   0.145E+03 0.365E+03 0.336E+01   -.591E-01 -.330E+00 0.908E-02   0.361E-05 0.590E-06 -.957E-05
   -.544E+02 -.379E+03 -.218E+01   0.545E+02 0.380E+03 0.217E+01   -.109E+00 -.325E+00 0.591E-02   0.580E-05 0.225E-06 -.571E-05
   0.125E+03 -.371E+03 -.214E+01   -.125E+03 0.371E+03 0.214E+01   0.105E+00 -.287E+00 0.684E-02   0.404E-05 0.195E-05 -.468E-05
   0.213E+03 -.348E+03 -.805E+00   -.213E+03 0.348E+03 0.839E+00   0.847E-01 -.311E+00 -.407E-01   0.408E-05 0.334E-05 -.573E-05
   0.357E+03 -.271E+03 -.122E+01   -.357E+03 0.271E+03 0.122E+01   0.254E+00 -.197E+00 0.675E-02   -.356E-06 0.415E-05 -.300E-05
   0.413E+03 -.214E+03 -.685E+00   -.413E+03 0.214E+03 0.697E+00   0.229E+00 -.197E+00 -.143E-01   -.835E-06 0.512E-05 -.832E-06
   0.479E+03 -.849E+02 -.985E+00   -.479E+03 0.849E+02 0.982E+00   0.315E+00 -.178E-01 0.125E-02   -.357E-05 0.134E-05 -.162E-05
   0.489E+03 -.109E+02 0.251E+00   -.490E+03 0.110E+02 -.242E+00   0.299E+00 -.618E-01 -.121E-01   -.392E-05 -.119E-06 -.923E-06
   0.464E+03 0.128E+03 -.227E+00   -.464E+03 -.128E+03 0.219E+00   0.266E+00 0.150E+00 0.130E-01   -.359E-05 -.228E-05 0.887E-06
   0.427E+03 0.194E+03 0.100E+01   -.427E+03 -.195E+03 -.100E+01   0.291E+00 0.112E+00 -.507E-02   -.286E-05 -.289E-05 0.166E-05
   0.316E+03 0.299E+03 0.680E+00   -.316E+03 -.299E+03 -.697E+00   0.157E+00 0.259E+00 0.185E-01   0.928E-06 -.450E-05 0.928E-06
   0.240E+03 0.338E+03 0.121E+01   -.240E+03 -.338E+03 -.121E+01   0.181E+00 0.261E+00 0.119E-02   0.113E-05 -.323E-05 0.315E-05
   0.685E+02 0.379E+03 0.766E+00   -.684E+02 -.379E+03 -.796E+00   -.101E-01 0.326E+00 0.345E-01   0.493E-05 -.180E-05 0.580E-05
   -.250E+02 0.381E+03 0.221E+01   0.249E+02 -.382E+03 -.220E+01   0.153E-01 0.309E+00 -.155E-01   0.450E-05 -.964E-06 0.476E-05
   -.200E+03 0.352E+03 0.233E+01   0.200E+03 -.352E+03 -.233E+01   -.202E+00 0.278E+00 0.503E-02   0.605E-05 0.648E-06 0.595E-05
   -.279E+03 0.318E+03 0.355E+01   0.279E+03 -.318E+03 -.355E+01   -.156E+00 0.302E+00 -.458E-02   0.431E-05 -.350E-06 0.947E-05
   -.402E+03 0.222E+03 0.515E+01   0.402E+03 -.223E+03 -.516E+01   -.280E+00 0.163E+00 0.144E-01   0.476E-05 0.114E-05 0.122E-04
   -.445E+03 0.157E+03 0.581E+01   0.446E+03 -.157E+03 -.580E+01   -.280E+00 0.177E+00 -.155E-01   0.439E-05 -.360E-06 0.935E-05
   -.482E+03 0.204E+02 0.654E+01   0.483E+03 -.203E+02 -.657E+01   -.299E+00 -.260E-02 0.306E-01   0.483E-05 0.902E-06 0.836E-05
   -.479E+03 -.555E+02 0.604E+01   0.479E+03 0.555E+02 -.603E+01   -.304E+00 -.220E-02 -.120E-01   0.460E-05 0.136E-05 0.788E-05
   -.425E+03 -.188E+03 0.449E+01   0.426E+03 0.188E+03 -.449E+01   -.245E+00 -.183E+00 0.138E-02   0.436E-05 0.110E-05 0.475E-05
   -.359E+03 -.263E+03 -.369E+01   0.359E+03 0.263E+03 0.368E+01   -.199E+00 -.245E+00 0.197E-01   0.308E-05 0.250E-05 -.583E-05
   -.291E+03 -.311E+03 -.363E+01   0.291E+03 0.311E+03 0.362E+01   -.216E+00 -.224E+00 0.145E-02   0.184E-05 0.240E-05 -.702E-05
   -.131E+03 -.368E+03 -.322E+01   0.131E+03 0.368E+03 0.320E+01   -.427E-01 -.321E+00 0.196E-01   0.114E-05 0.213E-05 -.518E-05
   -.389E+02 -.380E+03 -.182E+01   0.389E+02 0.380E+03 0.183E+01   -.752E-01 -.315E+00 -.138E-01   0.247E-05 0.125E-05 -.654E-05
   0.141E+03 -.366E+03 -.199E+01   -.141E+03 0.367E+03 0.199E+01   0.119E+00 -.287E+00 -.664E-03   -.323E-06 0.210E-05 -.498E-05
   0.227E+03 -.341E+03 -.157E+01   -.227E+03 0.342E+03 0.158E+01   0.962E-01 -.309E+00 -.151E-01   0.139E-05 0.308E-05 -.428E-05
   0.367E+03 -.260E+03 -.199E+01   -.367E+03 0.261E+03 0.199E+01   0.255E+00 -.181E+00 0.106E-01   -.208E-05 0.332E-05 -.310E-05
   0.421E+03 -.202E+03 -.128E+01   -.421E+03 0.203E+03 0.129E+01   0.239E+00 -.201E+00 -.121E-01   -.226E-05 0.427E-05 -.330E-05
   0.481E+03 -.721E+02 -.160E+01   -.481E+03 0.721E+02 0.159E+01   0.316E+00 -.112E-01 0.821E-02   -.410E-05 0.152E-05 -.216E-05
   0.489E+03 0.209E+01 -.634E+00   -.489E+03 -.206E+01 0.647E+00   0.307E+00 -.379E-01 -.186E-01   -.408E-05 -.139E-06 -.228E-05
   0.458E+03 0.140E+03 -.126E+01   -.458E+03 -.140E+03 0.126E+01   0.271E+00 0.143E+00 0.106E-01   -.354E-05 -.284E-05 -.343E-05
   0.419E+03 0.206E+03 -.316E+00   -.420E+03 -.206E+03 0.326E+00   0.291E+00 0.117E+00 -.127E-01   -.259E-05 -.302E-05 -.155E-05
   0.303E+03 0.307E+03 -.116E+01   -.304E+03 -.307E+03 0.116E+01   0.146E+00 0.270E+00 0.166E-02   0.905E-06 -.390E-05 -.262E-06
   0.226E+03 0.345E+03 0.590E+00   -.226E+03 -.346E+03 -.574E+00   0.212E+00 0.262E+00 -.135E-01   0.384E-05 -.341E-05 0.220E-06
   0.525E+02 0.381E+03 0.352E+00   -.525E+02 -.381E+03 -.351E+00   -.284E-01 0.309E+00 0.109E-02   0.911E-05 -.185E-05 0.591E-06
   -.407E+02 0.379E+03 0.125E+01   0.407E+02 -.380E+03 -.126E+01   -.186E-01 0.330E+00 0.647E-02   0.540E-05 -.438E-06 0.527E-05
   -.212E+03 0.342E+03 0.117E+01   0.212E+03 -.343E+03 -.120E+01   -.210E+00 0.295E+00 0.280E-01   0.594E-05 0.124E-05 0.651E-05
   -.289E+03 0.310E+03 0.247E+01   0.289E+03 -.311E+03 -.250E+01   -.193E+00 0.302E+00 0.284E-01   0.485E-05 0.748E-06 0.540E-05
   -.401E+03 0.214E+03 0.460E+01   0.402E+03 -.215E+03 -.465E+01   -.293E+00 0.161E+00 0.549E-01   0.414E-05 -.244E-06 -.300E-06
   -.447E+03 0.150E+03 0.105E+02   0.447E+03 -.150E+03 -.104E+02   -.358E+00 0.234E+00 -.291E-01   0.466E-05 0.161E-05 0.781E-05
   -.476E+03 0.896E+01 0.145E+02   0.476E+03 -.896E+01 -.145E+02   -.264E+00 0.516E-02 0.565E-02   0.343E-05 -.529E-05 0.584E-05
   -.473E+03 -.680E+02 0.107E+02   0.473E+03 0.680E+02 -.107E+02   -.310E+00 -.206E-01 0.283E-01   0.494E-05 -.314E-05 0.105E-04
   -.348E+03 -.272E+03 -.261E+01   0.348E+03 0.272E+03 0.259E+01   -.191E+00 -.250E+00 0.193E-01   0.302E-05 0.295E-05 -.275E-05
   -.278E+03 -.317E+03 -.215E+01   0.279E+03 0.317E+03 0.216E+01   -.210E+00 -.232E+00 -.949E-02   0.142E-05 0.302E-05 -.346E-05
   -.115E+03 -.370E+03 -.238E+01   0.115E+03 0.370E+03 0.237E+01   -.321E-01 -.318E+00 0.700E-02   -.498E-06 0.284E-05 -.416E-05
   -.227E+02 -.380E+03 -.181E+01   0.228E+02 0.380E+03 0.181E+01   -.588E-01 -.308E+00 -.968E-02   -.221E-06 0.200E-05 -.466E-05
   0.157E+03 -.362E+03 -.213E+01   -.157E+03 0.363E+03 0.212E+01   0.137E+00 -.285E+00 0.111E-01   -.987E-06 0.232E-05 -.386E-05
   0.241E+03 -.335E+03 -.144E+01   -.242E+03 0.335E+03 0.145E+01   0.111E+00 -.300E+00 -.950E-02   -.729E-06 0.275E-05 -.379E-05
   0.377E+03 -.250E+03 -.197E+01   -.377E+03 0.250E+03 0.196E+01   0.262E+00 -.167E+00 0.124E-01   -.337E-05 0.257E-05 -.298E-05
   0.427E+03 -.191E+03 -.124E+01   -.428E+03 0.191E+03 0.126E+01   0.248E+00 -.193E+00 -.113E-01   -.350E-05 0.265E-05 -.328E-05
   0.483E+03 -.587E+02 -.187E+01   -.483E+03 0.587E+02 0.187E+01   0.313E+00 -.103E-01 0.292E-02   -.464E-05 0.928E-06 -.279E-05
   0.488E+03 0.156E+02 -.131E+01   -.488E+03 -.155E+02 0.132E+01   0.310E+00 -.334E-01 -.153E-01   -.458E-05 0.936E-06 -.181E-05
   0.451E+03 0.152E+03 -.198E+01   -.451E+03 -.153E+03 0.197E+01   0.265E+00 0.162E+00 0.140E-01   -.396E-05 -.239E-05 -.208E-05
   0.410E+03 0.217E+03 -.878E+00   -.410E+03 -.217E+03 0.884E+00   0.284E+00 0.132E+00 -.612E-02   -.295E-05 -.313E-05 -.341E-05
   0.289E+03 0.314E+03 -.185E+01   -.289E+03 -.314E+03 0.185E+01   0.138E+00 0.279E+00 -.340E-04   0.149E-05 -.488E-05 -.376E-05
   0.210E+03 0.350E+03 -.817E+00   -.210E+03 -.350E+03 0.830E+00   0.167E+00 0.269E+00 -.145E-01   0.254E-05 -.323E-05 -.333E-05
   0.345E+02 0.381E+03 -.203E+01   -.345E+02 -.382E+03 0.203E+01   -.238E-01 0.312E+00 -.124E-02   0.687E-05 -.129E-05 -.435E-05
   -.587E+02 0.380E+03 -.488E+00   0.587E+02 -.380E+03 0.513E+00   0.176E-01 0.356E+00 -.271E-01   0.977E-05 0.144E-05 -.315E-05
   -.224E+03 0.339E+03 -.124E+01   0.224E+03 -.340E+03 0.124E+01   -.195E+00 0.198E+00 0.329E-02   0.694E-05 0.154E-05 -.950E-06
   -.296E+03 0.299E+03 0.261E+01   0.296E+03 -.299E+03 -.259E+01   -.143E+00 0.272E+00 -.157E-01   -.148E-06 -.396E-05 0.510E-05
   -.393E+03 0.204E+03 0.772E+01   0.394E+03 -.204E+03 -.762E+01   -.321E+00 0.169E+00 -.979E-01   0.402E-06 -.448E-05 -.653E-06
   -.426E+03 0.145E+03 0.730E+01   0.426E+03 -.145E+03 -.740E+01   -.324E+00 0.245E+00 0.869E-01   0.300E-05 -.515E-05 0.191E-05
   -.451E+03 -.627E-01 0.161E+02   0.451E+03 -.215E+00 -.163E+02   0.118E-01 0.287E+00 0.270E+00   0.409E-05 -.308E-05 0.200E-05
   -.461E+03 -.835E+02 0.215E+02   0.461E+03 0.836E+02 -.216E+02   -.479E+00 -.937E-01 0.112E+00   0.374E-05 -.268E-05 -.260E-05
   -.337E+03 -.281E+03 -.173E+01   0.337E+03 0.281E+03 0.172E+01   -.182E+00 -.257E+00 0.141E-01   0.334E-05 0.216E-05 -.204E-05
   -.265E+03 -.324E+03 -.135E+01   0.265E+03 0.324E+03 0.136E+01   -.200E+00 -.238E+00 -.742E-02   0.192E-05 0.266E-05 -.231E-05
   -.986E+02 -.372E+03 -.186E+01   0.986E+02 0.372E+03 0.185E+01   -.189E-01 -.315E+00 0.858E-02   0.304E-06 0.242E-05 -.308E-05
   -.591E+01 -.380E+03 -.143E+01   0.596E+01 0.380E+03 0.143E+01   -.472E-01 -.310E+00 -.105E-01   -.616E-06 0.219E-05 -.367E-05
   0.172E+03 -.358E+03 -.191E+01   -.173E+03 0.358E+03 0.190E+01   0.150E+00 -.278E+00 0.156E-01   -.139E-05 0.221E-05 -.373E-05
   0.255E+03 -.328E+03 -.107E+01   -.256E+03 0.329E+03 0.107E+01   0.122E+00 -.291E+00 -.121E-01   -.181E-05 0.224E-05 -.406E-05
   0.387E+03 -.240E+03 -.170E+01   -.387E+03 0.240E+03 0.169E+01   0.269E+00 -.160E+00 0.562E-02   -.366E-05 0.264E-05 -.412E-05
   0.435E+03 -.179E+03 -.120E+01   -.435E+03 0.179E+03 0.121E+01   0.254E+00 -.185E+00 -.812E-02   -.381E-05 0.290E-05 -.316E-05
   0.484E+03 -.454E+02 -.188E+01   -.484E+03 0.454E+02 0.188E+01   0.314E+00 0.451E-02 0.629E-02   -.480E-05 0.117E-05 -.338E-05
   0.486E+03 0.290E+02 -.122E+01   -.487E+03 -.290E+02 0.123E+01   0.313E+00 -.222E-01 -.161E-01   -.480E-05 0.224E-06 -.363E-05
   0.444E+03 0.164E+03 -.195E+01   -.444E+03 -.165E+03 0.194E+01   0.261E+00 0.170E+00 0.149E-01   -.393E-05 -.281E-05 -.273E-05
   0.399E+03 0.227E+03 -.133E+01   -.400E+03 -.228E+03 0.134E+01   0.276E+00 0.147E+00 -.735E-02   -.297E-05 -.320E-05 -.245E-05
   0.273E+03 0.321E+03 -.230E+01   -.274E+03 -.321E+03 0.229E+01   0.135E+00 0.284E+00 0.389E-02   0.775E-06 -.405E-05 -.275E-05
   0.193E+03 0.354E+03 -.150E+01   -.193E+03 -.354E+03 0.151E+01   0.163E+00 0.273E+00 -.162E-01   0.199E-05 -.316E-05 -.321E-05
   0.167E+02 0.381E+03 -.255E+01   -.167E+02 -.381E+03 0.255E+01   -.496E-01 0.310E+00 0.865E-02   0.416E-05 -.202E-05 -.491E-05
   -.756E+02 0.376E+03 -.134E+01   0.756E+02 -.376E+03 0.135E+01   -.234E-01 0.298E+00 -.114E-01   0.294E-05 -.124E-05 -.543E-05
   -.242E+03 0.333E+03 -.247E+01   0.242E+03 -.333E+03 0.247E+01   -.190E+00 0.210E+00 -.978E-02   0.447E-05 0.161E-06 -.121E-04
   -.309E+03 0.292E+03 -.372E+01   0.309E+03 -.292E+03 0.375E+01   -.147E+00 0.184E+00 -.222E-01   0.162E-05 -.245E-05 -.993E-05
   -.410E+03 0.194E+03 -.955E+01   0.411E+03 -.194E+03 0.955E+01   -.227E+00 0.132E+00 0.442E-02   -.153E-05 -.767E-05 -.182E-05
   -.437E+03 0.132E+03 -.522E+01   0.437E+03 -.132E+03 0.525E+01   0.634E-01 0.445E+00 -.278E-01   0.108E-05 -.364E-05 -.203E-05
   -.481E+03 0.111E+01 -.197E+02   0.478E+03 -.252E+01 0.212E+02   0.225E+01 0.141E+01 -.150E+01   0.496E-05 0.797E-06 -.415E-05
   -.461E+03 -.115E+03 0.197E+02   0.458E+03 0.115E+03 -.212E+02   0.257E+01 -.667E+00 0.150E+01   0.513E-05 -.866E-06 0.426E-05
   -.325E+03 -.289E+03 -.118E+01   0.325E+03 0.289E+03 0.117E+01   -.174E+00 -.264E+00 0.137E-01   0.328E-05 0.162E-05 -.163E-05
   -.251E+03 -.330E+03 -.756E+00   0.251E+03 0.331E+03 0.763E+00   -.195E+00 -.244E+00 -.737E-02   0.193E-05 0.213E-05 -.195E-05
   -.820E+02 -.374E+03 -.140E+01   0.820E+02 0.375E+03 0.139E+01   -.109E-01 -.314E+00 0.723E-02   0.708E-06 0.188E-05 -.226E-05
   0.110E+02 -.379E+03 -.869E+00   -.110E+02 0.380E+03 0.879E+00   -.368E-01 -.312E+00 -.166E-01   -.672E-07 0.189E-05 -.246E-05
   0.188E+03 -.353E+03 -.142E+01   -.188E+03 0.354E+03 0.142E+01   0.157E+00 -.272E+00 0.138E-01   -.120E-05 0.207E-05 -.327E-05
   0.269E+03 -.321E+03 -.867E+00   -.269E+03 0.322E+03 0.873E+00   0.133E+00 -.282E+00 -.804E-02   -.184E-05 0.242E-05 -.347E-05
   0.396E+03 -.229E+03 -.151E+01   -.396E+03 0.229E+03 0.150E+01   0.278E+00 -.147E+00 0.693E-02   -.341E-05 0.274E-05 -.342E-05
   0.442E+03 -.167E+03 -.888E+00   -.442E+03 0.167E+03 0.896E+00   0.259E+00 -.174E+00 -.102E-01   -.408E-05 0.252E-05 -.423E-05
   0.485E+03 -.319E+02 -.159E+01   -.486E+03 0.319E+02 0.159E+01   0.314E+00 0.156E-01 0.111E-01   -.504E-05 0.574E-06 -.324E-05
   0.484E+03 0.424E+02 -.978E+00   -.485E+03 -.424E+02 0.987E+00   0.315E+00 -.106E-01 -.149E-01   -.483E-05 -.665E-06 -.382E-05
   0.436E+03 0.176E+03 -.175E+01   -.436E+03 -.177E+03 0.174E+01   0.257E+00 0.176E+00 0.109E-01   -.395E-05 -.289E-05 -.400E-05
   0.389E+03 0.238E+03 -.128E+01   -.389E+03 -.238E+03 0.129E+01   0.273E+00 0.154E+00 -.842E-02   -.280E-05 -.321E-05 -.328E-05
   0.259E+03 0.327E+03 -.211E+01   -.259E+03 -.327E+03 0.211E+01   0.119E+00 0.287E+00 0.543E-02   -.211E-06 -.333E-05 -.435E-05
   0.176E+03 0.357E+03 -.147E+01   -.176E+03 -.358E+03 0.148E+01   0.144E+00 0.274E+00 -.181E-01   -.154E-07 -.257E-05 -.316E-05
   -.153E+01 0.380E+03 -.231E+01   0.158E+01 -.380E+03 0.231E+01   -.499E-01 0.307E+00 0.149E-01   0.132E-05 -.205E-05 -.498E-05
   -.933E+02 0.373E+03 -.222E+01   0.933E+02 -.374E+03 0.222E+01   -.263E-01 0.294E+00 -.936E-02   -.418E-06 -.267E-05 -.522E-05
   -.259E+03 0.327E+03 -.400E+01   0.260E+03 -.327E+03 0.398E+01   -.195E+00 0.235E+00 0.279E-01   0.109E-05 -.204E-05 -.513E-05
   -.330E+03 0.286E+03 -.431E+01   0.331E+03 -.286E+03 0.432E+01   -.159E+00 0.277E+00 -.903E-02   0.344E-05 -.897E-06 -.875E-05
   -.434E+03 0.181E+03 -.103E+02   0.434E+03 -.181E+03 0.102E+02   -.285E+00 0.961E-01 0.850E-01   0.432E-05 -.336E-06 -.603E-05
   -.464E+03 0.116E+03 -.106E+02   0.465E+03 -.116E+03 0.107E+02   -.545E+00 0.230E+00 -.298E-01   0.227E-05 -.182E-05 -.678E-05
   -.471E+03 -.298E+02 -.214E+02   0.471E+03 0.299E+02 0.215E+02   -.490E+00 -.503E-01 -.111E+00   0.296E-05 0.306E-05 0.241E-05
   -.433E+03 -.106E+03 -.160E+02   0.433E+03 0.106E+03 0.162E+02   0.888E-01 -.266E+00 -.265E+00   0.305E-05 0.291E-05 -.213E-05
   -.312E+03 -.297E+03 -.676E+00   0.312E+03 0.298E+03 0.666E+00   -.163E+00 -.269E+00 0.120E-01   0.301E-05 0.153E-05 -.706E-06
   -.236E+03 -.336E+03 -.197E+00   0.236E+03 0.337E+03 0.206E+00   -.184E+00 -.249E+00 -.823E-02   0.179E-05 0.172E-05 -.118E-05
   -.652E+02 -.376E+03 -.891E+00   0.652E+02 0.376E+03 0.887E+00   0.141E-02 -.315E+00 0.719E-02   0.718E-06 0.146E-05 -.146E-05
   0.280E+02 -.379E+03 -.414E+00   -.280E+02 0.379E+03 0.422E+00   -.235E-01 -.313E+00 -.161E-01   0.225E-06 0.158E-05 -.174E-05
   0.203E+03 -.348E+03 -.104E+01   -.204E+03 0.349E+03 0.103E+01   0.165E+00 -.264E+00 0.156E-01   -.817E-06 0.183E-05 -.176E-05
   0.283E+03 -.314E+03 -.531E+00   -.283E+03 0.314E+03 0.536E+00   0.141E+00 -.278E+00 -.694E-02   -.215E-05 0.187E-05 -.261E-05
   0.405E+03 -.219E+03 -.118E+01   -.406E+03 0.219E+03 0.117E+01   0.282E+00 -.139E+00 0.750E-02   -.361E-05 0.188E-05 -.192E-05
   0.448E+03 -.155E+03 -.554E+00   -.448E+03 0.155E+03 0.564E+00   0.268E+00 -.163E+00 -.151E-01   -.432E-05 0.134E-05 -.276E-05
   0.486E+03 -.184E+02 -.124E+01   -.487E+03 0.184E+02 0.124E+01   0.313E+00 0.282E-01 0.119E-01   -.494E-05 0.376E-07 -.278E-05
   0.482E+03 0.558E+02 -.713E+00   -.483E+03 -.558E+02 0.719E+00   0.315E+00 0.112E-02 -.949E-02   -.487E-05 -.505E-06 -.279E-05
   0.428E+03 0.188E+03 -.147E+01   -.428E+03 -.188E+03 0.146E+01   0.248E+00 0.187E+00 0.909E-02   -.422E-05 -.197E-05 -.355E-05
   0.378E+03 0.248E+03 -.934E+00   -.379E+03 -.248E+03 0.944E+00   0.267E+00 0.163E+00 -.913E-02   -.327E-05 -.258E-05 -.409E-05
   0.244E+03 0.333E+03 -.174E+01   -.244E+03 -.333E+03 0.173E+01   0.116E+00 0.292E+00 0.935E-02   -.977E-06 -.283E-05 -.453E-05
   0.160E+03 0.361E+03 -.138E+01   -.160E+03 -.361E+03 0.139E+01   0.137E+00 0.278E+00 -.173E-01   -.714E-06 -.228E-05 -.486E-05
   -.194E+02 0.379E+03 -.233E+01   0.194E+02 -.380E+03 0.232E+01   -.532E-01 0.308E+00 0.190E-01   0.816E-06 -.207E-05 -.459E-05
   -.111E+03 0.371E+03 -.198E+01   0.111E+03 -.371E+03 0.198E+01   -.251E-01 0.315E+00 -.612E-02   0.204E-06 -.253E-05 -.471E-05
   -.275E+03 0.320E+03 -.372E+01   0.275E+03 -.320E+03 0.370E+01   -.214E+00 0.231E+00 0.156E-01   0.169E-05 -.242E-05 -.398E-05
   -.345E+03 0.276E+03 -.303E+01   0.345E+03 -.276E+03 0.304E+01   -.196E+00 0.278E+00 -.140E-01   0.250E-05 -.264E-05 -.475E-05
   -.443E+03 0.164E+03 -.624E+01   0.443E+03 -.164E+03 0.624E+01   -.305E+00 0.895E-01 0.121E-01   0.445E-05 -.389E-06 -.552E-05
   -.470E+03 0.952E+02 -.741E+01   0.470E+03 -.954E+02 0.741E+01   -.333E+00 0.129E+00 0.378E-02   0.456E-05 0.121E-05 -.843E-05
   -.477E+03 -.483E+02 -.107E+02   0.477E+03 0.483E+02 0.108E+02   -.302E+00 -.747E-01 -.301E-01   0.390E-05 0.415E-05 -.104E-04
   -.453E+03 -.122E+03 -.144E+02   0.453E+03 0.122E+03 0.144E+02   -.253E+00 -.808E-01 0.121E-02   0.165E-05 0.563E-05 -.593E-05
   -.299E+03 -.305E+03 -.173E+00   0.299E+03 0.306E+03 0.164E+00   -.154E+00 -.273E+00 0.788E-02   0.329E-05 0.112E-05 0.147E-06
   -.221E+03 -.342E+03 0.275E+00   0.222E+03 0.342E+03 -.264E+00   -.177E+00 -.257E+00 -.101E-01   0.185E-05 0.152E-05 -.517E-06
   -.481E+02 -.377E+03 -.458E+00   0.481E+02 0.378E+03 0.451E+00   0.109E-01 -.314E+00 0.102E-01   0.586E-06 0.122E-05 -.220E-06
   0.451E+02 -.378E+03 0.220E-01   -.451E+02 0.378E+03 -.143E-01   -.143E-01 -.314E+00 -.139E-01   -.293E-06 0.123E-05 -.105E-05
   0.219E+03 -.343E+03 -.641E+00   -.219E+03 0.343E+03 0.632E+00   0.175E+00 -.258E+00 0.152E-01   -.139E-05 0.135E-05 -.312E-06
   0.296E+03 -.307E+03 -.122E+00   -.297E+03 0.307E+03 0.129E+00   0.152E+00 -.275E+00 -.700E-02   -.266E-05 0.112E-05 -.105E-05
   0.414E+03 -.208E+03 -.795E+00   -.414E+03 0.208E+03 0.789E+00   0.284E+00 -.128E+00 0.612E-02   -.370E-05 0.127E-05 -.102E-05
   0.454E+03 -.142E+03 -.266E+00   -.454E+03 0.143E+03 0.274E+00   0.271E+00 -.153E+00 -.160E-01   -.415E-05 0.986E-06 -.121E-05
   0.487E+03 -.492E+01 -.934E+00   -.487E+03 0.488E+01 0.925E+00   0.312E+00 0.393E-01 0.152E-01   -.445E-05 0.440E-06 -.151E-05
   0.480E+03 0.691E+02 -.381E+00   -.480E+03 -.692E+02 0.386E+00   0.314E+00 0.131E-01 -.854E-02   -.455E-05 -.492E-06 -.223E-05
   0.420E+03 0.200E+03 -.113E+01   -.420E+03 -.200E+03 0.112E+01   0.243E+00 0.197E+00 0.800E-02   -.396E-05 -.164E-05 -.196E-05
   0.367E+03 0.258E+03 -.619E+00   -.368E+03 -.258E+03 0.630E+00   0.263E+00 0.175E+00 -.113E-01   -.313E-05 -.223E-05 -.296E-05
   0.228E+03 0.339E+03 -.146E+01   -.229E+03 -.339E+03 0.145E+01   0.105E+00 0.294E+00 0.925E-02   -.120E-05 -.244E-05 -.343E-05
   0.143E+03 0.365E+03 -.101E+01   -.143E+03 -.365E+03 0.102E+01   0.133E+00 0.282E+00 -.124E-01   -.499E-06 -.219E-05 -.396E-05
   -.369E+02 0.379E+03 -.200E+01   0.369E+02 -.379E+03 0.199E+01   -.675E-01 0.307E+00 0.126E-01   0.922E-06 -.219E-05 -.439E-05
   -.128E+03 0.367E+03 -.143E+01   0.128E+03 -.368E+03 0.143E+01   -.376E-01 0.314E+00 -.710E-02   0.816E-06 -.256E-05 -.442E-05
   -.289E+03 0.312E+03 -.273E+01   0.290E+03 -.312E+03 0.273E+01   -.221E+00 0.223E+00 0.630E-02   0.223E-05 -.261E-05 -.422E-05
   -.357E+03 0.265E+03 -.243E+01   0.357E+03 -.265E+03 0.244E+01   -.201E+00 0.247E+00 -.140E-01   0.303E-05 -.261E-05 -.439E-05
   -.450E+03 0.149E+03 -.419E+01   0.450E+03 -.150E+03 0.418E+01   -.302E+00 0.754E-01 0.162E-01   0.413E-05 -.207E-05 -.499E-05
   -.475E+03 0.790E+02 -.454E+01   0.475E+03 -.791E+02 0.453E+01   -.289E+00 0.102E+00 0.265E-02   0.479E-05 -.257E-06 -.478E-05
   -.478E+03 -.619E+02 -.617E+01   0.478E+03 0.620E+02 0.616E+01   -.292E+00 -.924E-01 0.855E-02   0.490E-05 -.143E-06 -.786E-05
   -.454E+03 -.135E+03 -.644E+01   0.455E+03 0.135E+03 0.646E+01   -.286E+00 -.850E-01 -.289E-01   0.485E-05 0.381E-06 -.835E-05
   0.622E+02 -.376E+03 0.505E+00   -.622E+02 0.377E+03 -.498E+00   -.519E-02 -.315E+00 -.116E-01   -.830E-06 0.117E-05 0.343E-06
   0.234E+03 -.337E+03 -.231E+00   -.234E+03 0.338E+03 0.221E+00   0.181E+00 -.250E+00 0.102E-01   -.176E-05 0.121E-05 0.234E-06
   0.309E+03 -.299E+03 0.257E+00   -.310E+03 0.299E+03 -.248E+00   0.160E+00 -.270E+00 -.761E-02   -.277E-05 0.105E-05 -.300E-07
   0.423E+03 -.196E+03 -.441E+00   -.423E+03 0.197E+03 0.435E+00   0.289E+00 -.118E+00 0.764E-02   -.332E-05 0.141E-05 0.582E-07
   0.460E+03 -.130E+03 0.740E-01   -.460E+03 0.130E+03 -.654E-01   0.278E+00 -.145E+00 -.158E-01   -.393E-05 0.571E-06 -.792E-06
   0.486E+03 0.854E+01 -.601E+00   -.487E+03 -.859E+01 0.592E+00   0.311E+00 0.499E-01 0.160E-01   -.405E-05 0.216E-06 -.239E-06
   0.476E+03 0.823E+02 -.467E-01   -.477E+03 -.823E+02 0.529E-01   0.313E+00 0.225E-01 -.695E-02   -.396E-05 -.947E-06 -.933E-06
   0.411E+03 0.211E+03 -.795E+00   -.411E+03 -.211E+03 0.788E+00   0.235E+00 0.203E+00 0.528E-02   -.361E-05 -.150E-05 -.116E-05
   0.356E+03 0.267E+03 -.285E+00   -.356E+03 -.267E+03 0.294E+00   0.256E+00 0.182E+00 -.129E-01   -.286E-05 -.184E-05 -.132E-05
   0.213E+03 0.344E+03 -.109E+01   -.213E+03 -.345E+03 0.108E+01   0.940E-01 0.298E+00 0.105E-01   -.169E-05 -.169E-05 -.193E-05
   0.126E+03 0.368E+03 -.540E+00   -.127E+03 -.368E+03 0.548E+00   0.119E+00 0.287E+00 -.117E-01   -.945E-06 -.186E-05 -.255E-05
   -.544E+02 0.377E+03 -.145E+01   0.544E+02 -.378E+03 0.144E+01   -.800E-01 0.304E+00 0.915E-02   0.656E-06 -.197E-05 -.285E-05
   -.145E+03 0.364E+03 -.992E+00   0.145E+03 -.364E+03 0.100E+01   -.507E-01 0.309E+00 -.801E-02   0.131E-05 -.226E-05 -.407E-05
   -.303E+03 0.303E+03 -.207E+01   0.303E+03 -.304E+03 0.206E+01   -.226E+00 0.217E+00 0.865E-02   0.268E-05 -.253E-05 -.394E-05
   -.369E+03 0.255E+03 -.167E+01   0.369E+03 -.255E+03 0.168E+01   -.204E+00 0.239E+00 -.122E-01   0.350E-05 -.249E-05 -.389E-05
   -.456E+03 0.137E+03 -.288E+01   0.457E+03 -.137E+03 0.287E+01   -.305E+00 0.659E-01 0.156E-01   0.448E-05 -.250E-05 -.403E-05
   -.479E+03 0.652E+02 -.245E+01   0.479E+03 -.653E+02 0.246E+01   -.297E+00 0.923E-01 -.714E-02   0.488E-05 -.295E-05 -.382E-05
   -.476E+03 -.753E+02 -.355E+01   0.477E+03 0.754E+02 0.355E+01   -.296E+00 -.104E+00 0.820E-03   0.528E-05 -.827E-06 -.427E-05
   -.451E+03 -.146E+03 -.350E+01   0.451E+03 0.147E+03 0.351E+01   -.302E+00 -.828E-01 -.220E-01   0.514E-05 0.297E-06 -.655E-05
   0.465E+03 -.117E+03 0.448E+00   -.465E+03 0.117E+03 -.441E+00   0.281E+00 -.135E+00 -.145E-01   -.397E-05 0.343E-06 0.247E-06
   0.486E+03 0.220E+02 -.222E+00   -.486E+03 -.221E+02 0.213E+00   0.308E+00 0.613E-01 0.140E-01   -.399E-05 0.173E-06 0.107E-06
   0.473E+03 0.954E+02 0.279E+00   -.473E+03 -.954E+02 -.272E+00   0.311E+00 0.348E-01 -.579E-02   -.386E-05 -.747E-06 -.135E-06
   0.402E+03 0.222E+03 -.430E+00   -.402E+03 -.222E+03 0.423E+00   0.228E+00 0.214E+00 0.598E-02   -.358E-05 -.845E-06 -.300E-06
   0.344E+03 0.276E+03 0.957E-01   -.345E+03 -.277E+03 -.863E-01   0.249E+00 0.193E+00 -.146E-01   -.259E-05 -.158E-05 -.894E-06
   0.197E+03 0.350E+03 -.654E+00   -.198E+03 -.350E+03 0.646E+00   0.811E-01 0.302E+00 0.147E-01   -.164E-05 -.137E-05 -.522E-06
   0.110E+03 0.371E+03 -.127E+00   -.110E+03 -.371E+03 0.133E+00   0.108E+00 0.294E+00 -.894E-02   -.661E-06 -.149E-05 -.137E-05
   -.717E+02 0.376E+03 -.996E+00   0.717E+02 -.376E+03 0.987E+00   -.891E-01 0.301E+00 0.829E-02   0.513E-06 -.169E-05 -.160E-05
   -.162E+03 0.360E+03 -.513E+00   0.162E+03 -.360E+03 0.522E+00   -.594E-01 0.307E+00 -.968E-02   0.146E-05 -.180E-05 -.194E-05
   -.316E+03 0.295E+03 -.144E+01   0.317E+03 -.296E+03 0.143E+01   -.235E+00 0.211E+00 0.945E-02   0.274E-05 -.227E-05 -.218E-05
   -.379E+03 0.245E+03 -.884E+00   0.380E+03 -.245E+03 0.892E+00   -.212E+00 0.228E+00 -.133E-01   0.367E-05 -.229E-05 -.270E-05
   -.462E+03 0.124E+03 -.185E+01   0.462E+03 -.124E+03 0.184E+01   -.309E+00 0.558E-01 0.110E-01   0.487E-05 -.148E-05 -.230E-05
   -.481E+03 0.518E+02 -.143E+01   0.482E+03 -.519E+02 0.144E+01   -.300E+00 0.827E-01 -.711E-02   0.520E-05 -.111E-05 -.317E-05
   -.473E+03 -.886E+02 -.234E+01   0.474E+03 0.887E+02 0.233E+01   -.294E+00 -.112E+00 0.729E-02   0.528E-05 0.489E-06 -.174E-05
   -.445E+03 -.159E+03 -.208E+01   0.446E+03 0.159E+03 0.209E+01   -.303E+00 -.879E-01 -.162E-01   0.470E-05 0.176E-05 -.221E-05
   0.332E+03 0.285E+03 0.457E+00   -.332E+03 -.285E+03 -.448E+00   0.240E+00 0.201E+00 -.157E-01   -.216E-05 -.175E-05 0.140E-07
   0.182E+03 0.354E+03 -.216E+00   -.182E+03 -.355E+03 0.207E+00   0.704E-01 0.305E+00 0.147E-01   -.139E-05 -.132E-05 -.498E-09
   0.927E+02 0.373E+03 0.273E+00   -.928E+02 -.374E+03 -.268E+00   0.996E-01 0.298E+00 -.613E-02   -.712E-06 -.128E-05 -.171E-06
   -.887E+02 0.374E+03 -.525E+00   0.888E+02 -.374E+03 0.518E+00   -.991E-01 0.298E+00 0.538E-02   0.186E-06 -.148E-05 -.302E-06
   -.178E+03 0.355E+03 0.362E-02   0.178E+03 -.356E+03 0.642E-02   -.705E-01 0.303E+00 -.132E-01   0.115E-05 -.175E-05 -.983E-06
   -.329E+03 0.287E+03 -.821E+00   0.329E+03 -.287E+03 0.813E+00   -.241E+00 0.201E+00 0.121E-01   0.283E-05 -.202E-05 -.798E-06
   -.390E+03 0.234E+03 -.316E+00   0.390E+03 -.235E+03 0.323E+00   -.221E+00 0.220E+00 -.109E-01   0.407E-05 -.143E-05 -.194E-05
   -.467E+03 0.111E+03 -.117E+01   0.467E+03 -.111E+03 0.116E+01   -.308E+00 0.460E-01 0.110E-01   0.474E-05 -.816E-06 -.120E-05
   -.484E+03 0.383E+02 -.725E+00   0.484E+03 -.384E+02 0.733E+00   -.305E+00 0.734E-01 -.713E-02   0.492E-05 0.333E-06 -.176E-05
   -.470E+03 -.102E+03 -.157E+01   0.470E+03 0.102E+03 0.156E+01   -.285E+00 -.123E+00 0.754E-02   0.486E-05 0.112E-05 -.173E-05
   -.439E+03 -.171E+03 -.107E+01   0.439E+03 0.171E+03 0.108E+01   -.297E+00 -.961E-01 -.157E-01   0.461E-05 0.159E-05 -.145E-05
   -.194E+03 0.351E+03 0.463E+00   0.194E+03 -.351E+03 -.454E+00   -.849E-01 0.302E+00 -.146E-01   0.173E-05 -.146E-05 0.190E-06
   -.341E+03 0.278E+03 -.295E+00   0.342E+03 -.278E+03 0.286E+00   -.249E+00 0.193E+00 0.143E-01   0.306E-05 -.179E-05 0.553E-06
   -.400E+03 0.224E+03 0.199E+00   0.400E+03 -.224E+03 -.193E+00   -.226E+00 0.212E+00 -.790E-02   0.430E-05 -.814E-06 -.140E-06
   -.471E+03 0.982E+02 -.601E+00   0.472E+03 -.982E+02 0.591E+00   -.312E+00 0.363E-01 0.862E-02   0.462E-05 -.591E-06 -.287E-06
   -.485E+03 0.249E+02 -.996E-01   0.485E+03 -.250E+02 0.110E+00   -.307E+00 0.627E-01 -.102E-01   0.469E-05 0.795E-07 -.711E-06
   -.465E+03 -.115E+03 -.900E+00   0.466E+03 0.115E+03 0.894E+00   -.284E+00 -.133E+00 0.960E-02   0.466E-05 0.662E-06 -.104E-05
   -.432E+03 -.183E+03 -.450E+00   0.432E+03 0.183E+03 0.459E+00   -.294E+00 -.108E+00 -.148E-01   0.424E-05 0.152E-05 -.187E-05
   -.486E+03 0.114E+02 0.413E+00   0.486E+03 -.115E+02 -.404E+00   -.310E+00 0.521E-01 -.122E-01   0.452E-05 0.272E-06 -.262E-06
   -.460E+03 -.127E+03 -.381E+00   0.461E+03 0.127E+03 0.374E+00   -.278E+00 -.142E+00 0.132E-01   0.454E-05 0.583E-06 0.284E-06
   -.424E+03 -.194E+03 0.847E-01   0.424E+03 0.194E+03 -.783E-01   -.291E+00 -.116E+00 -.109E-01   0.402E-05 0.149E-05 -.504E-06
   -.988E+03 -.122E+03 0.291E+00   0.991E+03 0.122E+03 -.295E+00   -.354E+01 -.538E+00 0.693E-02   -.387E-05 -.165E-05 -.131E-06
 -----------------------------------------------------------------------------------------------
   -.202E+01 -.360E+00 0.421E-02   -.909E-12 0.331E-11 0.318E-11   0.202E+01 0.360E+00 -.455E-02   0.220E-03 -.446E-05 -.216E-06
 
 
 POSITION                                       TOTAL-FORCE (eV/Angst)
 -----------------------------------------------------------------------------------
     12.00858     10.72430      0.09952         0.000048      0.000391     -0.003395
     11.93838     10.83403      2.54390        -0.000837      0.001356     -0.001965
     10.94371     11.85367      2.47120         0.000130     -0.000542     -0.000877
     10.37506     12.18077      1.21112         0.002556      0.000854     -0.002717
      8.99333     12.52686      1.13783        -0.002949     -0.000431      0.003830
     11.86412     10.94115      4.98818        -0.002339      0.000601     -0.000041
     10.83498     11.92623      4.91565        -0.001117     -0.000610      0.000475
     10.25549     12.23344      3.65571         0.001126     -0.000111     -0.005407
      8.86255     12.53151      3.58226        -0.000976      0.000327      0.007231
      8.20809     12.48863      2.32219         0.002406      0.000231     -0.002606
      6.86620     12.01109      2.24896        -0.002161     -0.000761     -0.001324
      6.33164     11.63120      0.98867         0.000440     -0.000910     -0.000344
      5.43955     10.52067      0.91528         0.000466      0.000330      0.002830
     11.78505     11.04531      7.43253        -0.000929     -0.000299      0.000957
     10.72321     11.99505      7.36025         0.000881     -0.000310      0.002156
     10.13384     12.28204      6.10014        -0.000681      0.001076     -0.007876
      8.73170     12.53207      6.02671        -0.001907      0.000492      0.007859
      8.07920     12.46650      4.76663         0.001264      0.000553     -0.001914
      6.75458     11.94265      4.69355        -0.004527      0.000477     -0.000192
      6.23350     11.54453      3.43334        -0.000074      0.000937     -0.001857
      5.38030     10.40390      3.35977        -0.001655      0.000559      0.005187
      5.14532      9.79171      2.09954         0.000937     -0.001248     -0.004806
      5.01709      8.37312      2.02586         0.000707     -0.002694      0.002384
      5.13859      7.72853      0.76566        -0.000431      0.000145      0.001236
      5.77391      6.45367      0.69234        -0.002955     -0.000997      0.000418
     11.70212     11.14675      9.87619         0.000745     -0.000108      0.001904
     10.60959     12.06004      9.80459         0.001591      0.000670      0.002309
     10.01070     12.32720      8.54469         0.002492      0.000562     -0.006847
      8.60044     12.52892      8.47136        -0.002195     -0.000031      0.006976
      7.95087     12.44051      7.21136         0.001704      0.000157     -0.000054
      6.64508     11.87076      7.13825        -0.002111      0.001153     -0.000825
      6.13826     11.45463      5.87797         0.000520     -0.001218     -0.005330
      5.32504     10.28520      5.80422         0.001295     -0.001048      0.006336
      5.11143      9.66519      4.54402        -0.000243     -0.000403     -0.002368
      5.03210      8.24295      4.47055         0.000866     -0.002102     -0.000391
      5.17575      7.60310      3.21012        -0.002564      0.002557      0.001668
      5.85442      6.35089      3.13658        -0.000773      0.000151      0.002464
      6.31258      5.88140      1.87652         0.000098     -0.000541     -0.005979
      7.54751      5.17162      1.80268         0.001301     -0.000213      0.005210
      8.18417      5.01248      0.54278        -0.002703     -0.000005      0.000267
      9.60789      5.05672      0.46976         0.000858      0.000221     -0.000958
     12.01093     10.71847     13.57751         0.004781      0.003379     -0.001014
     11.62035     11.24759     12.31992         0.002505      0.000326      0.000031
     10.49526     12.12290     12.24899         0.002578     -0.001513      0.003152
      9.88695     12.36832     10.99045         0.001491      0.001003     -0.003540
      8.46955     12.52042     10.91688         0.001381     -0.001346      0.003555
      7.82352     12.40960      9.65634         0.000743      0.000237      0.003010
      6.53841     11.79524      9.58291         0.000658      0.000511      0.000393
      6.04628     11.36171      8.32253         0.000062      0.000212     -0.006200
      5.27432     10.16454      8.24869         0.000091      0.001377      0.007164
      5.08233      9.53746      6.98857        -0.001005      0.001130     -0.002224
      5.05230      8.11331      6.91532         0.000358      0.000259     -0.001818
      5.21725      7.47883      5.65474        -0.000036      0.000310     -0.001272
      5.93852      6.25063      5.58094         0.000238      0.000675      0.004305
      6.41256      5.79745      4.32084        -0.001729     -0.001132     -0.004179
      7.67123      5.13073      4.24700        -0.000719     -0.001764      0.003158
      8.31301      4.99389      2.98694        -0.002111      0.000024      0.001883
      9.73425      5.08737      2.91380        -0.001753     -0.001601      0.001830
     10.35256      5.30749      1.65401         0.001450     -0.000880     -0.006807
     11.51352      6.13283      1.58050        -0.000484     -0.001698      0.006506
     11.92459      6.64443      0.32076        -0.000009     -0.003261     -0.000995
     12.48049      7.95592      0.24804         0.000076      0.000469     -0.001760
     11.96407     10.83771     16.01860         0.006224      0.004110     -0.000467
     11.54372     11.34652     14.76859         0.003745      0.001606     -0.004577
     10.37843     12.17409     14.69589         0.005404     -0.002298      0.006300
      9.76179     12.39960     13.43667        -0.000138     -0.001482     -0.003028
      8.34083     12.50266     13.36255        -0.001237     -0.003518      0.000237
      7.69813     12.37290     12.10122         0.000005      0.000034      0.003824
      6.43412     11.71578     12.02744         0.000260     -0.000806      0.001066
      5.95721     11.26603     10.76722         0.000567     -0.001990     -0.004784
      5.22725     10.04247     10.69331         0.000750      0.000152      0.006041
      5.05770      9.40894      9.43304         0.000088      0.000256      0.000654
      5.07744      7.98473      9.35992         0.000216     -0.001046     -0.001033
      5.26398      7.35622      8.09959        -0.000139     -0.001551     -0.004438
      6.02700      6.15334      8.02573        -0.000542      0.000490      0.005928
      6.51575      5.71677      6.76522        -0.000619     -0.002045     -0.003072
      7.79622      5.09351      6.69146         0.003263     -0.002671     -0.000913
      8.44220      4.97894      5.43119        -0.001732     -0.000198      0.001429
      9.85939      5.12127      5.35778         0.001171     -0.002525      0.002686
     10.46988      5.36302      4.09820        -0.000260     -0.000198     -0.006584
     11.60171      6.22785      4.02468        -0.000187     -0.001213      0.006832
     11.99493      6.75368      2.76496         0.000151     -0.002528      0.000820
     12.50540      8.08341      2.69236        -0.000212      0.002383     -0.000388
     12.56481      8.73711      1.43254        -0.001526     -0.002176     -0.006264
     12.30116     10.13695      1.35933        -0.000024      0.001382      0.006538
     11.90266     10.94763     18.47112         0.007120      0.001311      0.000215
     11.44896     11.41808     17.21706         0.001186     -0.001334     -0.006407
     10.25472     12.19441     17.14123         0.002346     -0.004907      0.008873
      9.63379     12.41379     15.88012         0.001147     -0.004862     -0.002939
      8.21075     12.47833     15.80653        -0.000476     -0.005161      0.000035
      7.57294     12.33115     14.54615         0.003879     -0.003722      0.000037
      6.33005     11.63300     14.47202         0.001763     -0.002524      0.003713
      5.87067     11.16652     13.21147        -0.000694      0.000046     -0.003815
      5.18398      9.91871     13.13761        -0.002835     -0.000704      0.003986
      5.03688      9.27975     11.87733        -0.000037      0.000480      0.001639
      5.10655      7.85690     11.80438        -0.000779     -0.001766      0.000672
      5.31540      7.23529     10.54426         0.000688     -0.000833     -0.005897
      6.11939      6.05951     10.47052        -0.000286      0.000632      0.007249
      6.62241      5.63945      9.20973        -0.003102     -0.000972     -0.001155
      7.92313      5.05949      9.13613         0.001513     -0.001229     -0.000962
      8.57218      4.96735      7.87582        -0.002376     -0.000265     -0.000408
      9.98366      5.15824      7.80208         0.001272     -0.001398      0.004131
     10.58502      5.42189      6.54220         0.002178     -0.001016     -0.005596
     11.68597      6.32538      6.46866        -0.000303     -0.001823      0.003025
     12.06124      6.86472      5.20909        -0.001521     -0.003817      0.001297
     12.52527      8.21147      5.13641        -0.000209      0.002890      0.001922
     12.56250      8.86704      3.87695        -0.001498     -0.002858     -0.007430
     12.25097     10.25706      3.80375        -0.001749      0.001484      0.008848
     11.78708     10.99621     20.92468         0.003880     -0.000379      0.001209
     11.34786     11.47961     19.64509         0.003669     -0.001731     -0.006217
     10.13308     12.23016     19.57858         0.003096     -0.006388      0.007760
      9.50537     12.42605     18.32301         0.001088     -0.007089     -0.001879
      8.07816     12.45439     18.25009         0.002147     -0.007195      0.000872
      7.44709     12.28367     16.99008        -0.000596     -0.005100     -0.004414
      6.22901     11.54619     16.91611        -0.000920     -0.001483      0.007140
      5.78553     11.06481     15.65526        -0.003689     -0.000309     -0.004116
      5.14250      9.79349     15.58202        -0.002651     -0.004228      0.002038
      5.01909      9.14983     14.32186        -0.000723      0.000881      0.000692
      5.13840      7.73022     14.24893        -0.000239     -0.003374      0.002481
      5.37000      7.11630     12.98862        -0.001652     -0.001566     -0.008241
      6.21388      5.96900     12.91502        -0.001508      0.000311      0.007087
      6.73139      5.56606     11.65483        -0.001555     -0.001072      0.000266
      8.05148      5.03025     11.58186         0.001469      0.000406     -0.000328
      8.70324      4.96029     10.32079        -0.001750      0.000632     -0.003256
     10.10679      5.19928     10.24660         0.000993     -0.001524      0.005794
     10.69867      5.48307      8.98640         0.002351     -0.000182     -0.002616
     11.76746      6.42485      8.91261        -0.001169     -0.000942      0.000294
     12.12315      6.97750      7.65332        -0.000225     -0.002545      0.001894
     12.53980      8.33972      7.58024        -0.001155      0.000581      0.001552
     12.55442      8.99649      6.32092        -0.001333     -0.002938     -0.006628
     12.19526     10.37477      6.24798         0.000697      0.000626      0.006030
     11.70655     11.13766     23.36607         0.002456      0.000739      0.001112
     11.24539     11.58686     22.10347        -0.000560     -0.001657     -0.003555
     10.01391     12.29792     22.02661        -0.001281     -0.004298      0.005363
      9.37779     12.44546     20.76311         0.001242     -0.006590      0.000662
      7.95624     12.42236     20.69224        -0.000765     -0.005674     -0.001204
      7.32608     12.23410     19.43241         0.000399     -0.005739     -0.006612
      6.13087     11.45667     19.35995         0.000987     -0.002252      0.006853
      5.70341     10.96083     18.10028        -0.003391      0.000607     -0.002922
      5.10533      9.66709     18.02741        -0.004530     -0.005766     -0.000266
      5.00497      9.01928     16.76649        -0.002532      0.001690     -0.000632
      5.17311      7.60521     16.69338        -0.005231     -0.002107      0.003828
      5.42540      6.99915     15.43329        -0.003098      0.001199     -0.006940
      6.30860      5.88098     15.36006        -0.003382      0.000176      0.005658
      6.84221      5.49734     14.10009        -0.003920     -0.000765      0.000184
      8.18008      5.00872     14.02776         0.003128      0.001676      0.001932
      8.83422      4.95889     12.76619        -0.001964      0.001749     -0.005922
     10.22914      5.24570     12.69190         0.001315      0.001738      0.008332
     10.81068      5.54850     11.43171         0.002320      0.001284     -0.000733
     11.84565      6.52735     11.35712        -0.001899     -0.001132     -0.001246
     12.18092      7.09238     10.09706        -0.000048     -0.001949      0.000960
     12.54898      8.46798     10.02297        -0.000741      0.001112      0.002381
     12.54157      9.12505      8.76426        -0.001072     -0.000601     -0.003600
     12.13524     10.49057      8.69185         0.000019      0.000759      0.002970
     11.62165     11.24578     25.80977         0.001508     -0.000561      0.004211
     11.14737     11.69646     24.54933         0.001595     -0.001312     -0.001913
      9.89104     12.36226     24.47243         0.000267     -0.000566      0.001176
      9.25114     12.49321     23.20894         0.002255     -0.004201      0.002976
      7.82846     12.40541     23.13710        -0.001415     -0.002972     -0.000627
      7.20909     12.18396     21.87833        -0.003322     -0.003007     -0.006713
      6.04504     11.36384     21.80545        -0.000249     -0.000193      0.006211
      5.63147     10.85251     20.54496        -0.002242      0.001866     -0.001798
      5.07731      9.54052     20.47236        -0.004783     -0.001595     -0.001804
      4.99554      8.88999     19.21183        -0.004421      0.001131     -0.003425
      5.21157      7.48041     19.13892        -0.005009     -0.001177      0.005192
      5.48466      6.88422     17.87856        -0.005272     -0.001036     -0.004080
      6.40501      5.79722     17.80568        -0.004708      0.000093      0.001533
      6.95179      5.43198     16.54491        -0.004779      0.001199      0.001238
      8.30684      4.99447     16.47245        -0.000247      0.004264      0.003818
      8.96373      4.96724     15.21333        -0.002125      0.004867     -0.007507
     10.34793      5.30761     15.14052        -0.000918      0.003757      0.009088
     10.91912      5.62460     13.87701         0.001341      0.004086     -0.001532
     11.91855      6.63606     13.80053         0.000970      0.001653      0.000055
     12.23614      7.20924     12.54041         0.001487      0.000172     -0.003602
     12.55501      8.59789     12.46425         0.001711      0.002447      0.004881
     12.52388      9.25368     11.20684         0.002092     -0.002843     -0.001987
     12.07202     10.60465     11.13566        -0.000460      0.003168      0.000076
     11.53317     11.34297     28.25306         0.000108     -0.000286      0.006637
     11.04468     11.78066     26.99272         0.000160      0.000586     -0.004003
      9.76450     12.40530     26.91782        -0.000908     -0.000141     -0.000751
      9.11931     12.51892     25.65735         0.000477     -0.002421      0.001454
      7.70238     12.37621     25.58381        -0.002328      0.000661      0.001449
      7.09272     12.13326     24.32258        -0.001667     -0.001885     -0.005813
      5.96023     11.26937     24.24998         0.001404     -0.000029      0.005153
      5.56477     10.74399     22.99026        -0.002961      0.002115      0.001143
      5.05502      9.41347     22.91774        -0.003011     -0.002758     -0.001530
      4.99540      8.75955     21.65760        -0.003685     -0.000461     -0.005213
      5.25855      7.36005     21.58422        -0.004968     -0.001509      0.005356
      5.54838      6.77187     20.32348        -0.002497      0.000133     -0.001978
      6.50578      5.71587     20.25081        -0.003455     -0.000237     -0.002804
      7.06163      5.36959     18.99094        -0.003396      0.002220      0.002232
      8.43392      4.98272     18.91893         0.000530      0.006091      0.002217
      9.09123      4.98948     17.65878        -0.001421      0.007370     -0.004524
     10.45512      5.39097     17.58713        -0.000600      0.007347      0.004910
     11.01762      5.72146     16.32310        -0.000145      0.005136      0.000093
     11.97979      6.76847     16.24664         0.001879      0.004218      0.001582
     12.28489      7.33576     14.98415         0.002895      0.000122     -0.007387
     12.55906      8.73036     14.90386         0.005752      0.004113      0.007829
     12.50316      9.38418     13.64565         0.005349     -0.002084     -0.003382
     11.44307     11.43750     30.69680        -0.000820     -0.002378      0.007428
     10.93883     11.85751     29.43722         0.000981      0.001143     -0.002825
      9.63754     12.43697     29.36344        -0.003379     -0.000038     -0.001475
      8.98814     12.52955     28.10288         0.002879     -0.000641     -0.002527
      7.57732     12.33802     28.02906        -0.002419      0.000452      0.003192
      6.97630     12.07582     26.76824         0.000713     -0.000113     -0.004948
      5.87552     11.17138     26.69524        -0.001592      0.001160      0.001728
      5.50105     10.63237     25.43518        -0.001317      0.002836      0.002670
      5.03734      9.28580     25.36247        -0.001038     -0.002324      0.000235
      4.99974      8.63041     24.10222        -0.001875      0.001381     -0.005443
      5.31084      7.24023     24.02881        -0.002711     -0.001655      0.006972
      5.62132      6.66282     22.76883        -0.001726     -0.001702      0.000223
      6.61508      5.64184     22.69615        -0.003973      0.001902     -0.002514
      7.18208      5.31447     21.43519        -0.003597     -0.000120     -0.001444
      8.56450      4.97334     21.36149         0.001222      0.006025      0.001942
      9.21767      4.99725     20.10133        -0.004495      0.006833     -0.002105
     10.57155      5.44936     20.02794         0.002198      0.007702     -0.000853
     11.11202      5.82241     18.77166         0.000068      0.006724      0.002936
     12.04727      6.90145     18.70549         0.001184      0.003366      0.001766
     12.32042      7.49386     17.42554         0.006064      0.001738     -0.007352
     12.60176      8.86615     17.33189         0.008285      0.004974      0.007351
     12.50578      9.51507     16.08275         0.009590      0.001583     -0.001917
     11.34944     11.52787     33.14111        -0.000263     -0.001018      0.005997
     10.83061     11.92997     31.88126         0.004070      0.000322     -0.000278
      9.51009     12.46333     31.80805        -0.001360      0.000496     -0.000842
      8.85773     12.53411     30.54779         0.001818      0.000625     -0.005022
      7.45373     12.29392     30.47404        -0.000202      0.001060      0.005888
      6.86216     12.01135     29.21391        -0.001237     -0.000987     -0.004148
      5.79366     11.06967     29.14055        -0.001995     -0.000181     -0.000311
      5.43852     10.51843     27.87981        -0.000549      0.002197      0.000509
      5.02140      9.15654     27.80683         0.000943     -0.002842      0.001787
      5.00735      8.50063     26.54683        -0.000133      0.001697     -0.006419
      5.36662      7.12219     26.47333        -0.001810     -0.002248      0.006830
      5.69809      6.55618     25.21319        -0.000840     -0.000816      0.000870
      6.72658      5.57082     25.14007        -0.000573      0.001471     -0.000006
      7.30449      5.26272     23.87957        -0.001947      0.001282     -0.005623
      8.69901      4.96726     23.80534         0.000673      0.004051      0.005784
      9.35161      5.01602     22.54506        -0.002039      0.005504     -0.002322
     10.69074      5.50163     22.47138         0.002951      0.004141     -0.002643
     11.21793      5.89479     21.20957         0.000919      0.004543      0.002761
     12.12681      6.99148     21.13385         0.004433      0.005998      0.000604
     12.41880      7.57517     19.87923         0.006656      0.001815     -0.004846
     12.80983      8.99513     19.82519         0.007018      0.002562      0.001127
     12.69943      9.70903     18.52416         0.009833      0.001195      0.002481
     11.25281     11.61490     35.58548        -0.002318     -0.001214      0.004824
     10.72062     11.99891     34.32549         0.001810      0.000289      0.000140
      9.38205     12.48592     34.25251        -0.003419      0.000338      0.000270
      8.72752     12.53360     32.99262        -0.000105      0.000417     -0.007077
      7.33271     12.24493     32.91884        -0.001651      0.000864      0.006955
      6.75081     11.94207     31.65866         0.000679      0.000477     -0.002422
      5.71500     10.96459     31.58536        -0.000242      0.001043     -0.000481
      5.37886     10.40181     30.32482        -0.001905      0.002131     -0.001596
      5.00899      9.02620     30.25144         0.000732     -0.002236      0.004309
      5.01818      8.37047     28.99130         0.000768      0.000520     -0.006127
      5.42489      7.00546     28.91776         0.000240     -0.002471      0.003803
      5.77637      6.45159     27.65749        -0.001227      0.000437     -0.000080
      6.83876      5.50232     27.58433        -0.001709     -0.000650      0.001499
      7.42832      5.21531     26.32427        -0.001340      0.000266     -0.008802
      8.83079      4.96540     26.25010         0.002480      0.001852      0.007914
      9.48301      5.03302     24.98902        -0.000224      0.002879     -0.003402
     10.80862      5.55497     24.91513         0.005390      0.001922     -0.001217
     11.33045      5.95291     23.65551         0.000466      0.002791     -0.001164
     12.19708      7.08950     23.58264         0.003850      0.000492      0.003984
     12.44672      7.69944     22.33213         0.003938      0.002405     -0.002256
     12.56969      9.12362     22.26748         0.005248      0.004281     -0.003482
     12.46659      9.77098     21.01781         0.007314     -0.001775      0.001060
     11.15283     11.69824     38.03001        -0.000817     -0.000844      0.001986
     10.60772     12.06367     36.77001         0.004859      0.000460      0.000985
      9.25314     12.50414     36.69701        -0.002312     -0.000323      0.002403
      8.59738     12.52892     35.43703         0.003414      0.000215     -0.008094
      7.21352     12.19218     35.36328        -0.003704      0.001101      0.007249
      6.64228     11.86949     34.10318        -0.000888      0.000417     -0.001838
      5.64036     10.85699     34.03001        -0.000104      0.000336     -0.001271
      5.32337     10.28282     32.76982         0.000971      0.001764     -0.005168
      5.00121      8.89538     32.69607         0.000525     -0.000508      0.006038
      5.03288      8.24039     31.43573         0.001064      0.002447     -0.003367
      5.48654      6.89011     31.36241        -0.000669     -0.002330     -0.000109
      5.85717      6.34897     30.10214        -0.000440      0.000274      0.000591
      6.95152      5.43704     30.02896         0.001701      0.000884      0.002213
      7.55118      5.17066     28.76876        -0.001734     -0.000169     -0.008206
      8.96106      4.96829     28.69482         0.001943      0.000711      0.006106
      9.61107      5.05518     27.43452        -0.004101      0.000846     -0.002900
     10.91849      5.62329     27.36152         0.002099     -0.000955      0.000050
     11.42639      6.03810     26.10284         0.001148      0.001499     -0.006814
     12.24015      7.20851     26.03145         0.000719      0.001099      0.007207
     12.45613      7.82898     24.77361         0.001022     -0.000373     -0.001625
     12.52763      9.24947     24.70518         0.003678      0.002260     -0.003100
     12.38595      9.88916     23.44622         0.004744     -0.002742      0.001315
     11.04975     11.77774      0.02665        -0.002482      0.001298     -0.001367
     10.49257     12.12434     39.21456         0.002668     -0.000185      0.000234
      9.12365     12.51786     39.14143        -0.002895     -0.001088      0.003182
      8.46748     12.52022     37.88143         0.002112     -0.000520     -0.006210
      7.09592     12.13589     37.80779        -0.002155      0.000404      0.005523
      6.53626     11.79351     36.54772         0.000309      0.000286      0.000163
      5.56994     10.74702     36.47458        -0.000635      0.001752      0.000797
      5.27291     10.16218     35.21444        -0.001262      0.001462     -0.008286
      4.99857      8.76458     35.14056         0.000332     -0.001561      0.006365
      5.05235      8.11090     33.88038         0.000058      0.003742     -0.002805
      5.55238      6.77714     33.80718         0.000059     -0.001379     -0.002445
      5.94135      6.24907     32.54687         0.001327      0.000719     -0.000970
      7.06679      5.37595     32.47355        -0.001609      0.000990      0.002402
      7.67481      5.13017     31.21338         0.000296     -0.001628     -0.005418
      9.09123      4.97707     31.13988         0.001813      0.000549      0.003249
      9.73775      5.08677     29.87994        -0.000629     -0.001696      0.001204
     11.02334      5.70062     29.80734         0.002831     -0.001575      0.001266
     11.51584      6.13362     28.54748         0.001596     -0.000221     -0.007948
     12.28644      7.33104     28.47522        -0.000616     -0.002797      0.008488
     12.47876      7.95776     27.21564         0.000655     -0.001279     -0.002834
     12.50681      9.38206     27.14435         0.001249     -0.000461     -0.000781
     12.34136     10.01611     25.88630         0.002055      0.000153     -0.002231
      8.33776     12.50671     40.32586        -0.000098     -0.000830     -0.004644
      6.98024     12.07538     40.25243        -0.004689      0.001155      0.000936
      6.43282     11.71401     38.99219        -0.000442     -0.000410      0.001233
      5.50307     10.63493     38.91896        -0.000456      0.001494      0.001597
      5.22639     10.04016     37.65890        -0.000632      0.001497     -0.007248
      5.00049      8.63386     37.58503         0.000305     -0.000930      0.006678
      5.07696      7.98245     36.32493        -0.000930      0.001573     -0.000713
      5.62273      6.66685     36.25179        -0.001256     -0.002461     -0.001932
      6.02950      6.15251     34.99151         0.000025     -0.000499     -0.003950
      7.18449      5.31883     34.91799         0.000523     -0.001102      0.004118
      7.80073      5.09454     33.65797        -0.002371     -0.001963     -0.003875
      9.22138      4.99084     33.58478         0.000895     -0.000365     -0.001037
      9.86360      5.12325     32.32457        -0.001561     -0.002038      0.001169
     11.12684      5.78102     32.25179         0.000884     -0.000117      0.001165
     11.60386      6.23067     30.99175         0.001309      0.000745     -0.006238
     12.33377      7.45404     30.91880        -0.000206     -0.002475      0.006770
     12.50326      8.08727     29.65942         0.000405     -0.000122     -0.000603
     12.48371      9.51180     29.58717        -0.000213      0.000162      0.000112
     12.29531     10.14014     28.32795        -0.000046      0.001121     -0.007028
      5.18391      9.91663     40.10325        -0.001464      0.001135     -0.006908
      5.00671      8.50334     40.02943         0.000541      0.000374      0.004594
      5.10578      7.85487     38.76929        -0.001373      0.002944      0.001123
      5.69659      6.55885     38.69614        -0.001129     -0.000886     -0.001298
      6.12098      6.05878     37.43603         0.001164      0.000661     -0.005238
      7.30409      5.26550     37.36234        -0.002431      0.000387      0.006421
      7.92782      5.06283     36.10231        -0.002075      0.000021     -0.002634
      9.35112      5.00860     36.02924        -0.000039      0.000225     -0.001006
      9.98836      5.16316     34.76907         0.001105      0.000014     -0.000383
     11.22844      5.86418     34.69600        -0.001607      0.000628      0.002408
     11.68944      6.33043     33.43613         0.000223     -0.001001     -0.005243
     12.37715      7.57795     33.36300        -0.000587      0.000686      0.003034
     12.52469      8.21696     32.10311        -0.000255     -0.000791      0.001587
     12.45641      9.63965     32.03050        -0.002238      0.000969      0.001136
     12.24725     10.26163     30.77087        -0.002651     -0.000916     -0.007560
      6.21557      5.96855     39.88038        -0.000550     -0.000545     -0.006734
      7.42525      5.21659     39.80657        -0.003667      0.000147      0.005674
      8.05567      5.03534     38.54658         0.000035      0.000525     -0.000447
      9.48012      5.03039     38.47362         0.000550      0.000549     -0.001777
     10.11167      5.20733     37.21360         0.000617     -0.001498     -0.003137
     11.32671      5.95078     37.14028        -0.000738     -0.001279      0.004637
     11.77153      6.43271     35.88033        -0.000302     -0.001214     -0.003936
     12.41586      7.70298     35.80724         0.001580      0.001812      0.000764
     12.54177      8.34673     34.54719        -0.000844     -0.001713      0.001629
     12.42431      9.76639     34.47440         0.001562     -0.000729      0.001477
     12.19386     10.38063     33.21473        -0.000461      0.000940     -0.007021
     10.23341      5.25518     39.65791        -0.003111      0.000726     -0.005627
     11.42203      6.04016     39.58445        -0.003371     -0.000557      0.005889
     11.85003      6.53731     38.32454         0.000650     -0.002366     -0.001870
     12.45059      7.82896     38.25162         0.000008      0.003112     -0.001286
     12.55417      8.47682     36.99163        -0.001002     -0.002084     -0.000187
     12.38799      9.89159     36.91866        -0.000388      0.000228      0.003851
     12.13633     10.49766     35.65884        -0.000534     -0.000892     -0.006002
     12.56195      8.60701     39.43608        -0.001314     -0.001419     -0.002534
     12.34686     10.01507     39.36297         0.000277      0.000218      0.005393
     12.07472     10.61224     38.10312        -0.001326      0.000898     -0.004438
     14.68356      9.64573     19.17195         0.008330      0.003555      0.003245
 -----------------------------------------------------------------------------------
    total drift:                               -0.000518      0.000330     -0.000347


--------------------------------------------------------------------------------------------------------



  FREE ENERGIE OF THE ION-ELECTRON SYSTEM (eV)
  ---------------------------------------------------
  free  energy   TOTEN  =     -3324.27051524 eV

  energy  without entropy=    -3324.27051524  energy(sigma->0) =    -3324.27051524
 


--------------------------------------------------------------------------------------------------------


    POTLOK:  cpu time      1.7855: real time      1.7856


--------------------------------------------------------------------------------------------------------


 writing wavefunctions
     LOOP+:  cpu time   9805.6474: real time   9806.9978
    4ORBIT:  cpu time      0.0000: real time      0.0000



 total charge

# of ion       s       p       d       tot
------------------------------------------
    1        0.868   1.790   0.000   2.658
    2        0.868   1.790   0.000   2.658
    3        0.868   1.790   0.000   2.658
    4        0.868   1.790   0.000   2.658
    5        0.868   1.790   0.000   2.658
    6        0.868   1.790   0.000   2.658
    7        0.868   1.790   0.000   2.658
    8        0.868   1.790   0.000   2.658
    9        0.868   1.790   0.000   2.658
   10        0.868   1.790   0.000   2.658
   11        0.868   1.790   0.000   2.658
   12        0.868   1.790   0.000   2.658
   13        0.868   1.790   0.000   2.658
   14        0.868   1.791   0.000   2.659
   15        0.868   1.790   0.000   2.658
   16        0.868   1.790   0.000   2.658
   17        0.868   1.790   0.000   2.658
   18        0.868   1.790   0.000   2.658
   19        0.868   1.790   0.000   2.658
   20        0.868   1.790   0.000   2.658
   21        0.868   1.790   0.000   2.658
   22        0.868   1.790   0.000   2.658
   23        0.868   1.790   0.000   2.658
   24        0.868   1.790   0.000   2.658
   25        0.868   1.791   0.000   2.659
   26        0.868   1.791   0.000   2.659
   27        0.868   1.790   0.000   2.658
   28        0.868   1.790   0.000   2.658
   29        0.868   1.790   0.000   2.658
   30        0.868   1.790   0.000   2.658
   31        0.868   1.790   0.000   2.658
   32        0.868   1.790   0.000   2.658
   33        0.868   1.790   0.000   2.658
   34        0.868   1.790   0.000   2.658
   35        0.868   1.790   0.000   2.658
   36        0.868   1.790   0.000   2.658
   37        0.868   1.790   0.000   2.658
   38        0.868   1.791   0.000   2.658
   39        0.868   1.791   0.000   2.658
   40        0.868   1.791   0.000   2.658
   41        0.868   1.791   0.000   2.659
   42        0.868   1.790   0.000   2.659
   43        0.868   1.791   0.000   2.659
   44        0.868   1.789   0.000   2.657
   45        0.868   1.790   0.000   2.658
   46        0.868   1.790   0.000   2.657
   47        0.868   1.790   0.000   2.658
   48        0.868   1.790   0.000   2.658
   49        0.868   1.790   0.000   2.658
   50        0.868   1.790   0.000   2.658
   51        0.868   1.790   0.000   2.658
   52        0.868   1.790   0.000   2.658
   53        0.868   1.790   0.000   2.658
   54        0.868   1.790   0.000   2.658
   55        0.868   1.791   0.000   2.658
   56        0.868   1.791   0.000   2.658
   57        0.868   1.791   0.000   2.658
   58        0.868   1.791   0.000   2.659
   59        0.868   1.791   0.000   2.659
   60        0.868   1.791   0.000   2.659
   61        0.868   1.790   0.000   2.658
   62        0.868   1.790   0.000   2.658
   63        0.867   1.788   0.000   2.655
   64        0.868   1.789   0.000   2.657
   65        0.867   1.789   0.000   2.657
   66        0.868   1.789   0.000   2.657
   67        0.868   1.790   0.000   2.658
   68        0.868   1.790   0.000   2.658
   69        0.868   1.790   0.000   2.658
   70        0.868   1.790   0.000   2.658
   71        0.868   1.790   0.000   2.658
   72        0.868   1.790   0.000   2.658
   73        0.868   1.790   0.000   2.658
   74        0.868   1.790   0.000   2.658
   75        0.868   1.790   0.000   2.658
   76        0.868   1.790   0.000   2.658
   77        0.868   1.790   0.000   2.658
   78        0.868   1.791   0.000   2.658
   79        0.868   1.791   0.000   2.659
   80        0.868   1.791   0.000   2.659
   81        0.868   1.791   0.000   2.659
   82        0.868   1.791   0.000   2.659
   83        0.868   1.790   0.000   2.658
   84        0.868   1.790   0.000   2.658
   85        0.868   1.790   0.000   2.658
   86        0.865   1.782   0.000   2.648
   87        0.867   1.790   0.000   2.658
   88        0.868   1.792   0.000   2.660
   89        0.868   1.790   0.000   2.658
   90        0.868   1.790   0.000   2.658
   91        0.868   1.790   0.000   2.658
   92        0.868   1.790   0.000   2.658
   93        0.868   1.790   0.000   2.658
   94        0.868   1.790   0.000   2.658
   95        0.868   1.790   0.000   2.658
   96        0.868   1.790   0.000   2.658
   97        0.868   1.790   0.000   2.658
   98        0.868   1.790   0.000   2.658
   99        0.868   1.790   0.000   2.658
  100        0.868   1.790   0.000   2.658
  101        0.868   1.790   0.000   2.658
  102        0.868   1.791   0.000   2.659
  103        0.868   1.791   0.000   2.659
  104        0.868   1.791   0.000   2.659
  105        0.868   1.791   0.000   2.659
  106        0.868   1.791   0.000   2.659
  107        0.868   1.790   0.000   2.658
  108        0.868   1.790   0.000   2.658
  109        0.868   1.792   0.000   2.660
  110        0.868   1.786   0.000   2.654
  111        0.868   1.792   0.000   2.660
  112        0.869   1.791   0.000   2.660
  113        0.868   1.792   0.000   2.660
  114        0.868   1.791   0.000   2.659
  115        0.868   1.791   0.000   2.658
  116        0.868   1.790   0.000   2.658
  117        0.868   1.790   0.000   2.658
  118        0.868   1.790   0.000   2.658
  119        0.868   1.790   0.000   2.658
  120        0.868   1.790   0.000   2.658
  121        0.868   1.790   0.000   2.658
  122        0.868   1.790   0.000   2.658
  123        0.868   1.790   0.000   2.657
  124        0.868   1.790   0.000   2.658
  125        0.868   1.790   0.000   2.658
  126        0.868   1.790   0.000   2.658
  127        0.868   1.791   0.000   2.659
  128        0.868   1.791   0.000   2.659
  129        0.868   1.791   0.000   2.659
  130        0.868   1.791   0.000   2.659
  131        0.868   1.790   0.000   2.658
  132        0.868   1.794   0.000   2.662
  133        0.868   1.792   0.000   2.660
  134        0.868   1.791   0.000   2.659
  135        0.868   1.791   0.000   2.659
  136        0.868   1.792   0.000   2.660
  137        0.868   1.790   0.000   2.659
  138        0.868   1.791   0.000   2.659
  139        0.868   1.790   0.000   2.658
  140        0.868   1.790   0.000   2.658
  141        0.868   1.790   0.000   2.658
  142        0.868   1.790   0.000   2.658
  143        0.868   1.790   0.000   2.658
  144        0.868   1.790   0.000   2.658
  145        0.868   1.790   0.000   2.658
  146        0.868   1.789   0.000   2.657
  147        0.868   1.790   0.000   2.657
  148        0.868   1.790   0.000   2.657
  149        0.868   1.790   0.000   2.658
  150        0.868   1.790   0.000   2.658
  151        0.868   1.791   0.000   2.659
  152        0.868   1.791   0.000   2.659
  153        0.868   1.791   0.000   2.659
  154        0.868   1.791   0.000   2.659
  155        0.868   1.791   0.000   2.659
  156        0.868   1.791   0.000   2.659
  157        0.868   1.790   0.000   2.658
  158        0.868   1.789   0.000   2.657
  159        0.868   1.790   0.000   2.658
  160        0.868   1.791   0.000   2.659
  161        0.868   1.790   0.000   2.658
  162        0.868   1.790   0.000   2.658
  163        0.868   1.790   0.000   2.658
  164        0.868   1.789   0.000   2.657
  165        0.868   1.789   0.000   2.657
  166        0.868   1.790   0.000   2.658
  167        0.868   1.790   0.000   2.658
  168        0.868   1.790   0.000   2.658
  169        0.868   1.790   0.000   2.658
  170        0.868   1.790   0.000   2.657
  171        0.868   1.789   0.000   2.656
  172        0.868   1.790   0.000   2.658
  173        0.868   1.791   0.000   2.659
  174        0.868   1.791   0.000   2.659
  175        0.868   1.792   0.000   2.661
  176        0.868   1.792   0.000   2.660
  177        0.868   1.791   0.000   2.659
  178        0.868   1.791   0.000   2.659
  179        0.868   1.791   0.000   2.659
  180        0.868   1.790   0.000   2.658
  181        0.868   1.790   0.000   2.657
  182        0.868   1.790   0.000   2.658
  183        0.868   1.789   0.000   2.657
  184        0.868   1.790   0.000   2.658
  185        0.868   1.790   0.000   2.658
  186        0.868   1.790   0.000   2.658
  187        0.868   1.790   0.000   2.658
  188        0.868   1.790   0.000   2.658
  189        0.868   1.790   0.000   2.658
  190        0.868   1.790   0.000   2.658
  191        0.868   1.790   0.000   2.658
  192        0.868   1.790   0.000   2.659
  193        0.868   1.791   0.000   2.660
  194        0.868   1.791   0.000   2.659
  195        0.868   1.791   0.000   2.659
  196        0.868   1.792   0.000   2.660
  197        0.869   1.794   0.000   2.662
  198        0.870   1.795   0.000   2.665
  199        0.869   1.794   0.000   2.663
  200        0.868   1.790   0.000   2.658
  201        0.868   1.791   0.000   2.659
  202        0.868   1.790   0.000   2.658
  203        0.868   1.790   0.000   2.658
  204        0.868   1.790   0.000   2.658
  205        0.868   1.790   0.000   2.658
  206        0.868   1.790   0.000   2.658
  207        0.868   1.790   0.000   2.658
  208        0.868   1.790   0.000   2.658
  209        0.868   1.790   0.000   2.658
  210        0.868   1.790   0.000   2.658
  211        0.868   1.790   0.000   2.658
  212        0.868   1.790   0.000   2.658
  213        0.868   1.790   0.000   2.658
  214        0.868   1.791   0.000   2.659
  215        0.868   1.791   0.000   2.659
  216        0.869   1.791   0.000   2.660
  217        0.868   1.792   0.000   2.660
  218        0.868   1.786   0.000   2.654
  219        0.868   1.792   0.000   2.660
  220        0.871   1.784   0.000   2.654
  221        0.869   1.799   0.000   2.668
  222        0.868   1.790   0.000   2.658
  223        0.868   1.790   0.000   2.658
  224        0.868   1.790   0.000   2.658
  225        0.868   1.790   0.000   2.658
  226        0.868   1.790   0.000   2.658
  227        0.868   1.790   0.000   2.658
  228        0.868   1.790   0.000   2.658
  229        0.868   1.790   0.000   2.658
  230        0.868   1.790   0.000   2.658
  231        0.868   1.790   0.000   2.658
  232        0.868   1.790   0.000   2.658
  233        0.868   1.790   0.000   2.658
  234        0.868   1.790   0.000   2.658
  235        0.868   1.790   0.000   2.658
  236        0.868   1.790   0.000   2.658
  237        0.868   1.790   0.000   2.658
  238        0.868   1.790   0.000   2.658
  239        0.868   1.791   0.000   2.659
  240        0.867   1.790   0.000   2.657
  241        0.865   1.782   0.000   2.647
  242        0.844   1.720   0.000   2.564
  243        0.844   1.721   0.000   2.565
  244        0.868   1.790   0.000   2.658
  245        0.868   1.790   0.000   2.658
  246        0.868   1.790   0.000   2.658
  247        0.868   1.790   0.000   2.658
  248        0.868   1.790   0.000   2.658
  249        0.868   1.790   0.000   2.658
  250        0.868   1.790   0.000   2.658
  251        0.868   1.790   0.000   2.658
  252        0.868   1.790   0.000   2.658
  253        0.868   1.790   0.000   2.658
  254        0.868   1.790   0.000   2.658
  255        0.868   1.790   0.000   2.658
  256        0.868   1.790   0.000   2.658
  257        0.868   1.790   0.000   2.658
  258        0.868   1.790   0.000   2.658
  259        0.868   1.790   0.000   2.658
  260        0.868   1.789   0.000   2.657
  261        0.867   1.789   0.000   2.656
  262        0.868   1.789   0.000   2.656
  263        0.867   1.787   0.000   2.654
  264        0.869   1.798   0.000   2.667
  265        0.870   1.783   0.000   2.654
  266        0.868   1.790   0.000   2.658
  267        0.868   1.790   0.000   2.658
  268        0.868   1.790   0.000   2.658
  269        0.868   1.790   0.000   2.658
  270        0.868   1.790   0.000   2.658
  271        0.868   1.790   0.000   2.658
  272        0.868   1.790   0.000   2.658
  273        0.868   1.790   0.000   2.658
  274        0.868   1.790   0.000   2.658
  275        0.868   1.790   0.000   2.658
  276        0.868   1.790   0.000   2.658
  277        0.868   1.790   0.000   2.658
  278        0.868   1.790   0.000   2.658
  279        0.868   1.790   0.000   2.658
  280        0.868   1.790   0.000   2.658
  281        0.868   1.790   0.000   2.657
  282        0.868   1.790   0.000   2.657
  283        0.868   1.789   0.000   2.657
  284        0.868   1.791   0.000   2.659
  285        0.868   1.790   0.000   2.658
  286        0.869   1.793   0.000   2.662
  287        0.870   1.795   0.000   2.665
  288        0.868   1.790   0.000   2.658
  289        0.868   1.790   0.000   2.658
  290        0.868   1.790   0.000   2.658
  291        0.868   1.790   0.000   2.658
  292        0.868   1.790   0.000   2.658
  293        0.868   1.790   0.000   2.658
  294        0.868   1.790   0.000   2.658
  295        0.868   1.790   0.000   2.658
  296        0.868   1.790   0.000   2.658
  297        0.868   1.790   0.000   2.658
  298        0.868   1.790   0.000   2.658
  299        0.868   1.790   0.000   2.658
  300        0.868   1.790   0.000   2.658
  301        0.868   1.790   0.000   2.658
  302        0.868   1.790   0.000   2.658
  303        0.868   1.790   0.000   2.658
  304        0.868   1.790   0.000   2.658
  305        0.868   1.790   0.000   2.658
  306        0.868   1.791   0.000   2.659
  307        0.868   1.791   0.000   2.659
  308        0.868   1.792   0.000   2.660
  309        0.868   1.792   0.000   2.661
  310        0.868   1.790   0.000   2.658
  311        0.868   1.790   0.000   2.658
  312        0.868   1.790   0.000   2.658
  313        0.868   1.790   0.000   2.658
  314        0.868   1.790   0.000   2.658
  315        0.868   1.790   0.000   2.658
  316        0.868   1.790   0.000   2.658
  317        0.868   1.790   0.000   2.658
  318        0.868   1.790   0.000   2.658
  319        0.868   1.790   0.000   2.658
  320        0.868   1.790   0.000   2.658
  321        0.868   1.790   0.000   2.658
  322        0.868   1.790   0.000   2.658
  323        0.868   1.791   0.000   2.658
  324        0.868   1.790   0.000   2.658
  325        0.868   1.791   0.000   2.659
  326        0.868   1.791   0.000   2.659
  327        0.868   1.791   0.000   2.659
  328        0.868   1.791   0.000   2.659
  329        0.868   1.790   0.000   2.658
  330        0.868   1.790   0.000   2.658
  331        0.868   1.790   0.000   2.658
  332        0.868   1.791   0.000   2.658
  333        0.868   1.790   0.000   2.658
  334        0.868   1.790   0.000   2.658
  335        0.868   1.790   0.000   2.658
  336        0.868   1.790   0.000   2.658
  337        0.868   1.790   0.000   2.658
  338        0.868   1.790   0.000   2.658
  339        0.868   1.790   0.000   2.658
  340        0.868   1.790   0.000   2.658
  341        0.868   1.790   0.000   2.658
  342        0.868   1.791   0.000   2.659
  343        0.868   1.791   0.000   2.659
  344        0.868   1.791   0.000   2.658
  345        0.868   1.791   0.000   2.659
  346        0.868   1.790   0.000   2.658
  347        0.868   1.790   0.000   2.658
  348        0.868   1.790   0.000   2.658
  349        0.868   1.791   0.000   2.658
  350        0.868   1.790   0.000   2.658
  351        0.868   1.790   0.000   2.658
  352        0.868   1.790   0.000   2.658
  353        0.868   1.791   0.000   2.658
  354        0.868   1.791   0.000   2.659
  355        0.868   1.790   0.000   2.658
  356        0.868   1.790   0.000   2.658
  357        0.868   1.791   0.000   2.658
  358        0.868   1.790   0.000   2.658
  359        0.868   1.790   0.000   2.658
  360        0.868   1.790   0.000   2.658
  361        0.868   1.790   0.000   2.658
  362        0.868   1.790   0.000   2.658
  363        0.868   1.790   0.000   2.658
  364        0.868   1.790   0.000   2.658
  365        1.487   2.243   0.042   3.772
--------------------------------------------------
tot        317.372 653.791   0.042 971.205



 magnetization (x)

# of ion       s       p       d       tot
------------------------------------------
    1       -0.000  -0.000   0.000  -0.000
    2       -0.000  -0.000   0.000  -0.000
    3       -0.000  -0.000   0.000  -0.000
    4       -0.000  -0.000   0.000  -0.000
    5       -0.000  -0.000   0.000  -0.000
    6       -0.000  -0.000   0.000  -0.000
    7       -0.000  -0.000   0.000  -0.000
    8       -0.000  -0.000   0.000  -0.000
    9       -0.000  -0.000   0.000  -0.000
   10       -0.000  -0.000   0.000  -0.000
   11       -0.000  -0.000   0.000  -0.000
   12       -0.000  -0.000   0.000  -0.000
   13       -0.000  -0.000   0.000  -0.000
   14       -0.000  -0.000   0.000  -0.000
   15       -0.000  -0.000   0.000  -0.000
   16       -0.000  -0.000   0.000  -0.000
   17       -0.000  -0.000   0.000  -0.000
   18       -0.000  -0.000   0.000  -0.000
   19       -0.000  -0.000   0.000  -0.000
   20       -0.000  -0.000   0.000  -0.000
   21       -0.000  -0.000   0.000  -0.000
   22       -0.000  -0.000   0.000  -0.000
   23       -0.000  -0.000   0.000  -0.000
   24       -0.000  -0.000   0.000  -0.000
   25       -0.000  -0.000   0.000  -0.000
   26        0.000   0.000   0.000   0.000
   27        0.000   0.000   0.000   0.000
   28        0.000   0.000   0.000   0.000
   29       -0.000  -0.000   0.000  -0.000
   30       -0.000  -0.000   0.000  -0.000
   31       -0.000  -0.000   0.000  -0.000
   32       -0.000  -0.000   0.000  -0.000
   33       -0.000  -0.000   0.000  -0.000
   34       -0.000  -0.000   0.000  -0.000
   35       -0.000  -0.000   0.000  -0.000
   36       -0.000  -0.000   0.000  -0.000
   37       -0.000  -0.000   0.000  -0.000
   38       -0.000  -0.000   0.000  -0.000
   39       -0.000  -0.000   0.000  -0.000
   40       -0.000  -0.000   0.000  -0.000
   41       -0.000  -0.000   0.000  -0.000
   42        0.000   0.000   0.000   0.000
   43        0.000   0.000   0.000   0.000
   44        0.000   0.000   0.000   0.000
   45        0.000   0.000   0.000   0.000
   46        0.000   0.000   0.000   0.000
   47        0.000   0.000   0.000   0.000
   48       -0.000  -0.000   0.000  -0.000
   49       -0.000  -0.000   0.000  -0.000
   50       -0.000  -0.000   0.000  -0.000
   51       -0.000  -0.000   0.000  -0.000
   52       -0.000  -0.000   0.000  -0.000
   53       -0.000  -0.000   0.000  -0.000
   54       -0.000  -0.000   0.000  -0.000
   55       -0.000  -0.000   0.000  -0.000
   56       -0.000  -0.000   0.000  -0.000
   57       -0.000  -0.000   0.000  -0.000
   58       -0.000  -0.000   0.000  -0.000
   59       -0.000  -0.000   0.000  -0.000
   60       -0.000  -0.000   0.000  -0.000
   61       -0.000  -0.000   0.000  -0.000
   62       -0.000  -0.000   0.000  -0.000
   63        0.000   0.000   0.000   0.000
   64        0.000   0.000   0.000   0.000
   65        0.000   0.000   0.000   0.000
   66        0.000   0.000   0.000   0.000
   67        0.000   0.000   0.000   0.000
   68        0.000   0.000   0.000   0.000
   69       -0.000  -0.000   0.000  -0.000
   70       -0.000  -0.000   0.000  -0.000
   71       -0.000  -0.000   0.000  -0.000
   72       -0.000  -0.000   0.000  -0.000
   73       -0.000  -0.000   0.000  -0.000
   74       -0.000  -0.000   0.000  -0.000
   75       -0.000  -0.000   0.000  -0.000
   76       -0.000  -0.000   0.000  -0.000
   77       -0.000  -0.000   0.000  -0.000
   78       -0.000  -0.000   0.000  -0.000
   79       -0.000  -0.000   0.000  -0.000
   80       -0.000  -0.000   0.000  -0.000
   81       -0.000  -0.000   0.000  -0.000
   82       -0.000  -0.000   0.000  -0.000
   83       -0.000  -0.000   0.000  -0.000
   84       -0.000  -0.000   0.000  -0.000
   85       -0.000  -0.000   0.000  -0.000
   86        0.000   0.000   0.000   0.000
   87        0.000   0.000   0.000   0.000
   88        0.000   0.000   0.000   0.000
   89        0.000   0.000   0.000   0.000
   90        0.000   0.000   0.000   0.000
   91        0.000   0.000   0.000   0.000
   92       -0.000   0.000   0.000   0.000
   93        0.000   0.000   0.000   0.000
   94       -0.000  -0.000   0.000  -0.000
   95       -0.000  -0.000   0.000  -0.000
   96        0.000  -0.000   0.000  -0.000
   97       -0.000  -0.000   0.000  -0.000
   98        0.000   0.000   0.000   0.000
   99       -0.000  -0.000   0.000  -0.000
  100        0.000  -0.000   0.000   0.000
  101       -0.000  -0.000   0.000  -0.000
  102       -0.000  -0.000   0.000  -0.000
  103       -0.000  -0.000   0.000  -0.000
  104       -0.000  -0.000   0.000  -0.000
  105       -0.000  -0.000   0.000  -0.000
  106       -0.000  -0.000   0.000  -0.000
  107       -0.000  -0.000   0.000  -0.000
  108       -0.000  -0.000   0.000  -0.000
  109        0.000   0.000   0.000   0.000
  110        0.000   0.000   0.000   0.000
  111        0.000   0.000   0.000   0.000
  112        0.000   0.000   0.000   0.000
  113        0.000   0.000   0.000   0.000
  114        0.000   0.000   0.000   0.000
  115        0.000   0.000   0.000   0.000
  116        0.000   0.000   0.000   0.000
  117       -0.000  -0.000   0.000  -0.000
  118       -0.000  -0.000   0.000  -0.000
  119        0.000  -0.000   0.000  -0.000
  120       -0.000  -0.000   0.000  -0.000
  121        0.000   0.000   0.000   0.000
  122       -0.000  -0.000   0.000  -0.000
  123        0.000   0.000   0.000   0.000
  124        0.000   0.000   0.000   0.000
  125        0.000   0.000   0.000   0.000
  126        0.000   0.000   0.000   0.000
  127        0.000   0.000   0.000   0.000
  128       -0.000  -0.000   0.000  -0.000
  129        0.000   0.000   0.000   0.000
  130       -0.000  -0.000   0.000  -0.000
  131       -0.000  -0.000   0.000  -0.000
  132        0.000   0.000   0.000   0.000
  133        0.000   0.000   0.000   0.000
  134        0.000   0.000   0.000   0.000
  135        0.000   0.000   0.000   0.000
  136        0.000   0.000   0.000   0.000
  137        0.000   0.000   0.000   0.000
  138        0.000   0.000   0.000   0.000
  139        0.000   0.000   0.000   0.000
  140       -0.000  -0.000   0.000  -0.000
  141       -0.000  -0.000   0.000  -0.000
  142        0.000  -0.000   0.000   0.000
  143       -0.000  -0.000   0.000  -0.000
  144        0.000   0.000   0.000   0.000
  145       -0.000   0.000   0.000   0.000
  146        0.000   0.000   0.000   0.000
  147        0.000   0.000   0.000   0.000
  148        0.000   0.000   0.000   0.000
  149        0.000   0.000   0.000   0.000
  150        0.000   0.000   0.000   0.000
  151        0.000   0.000   0.000   0.000
  152        0.000   0.000   0.000   0.000
  153        0.000   0.000   0.000   0.000
  154        0.000   0.000   0.000   0.000
  155        0.000   0.000   0.000   0.000
  156        0.000   0.000   0.000   0.000
  157        0.000   0.000   0.000   0.000
  158        0.000   0.000   0.000   0.000
  159        0.000   0.000   0.000   0.000
  160        0.000   0.000   0.000   0.000
  161        0.000   0.000   0.000   0.000
  162        0.000   0.000   0.000   0.000
  163       -0.000  -0.000   0.000  -0.000
  164        0.000  -0.000   0.000  -0.000
  165        0.000  -0.000   0.000  -0.000
  166       -0.000  -0.000   0.000  -0.000
  167        0.000   0.000   0.000   0.000
  168        0.000   0.000   0.000   0.000
  169        0.000   0.000   0.000   0.000
  170        0.000   0.000   0.000   0.000
  171        0.000   0.000   0.000   0.000
  172        0.000   0.000   0.000   0.000
  173        0.000   0.000   0.000   0.000
  174        0.000   0.000   0.000   0.000
  175        0.000   0.000   0.000   0.000
  176        0.000   0.000   0.000   0.000
  177        0.000   0.000   0.000   0.000
  178        0.000   0.000   0.000   0.000
  179        0.000   0.000   0.000   0.000
  180        0.000   0.000   0.000   0.000
  181        0.000   0.000   0.000   0.000
  182        0.000   0.000   0.000   0.000
  183        0.000   0.000   0.000   0.000
  184       -0.000  -0.000   0.000  -0.000
  185        0.000   0.000   0.000   0.000
  186       -0.000  -0.000   0.000  -0.000
  187       -0.000  -0.000   0.000  -0.000
  188        0.000  -0.000   0.000  -0.000
  189       -0.000  -0.000   0.000  -0.000
  190        0.000   0.000   0.000   0.000
  191        0.000   0.000   0.000   0.000
  192        0.000   0.000   0.000   0.000
  193        0.000   0.000   0.000   0.000
  194        0.000   0.000   0.000   0.000
  195        0.000   0.000   0.000   0.000
  196        0.000   0.000   0.000   0.000
  197        0.000   0.000   0.000   0.000
  198        0.000   0.000   0.000   0.000
  199        0.000   0.000   0.000   0.000
  200       -0.000  -0.000   0.000  -0.000
  201        0.000   0.000   0.000   0.000
  202        0.000  -0.000   0.000  -0.000
  203        0.000   0.000   0.000   0.000
  204       -0.000   0.000   0.000   0.000
  205        0.000   0.000   0.000   0.000
  206       -0.000  -0.000   0.000  -0.000
  207        0.000  -0.000   0.000   0.000
  208       -0.000  -0.000   0.000  -0.000
  209        0.000  -0.000   0.000  -0.000
  210        0.000  -0.000   0.000  -0.000
  211       -0.000  -0.000   0.000  -0.000
  212        0.000   0.000   0.000   0.000
  213        0.000   0.000   0.000   0.000
  214        0.000   0.000   0.000   0.000
  215        0.000   0.000   0.000   0.000
  216        0.000   0.000   0.000   0.000
  217        0.000   0.000   0.000   0.000
  218        0.000   0.000   0.000   0.000
  219        0.000   0.000   0.000   0.000
  220        0.000  -0.000   0.000   0.000
  221        0.000   0.000   0.000   0.000
  222       -0.000  -0.000   0.000  -0.000
  223       -0.000  -0.000   0.000  -0.000
  224       -0.000  -0.000   0.000  -0.000
  225       -0.000  -0.000   0.000  -0.000
  226       -0.000  -0.000   0.000  -0.000
  227       -0.000  -0.000   0.000  -0.000
  228       -0.000  -0.000   0.000  -0.000
  229       -0.000  -0.000   0.000  -0.000
  230       -0.000  -0.000   0.000  -0.000
  231       -0.000  -0.000   0.000  -0.000
  232       -0.000  -0.000   0.000  -0.000
  233       -0.000  -0.000   0.000  -0.000
  234        0.000   0.000   0.000   0.000
  235        0.000   0.000   0.000   0.000
  236        0.000   0.000   0.000   0.000
  237        0.000   0.000   0.000   0.000
  238        0.000   0.000   0.000   0.000
  239        0.000   0.000   0.000   0.000
  240        0.000   0.000   0.000   0.000
  241        0.000   0.000   0.000   0.000
  242        0.000  -0.000   0.000  -0.000
  243        0.000  -0.000   0.000  -0.000
  244       -0.000  -0.000   0.000  -0.000
  245       -0.000  -0.000   0.000  -0.000
  246       -0.000  -0.000   0.000  -0.000
  247       -0.000  -0.000   0.000  -0.000
  248       -0.000  -0.000   0.000  -0.000
  249       -0.000  -0.000   0.000  -0.000
  250       -0.000  -0.000   0.000  -0.000
  251       -0.000  -0.000   0.000  -0.000
  252       -0.000  -0.000   0.000  -0.000
  253       -0.000  -0.000   0.000  -0.000
  254       -0.000  -0.000   0.000  -0.000
  255       -0.000  -0.000   0.000  -0.000
  256        0.000   0.000   0.000   0.000
  257       -0.000   0.000   0.000   0.000
  258        0.000   0.000   0.000   0.000
  259        0.000   0.000   0.000   0.000
  260        0.000   0.000   0.000   0.000
  261        0.000   0.000   0.000   0.000
  262        0.000   0.000   0.000   0.000
  263        0.000   0.000   0.000   0.000
  264        0.000   0.000   0.000   0.000
  265        0.000  -0.000   0.000   0.000
  266       -0.000  -0.000   0.000  -0.000
  267       -0.000  -0.000   0.000  -0.000
  268       -0.000  -0.000   0.000  -0.000
  269       -0.000  -0.000   0.000  -0.000
  270       -0.000  -0.000   0.000  -0.000
  271       -0.000  -0.000   0.000  -0.000
  272       -0.000  -0.000   0.000  -0.000
  273       -0.000  -0.000   0.000  -0.000
  274       -0.000  -0.000   0.000  -0.000
  275       -0.000  -0.000   0.000  -0.000
  276       -0.000  -0.000   0.000  -0.000
  277       -0.000  -0.000   0.000  -0.000
  278       -0.000  -0.000   0.000  -0.000
  279       -0.000  -0.000   0.000  -0.000
  280        0.000   0.000   0.000   0.000
  281        0.000   0.000   0.000   0.000
  282        0.000   0.000   0.000   0.000
  283        0.000   0.000   0.000   0.000
  284        0.000   0.000   0.000   0.000
  285        0.000   0.000   0.000   0.000
  286        0.000   0.000   0.000   0.000
  287        0.000   0.000   0.000   0.000
  288       -0.000  -0.000   0.000  -0.000
  289       -0.000  -0.000   0.000  -0.000
  290       -0.000  -0.000   0.000  -0.000
  291       -0.000  -0.000   0.000  -0.000
  292       -0.000  -0.000   0.000  -0.000
  293       -0.000  -0.000   0.000  -0.000
  294       -0.000  -0.000   0.000  -0.000
  295       -0.000  -0.000   0.000  -0.000
  296       -0.000  -0.000   0.000  -0.000
  297       -0.000  -0.000   0.000  -0.000
  298       -0.000  -0.000   0.000  -0.000
  299       -0.000  -0.000   0.000  -0.000
  300       -0.000  -0.000   0.000  -0.000
  301       -0.000  -0.000   0.000  -0.000
  302       -0.000  -0.000   0.000  -0.000
  303       -0.000  -0.000   0.000  -0.000
  304        0.000   0.000   0.000   0.000
  305        0.000   0.000   0.000   0.000
  306        0.000   0.000   0.000   0.000
  307        0.000   0.000   0.000   0.000
  308        0.000   0.000   0.000   0.000
  309        0.000   0.000   0.000   0.000
  310       -0.000  -0.000   0.000  -0.000
  311       -0.000  -0.000   0.000  -0.000
  312       -0.000  -0.000   0.000  -0.000
  313       -0.000  -0.000   0.000  -0.000
  314       -0.000  -0.000   0.000  -0.000
  315       -0.000  -0.000   0.000  -0.000
  316       -0.000  -0.000   0.000  -0.000
  317       -0.000  -0.000   0.000  -0.000
  318       -0.000  -0.000   0.000  -0.000
  319       -0.000  -0.000   0.000  -0.000
  320       -0.000  -0.000   0.000  -0.000
  321       -0.000  -0.000   0.000  -0.000
  322       -0.000  -0.000   0.000  -0.000
  323       -0.000  -0.000   0.000  -0.000
  324       -0.000  -0.000   0.000  -0.000
  325        0.000  -0.000   0.000  -0.000
  326        0.000   0.000   0.000   0.000
  327        0.000   0.000   0.000   0.000
  328        0.000   0.000   0.000   0.000
  329       -0.000  -0.000   0.000  -0.000
  330       -0.000  -0.000   0.000  -0.000
  331       -0.000  -0.000   0.000  -0.000
  332       -0.000  -0.000   0.000  -0.000
  333       -0.000  -0.000   0.000  -0.000
  334       -0.000  -0.000   0.000  -0.000
  335       -0.000  -0.000   0.000  -0.000
  336       -0.000  -0.000   0.000  -0.000
  337       -0.000  -0.000   0.000  -0.000
  338       -0.000  -0.000   0.000  -0.000
  339       -0.000  -0.000   0.000  -0.000
  340       -0.000  -0.000   0.000  -0.000
  341       -0.000  -0.000   0.000  -0.000
  342       -0.000  -0.000   0.000  -0.000
  343        0.000   0.000   0.000   0.000
  344       -0.000  -0.000   0.000  -0.000
  345       -0.000  -0.000   0.000  -0.000
  346       -0.000  -0.000   0.000  -0.000
  347       -0.000  -0.000   0.000  -0.000
  348       -0.000  -0.000   0.000  -0.000
  349       -0.000  -0.000   0.000  -0.000
  350       -0.000  -0.000   0.000  -0.000
  351       -0.000  -0.000   0.000  -0.000
  352       -0.000  -0.000   0.000  -0.000
  353       -0.000  -0.000   0.000  -0.000
  354       -0.000  -0.000   0.000  -0.000
  355       -0.000  -0.000   0.000  -0.000
  356       -0.000  -0.000   0.000  -0.000
  357       -0.000  -0.000   0.000  -0.000
  358       -0.000  -0.000   0.000  -0.000
  359       -0.000  -0.000   0.000  -0.000
  360       -0.000  -0.000   0.000  -0.000
  361       -0.000  -0.000   0.000  -0.000
  362       -0.000  -0.000   0.000  -0.000
  363       -0.000  -0.000   0.000  -0.000
  364       -0.000  -0.000   0.000  -0.000
  365        0.000   0.000   0.000   0.000
--------------------------------------------------
tot          0.000   0.000   0.000   0.000
 

 total amount of memory used by VASP MPI-rank0  1311686. kBytes
=======================================================================

   base      :      30000. kBytes
   nonl-proj :     741511. kBytes
   fftplans  :     107177. kBytes
   grid      :     217728. kBytes
   one-center:       1492. kBytes
   wavefun   :     213778. kBytes
 
  
  
 General timing and accounting informations for this job:
 ========================================================
  
                  Total CPU time used (sec):     9969.572
                            User time (sec):     9930.804
                          System time (sec):       38.768
                         Elapsed time (sec):     9971.660
  
                   Maximum memory used (kb):     1837124.
                   Average memory used (kb):          N/A
  
                          Minor page faults:       397276
                          Major page faults:         1563
                 Voluntary context switches:         4905
 
 PROFILE, used timers:     335
 =============================
 
 index                 routine                    time                            calls level
----------------------------------------------------------------------------------------------
    1    total_time                         9971.660329                                1   1
    2      crpa_reader                           0.000029                              1   2
    3      m_bcast_d                             0.204497                              3   2
    4      inisym                                0.007000                              1   2
    5        posmap                                0.000128                            2   3
    6      brgrid                                0.000635                              1   2
    7      stufak                                0.571237                              1   2
    8      m_sumb_d                              1.240472                           3314   2
    9      fft3d_mpi                             0.158613                              5   2
   10        fftbas_mpi                            0.158602                            5   3
   11          fftbas_plan_mpi                       0.158592                          5   4
   12            dfftw_execute                         0.039605                       15   5
   13            map_forward                           0.118615                       10   5
   14              map_gather                            0.015475                      5   6
   15              m_alltoallv_z                         0.072059                      5   6
   16              map_scatter                           0.031010                      5   6
   17      spher                                 0.066709                              1   2
   18      phase                                 0.000002                              1   2
   19      wfinit                               41.771638                              1   2
   20        m_bcast_z                            18.310517                         3696   3
   21        m_sumb_d                              0.008557                          226   3
   22      setdij_                               0.071680                              2   2
   23        m_alltoall_d                          0.033950                            4   3
   24        m_sumb_d                              0.001455                            2   3
   25      vectorpot                             0.000000                              1   2
   26      proall                               33.697924                              1   2
   27        phase                                 0.686106                            1   3
   28        proj                                 33.011813                            1   3
   29          proj1                                33.011577                         56   4
   30            crexp_mul_wave                        5.640496                    20440   5
   31            m_sumb_d                             15.270014                       56   5
   32      orthch                                5.778752                              1   2
   33        overl                                 0.000457                            2   3
   34        redis_proj                            3.712612                            6   3
   35          m_alltoall_d                          3.712400                        168   4
   36        redis_pw                              0.553969                            4   3
   37          m_alltoall_d                          0.503590                        112   4
   38        orth1                                 0.624550                           56   3
   39        m_alltoall_d                          0.136093                            8   3
   40        choleski                              0.119027                            2   3
   41        lincom                                0.609309                            2   3
   42      redis_pw_over_bands                   0.000000                              1   2
   43      m_bcast_z                             0.000307                              2   2
   44      fewald                                0.252828                              1   2
   45        rsp                                   0.004435                            1   3
   46        rcp                                   0.000297                            1   3
   47        m_sumb_d                              0.203078                            5   3
   48        m_alltoall_d                          0.042633                            2   3
   49      elmin                              9199.728768                              1   2
   50        potlok                               59.624915                           40   3
   51          fft3d_mpi                            35.880734                       1040   4
   52            fftbas_mpi                           35.879061                     1040   5
   53              fftbas_plan_mpi                      35.877639                   1040   6
   54                dfftw_execute                        10.150595                 3120   7
   55                map_forward                          14.118572                 1120   7
   56                  map_gather                            2.186221                640   8
   57                  m_alltoallv_z                         7.306914                640   8
   58                  map_scatter                           4.615373                640   8
   59                map_backward                         11.575902                  960   7
   60                  map_gather                            3.321290                480   8
   61                  m_alltoallv_z                         6.235402                480   8
   62                  map_scatter                           2.011157                480   8
   63          m_sumb_d                              0.058213                        200   4
   64          pothar                                0.387716                         40   4
   65            m_sumb_d                              0.052702                       40   5
   66          m_bcast_z                             2.143914                         80   4
   67        potlok_metagga                        0.000017                           40   3
   68        vectorpot                             0.000019                           40   3
   69        setdij_                               2.171064                           40   3
   70          m_alltoall_d                          1.499786                         80   4
   71          m_sumb_d                              0.033683                         40   4
   72        set_dd_magatom                        0.000004                           40   3
   73        set_dd_paw                            2.926125                           40   3
   74          set_rsgf_all                          0.000042                         40   4
   75          m_alltoall_d                          2.260779                        400   4
   76          m_sumb_d                              0.524812                        280   4
   77        eddav                              8966.971359                           44   3
   78          m_sumb_d                             11.091321                      15372   4
   79          phase                                 0.000039                         88   4
   80          redis_proj                          488.141187                      23176   4
   81            m_alltoall_d                        487.991752                    27928   5
   82          redis_pw                            231.863860                      18042   4
   83            m_alltoall_d                        221.203507                    22794   5
   84          newband                             193.557763                       7686   4
   85            w1_copy                               1.794814                     4928   5
   86            redis_pw                              8.812442                     2464   5
   87              m_alltoall_d                          8.113992                   2464   6
   88            redis_proj                            0.881107                     2464   5
   89              m_alltoall_d                          0.867461                   2464   6
   90            fftwav_mpi                          147.185914                     2464   5
   91              fft3d_mpi                           129.301729                   2464   6
   92                fftbas_mpi                          129.296240                 2464   7
   93                  fftbas_plan_mpi                     129.291698               2464   8
   94                    dfftw_execute                        77.251122             7392   9
   95                    map_forward                          51.921963             4928   9
   96                      map_gather                           10.066510           2464  10
   97                      m_alltoallv_z                        18.468735           2464  10
   98                      map_scatter                          11.300765           2464  10
   99            eccp                                 32.871229                     2464   5
  100              m_sumb_d                              1.565802                   2464   6
  101            truncate_high_frequency_w1            0.000908                     2464   5
  102            setup_precond                         1.956585                     2464   5
  103              m_sumb_d                              0.174183                   2464   6
  104          hamiltmu                           4001.738151                       7598   4
  105            vhamil                              190.073461                     7598   5
  106            overl1                                0.921508                     7598   5
  107            vnlac0                             3082.287802                     7598   5
  108              m_sumb_d                              3.138685                   7598   6
  109              gemm                               1794.656511                2773270   6
  110              work_mul_crexp                     1277.035687                2773270   6
  111            kinhamil                            725.074212                     7598   5
  112              fftext_mpi                          723.114211                   7598   6
  113                fft3d_mpi                           693.432443                 7598   7
  114                  fftbas_mpi                          693.418977               7598   8
  115                    fftbas_plan_mpi                     693.409949             7598   9
  116                      dfftw_execute                       201.504115          22794  10
  117                      map_backward                        491.614564          15196  10
  118                        map_gather                           16.299285         7598  11
  119                        m_alltoallv_z                       462.430743         7598  11
  120                        map_scatter                          12.814482         7598  11
  121          overl                                 0.469743                      12732   4
  122          truncate_high_frequency_w1            0.002161                       7598   4
  123          w1_copy                               5.560101                      17866   4
  124          orth1                               184.875362                      22794   4
  125          m_alltoall_d                         85.482522                      41364   4
  126          lapack                               14.283158                       7598   4
  127          m_bcast_z                             1.288371                       7642   4
  128          m_bcast_d                             0.302955                      15196   4
  129          apply_precond                         3.444839                       5134   4
  130          w1_projall                         3198.967636                       5134   4
  131            proj1                              3198.940302                     5134   5
  132              crexp_mul_wave                     1064.797177                1873910   6
  133              m_sumb_d                            132.033939                   5134   6
  134          ggemm                               167.021110                      10062   4
  135          fftwav_mpi                          306.013040                       5134   4
  136            fft3d_mpi                           271.025156                     5134   5
  137              fftbas_mpi                          271.017056                   5134   6
  138                fftbas_plan_mpi                     271.008328                 5134   7
  139                  dfftw_execute                       162.757456              15402   8
  140                  map_forward                         108.036363              10268   8
  141                    map_gather                           25.645231             5134   9
  142                    m_alltoallv_z                        36.410534             5134   9
  143                    map_scatter                          23.817881             5134   9
  144          pdssyex_zheevx                       11.955851                         88   4
  145            FERMAT_RAZOR                          0.000017                        1   5
  146          lincom                               53.504923                         88   4
  147        m_sumb_d                              0.149354                          310   3
  148        densta                                0.053320                           44   3
  149          m_sumb_d                              0.048461                        750   4
  150        set_charge                          163.374704                           39   3
  151          soft_charge                         157.291521                         39   4
  152            fftwav_mpi                          104.813717                     1796   5
  153              fft3d_mpi                            95.136846                   1796   6
  154                fftbas_mpi                           95.133881                 1796   7
  155                  fftbas_plan_mpi                      95.131060               1796   8
  156                    dfftw_execute                        66.845007             5388   9
  157                    map_forward                          28.218287             3592   9
  158                      map_gather                            5.530201           1796  10
  159                      m_alltoallv_z                         8.862747           1796  10
  160                      map_scatter                           7.694672           1796  10
  161            pw_charge                            29.471847                     1796   5
  162            m_alltoall_d                         17.645590                    42432   5
  163            fft_gq                                2.447105                       39   5
  164              fft3d_mpi                             2.261925                     78   6
  165                fftbas_mpi                            2.261848                   78   7
  166                  fftbas_plan_mpi                       2.261788                 78   8
  167                    dfftw_execute                         0.807171              234   9
  168                    map_backward                          1.453104              156   9
  169                      map_gather                            0.433522            156  10
  170                      m_alltoallv_z                         0.990228            156  10
  171                      map_scatter                           0.028199            156  10
  172          depsum                                0.856050                         39   4
  173            m_alltoall_d                          0.820599                      390   5
  174            m_sumb_d                              0.004473                       39   5
  175          augmentation_charge                   5.095088                         39   4
  176            m_alltoall_d                          0.869403                      624   5
  177            fft3d_mpi                             2.948934                       78   5
  178              fftbas_mpi                            2.948810                     78   6
  179                fftbas_plan_mpi                       2.948685                   78   7
  180                  dfftw_execute                         0.704997                234   8
  181                  map_backward                          2.240938                156   8
  182                    map_gather                            0.367979               78   9
  183                    m_alltoallv_z                         1.550248               78   9
  184                    map_scatter                           0.321661               78   9
  185        brmix                                 3.787963                           39   3
  186          m_sumb_d                              1.350824                        234   4
  187          brpre                                 0.005340                         78   4
  188          setg0                                 0.156317                         41   4
  189          broyd                                 0.923148                         39   4
  190            m_sumb_d                              0.379262                     1008   5
  191            brsav                                 0.038317                      943   5
  192            brget                                 0.188998                     4050   5
  193          m_bcast_z                             0.793491                         39   4
  194          m_bcast_d                             0.007143                         39   4
  195        m_bcast_z                             0.000020                            1   3
  196      rotate_active_occupied_orbital        0.000000                              1   2
  197      sphpro_fast                           2.173609                              2   2
  198        m_sumb_d                              0.001760                            4   3
  199        m_alltoall_d                          0.539099                           12   3
  200      force_and_stress                    417.848507                              1   2
  201        set_charge                            4.150667                            1   3
  202          soft_charge                           3.985311                          1   4
  203            fftwav_mpi                            2.629961                       46   5
  204              fft3d_mpi                             2.389877                     46   6
  205                fftbas_mpi                            2.389789                   46   7
  206                  fftbas_plan_mpi                       2.389693                 46   8
  207                    dfftw_execute                         1.703653              138   9
  208                    map_forward                           0.684553               92   9
  209                      map_gather                            0.135800             46  10
  210                      m_alltoallv_z                         0.207173             46  10
  211                      map_scatter                           0.197582             46  10
  212            pw_charge                             0.790821                       46   5
  213            m_alltoall_d                          0.450706                     1088   5
  214            fft_gq                                0.054067                        1   5
  215              fft3d_mpi                             0.049852                      2   6
  216                fftbas_mpi                            0.049849                    2   7
  217                  fftbas_plan_mpi                       0.049847                  2   8
  218                    dfftw_execute                         0.019216                6   9
  219                    map_backward                          0.030598                4   9
  220                      map_gather                            0.008904              4  10
  221                      m_alltoallv_z                         0.020957              4  10
  222                      map_scatter                           0.000704              4  10
  223          depsum                                0.032066                          1   4
  224            m_alltoall_d                          0.031220                       10   5
  225            m_sumb_d                              0.000025                        1   5
  226          augmentation_charge                   0.130269                          1   4
  227            m_alltoall_d                          0.034389                       16   5
  228            fft3d_mpi                             0.066213                        2   5
  229              fftbas_mpi                            0.066212                      2   6
  230                fftbas_plan_mpi                       0.066207                    2   7
  231                  dfftw_execute                         0.018545                  6   8
  232                  map_backward                          0.047591                  4   8
  233                    map_gather                            0.007400                2   9
  234                    m_alltoallv_z                         0.032876                2   9
  235                    map_scatter                           0.007289                2   9
  236        forloc                                0.624326                            1   3
  237          m_sumb_d                              0.009823                          1   4
  238        fornl                                86.950339                            1   3
  239          phase                                 0.000000                          1   4
  240          m_sumb_d                              1.154260                        226   4
  241        fordep                                0.183978                            1   3
  242          setdij_                               0.182694                          6   4
  243            m_alltoall_d                          0.065339                       12   5
  244            m_sumb_d                              0.002539                        6   5
  245          m_sumb_d                              0.000058                          1   4
  246        setdij_                               0.488294                           20   3
  247          m_alltoall_d                          0.100799                         40   4
  248          m_sumb_d                              0.019819                         20   4
  249        set_dd_magatom                        0.000000                            1   3
  250        set_dd_paw                            0.044513                            1   3
  251          set_rsgf_all                          0.000001                          1   4
  252          m_alltoall_d                          0.026478                         10   4
  253          m_sumb_d                              0.014832                          7   4
  254        strkin                                0.037201                            1   3
  255          m_sumb_d                              0.002014                          1   4
  256        strelo                                0.032030                            1   3
  257          m_sumb_d                              0.000776                          2   4
  258        strenl                              320.286148                            1   3
  259          spher                                 1.039213                         19   4
  260          phase                                 0.000003                          9   4
  261          proj1                               293.354864                        504   4
  262            crexp_mul_wave                       44.358441                   183960   5
  263            m_sumb_d                            149.263321                      504   5
  264          m_sumb_d                             25.859634                          1   4
  265        m_sumb_d                              0.001176                            6   3
  266        fft3d_mpi                             0.780615                           22   3
  267          fftbas_mpi                            0.780581                         22   4
  268            fftbas_plan_mpi                       0.780554                       22   5
  269              dfftw_execute                         0.212935                     66   6
  270              map_forward                           0.268073                     20   6
  271                map_gather                            0.047556                   10   7
  272                m_alltoallv_z                         0.127961                   10   7
  273                map_scatter                           0.092316                   10   7
  274              map_backward                          0.298862                     24   6
  275                map_gather                            0.091968                   12   7
  276                m_alltoallv_z                         0.156337                   12   7
  277                map_scatter                           0.050332                   12   7
  278        forhar                                0.635420                            2   3
  279          m_sumb_d                              0.014569                          2   4
  280        strehar                               0.022010                            1   3
  281          m_sumb_d                              0.000017                          1   4
  282        chggra                                0.153515                            1   3
  283          fft3d_mpi                             0.107735                          3   4
  284            fftbas_mpi                            0.107732                        3   5
  285              fftbas_plan_mpi                       0.107728                      3   6
  286                dfftw_execute                         0.027681                    9   7
  287                map_backward                          0.020039                    2   7
  288                  map_gather                            0.005780                  1   8
  289                  m_alltoallv_z                         0.009614                  1   8
  290                  map_scatter                           0.004611                  1   8
  291                map_forward                           0.059931                    4   7
  292                  map_gather                            0.011142                  2   8
  293                  m_alltoallv_z                         0.029995                  2   8
  294                  map_scatter                           0.018743                  2   8
  295          m_sumb_d                              0.000031                          2   4
  296          pothar                                0.008570                          1   4
  297            m_sumb_d                              0.000767                        1   5
  298        brmix                                 0.114222                            1   3
  299          m_sumb_d                              0.033493                          6   4
  300          brpre                                 0.000123                          2   4
  301          setg0                                 0.003943                          1   4
  302          broyd                                 0.049359                          1   4
  303            m_sumb_d                              0.008603                       46   5
  304            brget                                 0.009875                      204   5
  305            brsav                                 0.001882                       44   5
  306          m_bcast_z                             0.013638                          1   4
  307          m_bcast_d                             0.000098                          1   4
  308        m_bcast_d                             0.254262                            2   3
  309      potlok                                1.473674                              1   2
  310        fft3d_mpi                             0.884037                           26   3
  311          fftbas_mpi                            0.884007                         26   4
  312            fftbas_plan_mpi                       0.883970                       26   5
  313              dfftw_execute                         0.254160                     78   6
  314              map_forward                           0.345790                     28   6
  315                map_gather                            0.044759                   16   7
  316                m_alltoallv_z                         0.187504                   16   7
  317                map_scatter                           0.113234                   16   7
  318              map_backward                          0.283249                     24   6
  319                map_gather                            0.088230                   12   7
  320                m_alltoallv_z                         0.142464                   12   7
  321                map_scatter                           0.052338                   12   7
  322        m_sumb_d                              0.000786                            5   3
  323        pothar                                0.009340                            1   3
  324          m_sumb_d                              0.000944                          1   4
  325        m_bcast_z                             0.043859                            2   3
  326      potlok_metagga                        0.000001                              1   2
  327      set_dd_magatom                        0.000001                              1   2
  328      set_dd_paw                            0.019232                              1   2
  329        set_rsgf_all                          0.000001                            1   3
  330        m_alltoall_d                          0.010232                           10   3
  331        m_sumb_d                              0.005490                            7   3
  332      m_alltoall_d                        101.298549                          39714   2
  333      densta                                0.043861                              1   2
  334        m_sumb_d                              0.000679                           11   3
  335        m_alltoall_d                          0.033620                          264   3
 
 Flat profile
 ============
 
             routine name                   CPU           calls
 ---------------------------------------------------------------
 proj1                                2113.943356        5694
 gemm                                 1794.656511     2773270
 work_mul_crexp                       1277.035687     2773270
 crexp_mul_wave                       1114.796114     2078310
 m_alltoall_d                          933.774487      182410
 m_alltoallv_z                         543.242490       18456
 dfftw_execute                         522.296257       54882
 m_sumb_d                              343.724708       40398
 vhamil                                190.073461        7598
 orth1                                 185.499912       22850
 ggemm                                 167.021110       10062
 total_time                            165.251804           1
 fornl                                  85.796079           1
 map_gather                             64.307254       18456
 map_scatter                            63.172349       18456
 fftwav_mpi                             62.789024        9440
 lincom                                 54.114231          90
 map_forward                            40.534054       20062
 eccp                                   31.305427        2464
 pw_charge                              30.262667        1842
 fftext_mpi                             29.681768        7598
 wfinit                                 23.452565           1
 m_bcast_z                              22.594117       11463
 potlok                                 21.689989          41
 lapack                                 14.283158        7598
 pdssyex_zheevx                         11.955834          88
 redis_pw                               11.409182       20510
 vnlac0                                  7.456919        7598
 eddav                                   7.407267          44
 w1_copy                                 7.354915       22794
 apply_precond                           3.444839        5134
 hamiltmu                                3.381167        7598
 force_and_stress                        3.089791           1
 soft_charge                             2.973018          40
 kinhamil                                1.960001        7598
 setup_precond                           1.782402        2464
 sphpro_fast                             1.632750           2
 augmentation_charge                     1.306418          40
 setdij_                                 1.156363          68
 spher                                   1.105922          20
 overl1                                  0.921508        7598
 m_bcast_d                               0.768955       15241
 fftbas_plan_mpi                         0.732489       18294
 phase                                   0.686150         100
 elmin                                   0.669904           1
 forhar                                  0.620851           2
 forloc                                  0.614503           1
 stufak                                  0.571237           1
 brmix                                   0.565268          40
 overl                                   0.470200       12734
 pothar                                  0.351212          42
 broyd                                   0.345570          40
 brget                                   0.198873        4254
 fft_gq                                  0.189396          40
 redis_proj                              0.163293       25646
 setg0                                   0.160260          42
 set_dd_paw                              0.147202          42
 set_charge                              0.135067          40
 choleski                                0.119027           2
 map_backward                            0.080847       16526
 newband                                 0.054765        7686
 brsav                                   0.040199         987
 chggra                                  0.037179           1
 strkin                                  0.035187           1
 strenl                                  0.032434           1
 fft3d_mpi                               0.032066       18294
 depsum                                  0.031798          40
 strelo                                  0.031254           1
 w1_projall                              0.027333        5134
 fftbas_mpi                              0.026904       18294
 orthch                                  0.022735           1
 strehar                                 0.021993           1
 densta                                  0.014421          45
 inisym                                  0.006872           1
 brpre                                   0.005463          80
 rsp                                     0.004435           1
 truncate_high_frequency_w1              0.003068       10062
 fewald                                  0.002385           1
 fordep                                  0.001226           1
 brgrid                                  0.000635           1
 rcp                                     0.000297           1
 proj                                    0.000236           1
 posmap                                  0.000128           2
 set_rsgf_all                            0.000044          42
 crpa_reader                             0.000029           1
 vectorpot                               0.000019          41
 potlok_metagga                          0.000019          41
 FERMAT_RAZOR                            0.000017           1
 set_dd_magatom                          0.000005          42
 proall                                  0.000005           1
 rotate_active_occupied_orbital          0.000000           1
 redis_pw_over_bands                     0.000000           1
 ---------------------------------------------------------------
  summed up times     9971.660329103470     
 
 Accumulative profile
 ====================
 
             routine name                   CPU           calls
 ---------------------------------------------------------------
 total_time                           9971.660329           1
 elmin                                9199.728768           1
 eddav                                8966.971359          44
 hamiltmu                             4001.738151        7598
 proj1                                3525.306744        5694
 w1_projall                           3198.967636        5134
 vnlac0                               3082.287802        7598
 gemm                                 1794.656511     2773270
 work_mul_crexp                       1277.035687     2773270
 fft3d_mpi                            1234.424709       18294
 fftbas_mpi                           1234.392643       18294
 fftbas_plan_mpi                      1234.365739       18294
 crexp_mul_wave                       1114.796114     2078310
 m_alltoall_d                          933.774487      182410
 kinhamil                              725.074212        7598
 fftext_mpi                            723.114211        7598
 fftwav_mpi                            560.642632        9440
 m_alltoallv_z                         543.242490       18456
 dfftw_execute                         522.296257       54882
 map_backward                          507.564846       16526
 redis_proj                            492.734906       25646
 force_and_stress                      417.848507           1
 m_sumb_d                              343.724708       40398
 strenl                                320.286148           1
 redis_pw                              241.230272       20510
 map_forward                           203.772148       20062
 newband                               193.557763        7686
 vhamil                                190.073461        7598
 orth1                                 185.499912       22850
 set_charge                            167.525371          40
 ggemm                                 167.021110       10062
 soft_charge                           161.276832          40
 fornl                                  86.950339           1
 map_gather                             64.307254       18456
 map_scatter                            63.172349       18456
 potlok                                 61.098589          41
 lincom                                 54.114231          90
 wfinit                                 41.771638           1
 proall                                 33.697924           1
 proj                                   33.011813           1
 eccp                                   32.871229        2464
 pw_charge                              30.262667        1842
 m_bcast_z                              22.594117       11463
 lapack                                 14.283158        7598
 pdssyex_zheevx                         11.955851          88
 w1_copy                                 7.354915       22794
 orthch                                  5.778752           1
 augmentation_charge                     5.225357          40
 brmix                                   3.902184          40
 apply_precond                           3.444839        5134
 set_dd_paw                              2.989870          42
 setdij_                                 2.913733          68
 fft_gq                                  2.501172          40
 sphpro_fast                             2.173609           2
 setup_precond                           1.956585        2464
 spher                                   1.105922          20
 broyd                                   0.972507          40
 overl1                                  0.921508        7598
 depsum                                  0.888116          40
 m_bcast_d                               0.768955       15241
 phase                                   0.686150         100
 forhar                                  0.635420           2
 forloc                                  0.624326           1
 stufak                                  0.571237           1
 overl                                   0.470200       12734
 pothar                                  0.405626          42
 fewald                                  0.252828           1
 brget                                   0.198873        4254
 fordep                                  0.183978           1
 setg0                                   0.160260          42
 chggra                                  0.153515           1
 choleski                                0.119027           2
 densta                                  0.097181          45
 brsav                                   0.040199         987
 strkin                                  0.037201           1
 strelo                                  0.032030           1
 strehar                                 0.022010           1
 inisym                                  0.007000           1
 brpre                                   0.005463          80
 rsp                                     0.004435           1
 truncate_high_frequency_w1              0.003068       10062
 brgrid                                  0.000635           1
 rcp                                     0.000297           1
 posmap                                  0.000128           2
 set_rsgf_all                            0.000044          42
 crpa_reader                             0.000029           1
 vectorpot                               0.000019          41
 potlok_metagga                          0.000019          41
 FERMAT_RAZOR                            0.000017           1
 set_dd_magatom                          0.000005          42
 rotate_active_occupied_orbital          0.000000           1
 redis_pw_over_bands                     0.000000           1
 ---------------------------------------------------------------
 
Profiling took   4.090899  1.742249  0.005080  0.005019 seconds
Profiling took   4.262738 seconds
