 C Se 
 1.0000000000000000
    32.3722991942999982    0.0000000000000000    0.0000000000000000
     0.0000000000000000   19.9214134216000005    0.0000000000000000
     0.0000000000000000    0.0000000000000000   40.4480476378999967
 C   Se 
 364   1
Cartesian
 12.0085793362534741 10.7242977123671110  0.0995150805984718
 11.9383784051598330 10.8340276574933085  2.5439005998111544
 10.9437122537810598 11.8536681610737631  2.4712037694798488
 10.3750617698880792 12.1807739155301444  1.2111154365883510
  8.9933344597710310 12.5268563949088509  1.1378326587974519
 11.8641206858646502 10.9411486433562644  4.9881753038247592
 10.8349831569632826 11.9262295258700348  4.9156520136365929
 10.2554949386267857 12.2334358693921761  3.6557127152978768
  8.8625476511353476 12.5315059351321185  3.5822612926279462
  8.2080923869731226 12.4886316253636167  2.3221865781293687
  6.8661992174001929 12.0110940162433497  2.2489607429700960
  6.3316442704661275 11.6311957308634355  0.9886668502810224
  5.4395485268519232 10.5206663299056373  0.9152821381485939
 11.7850453172568326 11.0453091686479716  7.4325274945960063
 10.7232139894197864 11.9950532349769841  7.3602544458871035
 10.1338432753538878 12.2820360483378721  6.1001378714051029
  8.7316961807360300 12.5320686244496837  6.0267113720399301
  8.0791969973886921 12.4664975007845946  4.7666301326104561
  6.7545823467371209 11.9426499015341925  4.6935496445869020
  6.2334997965750638 11.5445315715460257  3.4333357742247372
  5.3802961823954520 10.4038974032920493  3.3597656113564556
  5.1453217025881832  9.7917083276935628  2.0995427542798528
  5.0170940769841117  8.3731238442812455  2.0258609975269173
  5.1385945826551396  7.7285288235228746  0.7656613205215479
  5.7739144342112763  6.4536713038966997  0.6923421587503001
 11.7021153168839405 11.1467480884265555  9.8761919726339631
 10.6095934427547736 12.0600351793879579  9.8045893227392256
 10.0107003892679618 12.3271982773594981  8.5446927269377539
  8.6004376694831581 12.5289178756238453  8.4713623747766373
  7.9508679999300274 12.4405068266461800  7.2113568330435909
  6.6450764914247094 11.8707646250231900  7.1382469073129053
  6.1382628687631948 11.4546269007994130  5.8779650529006497
  5.3250376249567477 10.2852020834922815  5.8042202464608756
  5.1114274455021427  9.6651890300962453  4.5440183063012611
  5.0321031172829098  8.2429537949630216  4.4705458195615018
  5.1757455420199836  7.6030995091608320  3.2101213274759268
  5.8544166636697774  6.3508908953256746  3.1365823759529823
  6.3125812188470087  5.8813950250749976  1.8765233659833671
  7.5475118948574345  5.1716173780747461  1.8026788761304988
  8.1841712206451849  5.0124836478452321  0.5427829299806574
  9.6078852599813374  5.0567224171095795  0.4697566795799070
 12.0109301367764179 10.7184682751259537 13.5775125198228022
 11.6203528117805952 11.2475858509590925 12.3199196329488743
 10.4952645512752447 12.1228978628823860 12.2489949133375617
  9.8869522951913762 12.3683177328749530 10.9904515592652192
  8.4695451283460947 12.5204182649089670 10.9168825292628746
  7.8235176346423483 12.4096008176686201  9.6563366267596411
  6.5384128506246295 11.7952392254034706  9.5829076723671545
  6.0462834174126918 11.3617080589650730  8.3225251271734138
  5.2743180743338840 10.1645404669317827  8.2486946407669546
  5.0823299163062154  9.5374573416701676  6.9885745866759512
  5.0522984659830774  8.1133110279646701  6.9153239895608403
  5.2172525019363194  7.4788319619738841  5.6547411804014098
  5.9385224540464252  6.2506265730524220  5.5809359423469509
  6.4125636111810342  5.7974460871587841  4.3208375487795383
  7.6712281291632189  5.1307342788658357  4.2470042801796977
  8.3130146266003173  4.9938905698332681  2.9869378552442480
  9.7342499875271145  5.0873686893472092  2.9137957641922090
 10.3525576057470978  5.3074878020660998  1.6540124015339508
 11.5135168542553288  6.1328303221049225  1.5805026142527592
 11.9245864158954689  6.6444342618533980  0.3207599693160315
 12.4804889745419185  7.9559223927516047  0.2480381817873272
 11.9640727342656454 10.8377119511289326 16.0185950443517910
 11.5437222842674831 11.3465155376445832 14.7685850915516266
 10.3784288483346945 12.1740876145821044 14.6958876101077518
  9.7617940472434803 12.3996049506807395 13.4366706233361821
  8.3408322985427841 12.5026584491687700 13.3625506636272480
  7.6981277984029406 12.3729033170261165 12.1012186290863379
  6.4341176651176832 11.7157837240145106 12.0274353357723776
  5.9572068221780619 11.2660341177676084 10.7672191973305065
  5.2272540999085466 10.0424665813144056 10.6933113630344838
  5.0576994207766228  9.4089398824315698  9.4330429776330522
  5.0774377481566768  7.9847329975681118  9.3599224169120543
  5.2639815933287020  7.3562244256590574  8.0995924078886734
  6.0270036344584428  6.1533366039240676  8.0257312791692303
  6.5157529104396907  5.7167738091620395  6.7652227450337250
  7.7962212131630046  5.0935060136018686  6.6914569365596410
  8.4421953733795050  4.9789404393392500  5.4311863388167483
  9.8593875968374469  5.1212717717262368  5.3577751147802042
 10.4698765327843208  5.3630244988727460  4.0981966458496188
 11.6017062675105329  6.2278513415892505  4.0246781082129566
 11.9949347989302098  6.7536792689636655  2.7649604481860091
 12.5053992655465205  8.0834073328732572  2.6923632618686693
 12.5648146183673095  8.7371093828438955  1.4325386600853949
 12.3011565438035824 10.1369494036495027  1.3593309221076790
 11.9026597842303961 10.9476302825184302 18.4711216486617360
 11.4489627352860754 11.4180847862238526 17.2170570770337115
 10.2547164284076331 12.1944074658810671 17.1412256086767307
  9.6337917565226228 12.4137920583520422 15.8801167732647510
  8.2107547847005211 12.4783301400346271 15.8065306900543643
  7.5729389363722746 12.3311465067019537 14.5461540707645902
  6.3300494966944427 11.6330002599225875 14.4720183048094970
  5.8706708579304019 11.1665162750342724 13.2114659681233739
  5.1839828775175008  9.9187069170460678 13.1376140427462431
  5.0368830914124478  9.2797525548897113 11.8773316812035574
  5.1065548422372355  7.8569019427263704 11.8043798551583272
  5.3154006979864974  7.2352934265039277 10.5442578462155812
  6.1193913916056850  6.0595091499066100 10.4705221622655724
  6.6224128237959796  5.6394543612158197  9.2097261054297341
  7.9231301957033802  5.0594941381794225  9.1361341376321832
  8.5721820735432974  4.9673489395879233  7.8758173717313547
  9.9836570489948873  5.1582356840207479  7.8020818951544308
 10.5850196690694212  5.4218946056776582  6.5422038307622312
 11.6859732108385064  6.3253768051680233  6.4686588151825504
 12.0612370598680414  6.8647153793820950  5.2090910008087574
 12.5252664871619697  8.2114723043177502  5.1364072275030983
 12.5624987628586133  8.8670369635339377  3.8769457306721709
 12.2509686873966146 10.2570616314455378  3.8037480668562185
 11.7870833294809163 10.9962119697761675 20.9246811539069171
 11.3478626120845227 11.4796082798519112 19.6450936179321900
 10.1330770303989937 12.2301566575764742 19.5785798176394792
  9.5053734943256760 12.4260514691713375 18.3230102921744091
  8.0781632501977541 12.4543872956409238 18.2500937833829155
  7.4470913136696968 12.2836711669132015 16.9900834789687067
  6.2290135278168073 11.5461906548514310 16.9161088612568520
  5.7855265301015075 11.0648050973267971 15.6552645234299703
  5.1424976861180829  9.7934867582369005 15.5820219433193241
  5.0190937563198794  9.1498288310036848 14.3218639723064136
  5.1384044363728920  7.7302247274193334 14.2489282367731906
  5.3699977669905410  7.1163007384212236 12.9886157381958380
  6.2138814511955447  5.9690022344715423 12.9150191252777589
  6.7313871363094675  5.5660578828576073 11.6548282060042432
  8.0514838402330273  5.0302541889068131 11.5818597091768822
  8.7032387363116896  4.9602901704729225 10.3207912661356378
 10.1067949471159864  5.1992759903746970 10.2466001921115311
 10.6986690734167720  5.4830745668813599  8.9864011684598033
 11.7674589492828847  6.4248477264814667  8.9126141307019449
 12.1231461395069342  6.9775042306291342  7.6533229654453878
 12.5397983919676985  8.3397176176914911  7.5802413182218755
 12.5544213432721499  8.9964930892646535  6.3209175097317720
 12.1952640603461777 10.3747737366905426  6.2479784178582225
 11.7065486074399576 11.1376615126696397 23.3660678554709236
 11.2453857657858052 11.5868594078564247 22.1034721461471797
 10.0139137722569860 12.2979248478014149 22.0266129897183234
  9.3777912322339247 12.4454580944880799 20.7631064789112578
  7.9562395247906128 12.4223569740523949 20.6922403578395304
  7.3260754712008254 12.2341011150653269 19.4324108331217538
  6.1308708351335666 11.4566673090779734 19.3599525768864176
  5.7034146819781082 10.9608340967103661 18.1002778972853164
  5.1053268291025233  9.6670907003266198 18.0274137867262354
  5.0049720144606358  9.0192825170536572 16.7664923966894719
  5.1731094717652564  7.6052064040350205 16.6933770168437370
  5.4253961960985624  6.9991504263453095 15.4332890671930247
  6.3086049359477272  5.8809788395891358 15.3600572624893790
  6.8422112938575035  5.4973423726028638 14.1000914738450422
  8.1800845355670671  5.0087231146306577 14.0277590162888472
  8.8342240836013524  4.9588855738238262 12.7661948051321801
 10.2291435886659396  5.2457023141821750 12.6918950203615850
 10.8106766229696909  5.5484977403341169 11.4317061538634110
 11.8456515938903824  6.5273509569698707 11.3571159049026704
 12.1809163658670432  7.0923769982845730 10.0970606233559881
 12.5489799245888030  8.4679765239467351 10.0229680134154080
 12.5415693557150902  9.1250487400533622  8.7642552613047009
 12.1352412967409844 10.4905704729963194  8.6918530362990527
 11.6216537972936109 11.2457780379534658 25.8097718244963517
 11.1473729446934264 11.6964623810079722 24.5493275171867111
  9.8910350924024719 12.3622556098694805 24.4724341870017525
  9.2511426809657458 12.4932133943677979 23.2089382229728010
  7.8284648853104537 12.4054063532464589 23.1370998637026624
  7.2090857707950304 12.1839616066983627 21.8783271456644322
  6.0450374573005492 11.3638411046046013 21.8054538364982768
  5.6314713435565578 10.8525110498041322 20.5449643959075630
  5.0773147751842442  9.5405212394762717 20.4723627040813518
  4.9955444933631616  8.8899938976196236 19.2118336164032826
  5.2115737086043943  7.4804123563777756 19.1389201310394625
  5.4846567503574191  6.8842163433828860 17.8785581144343375
  6.4050091862356533  5.7972232567302129 17.8056767990608869
  6.9517893976098257  5.4319841206566606 16.5449054597288914
  8.3068386746248510  4.9944694624303825 16.4724536322287136
  8.9637347568793633  4.9672355598394962 15.2133255556829479
 10.3479286674619040  5.3076129934582568 15.1405241179884467
 10.9191219735158143  5.6245955137168746 13.8770079883254134
 11.9185474167414895  6.6360646865020270 13.8005331672733806
 12.2361413312195264  7.2092362297240289 12.5404104817165063
 12.5550096770674262  8.5978945606682640 12.4642469772355025
 12.5238759073954125  9.2536833597193020 11.2068433775352805
 12.0720231015661064 10.6046490822078763 11.1356632376733149
 11.5331718681049775 11.3429652165912387 28.2530601974156852
 11.0446822523078918 11.7806611940016683 26.9927159218834696
  9.7644981049199817 12.4053002395010719 26.9178160598446361
  9.1193075419194916 12.5189233046917856 25.6573471259598662
  7.7023805088165496 12.3762099653635289 25.5838098906347682
  7.0927197482064992 12.1332630928581171 24.3225842560756185
  5.9602296519200877 11.2693691405792080 24.2499775161098654
  5.5647706059218089 10.7439878306487469 22.9902623560132646
  5.0550195198859216  9.4134650442091772 22.9177355588717475
  4.9953950178013073  8.7595461852516863 21.6576028070532907
  5.2585540990982835  7.3600507446911223 21.5842207683742622
  5.5483805609109700  6.7718686888136155 20.3234798042437887
  6.5057762413657860  5.7158701545013599 20.2508061446895518
  7.0616335996928425  5.3695898957640775 18.9909396895013032
  8.4339245622397048  4.9827160750457375 18.9189272117249487
  9.0912262235746422  4.9894799714706375 17.6587789992585193
 10.4551238387994871  5.3909737205224921 17.5871250272596846
 11.0176207118470906  5.7214585538978620 16.3230974573504319
 11.9797927223662501  6.7684660451573508 16.2466405454677023
 12.2848922632519919  7.3357563149038585 14.9841471404605020
 12.5590612074206387  8.7303598642156679 14.9038608880951546
 12.5031611500969895  9.3841796125133818 13.6456521534975881
 11.4430731904968042 11.4374951285186999 30.6968044125709270
 10.9388294443309526 11.8575126752400521 29.4372241019003305
  9.6375401747462579 12.4369741516497978 29.3634367472148483
  8.9881424879584220 12.5295459966997722 28.1028752817367149
  7.5773207342266602 12.3380170989070681 28.0290576189635381
  6.9762981111558897 12.0758170161916585 26.7682419537061023
  5.8755206298542095 11.1713844751687006 26.6952370816481057
  5.5010545851729402 10.6323678444412835 25.4351760135627281
  5.0373379362064643  9.2858037633574799 25.3624740608805723
  4.9997359160677437  8.6304108888555238 24.1022179962736800
  5.3108425053540644  7.2402329615265328 24.0288137475248114
  5.6213231852248855  6.6628220255147133 22.7688283186824982
  6.6150786725125545  5.6418379684607540 22.6961461331607630
  7.1820768032730209  5.3144694375391524 21.4351864369134724
  8.5645015351617548  4.9733402477830051 21.3614892110010608
  9.2176690242015535  4.9972542709482992 20.1013340395101601
 10.5715468557509009  5.4493576221303215 20.0279426406622001
 11.1120247658863160  5.8224083561732556 18.7716593127739841
 12.0472744023525298  6.9014471650839555 18.7054860416631925
 12.3204193500064445  7.4938644360112665 17.4255449798312227
 12.6017584971825425  8.8661494219836587 17.3318876049601833
 12.5057789928944239  9.5150669141736852 16.0827450254975979
 11.3494394449325675 11.5278712802336880 33.1411075978791843
 10.8306138972028698 11.9299696496660914 31.8812558397379284
  9.5100870995113809 12.4633345087556311 31.8080497074149200
  8.8577313494232151 12.5341125611862640 30.5477915594992737
  7.4537346638405646 12.2939214459009598 30.4740435246490478
  6.8621554208779525 12.0113468190149693 29.2139110802263318
  5.7936632635437819 11.0696679310621615 29.1405522940461488
  5.4385197409943453 10.5184251203075014 27.8798063419429916
  5.0213973184370104  9.1565357107018048 27.8068345923131091
  5.0073505550729580  8.5006331511168050 26.5468309814315475
  5.3666178244967382  7.1221885672329091 26.4733274105720540
  5.6980860181133970  6.5561775164755716 25.2131897068221598
  6.7265823534233702  5.5708211771455076 25.1400735526513159
  7.3044859387650414  5.2627216065946616 23.8795680381513584
  8.6990132031478922  4.9672590265427070 23.8053392463923288
  9.3516108978460668  5.0160191511659935 22.5450615725853005
 10.6907403732636190  5.5016321867904825 22.4713849856387817
 11.2179282091104966  5.8947943625592432 21.2095691582162296
 12.1268144786768115  6.9914780642064143 21.1338492231910777
 12.4187962085312851  7.5751713747165885 19.8792349887270809
 12.8098339406261417  8.9951346823637497 19.8251865004161907
 12.6994280108979627  9.7090295552794714 18.5241629174166249
 11.2528074083518774 11.6149032129185912 35.5854837932482937
 10.7206163434429822 11.9989136895706636 34.3254942467063273
  9.3820506307627358 12.4859238317513324 34.2525076661336243
  8.7275200877315093 12.5336011107952974 32.9926219814499575
  7.3327070291379259 12.2449254077151028 32.9188387948148460
  6.7508077098724737 11.9420725688666955 31.6586648104990758
  5.7149962423016483 10.9645903071585682 31.5853635956386043
  5.3788552822798907 10.4018074357449954 30.3248158454731715
  5.0089907924447115  9.0261961708953589 30.2514387685461870
  5.0181753596902530  8.3704680669330163 28.9912961792423012
  5.4248926400076058  7.0054577305747197 28.9177586466068703
  5.7763698080968124  6.4515917259722340 27.6574922956588694
  6.8387575245665211  5.5023172328355763 27.5843323749022140
  7.4283240671352910  5.2153127008999807 26.3242733026682671
  8.8307862534576884  4.9654028703766588 26.2500989389202104
  9.4830088186849988  5.0330214174877863 24.9890208209186362
 10.8086158490564692  5.5549662538487947 24.9151260672670674
 11.3304474819584566  5.9529077844265581 23.6555118599530303
 12.1970790631615635  7.0895049343944354 23.5826352928697069
 12.4467247554939124  7.6994449848087445 22.3321317504082053
 12.5696921258835381  9.1236233046689463 22.2674818990779997
 12.4665920777327628  9.7709844507520405 21.0178083944683642
 11.1528339815747639 11.6982426936323147 38.0300108870400848
 10.6077231312413893 12.0636716627031166 36.7700143519362328
  9.2531379502111530 12.5041389037247637 36.6970053803907987
  8.5973816018952558 12.5289163030803170 35.4370260585931334
  7.2135223795448598 12.1921813543764035 35.3632784294611611
  6.6422825192919737 11.8694946500460450 34.1031755894252271
  5.6403605612245125 10.8569903359392228 34.0300051496693854
  5.3233674713718528 10.2828150922135162 32.7698168029037689
  5.0012134943719717  8.8953819196801565 32.6960733216540689
  5.0328804512082810  8.2403919232441751 31.4357314966839070
  5.4865373934219175  6.8901099220590458 31.3624083697973077
  5.8571666617655458  6.3489707582761037 30.1021448151989262
  6.9515215856848132  5.4370428728717517 30.0289645994356214
  7.5511843400991472  5.1706555415918860 28.7687583524378354
  8.9610565556675716  4.9682909554631598 28.6948191737608127
  9.6110665265965007  5.0551769359138863 27.4345243772774801
 10.9184940595412048  5.6232850412324868 27.3615196615168088
 11.4263934436072212  6.0381003001200471 26.1028371747266377
 12.2401474632078013  7.2085084323435211 26.0314508900075054
 12.4561257302710526  7.8289766780851151 24.7736133434821717
 12.5276320989340402  9.2494701067518328 24.7051787187192602
 12.3859506221037154  9.8891594978122512 23.4462192041474751
 11.0497456391572548 11.7777410302233374  0.0266463654506050
 10.4925661524478890 12.1243373545846058 39.2145647652735363
  9.1236488670735927 12.5178611045624777 39.1414250927895395
  8.4674788967490624 12.5202241453437164 37.8814276707534034
  7.0959232747331260 12.1358884198487811 37.8077925671659045
  6.5362602378498336 11.7935060927865187 36.5477195194181235
  5.5699408214584887 10.7470214176887513 36.4745781110978058
  5.2729143583955622 10.1621823846344412 35.2144368219477002
  4.9985670642160320  8.7645820413790965 35.1405634410422323
  5.0523452950061412  8.1108961786126734 33.8803783675546271
  5.5523766625048196  6.7771400387278113 33.8071801925609421
  5.9413479637288154  6.2490694186376254 32.5468704506957067
  7.0667920375381081  5.3759469810867406 32.4735452546113592
  7.6748127318844297  5.1301679812892482 31.2133754840190427
  9.0912348482881171  4.9770668450685855 31.1398847995384997
  9.7377528154448552  5.0867693032297128 29.8799400765841341
 11.0233396433331432  5.7006190907117942 29.8073447510101985
 11.5158369580254050  6.1336245003521972 28.5474767698402410
 12.2864377030110017  7.3310406924714941 28.4752238465413399
 12.4787617963032300  7.9577623949611569 27.2156372484570568
 12.5068106761507511  9.3820570297390713 27.1443524514582428
 12.3413647632161787 10.0161054260282203 25.8862986284090795
  8.3377566156498677 12.5067088046366965 40.3258591390593466
  6.9802382627353232 12.0753787961628376 40.2524322556092855
  6.4328182181494649 11.7140125967095656 38.9921890510429137
  5.5030666352157240 10.6349320785404977 38.9189630717509658
  5.2263934180039131 10.0401647318612479 37.6588970744776503
  5.0004915370854981  8.6338570442153948 37.5850332008429078
  5.0769642543128715  7.9824522488051226 36.3249295417076112
  5.6227263261734173  6.6668509432287237 36.2517937031055055
  6.0295048958698905  6.1525091298453907 34.9915076556921463
  7.1844907618839402  5.3188254614108290 34.9179938236780671
  7.8007323096284216  5.0945350025892200 33.6579731135233118
  9.2213828669788800  4.9908425452969762 33.5847787620417932
  9.8635972040969691  5.1232468556334849 32.3245668042860927
 11.1268417371094817  5.7810162402586842 32.2517875591960390
 11.6038585679728801  6.2306708609364501 30.9917519028304689
 12.3337705304464311  7.4540377270434766 30.9188025261056474
 12.5032568328036469  8.0872659410220553 29.6594159717636074
 12.4837109477545525  9.5118002186152246 29.5871722394358407
 12.2953100933846695 10.1401356546400780 28.3279544680740862
  5.1839060484703419  9.9166264806533224 40.1032482616304975
  5.0067106239250903  8.5033356157491617 40.0294257295104217
  5.1057768225572984  7.8548688962013680 38.7692904603125470
  5.6965875727761279  6.5588463940035382 38.6961407329875158
  6.1209835283426610  6.0587832822284495 37.4360275941845941
  7.3040936351351498  5.2655027504968217 37.3623384210895679
  7.9278207707587871  5.0628295913367367 36.1023116543213192
  9.3511170715926202  5.0086009979592765 36.0292404975848939
  9.9883556569096719  5.1631595838643785 34.7690678296916786
 11.2284418786553530  5.8641801762734413 34.6959976263711312
 11.6894412476704250  6.3304324725200898 33.4361341030005264
 12.3771536367082451  7.5779460410075066 33.3629987243626260
 12.5246934934214895  8.2169565264363804 32.1031100752947225
 12.4564089990997360  9.6396517871635723 32.0305045005142830
 12.2472519007930849 10.2616330520421215 30.7708675550681185
  6.2155651139199097  5.9685529912815607 39.8803797292761502
  7.4252512142581910  5.2165903935489881 39.8065701039327848
  8.0556678043834733  5.0353442162801940 38.5465774043765208
  9.4801228325888438  5.0303892434030271 38.4736198280061927
 10.1116725773937475  5.2073321556843819 37.2135954631031112
 11.3267125335686902  5.9507776209150531 37.1402835007047969
 11.7715270237870797  6.4327122926866362 35.8803295723384323
 12.4158629805946070  7.7029840544391490 35.8072361859842943
 12.5417731187373516  8.3467258883642561 34.5471895781886360
 12.4243141096074279  9.7663922181788099 34.4744018369346037
 12.1938554444029936 10.3806268866989235 33.2147336182292605
 10.2334091354668786  5.2551800879025805 39.6579051086472703
 11.4220257406325789  6.0401601601805810 39.5844473620557622
 11.8500335236433791  6.5373074672259825 38.3245413786103200
 12.4505896248476251  7.8289588087568651 38.2516229100129976
 12.5541722635978061  8.4768240834681023 36.9916307571730698
 12.3879852018403547  9.8915863764952423 36.9186601783687181
 12.1363292251896500 10.4976613709483857 35.6588393252033313
 12.5619463516500716  8.6070054991427476 39.4360756934505972
 12.3468573208196553 10.0150737179488960 39.3629660735073230
 12.0747214098887348 10.6122389149034770 38.1031190062972271
 14.6835566154936892  9.6457267211522453 19.1719478670716867
