 running  256 mpi-ranks, with    1 threads/rank, on    7 nodes
 distrk:  each k-point on  128 cores,    2 groups
 distr:  one band on    4 cores,   32 groups
 vasp.6.4.1 05Apr23 (build May 18 2023 14:18:10) complex                         
 POSCAR found type information on POSCAR C Se
 POSCAR found :  2 types and     365 ions
 Reading from existing POTCAR
 -----------------------------------------------------------------------------
|                                                                             |
|           W    W    AA    RRRRR   N    N  II  N    N   GGGG   !!!           |
|           W    W   A  A   R    R  NN   N  II  NN   N  G    G  !!!           |
|           W    W  A    A  R    R  N N  N  II  N N  N  G       !!!           |
|           W WW W  AAAAAA  RRRRR   N  N N  II  N  N N  G  GGG   !            |
|           WW  WW  A    A  R   R   N   NN  II  N   NN  G    G                |
|           W    W  A    A  R    R  N    N  II  N    N   GGGG   !!!           |
|                                                                             |
|     You use a magnetic or noncollinear calculation, but did not specify     |
|     the initial magnetic moment with the MAGMOM tag. Note that a            |
|     default of 1 will be used for all atoms. This ferromagnetic setup       |
|     may break the symmetry of the crystal, in particular it may rule        |
|     out finding an antiferromagnetic solution. Thence, we recommend         |
|     setting the initial magnetic moment manually or verifying carefully     |
|     that this magnetic setup is desired.                                    |
|                                                                             |
 -----------------------------------------------------------------------------

 scaLAPACK will be used
 Reading from existing POTCAR
 -----------------------------------------------------------------------------
|                                                                             |
|               ----> ADVICE to this user running VASP <----                  |
|                                                                             |
|     You have a (more or less) 'large supercell' and for larger cells it     |
|     might be more efficient to use real-space projection operators.         |
|     Therefore, try LREAL= Auto in the INCAR file.                           |
|     Mind: If you want to do very accurate calculations, keep the            |
|     reciprocal projection scheme (i.e. LREAL=.FALSE.).                      |
|                                                                             |
 -----------------------------------------------------------------------------

 LDA part: xc-table for Pade appr. of Perdew
 POSCAR, INCAR and KPOINTS ok, starting setup
 FFT: planning ... GRIDC
 FFT: planning ... GRID_SOFT
 FFT: planning ... GRID
 WAVECAR not read
 WARNING: random wavefunctions but no delay for mixing, default for NELMDL
 entering main loop
       N       E                     dE             d eps       ncg     rms          rms(c)
DAV:   1     0.130517553428E+05    0.13052E+05   -0.45065E+05  9152   0.923E+02
DAV:   2     0.186774803502E+03   -0.12865E+05   -0.12096E+05 10624   0.237E+02
DAV:   3    -0.320408988440E+04   -0.33909E+04   -0.33464E+04  9024   0.129E+02
DAV:   4    -0.339004422099E+04   -0.18595E+03   -0.18272E+03  8768   0.387E+01
DAV:   5    -0.339511841541E+04   -0.50742E+01   -0.50115E+01  9600   0.566E+00    0.116E+02
DAV:   6    -0.230462323963E+04    0.10905E+04   -0.17582E+03  7680   0.360E+01    0.642E+01
DAV:   7    -0.249858116293E+04   -0.19396E+03   -0.20600E+02  7968   0.158E+01    0.430E+01
DAV:   8    -0.263051742515E+04   -0.13194E+03   -0.12185E+02  7808   0.122E+01    0.325E+01
DAV:   9    -0.274188456034E+04   -0.11137E+03   -0.45647E+01  7872   0.724E+00    0.275E+01
DAV:  10    -0.297271364213E+04   -0.23083E+03   -0.14008E+02  7840   0.104E+01    0.206E+01
DAV:  11    -0.312430558414E+04   -0.15159E+03   -0.12589E+02  7744   0.892E+00    0.162E+01
DAV:  12    -0.319778362908E+04   -0.73478E+02   -0.36004E+01  8000   0.464E+00    0.140E+01
DAV:  13    -0.325427787739E+04   -0.56494E+02   -0.16125E+01  7840   0.322E+00    0.116E+01
DAV:  14    -0.327328072464E+04   -0.19003E+02   -0.80814E+00  7712   0.233E+00    0.936E+00
DAV:  15    -0.328198794192E+04   -0.87072E+01   -0.31805E+00  7648   0.157E+00    0.774E+00
DAV:  16    -0.329601229506E+04   -0.14024E+02   -0.37238E+00  7712   0.148E+00    0.567E+00
DAV:  17    -0.330269142867E+04   -0.66791E+01   -0.16764E+00  7904   0.996E-01    0.428E+00
DAV:  18    -0.330027508530E+04    0.24163E+01   -0.47537E-01  7648   0.981E-01    0.316E+00
DAV:  19    -0.329967081704E+04    0.60427E+00   -0.61832E-01  7680   0.839E-01    0.201E+00
DAV:  20    -0.330249846912E+04   -0.28277E+01   -0.21063E-01  7680   0.775E-01    0.127E+00
DAV:  21    -0.330510061896E+04   -0.26021E+01   -0.21929E-01  7648   0.630E-01    0.689E-01
DAV:  22    -0.330607637800E+04   -0.97576E+00   -0.72784E-02  7552   0.406E-01    0.506E-01
DAV:  23    -0.330753130495E+04   -0.14549E+01   -0.45108E-02  8224   0.318E-01    0.340E-01
DAV:  24    -0.330892541561E+04   -0.13941E+01   -0.71355E-02  7808   0.250E-01    0.194E-01
DAV:  25    -0.330947614741E+04   -0.55073E+00   -0.14070E-02  8192   0.138E-01    0.134E-01
DAV:  26    -0.330991535779E+04   -0.43921E+00   -0.10224E-02  8672   0.120E-01    0.700E-02
DAV:  27    -0.331010624892E+04   -0.19089E+00   -0.47901E-03  7904   0.669E-02    0.502E-02
DAV:  28    -0.331015102831E+04   -0.44779E-01   -0.62577E-04  8512   0.375E-02    0.249E-02
DAV:  29    -0.331017212821E+04   -0.21100E-01   -0.41515E-04  8384   0.285E-02    0.181E-02
DAV:  30    -0.331018057276E+04   -0.84446E-02   -0.11277E-04  8192   0.141E-02    0.139E-02
DAV:  31    -0.331018349228E+04   -0.29195E-02   -0.39799E-05  8352   0.844E-03    0.540E-03
DAV:  32    -0.331018571010E+04   -0.22178E-02   -0.31796E-05  8064   0.610E-03    0.346E-03
DAV:  33    -0.331018671866E+04   -0.10086E-02   -0.12518E-05  6976   0.335E-03    0.302E-03
DAV:  34    -0.331018704301E+04   -0.32436E-03   -0.32027E-06  6720   0.203E-03    0.186E-03
DAV:  35    -0.331018720339E+04   -0.16038E-03   -0.22108E-06  6560   0.189E-03    0.855E-04
DAV:  36    -0.331018724454E+04   -0.41149E-04    0.11543E-07  5536   0.945E-04    0.100E-03
DAV:  37    -0.331018729429E+04   -0.49742E-04    0.36669E-07  5504   0.606E-04    0.432E-04
DAV:  38    -0.331018734202E+04   -0.47735E-04    0.41241E-07  5376   0.563E-04    0.427E-04
DAV:  39    -0.331018737145E+04   -0.29431E-04    0.58134E-07  5216   0.356E-04    0.389E-04
DAV:  40    -0.331018739542E+04   -0.23973E-04    0.56318E-07  5088   0.391E-04    0.129E-04
DAV:  41    -0.331018740157E+04   -0.61468E-05    0.67444E-07  5184   0.271E-04    0.159E-04
DAV:  42    -0.331018740406E+04   -0.24919E-05    0.72089E-07  4832   0.144E-04    0.941E-05
DAV:  43    -0.331018740653E+04   -0.24714E-05    0.72318E-07  5024   0.162E-04    0.568E-05
DAV:  44    -0.331018740692E+04   -0.38603E-06    0.74423E-07  4832   0.779E-05
   1 F= -.33242705E+04 E0= -.33242705E+04  d E =-.542265E-21  mag=     0.0000
 writing wavefunctions
 PROFILE, used timers:     335
