Ge Se 
 1.0000000000000000
    12.4337881149995031   -0.0000010759857114   -0.0000024388183672
    -0.0000010839321896   12.5256152531700984    0.0000014482933660
    -0.0000028005351291    0.0000016509065832   11.0916315237244980
 Ge  Se 
  36  36
Cartesian
  0.3423078906135607  0.3231318315804608  1.3962830710763290
  3.0495826711927894 10.9752896638217141  4.0918735251327281
  7.0593241813093845  2.5692230546470691  4.1370629823521652
  6.8775045557385388  6.4165375868958536  4.2216324562095888
  7.3277639036842990 10.5073258413738273  3.9514161988321628
 11.2165722983725633  2.3755057691611330  4.1375317568511765
 11.2877893438255050  6.7414091573055028  3.8480341092390415
 11.1312683497346558 10.6580148182855066  3.9504168635015247
  0.9294043236007455  1.7361356147654750  7.0991088778626033
  0.6585418002195207  6.3923862949391532  7.0683016760275788
  0.7676842605428450 10.3533847598395710  7.2376022589597016
  4.8095319126579179  1.9972702579696564  6.9867764476043401
  4.7382580569661643  6.2872251976212086  6.9635184553675238
  4.9264530766086692 10.3218956775129609  7.1037435511262164
  8.8805154316215518  2.0937810019295178  6.8855850376392427
  9.1471068365824397  5.8866412308832299  6.7966973888242688
  2.8559953407357659  6.8083319090674657  4.1251511670334375
  2.7420793606773119  2.2980514813063255  4.1256843111587651
  8.9640606684495143 10.3971802286514148  7.0177298179068099
 10.8908606160221417  8.3392386493342237  9.7078600538486395
 11.1168947926857431 12.5048355562196072  9.6195042798939774
  0.9224432349075434  4.6062406190402134  1.4340073723110927
  1.2733909576984810  8.7654756484816918  1.6194149054526943
  5.2664549233927040  0.4599567743363769  1.5715212909218945
  4.9602183312500614  4.2287682920894980  1.5008960958862327
  9.1112871932946824  0.3953559994382950  1.3255307134782532
  9.1876328388543023  4.6022028462396571  1.6552608404614866
  5.0616721524919663  8.5966556014239011  1.5072487129495509
  2.7996891661019410  3.9431315515131158  9.7848401558046536
  2.8508473189062942  8.2472729335585395  9.5280364475750439
  2.9652336649808224 12.2576529317912541  9.6435952399978522
  6.8374627382099318  4.1785980358277461  9.4749810445992466
  7.2334246720708562  8.1570864266045682  9.6285029832476408
  7.0195880123818117 12.2772316298998749  9.6648792620624615
 11.4762028555578048  4.0679138964207677  9.6366492334482583
  9.0514681313100080  8.6880677644673181  1.5264946290138626
 11.5033805613434872 -0.1377729487444616  7.2252627946301073
  2.7051235220981455  4.7874251400158769  7.3446345355986447
  3.1251659569021091  8.5017802430516500  7.0432762644172877
  6.7795359006935190  0.3912834819374683  7.1900647240998961
  7.2798477161592459  4.2382697267491238  6.9010976109337543
  7.0646280599379869  8.7157453142525494  7.1109600608956027
 11.4931710021850488  4.3833940569660745  7.1181831496065371
  9.1224605581459119 -0.1810223214124377  3.8270866555309042
  1.1398544195332858  0.3050365638851059  3.9206470620805338
  0.8922449143381264  4.2169601565607744  4.0121256804315246
  0.9501020084237517  8.5395422573537765  4.1262416632670211
  5.4880254416430363 -0.1008933025827108  4.1000202870340399
  5.2426252891334011  4.2882203084443695  3.9698050718532438
  5.1084464759030928  8.3541646320275298  4.1336935657359231
  2.9182898549255301  0.0660220221439635  6.9384365146367912
 11.0622577454586803  8.8251396236509052  7.2138454439847379
 11.6037848478879848 10.4765526696573446  1.4414570602140859
  3.3590242039689207  2.1916995830149353  1.6555999790291618
 11.0290640896754937  2.0959932194754796  1.5710527128627616
  9.5076885952214898  4.3118494791080684  4.0831959715465764
  0.9354811837235629  2.2045305230750913  9.5378214617030288
  0.7200008958925238  6.8204880015895055  9.5510929035064702
  1.2311447285020860 10.3554791961897674  9.6600510647294122
  4.9003424288586617  2.3869592712008214  9.4914814433182624
  5.4114548543807599  6.2395887838229340  9.5017789797167662
  5.0636243145809408 10.5409104800775317  9.5822605182831975
  9.4539707965308732  2.0190594056894615  9.4383760668763816
  9.1630646041012618  6.4365536204079659  9.3980698411077572
  8.9500273978194897 10.7058957791043330  9.4729501813191330
  3.0492310781906746  6.2632662287693437  1.6173953416319464
  3.3000352790016718 10.6501644740135166  1.6249035010315980
  7.4039386919436438  2.2905604995851951  1.6549696531713678
  7.3847599511359752  6.3893054421272284  1.6585751239468542
  7.0064965230393188 10.1029950084386080  1.4729307115820640
 11.4970218698461402  6.2944149121502546  1.4685485892641235
  9.4262097153967339  8.6154361107206050  3.9141940098933188
