Ge Se                                   
    1.000000000000000     
    12.4580678992018115   -0.0000011095260961   -0.0000005253613850
    -0.0000011130285101   12.4973939206412243   -0.0000026706523343
    -0.0000006002142598   -0.0000030415625243   11.0567899049200200
   Ge   Se
    36    36
Direct
  0.0796727858896844  0.0363258350664069  0.1384571418845084
  0.2361518328743344  0.8566829139491006  0.3854687505913716
  0.5677816715413897  0.1965356005151619  0.3718671805448892
  0.5933166888264054  0.5256788326093869  0.3558494344268439
  0.5739590778644938  0.8617577147643587  0.3697973734996722
  0.9098058774011335  0.2001237626951422  0.3676576088255530
  0.9295450250014596  0.5286752432555346  0.3592235456208783
  0.9069655428312302  0.8642785178250634  0.3733404348694336
  0.0789102072626449  0.1422720009606167  0.6463607844653438
  0.0877950306352062  0.4857356062405813  0.6432261452576427
  0.0802075855020732  0.8055723174190064  0.6311795392848296
  0.4107016934135501  0.1444013340451420  0.6268613554927924
  0.4191477404699810  0.4833274803856966  0.6374659017265500
  0.4114896690205683  0.8040301226229332  0.6506944762386198
  0.7377600613343489  0.1693343598813541  0.6343651331331301
  0.7457444035174348  0.4882006783068320  0.6240764843658440
  0.2531056179270266  0.5165451845920401  0.3650489654293878
  0.2339674824846867  0.2066436230815327  0.3850520816349103
  0.7587472824329069  0.8372488478300681  0.6324664767880677
  0.9067266815990678  0.6312520521384002  0.8525392904399709
  0.9093065107470224  0.9781274666113049  0.8677529547015510
  0.0871667184929663  0.3657308522815441  0.1147017068709388
  0.0656617395219072  0.6940244522329451  0.1229580735057638
  0.4163169903886086  0.0349699170991045  0.1291585819421215
  0.4074362670229661  0.3540785748840918  0.1312959128530267
  0.7387823542481371  0.0328277209313015  0.1508336213147956
  0.7515599960978818  0.3554174341473342  0.1402654167465798
  0.4188519788236533  0.7082696037638954  0.1273467106355071
  0.2326928213968884  0.3150983467155299  0.8698531828225171
  0.2672784759591238  0.6561010623266839  0.8663942289948494
  0.2303113459568920  0.9772580569472638  0.8850289395279418
  0.5846343442347361  0.3206976324174491  0.8646461554200471
  0.5732223065908784  0.6572733968904672  0.8836884836203254
  0.5843830795593732  0.9909293191993171  0.8605539095601671
  0.9029917341318665  0.3316075648431678  0.8709405684919460
  0.7570214463628204  0.6966869202705297  0.1307397884256787
  0.8955460788787164  0.0314911189189431  0.6445993496866009
  0.2375120395207091  0.3412766750757257  0.6451805121925815
  0.2267528148606601  0.6529553910556416  0.6346760014392316
  0.5669537238404416  0.0015453920953519  0.6347970896905366
  0.5615628337999183  0.3482101554973838  0.6340545325081450
  0.5533974205465455  0.6665127362220531  0.6514277472997492
  0.8963265264685774  0.3532573173610345  0.6429294151325635
  0.7327609751154327  0.0035536576936082  0.3796509739203273
  0.0796799356071105  0.0090123991232431  0.3701500324190548
  0.0776623750661827  0.3374425067041074  0.3446054317256326
  0.0773589326468525  0.6554877694295556  0.3672528517651088
  0.4098876794078237  0.9779880224617230  0.3417341657517383
  0.3977048535252337  0.3393361895199618  0.3658227635187998
  0.4038224372256707  0.6578749067257519  0.3662201878475386
  0.2324153220411276  0.9972080629640629  0.6611053239736293
  0.9061973772654852  0.6824455788743222  0.6315731144160850
  0.9036897619077422  0.8537827832144984  0.1470716262155349
  0.2432905125258955  0.1751182576508725  0.1494038953554977
  0.8999434286465586  0.1761840369647913  0.1369810946787737
  0.7431680880608482  0.3410010705076658  0.3654462612479321
  0.0596527533682618  0.1730110587797213  0.8717282987384962
  0.0629796401602292  0.5039180478360521  0.8648083484510636
  0.0744215143311138  0.8248742257124491  0.8680415655703726
  0.4025207052005157  0.1904617816550882  0.8535702883815262
  0.4216742462149057  0.5080875114092862  0.8635032601582111
  0.3824335593815107  0.8425595258317600  0.8692027839354282
  0.7290904525355941  0.1699590909367927  0.8572999714984917
  0.7318790505258832  0.5138862467808778  0.8466399891584615
  0.7363591460003889  0.8450207633844116  0.8634032324799108
  0.2479181568609761  0.4892805566286853  0.1301718231565729
  0.2128146078550373  0.8388472027715750  0.1532730390521166
  0.5736255628637892  0.1679201534620063  0.1408998811517748
  0.5737863771460496  0.5035468766010993  0.1305390002512112
  0.5782762070064820  0.8430611879567280  0.1477126738502292
  0.9082702455398746  0.5086752096620586  0.1228124225800329
  0.7645520225492106  0.6781553555871156  0.3639606189380800
 
  0.00000000E+00  0.00000000E+00  0.00000000E+00
  0.00000000E+00  0.00000000E+00  0.00000000E+00
  0.00000000E+00  0.00000000E+00  0.00000000E+00
  0.00000000E+00  0.00000000E+00  0.00000000E+00
  0.00000000E+00  0.00000000E+00  0.00000000E+00
  0.00000000E+00  0.00000000E+00  0.00000000E+00
  0.00000000E+00  0.00000000E+00  0.00000000E+00
  0.00000000E+00  0.00000000E+00  0.00000000E+00
  0.00000000E+00  0.00000000E+00  0.00000000E+00
  0.00000000E+00  0.00000000E+00  0.00000000E+00
  0.00000000E+00  0.00000000E+00  0.00000000E+00
  0.00000000E+00  0.00000000E+00  0.00000000E+00
  0.00000000E+00  0.00000000E+00  0.00000000E+00
  0.00000000E+00  0.00000000E+00  0.00000000E+00
  0.00000000E+00  0.00000000E+00  0.00000000E+00
  0.00000000E+00  0.00000000E+00  0.00000000E+00
  0.00000000E+00  0.00000000E+00  0.00000000E+00
  0.00000000E+00  0.00000000E+00  0.00000000E+00
  0.00000000E+00  0.00000000E+00  0.00000000E+00
  0.00000000E+00  0.00000000E+00  0.00000000E+00
  0.00000000E+00  0.00000000E+00  0.00000000E+00
  0.00000000E+00  0.00000000E+00  0.00000000E+00
  0.00000000E+00  0.00000000E+00  0.00000000E+00
  0.00000000E+00  0.00000000E+00  0.00000000E+00
  0.00000000E+00  0.00000000E+00  0.00000000E+00
  0.00000000E+00  0.00000000E+00  0.00000000E+00
  0.00000000E+00  0.00000000E+00  0.00000000E+00
  0.00000000E+00  0.00000000E+00  0.00000000E+00
  0.00000000E+00  0.00000000E+00  0.00000000E+00
  0.00000000E+00  0.00000000E+00  0.00000000E+00
  0.00000000E+00  0.00000000E+00  0.00000000E+00
  0.00000000E+00  0.00000000E+00  0.00000000E+00
  0.00000000E+00  0.00000000E+00  0.00000000E+00
  0.00000000E+00  0.00000000E+00  0.00000000E+00
  0.00000000E+00  0.00000000E+00  0.00000000E+00
  0.00000000E+00  0.00000000E+00  0.00000000E+00
  0.00000000E+00  0.00000000E+00  0.00000000E+00
  0.00000000E+00  0.00000000E+00  0.00000000E+00
  0.00000000E+00  0.00000000E+00  0.00000000E+00
  0.00000000E+00  0.00000000E+00  0.00000000E+00
  0.00000000E+00  0.00000000E+00  0.00000000E+00
  0.00000000E+00  0.00000000E+00  0.00000000E+00
  0.00000000E+00  0.00000000E+00  0.00000000E+00
  0.00000000E+00  0.00000000E+00  0.00000000E+00
  0.00000000E+00  0.00000000E+00  0.00000000E+00
  0.00000000E+00  0.00000000E+00  0.00000000E+00
  0.00000000E+00  0.00000000E+00  0.00000000E+00
  0.00000000E+00  0.00000000E+00  0.00000000E+00
  0.00000000E+00  0.00000000E+00  0.00000000E+00
  0.00000000E+00  0.00000000E+00  0.00000000E+00
  0.00000000E+00  0.00000000E+00  0.00000000E+00
  0.00000000E+00  0.00000000E+00  0.00000000E+00
  0.00000000E+00  0.00000000E+00  0.00000000E+00
  0.00000000E+00  0.00000000E+00  0.00000000E+00
  0.00000000E+00  0.00000000E+00  0.00000000E+00
  0.00000000E+00  0.00000000E+00  0.00000000E+00
  0.00000000E+00  0.00000000E+00  0.00000000E+00
  0.00000000E+00  0.00000000E+00  0.00000000E+00
  0.00000000E+00  0.00000000E+00  0.00000000E+00
  0.00000000E+00  0.00000000E+00  0.00000000E+00
  0.00000000E+00  0.00000000E+00  0.00000000E+00
  0.00000000E+00  0.00000000E+00  0.00000000E+00
  0.00000000E+00  0.00000000E+00  0.00000000E+00
  0.00000000E+00  0.00000000E+00  0.00000000E+00
  0.00000000E+00  0.00000000E+00  0.00000000E+00
  0.00000000E+00  0.00000000E+00  0.00000000E+00
  0.00000000E+00  0.00000000E+00  0.00000000E+00
  0.00000000E+00  0.00000000E+00  0.00000000E+00
  0.00000000E+00  0.00000000E+00  0.00000000E+00
  0.00000000E+00  0.00000000E+00  0.00000000E+00
  0.00000000E+00  0.00000000E+00  0.00000000E+00
  0.00000000E+00  0.00000000E+00  0.00000000E+00
