Ge Se                                   
    1.000000000000000     
     3.8581001759000002    0.0000000000000000    0.0000000000000000
     0.0000000000000000    4.5265750884999996    0.0000000000000000
     0.0000000000000000    0.0000000000000000   23.0851764678999984
   Ge   Se
     2     2
Direct
  0.2500000000064801  0.1156418993976018  0.0593222992643874
  0.7500000000194404  0.6156418920520892  0.1807706521023462
  0.7500000000194404  0.4950509668320962  0.0707649453869905
  0.2500000000064801  0.9950510264246120  0.1693280095751248
 
  0.00000000E+00  0.00000000E+00  0.00000000E+00
  0.00000000E+00  0.00000000E+00  0.00000000E+00
  0.00000000E+00  0.00000000E+00  0.00000000E+00
  0.00000000E+00  0.00000000E+00  0.00000000E+00
