 C  S                                   
    1.000000000000000     
    32.3722991942999982    0.0000000000000000    0.0000000000000000
     0.0000000000000000   19.9214134216000005    0.0000000000000000
     0.0000000000000000    0.0000000000000000   40.4480476378999967
   C    S 
   364     1
Direct
  0.3709366859955019  0.5384189727233595  0.0024586029034800
  0.3687781871263677  0.5439653793877587  0.0628951739977446
  0.3380450130975824  0.5951313326806197  0.0610966929118058
  0.3204709433992415  0.6115138396956371  0.0299372973916166
  0.2777859457833318  0.6288475858774453  0.0281238700438965
  0.3665247497342021  0.5494047312846426  0.1233341550995906
  0.3347206946039550  0.5988192320169810  0.1215460934322213
  0.3167969434107162  0.6141956415841159  0.0903886440625099
  0.2737655134263563  0.6291044680302095  0.0885723845552014
  0.2535404252840046  0.6269113399954008  0.0574137118718149
  0.2121030045342366  0.6028698802019271  0.0556043948417127
  0.1955989050401022  0.5837655207338562  0.0244409313167455
  0.1680740774955643  0.5279753014346200  0.0226351527540395
  0.3641720625115707  0.5546945783645069  0.1837839371056073
  0.3313232946419216  0.6022654012416151  0.1820083498918226
  0.3130861795600662  0.6166554050395630  0.1508477349823494
  0.2697623279451383  0.6291327925473350  0.1490281904727458
  0.2495898388344748  0.6258117477729630  0.1178674934536596
  0.2086907109542007  0.5994475733272491  0.1160560640099177
  0.1925899703963707  0.5794229293232025  0.0848976705352515
  0.1662727936724118  0.5221182304349069  0.0830846009513412
  0.1590165327994967  0.4913718156967481  0.0519276768955328
  0.1550907376668988  0.4201493285357567  0.0501231104862113
  0.1588393879272653  0.3878031327615037  0.0189577546157285
  0.1784820579923609  0.3238180825194665  0.0171586508549458
  0.3617428930468365  0.5597670270350960  0.2442462282270260
  0.3278454886449495  0.6053620554007249  0.2424839422114040
  0.3093182399867416  0.6188015097339539  0.2113231593117161
  0.2657534005930285  0.6288511854372761  0.2094949578234287
  0.2456704326491479  0.6244657208320332  0.1783250799352719
  0.2053493861461780  0.5958416045490250  0.1765010115889638
  0.1896833922772992  0.5749310419562149  0.1453436672220766
  0.1646015180068064  0.5161842467724580  0.1435216358910573
  0.1580110372389503  0.4850267885776199  0.1123741446457277
  0.1556043930357185  0.4136264336286297  0.1105783278243157
  0.1600293982937368  0.3815059741449571  0.0794157148119028
  0.1810124433427805  0.3186566796186033  0.0776206818544024
  0.1951409671028582  0.2951039215863236  0.0464532200135390
  0.2332994783152126  0.2594993216499643  0.0446375456879511
  0.2529431132489383  0.2515324025733769  0.0134667149621144
  0.2969187398072430  0.2538095849847564  0.0116587379660476
  0.3714207317258078  0.5379104292098076  0.3358331595027720
  0.3592023272492137  0.5644825884574262  0.3047288058653351
  0.3242335006331525  0.6079272386176610  0.3029745339367919
  0.3054695997647819  0.6204883198174975  0.2718109294767667
  0.2617219945328801  0.6281636369705909  0.2699666888447239
  0.2417612875821415  0.6227993477230428  0.2387829225950705
  0.2020408450010501  0.5920414249412893  0.2369368150727268
  0.1868508204699928  0.5702839300119381  0.2057756862746158
  0.1630242857200298  0.5101759369638810  0.2039425215047609
  0.1571310794046043  0.4786472486219443  0.1728035900422347
  0.1562563286152413  0.4071605837929005  0.1710179262138003
  0.1613651912460239  0.3752902015360561  0.1398679257375327
  0.1836761901376005  0.3136561324163251  0.1380809493345440
  0.1982907854719532  0.2909064298914572  0.1069159769177901
  0.2371838040791804  0.2574705001579518  0.1051108122745419
  0.2569672095342510  0.2506074046582221  0.0739310741423388
  0.3008689467558112  0.2553665812586058  0.0721176424651239
  0.3199257797589701  0.2664368002175578  0.0409471179308814
  0.3557539864149663  0.3079358223684737  0.0391163729463028
  0.3684190432997407  0.3336187244055136  0.0079560925325104
  0.3855503937017354  0.3994732325860316  0.0061482761088080
  0.3690570109680930  0.5419472852965838  0.3963087701752152
  0.3562886231641025  0.5681127181617013  0.3652562212167316
  0.3203775501062219  0.6095209043472116  0.3634631932665648
  0.3014891340975773  0.6214939092225891  0.3322892544663183
  0.2576154825695116  0.6271061866982786  0.3304296300777116
  0.2378174143107480  0.6208194998841006  0.2992308232672153
  0.1987068429040720  0.5880654538243572  0.2973630587911078
  0.1840210929812389  0.5655134001091414  0.2661933143066613
  0.1614533044263867  0.5041361675454779  0.2643520655584358
  0.1563013350422593  0.4722715149590583  0.2332151135790757
  0.1569814951964039  0.4007837362976579  0.2314373245490213
  0.1628273337397526  0.3691998473866450  0.2003100696184633
  0.1864657060605719  0.3088817803136928  0.1985391555508193
  0.2015507755839052  0.2869314754312640  0.1673809010440795
  0.2411314814427144  0.2557016203277339  0.1655939730144813
  0.2610330892650600  0.2499219052376179  0.1344069324803885
  0.3048063159168895  0.2571517838268849  0.1325833535643928
  0.3236040584579065  0.2692729478389341  0.1014050117881754
  0.3585234628338231  0.3127685371964564  0.0995638132893990
  0.3706189194687375  0.3391441480966098  0.0683981747066062
  0.3863400883690488  0.4059197709633242  0.0665864321379478
  0.3881444393842375  0.4387049640044182  0.0354300165051656
  0.3799800956466536  0.5089593429945334  0.0336117945438348
  0.3668980279130168  0.5469011387297544  0.4564913043630661
  0.3525763979407996  0.5707472819343742  0.4255296585262679
  0.3162150669451929  0.6104614456933649  0.4237933885900794
  0.2972610342420661  0.6219750118104476  0.3926707479038594
  0.2533590551767650  0.6258763562142962  0.3908421186013343
  0.2337409776996208  0.6186859077213098  0.3596478422604839
  0.1952882325914439  0.5839544652887393  0.3577814562095978
  0.1811500584152438  0.5606029259962595  0.3266007428230854
  0.1598704303661558  0.4980387337954395  0.3247589387852745
  0.1554666683830178  0.4658975570408524  0.2936173356813020
  0.1577083902840745  0.3944887087396303  0.2918440114770429
  0.1643335228316875  0.3632432263068399  0.2607347021308030
  0.1893223688767886  0.3043879005548278  0.2589825734970586
  0.2049105022103132  0.2832629568094318  0.2278458230296724
  0.2451500213007011  0.2543089217351112  0.2260857121407832
  0.2651440243844063  0.2495578147461577  0.1948946817521145
  0.3087378492826348  0.2592228022095693  0.1930615183000592
  0.3272446312068418  0.2723516120320867  0.1618667137013068
  0.3612194190596844  0.3177758270513936  0.1600120553314779
  0.3727278936694504  0.3448045316289789  0.1288386877414577
  0.3870099163278445  0.4124263519093490  0.1270176569850436
  0.3881033219194308  0.4452856517182671  0.0958640009956750
  0.3784545534555686  0.5150433113835149  0.0940482981386697
  0.3645732061987270  0.5516108141362084  0.5171775839099362
  0.3506379471278182  0.5752996204550970  0.4859700426452430
  0.3128066311893287  0.6123111602400759  0.4841696172066116
  0.2932749093434283  0.6221748395904320  0.4531344777398305
  0.2493164268948006  0.6241808881735926  0.4512876456804109
  0.2297656631839436  0.6161734567730515  0.4200946145110481
  0.1919772993591449  0.5796055966472220  0.4182269656371795
  0.1782904839368995  0.5555801258548421  0.3870307830603554
  0.1583083874608824  0.4918825787558746  0.3851952758940445
  0.1546233089049555  0.4595195282954212  0.3540352526757303
  0.1583971273635045  0.3882872536887591  0.3522533867697301
  0.1658155778538269  0.3574403903792590  0.3211504761408579
  0.1921764149285266  0.3001770359996930  0.3194084051068182
  0.2083177565811507  0.2799759387950426  0.2883066957880739
  0.2491917360784325  0.2534542565792361  0.2865752503793040
  0.2692849449921588  0.2496599479204196  0.2553917824930569
  0.3126597840619061  0.2616741973164025  0.2535512806698893
  0.3308681449548440  0.2756974405139025  0.2223368720521482
  0.3638921342124417  0.3229394462337620  0.2204635099534796
  0.3747742574597033  0.3505899667534876  0.1892776865817140
  0.3876084878393812  0.4189712399304035  0.1874426591777512
  0.3879517558657564  0.4518758785222498  0.1562914781748542
  0.3768149418387068  0.5210413455728666  0.1544861408080382
  0.3618527000059846  0.5568633015871707  0.5773936520464780
  0.3467452041163982  0.5787016758136737  0.5462953073230488
  0.3088230729496149  0.6144341573436130  0.5444780060693836
  0.2893688448015539  0.6229862304573487  0.5133433542391136
  0.2453812820906099  0.6227178491354894  0.5115918866468377
  0.2258809883653678  0.6135953791924315  0.4805014534971741
  0.1887969240958751  0.5751171615068588  0.4786713214647645
  0.1755728950528012  0.5503424037140512  0.4474897903230081
  0.1569309132597489  0.4855900603514275  0.4456669390411975
  0.1538869511801849  0.4530738806643806  0.4144854587111186
  0.1591713806953652  0.3820972250355011  0.4126898358899360
  0.1672449543316983  0.3517274236226910  0.3815677499575555
  0.1949352628983181  0.2961546530934646  0.3798147943386281
  0.2116985500120697  0.2770612773870855  0.3487489015199027
  0.2532228026877382  0.2533466665420390  0.3470381154873988
  0.2734042780286359  0.2504369307205516  0.3158845804963902
  0.3165331512500339  0.2646744250986423  0.3140519228091945
  0.3344736397963822  0.2793870471131348  0.2828165463233662
  0.3665851619404445  0.3282617248347601  0.2809199867352490
  0.3768300388545504  0.3564689741706037  0.2497139186694388
  0.3882159345345514  0.4255269803052160  0.2478629923903105
  0.3877612785870760  0.4584447845049382  0.2167161503121449
  0.3751095753357579  0.5269236906138056  0.2149299770056199
  0.3594374224995371  0.5636678264368428  0.6378687219536936
  0.3444848701037692  0.5850265596786351  0.6065832235845361
  0.3054809204564320  0.6182274382931366  0.6048004261932080
  0.2854839277256617  0.6248162686356681  0.5737499935070246
  0.2415579802086635  0.6216310094577586  0.5720035416015359
  0.2222888620513392  0.6109951844337249  0.5408981529600699
  0.1860809822481352  0.5704127320546321  0.5391167962220775
  0.1731835019479116  0.5449563120823832  0.5079649909387223
  0.1559075773647728  0.4791870407946310  0.5061623566807619
  0.1534097771271862  0.4465713644861807  0.4749779084349061
  0.1602162794949308  0.3759250827076764  0.4731664098163875
  0.1688877377269357  0.3460993768216531  0.4420179949697693
  0.1978796828260656  0.2923535625741155  0.4402476121765034
  0.2149680986505196  0.2743664198432180  0.4091433013383927
  0.2570829649979408  0.2538383565167108  0.4073965817651183
  0.2774679830368976  0.2522689742518692  0.3763544235858611
  0.3202776242251814  0.2689897627897928  0.3745690341747182
  0.3379905652547061  0.2837216872812217  0.3432837120893732
  0.3693002162073338  0.3338485642554510  0.3413875372462341
  0.3789578561500540  0.3624514983142467  0.3101532392174648
  0.3888948839036354  0.4320709509226476  0.3082821981973460
  0.3875899166670510  0.4649748512236895  0.2771425472207560
  0.3733451615793341  0.5326300723268765  0.2753831503938469
  0.3566626459311880  0.5691823691598070  0.6983405200085193
  0.3414897303813167  0.5906163884115884  0.6671067687716979
  0.3018093597691221  0.6215516164939667  0.6652810758951028
  0.2818110245526577  0.6267717689927652  0.6341214239565580
  0.2379756357615664  0.6202871630563963  0.6324037059497277
  0.2188516842537286  0.6084615195678288  0.6013340272398573
  0.1836255784090476  0.5656057474215236  0.5995741226395688
  0.1712227231262346  0.5393887642981356  0.5684453169731909
  0.1553717560405414  0.4726989258446500  0.5666545817318511
  0.1534157494070103  0.4399641673529993  0.5354735909206811
  0.1617113196388197  0.3697612898408292  0.5336380713808057
  0.1708002066248588  0.3404715223978008  0.5024605151363324
  0.2009702466999374  0.2884265858437390  0.5006418224137029
  0.2185053587650490  0.2718257051924074  0.4695527138392150
  0.2611188912827478  0.2541039341862712  0.4677924625042719
  0.2812716212920131  0.2546724756152066  0.4366659441515164
  0.3234122778740052  0.2742792100772972  0.4348509374460010
  0.3413551006592638  0.2894282258271215  0.4037530233304583
  0.3725600757432531  0.3400008142496693  0.4020266414392378
  0.3812722331111701  0.3685830434152163  0.3705986695276758
  0.3897466974589075  0.4384696045029077  0.3687119366024384
  0.3874243486083224  0.4713714166281170  0.3375848492811945
  0.3537310990337416  0.5741239593823013  0.7588196320959015
  0.3381777564470039  0.5949937941255726  0.7276099463904787
  0.2979290810809792  0.6238868156896799  0.7257818981040695
  0.2778757955129416  0.6282251543318548  0.6945934531241458
  0.2342524249136811  0.6187779682210118  0.6928509266127740
  0.2155623526837599  0.6056277375211172  0.6617428753756240
  0.1813702106855219  0.5606124569258002  0.6600005510500875
  0.1695286196492623  0.5336781039217410  0.6288878778900867
  0.1551108205593745  0.4661359990389134  0.6271011111255030
  0.1537987480066355  0.4333065536860730  0.5959425634765658
  0.1635680128084044  0.3635921130512301  0.5940945914638019
  0.1732131382798244  0.3348551351698755  0.5628989644440129
  0.2043525957731017  0.2843832138773297  0.5610403430407213
  0.2221067204916246  0.2688521199110497  0.5298504783299979
  0.2650300147453704  0.2533325635442244  0.5279935020791837
  0.2854557375040349  0.2551575680804117  0.4969616752828357
  0.3276961610122118  0.2760392694398591  0.4951696970623759
  0.3447742000358749  0.2934672565235376  0.4639618342760409
  0.3792444631390062  0.3381449434196534  0.4620878847616005
  0.3864549306477560  0.3732729335298932  0.4313555704627334
  0.3935072124464853  0.4448703713764345  0.4294824834004585
  0.3876450742833107  0.4770323081212064  0.3982346790566885
  0.3507235111282974  0.5787413393987072  0.8192873190124565
  0.3347507466331828  0.5988607320456215  0.7880977813231542
  0.2939379440523811  0.6255715374643193  0.7862758250716835
  0.2738278739067794  0.6289460364652293  0.7550883025845251
  0.2304514508361207  0.6168898382588199  0.7533137241488277
  0.2121580810669892  0.6026428547728735  0.7221731652412168
  0.1790576776006274  0.5555270986310127  0.7204236940059033
  0.1679172579390551  0.5279101266700439  0.6893052914025624
  0.1549621626451830  0.4595785346427970  0.6875172124864638
  0.1543822446817226  0.4266853824917189  0.6563748342723517
  0.1655977825714691  0.3575638770251097  0.6545231025770893
  0.1757861714432117  0.3293151115002367  0.6233386497456178
  0.2078371739426955  0.2803496399172218  0.6214767436434272
  0.2257740748239443  0.2655899108651188  0.5902864196488894
  0.2689265849362842  0.2519151725018615  0.5884457427527291
  0.2890368659672458  0.2555739533329957  0.5573270067828631
  0.3302669420959727  0.2796495992201452  0.5556026959654289
  0.3477417612286651  0.2970968108784105  0.5246459241407118
  0.3811511748227958  0.3436619661292010  0.5230538613629971
  0.3990563413800727  0.3565392457830093  0.4918592337893253
  0.4076849902308811  0.4688407495830832  0.4892731108389621
  0.3922699427546966  0.4884554373445658  0.4580767903835452
  0.3476596658823226  0.5831261826654105  0.8797480494119760
  0.3312612965890163  0.6023881525336739  0.8485727406804754
  0.2899101282210476  0.6268118854020599  0.8467569493379278
  0.2697385017477806  0.6291405273136329  0.8155763623053649
  0.2266566546889103  0.6146008422155177  0.8137766973771197
  0.2087118353860475  0.5993546616965870  0.7826193837195976
  0.1766971337291014  0.5502919194142071  0.7808530318502093
  0.1662676172560547  0.5220369401213647  0.7497164652394168
  0.1548136366599894  0.4530069775431822  0.7479208497248685
  0.1550052145887912  0.4200954795276970  0.7167765795538723
  0.1676427660335642  0.3516189668459859  0.7149291358304933
  0.1784841509350178  0.3239357126221348  0.6837530955785265
  0.2114663790084700  0.2766102505649475  0.6818832878652757
  0.2297149191988004  0.2626596715054135  0.6506883598762235
  0.2730976206711410  0.2506448280418312  0.6488178351666087
  0.2932181094938970  0.2547808362184125  0.6176487909612109
  0.3342670955792230  0.2806716509096838  0.6158706746039555
  0.3505858880084584  0.3009997519279348  0.5848226556189113
  0.3783953251652638  0.3565383995961856  0.5828918642729609
  0.3889363420345687  0.3854042849469991  0.5516492903698942
  0.3929301210107695  0.4576268471028439  0.5497849197451792
  0.3912581670552637  0.4945690057740640  0.5190481438138834
  0.3445217232638580  0.5872934964757162  0.9402016480773393
  0.3277083123713621  0.6056363880945835  0.9090342667454879
  0.2858640134455502  0.6277255504413174  0.9072212333160716
  0.2656456363385165  0.6289573477304118  0.8760490179740599
  0.2229038382587779  0.6119913355724688  0.8742358711885462
  0.2053049391099298  0.5957637890257184  0.8430713011979439
  0.1743759301354029  0.5449009017169653  0.8412885806734197
  0.1645997304421148  0.5160717236434014  0.8101368051718536
  0.1546520402487542  0.4464234805589894  0.8083294710884681
  0.1556086892542770  0.4135418639437012  0.7771821768918189
  0.1696511897815300  0.3457808875099782  0.7753486339536920
  0.1811076293854967  0.3186852366602420  0.7441787851682744
  0.2149794510299743  0.2730481599825756  0.7423221535041939
  0.2335320567736310  0.2599376390502638  0.7111408188569304
  0.2771042911908356  0.2499627114188576  0.7092911485784438
  0.2971978851276840  0.2547238223021926  0.6781308497167126
  0.3376395281968763  0.2829538756330919  0.6763877602854064
  0.3534971605191903  0.3038947531034748  0.6452928166807353
  0.3790398094794020  0.3620463733175927  0.6435377895245592
  0.3862554436507990  0.3930577937186962  0.6124189039988422
  0.3886058888257232  0.4641898311841922  0.6105481184076200
  0.3844780837333650  0.4954025258214549  0.5791188318531086
  0.3413148120698490  0.5912839878641534  0.0006505270436689
  0.3241129232342677  0.6086701588305292  0.9694874168859058
  0.2818226913881514  0.6283941361158777  0.9676745298173406
  0.2615760469096189  0.6284962512681010  0.9365104386032763
  0.2192183727747153  0.6091465644711888  0.9346937782610271
  0.2019695666017394  0.5919442876298177  0.9035258524705699
  0.1721478027800965  0.5393670946989216  0.9017324251913763
  0.1630105837547391  0.5100103842778757  0.8705724466937124
  0.1545550903756820  0.4398406548793906  0.8687585561508527
  0.1562387865580788  0.4070302817147584  0.8376049846139467
  0.1716893181398245  0.3400841558587716  0.8357855739595075
  0.1837210908219048  0.3135984912031287  0.8046191943251018
  0.2185055723870093  0.2698054953037202  0.8027808774534330
  0.2373204915924694  0.2575980139679692  0.7716093130320859
  0.2810748750065013  0.2499994645343106  0.7697813948883092
  0.3010701332244907  0.2556956508042716  0.7386196856734508
  0.3407997519154812  0.2864342638333352  0.7368657823007627
  0.3561436026130768  0.3081781608633664  0.7057393550866190
  0.3801486492183287  0.3681088954721735  0.7039791992066552
  0.3863839522375375  0.3995304383654565  0.6728476713405892
  0.3872661829827713  0.4709873991553342  0.6709991882608562
  0.3822354550069171  0.5026044267721280  0.6397685514883141
  0.2575405800651214  0.6278029318240997  0.9969632757734089
  0.2156201658708125  0.6060933637609829  0.9951500872546395
  0.1987325205527905  0.5879352596869699  0.9639831079719080
  0.1700406742409749  0.5337219294062272  0.9621826755280517
  0.1615279221847262  0.5038654996014519  0.9310208530743406
  0.1545726781855449  0.4332612958614178  0.9292051687320168
  0.1569619112620360  0.4005733447701568  0.8980445443284791
  0.1738250376667390  0.3345306749675707  0.8962369020972075
  0.1864112687792040  0.3087210453679302  0.8650725006365747
  0.2220930297486279  0.2668828946895154  0.8632449614890412
  0.2411535828220352  0.2556650131528619  0.8320787285736265
  0.2850378687003408  0.2505124692927463  0.8302658717008414
  0.3048957975596451  0.2572413357737042  0.7991010372328563
  0.3439129715658739  0.2902963301762363  0.7973268798250643
  0.3587037052880244  0.3129146442000639  0.7661894654736898
  0.3812924522327533  0.3742788476129048  0.7644087552817481
  0.3867055755954714  0.4060551948793876  0.7332704869760391
  0.3861054784614874  0.4775440846295207  0.7314384184318063
  0.3804268562054566  0.5090141801997107  0.7002417609880034
  0.1601926747701871  0.4976489089445845  0.9914742484261498
  0.1547458713624780  0.4266937324495709  0.9896618649387181
  0.1578186770543014  0.3941558772432368  0.9584970537038570
  0.1760824305726961  0.3291026282230115  0.9566961400103118
  0.1892009759202048  0.3040112648946521  0.9255307228917370
  0.2257534311699689  0.2642032968334099  0.9237083453327704
  0.2450314482351396  0.2540405730342168  0.8925435678929847
  0.2890008298590349  0.2513626210756030  0.8907370972588554
  0.3086961004221105  0.2591589608259022  0.8595737281006064
  0.3469790801291691  0.2944141753045150  0.8577809191334994
  0.3612380674402936  0.3178561945886366  0.8266336659593814
  0.3824579762737246  0.3804887276476738  0.8248383262537747
  0.3870980161988862  0.4125673882661788  0.7936914890069541
  0.3849950175176480  0.4839786366691619  0.7918709791433378
  0.3786268768163619  0.5151745961382792  0.7606967640564637
  0.1921159079476257  0.2994809376158941  0.9859918514867937
  0.2294924589809898  0.2617532751608638  0.9841718646983452
  0.2489611137428645  0.2526704657747169  0.9530057410293234
  0.2929620292205924  0.2524711944607630  0.9512017271386635
  0.3124682342424627  0.2613732913540661  0.9200373396393700
  0.3499735803879153  0.2987560491441444  0.9182279584669019
  0.3637122169427170  0.3229664210864328  0.8870739050874791
  0.3835821152060206  0.3867584280357314  0.8852706144278116
  0.3874910154292790  0.4190770788535028  0.8541196520142467
  0.3838658652306573  0.4903332704126154  0.8523043868679405
  0.3768026973925542  0.5211620798395761  0.8211414179286235
  0.3162207104863203  0.2637900720189884  0.9804932242996427
  0.3529118038302893  0.3032542718151665  0.9786718331466868
  0.3661131856024247  0.3282227208013788  0.9475147727898736
  0.3846292096657182  0.3930813126295046  0.9457090113332202
  0.3878254679712200  0.4256010723061231  0.9145531275613256
  0.3826856852926097  0.4966099212277464  0.9127386330687264
  0.3749425821687065  0.5270333668800087  0.8815821233517154
  0.3880537698197137  0.4321423439842807  0.9749906981244878
  0.3813945018801933  0.5028161180221263  0.9731745146725697
  0.3729951633238366  0.5327822257553754  0.9420214238923461
  0.4449019698834297  0.4042621602376262  0.4905653802355244
 
  0.00000000E+00  0.00000000E+00  0.00000000E+00
  0.00000000E+00  0.00000000E+00  0.00000000E+00
  0.00000000E+00  0.00000000E+00  0.00000000E+00
  0.00000000E+00  0.00000000E+00  0.00000000E+00
  0.00000000E+00  0.00000000E+00  0.00000000E+00
  0.00000000E+00  0.00000000E+00  0.00000000E+00
  0.00000000E+00  0.00000000E+00  0.00000000E+00
  0.00000000E+00  0.00000000E+00  0.00000000E+00
  0.00000000E+00  0.00000000E+00  0.00000000E+00
  0.00000000E+00  0.00000000E+00  0.00000000E+00
  0.00000000E+00  0.00000000E+00  0.00000000E+00
  0.00000000E+00  0.00000000E+00  0.00000000E+00
  0.00000000E+00  0.00000000E+00  0.00000000E+00
  0.00000000E+00  0.00000000E+00  0.00000000E+00
  0.00000000E+00  0.00000000E+00  0.00000000E+00
  0.00000000E+00  0.00000000E+00  0.00000000E+00
  0.00000000E+00  0.00000000E+00  0.00000000E+00
  0.00000000E+00  0.00000000E+00  0.00000000E+00
  0.00000000E+00  0.00000000E+00  0.00000000E+00
  0.00000000E+00  0.00000000E+00  0.00000000E+00
  0.00000000E+00  0.00000000E+00  0.00000000E+00
  0.00000000E+00  0.00000000E+00  0.00000000E+00
  0.00000000E+00  0.00000000E+00  0.00000000E+00
  0.00000000E+00  0.00000000E+00  0.00000000E+00
  0.00000000E+00  0.00000000E+00  0.00000000E+00
  0.00000000E+00  0.00000000E+00  0.00000000E+00
  0.00000000E+00  0.00000000E+00  0.00000000E+00
  0.00000000E+00  0.00000000E+00  0.00000000E+00
  0.00000000E+00  0.00000000E+00  0.00000000E+00
  0.00000000E+00  0.00000000E+00  0.00000000E+00
  0.00000000E+00  0.00000000E+00  0.00000000E+00
  0.00000000E+00  0.00000000E+00  0.00000000E+00
  0.00000000E+00  0.00000000E+00  0.00000000E+00
  0.00000000E+00  0.00000000E+00  0.00000000E+00
  0.00000000E+00  0.00000000E+00  0.00000000E+00
  0.00000000E+00  0.00000000E+00  0.00000000E+00
  0.00000000E+00  0.00000000E+00  0.00000000E+00
  0.00000000E+00  0.00000000E+00  0.00000000E+00
  0.00000000E+00  0.00000000E+00  0.00000000E+00
  0.00000000E+00  0.00000000E+00  0.00000000E+00
  0.00000000E+00  0.00000000E+00  0.00000000E+00
  0.00000000E+00  0.00000000E+00  0.00000000E+00
  0.00000000E+00  0.00000000E+00  0.00000000E+00
  0.00000000E+00  0.00000000E+00  0.00000000E+00
  0.00000000E+00  0.00000000E+00  0.00000000E+00
  0.00000000E+00  0.00000000E+00  0.00000000E+00
  0.00000000E+00  0.00000000E+00  0.00000000E+00
  0.00000000E+00  0.00000000E+00  0.00000000E+00
  0.00000000E+00  0.00000000E+00  0.00000000E+00
  0.00000000E+00  0.00000000E+00  0.00000000E+00
  0.00000000E+00  0.00000000E+00  0.00000000E+00
  0.00000000E+00  0.00000000E+00  0.00000000E+00
  0.00000000E+00  0.00000000E+00  0.00000000E+00
  0.00000000E+00  0.00000000E+00  0.00000000E+00
  0.00000000E+00  0.00000000E+00  0.00000000E+00
  0.00000000E+00  0.00000000E+00  0.00000000E+00
  0.00000000E+00  0.00000000E+00  0.00000000E+00
  0.00000000E+00  0.00000000E+00  0.00000000E+00
  0.00000000E+00  0.00000000E+00  0.00000000E+00
  0.00000000E+00  0.00000000E+00  0.00000000E+00
  0.00000000E+00  0.00000000E+00  0.00000000E+00
  0.00000000E+00  0.00000000E+00  0.00000000E+00
  0.00000000E+00  0.00000000E+00  0.00000000E+00
  0.00000000E+00  0.00000000E+00  0.00000000E+00
  0.00000000E+00  0.00000000E+00  0.00000000E+00
  0.00000000E+00  0.00000000E+00  0.00000000E+00
  0.00000000E+00  0.00000000E+00  0.00000000E+00
  0.00000000E+00  0.00000000E+00  0.00000000E+00
  0.00000000E+00  0.00000000E+00  0.00000000E+00
  0.00000000E+00  0.00000000E+00  0.00000000E+00
  0.00000000E+00  0.00000000E+00  0.00000000E+00
  0.00000000E+00  0.00000000E+00  0.00000000E+00
  0.00000000E+00  0.00000000E+00  0.00000000E+00
  0.00000000E+00  0.00000000E+00  0.00000000E+00
  0.00000000E+00  0.00000000E+00  0.00000000E+00
  0.00000000E+00  0.00000000E+00  0.00000000E+00
  0.00000000E+00  0.00000000E+00  0.00000000E+00
  0.00000000E+00  0.00000000E+00  0.00000000E+00
  0.00000000E+00  0.00000000E+00  0.00000000E+00
  0.00000000E+00  0.00000000E+00  0.00000000E+00
  0.00000000E+00  0.00000000E+00  0.00000000E+00
  0.00000000E+00  0.00000000E+00  0.00000000E+00
  0.00000000E+00  0.00000000E+00  0.00000000E+00
  0.00000000E+00  0.00000000E+00  0.00000000E+00
  0.00000000E+00  0.00000000E+00  0.00000000E+00
  0.00000000E+00  0.00000000E+00  0.00000000E+00
  0.00000000E+00  0.00000000E+00  0.00000000E+00
  0.00000000E+00  0.00000000E+00  0.00000000E+00
  0.00000000E+00  0.00000000E+00  0.00000000E+00
  0.00000000E+00  0.00000000E+00  0.00000000E+00
  0.00000000E+00  0.00000000E+00  0.00000000E+00
  0.00000000E+00  0.00000000E+00  0.00000000E+00
  0.00000000E+00  0.00000000E+00  0.00000000E+00
  0.00000000E+00  0.00000000E+00  0.00000000E+00
  0.00000000E+00  0.00000000E+00  0.00000000E+00
  0.00000000E+00  0.00000000E+00  0.00000000E+00
  0.00000000E+00  0.00000000E+00  0.00000000E+00
  0.00000000E+00  0.00000000E+00  0.00000000E+00
  0.00000000E+00  0.00000000E+00  0.00000000E+00
  0.00000000E+00  0.00000000E+00  0.00000000E+00
  0.00000000E+00  0.00000000E+00  0.00000000E+00
  0.00000000E+00  0.00000000E+00  0.00000000E+00
  0.00000000E+00  0.00000000E+00  0.00000000E+00
  0.00000000E+00  0.00000000E+00  0.00000000E+00
  0.00000000E+00  0.00000000E+00  0.00000000E+00
  0.00000000E+00  0.00000000E+00  0.00000000E+00
  0.00000000E+00  0.00000000E+00  0.00000000E+00
  0.00000000E+00  0.00000000E+00  0.00000000E+00
  0.00000000E+00  0.00000000E+00  0.00000000E+00
  0.00000000E+00  0.00000000E+00  0.00000000E+00
  0.00000000E+00  0.00000000E+00  0.00000000E+00
  0.00000000E+00  0.00000000E+00  0.00000000E+00
  0.00000000E+00  0.00000000E+00  0.00000000E+00
  0.00000000E+00  0.00000000E+00  0.00000000E+00
  0.00000000E+00  0.00000000E+00  0.00000000E+00
  0.00000000E+00  0.00000000E+00  0.00000000E+00
  0.00000000E+00  0.00000000E+00  0.00000000E+00
  0.00000000E+00  0.00000000E+00  0.00000000E+00
  0.00000000E+00  0.00000000E+00  0.00000000E+00
  0.00000000E+00  0.00000000E+00  0.00000000E+00
  0.00000000E+00  0.00000000E+00  0.00000000E+00
  0.00000000E+00  0.00000000E+00  0.00000000E+00
  0.00000000E+00  0.00000000E+00  0.00000000E+00
  0.00000000E+00  0.00000000E+00  0.00000000E+00
  0.00000000E+00  0.00000000E+00  0.00000000E+00
  0.00000000E+00  0.00000000E+00  0.00000000E+00
  0.00000000E+00  0.00000000E+00  0.00000000E+00
  0.00000000E+00  0.00000000E+00  0.00000000E+00
  0.00000000E+00  0.00000000E+00  0.00000000E+00
  0.00000000E+00  0.00000000E+00  0.00000000E+00
  0.00000000E+00  0.00000000E+00  0.00000000E+00
  0.00000000E+00  0.00000000E+00  0.00000000E+00
  0.00000000E+00  0.00000000E+00  0.00000000E+00
  0.00000000E+00  0.00000000E+00  0.00000000E+00
  0.00000000E+00  0.00000000E+00  0.00000000E+00
  0.00000000E+00  0.00000000E+00  0.00000000E+00
  0.00000000E+00  0.00000000E+00  0.00000000E+00
  0.00000000E+00  0.00000000E+00  0.00000000E+00
  0.00000000E+00  0.00000000E+00  0.00000000E+00
  0.00000000E+00  0.00000000E+00  0.00000000E+00
  0.00000000E+00  0.00000000E+00  0.00000000E+00
  0.00000000E+00  0.00000000E+00  0.00000000E+00
  0.00000000E+00  0.00000000E+00  0.00000000E+00
  0.00000000E+00  0.00000000E+00  0.00000000E+00
  0.00000000E+00  0.00000000E+00  0.00000000E+00
  0.00000000E+00  0.00000000E+00  0.00000000E+00
  0.00000000E+00  0.00000000E+00  0.00000000E+00
  0.00000000E+00  0.00000000E+00  0.00000000E+00
  0.00000000E+00  0.00000000E+00  0.00000000E+00
  0.00000000E+00  0.00000000E+00  0.00000000E+00
  0.00000000E+00  0.00000000E+00  0.00000000E+00