 C  S                                   
    1.000000000000000     
    32.3722991942999982    0.0000000000000000    0.0000000000000000
     0.0000000000000000   19.9214134216000005    0.0000000000000000
     0.0000000000000000    0.0000000000000000   40.4480476378999967
   C    S 
   364     1
Direct
  0.3709376150336047  0.5384204730198132  0.0024585305163543
  0.3687794495331393  0.5439665960680872  0.0628952488346093
  0.3380460980752067  0.5951339954653817  0.0610969210068584
  0.3204721752094792  0.6115166426300144  0.0299374906561540
  0.2777878801630320  0.6288502295891000  0.0281239072493297
  0.3665258223814142  0.5494065329061908  0.1233345622724817
  0.3347225142435209  0.5988199950434085  0.1215467354317202
  0.3167982381383697  0.6141977888418383  0.0903885120333198
  0.2737668350388716  0.6291064599082723  0.0885721048065043
  0.2535419059291293  0.6269134597920937  0.0574138294458436
  0.2121047874624434  0.6028709975566409  0.0556045007833412
  0.1956009673321828  0.5837662188701042  0.0244408753354656
  0.1680767329031032  0.5279749554203984  0.0226348382876611
  0.3641739014866141  0.5546936653365868  0.1837845766478280
  0.3313239277712027  0.6022645573518889  0.1820087664536119
  0.3130870438979350  0.6166557399555754  0.1508482347328526
  0.2697626514006212  0.6291328336685650  0.1490285430400036
  0.2495911917977366  0.6258128789324557  0.1178681876032643
  0.2086921718292390  0.5994483876781052  0.1160558831466494
  0.1925914818345877  0.5794229597296802  0.0848967106059830
  0.1662752360730415  0.5221183698496600  0.0830841435006973
  0.1590193426002129  0.4913713988815063  0.0519275408641527
  0.1550936014945599  0.4201494328560483  0.0501226586473176
  0.1588422744019959  0.3878025957021123  0.0189572194649036
  0.1784845859620845  0.3238167136360268  0.0171583907589940
  0.3617441976863572  0.5597644644271895  0.2442464301230184
  0.3278446842823980  0.6053581254573080  0.2424852480674367
  0.3093182401289281  0.6187985964456595  0.2113236155895176
  0.2657534924138950  0.6288481933499337  0.2094950233409376
  0.2456704747280987  0.6244644084441701  0.1783251715704125
  0.2053502469373743  0.5958418630871886  0.1765005288571217
  0.1896847237894162  0.5749321178579555  0.1453433604826735
  0.1646022420653119  0.5161834581681475  0.1435209950060387
  0.1580129467274939  0.4850260356476329  0.1123731704567424
  0.1556065192392882  0.4136272665593785  0.1105775338704622
  0.1600318841090446  0.3815060477559425  0.0794156208411023
  0.1810146827874547  0.3186559487859600  0.0776204180514671
  0.1951435578694709  0.2951020998336558  0.0464529603147505
  0.2333011660661660  0.2594977183615067  0.0446378578019380
  0.2529445880607108  0.2515302804633996  0.0134668361635639
  0.2969210428017853  0.2538080720909704  0.0116587653998191
  0.3714227433864463  0.5379062151508286  0.3358327906763190
  0.3592017940995737  0.5644794763325001  0.3047295855590208
  0.3242329058070357  0.6079176540737493  0.3029740607665066
  0.3054701835106869  0.6204803469652921  0.2718116483460711
  0.2617194639891835  0.6281568301856633  0.2699683475941127
  0.2417595630828298  0.6227950664584617  0.2387826473118779
  0.2020399707032324  0.5920407279247282  0.2369359252420175
  0.1868502336086196  0.5702845306460002  0.2057754334951173
  0.1630229852538648  0.5101776602570336  0.2039414916888742
  0.1571311766099480  0.4786485403479963  0.1728019001505177
  0.1562568996744680  0.4071603952005498  0.1710163027635934
  0.1613667826269126  0.3752908917457441  0.1398677687661024
  0.1836777380242341  0.3136571069043114  0.1380811034923777
  0.1982927198536583  0.2909061788072470  0.1069157051961856
  0.2371856676000145  0.2574701080812165  0.1051106601196169
  0.2569693489414135  0.2506062466840113  0.0739312953416690
  0.3008704811487405  0.2553658183015705  0.0721176980111279
  0.3199275871917286  0.2664360903161634  0.0409474349188539
  0.3557554273315227  0.3079366804717504  0.0391164793715618
  0.3684198706653477  0.3336194472955119  0.0079561220154515
  0.3855507135503777  0.3994744267447601  0.0061482597394508
  0.3690587503696025  0.5419422802107371  0.3963093659961299
  0.3562880829666145  0.5681057151871057  0.3652560098349814
  0.3203756778144634  0.6095065198343194  0.3634636508475838
  0.3014853283116207  0.6214821680301882  0.3322901922066336
  0.2576142049758010  0.6270953544727542  0.3304304864759332
  0.2378164008875877  0.6208131956248542  0.2992301358229177
  0.1987021793862025  0.5880621250564096  0.2973626282565048
  0.1840176766344974  0.5655132185913720  0.2661934518268689
  0.1614490273184452  0.5041400341695383  0.2643506337699234
  0.1562982003152202  0.4722739241863027  0.2332142795961207
  0.1569796427797345  0.4007828673489974  0.2314372266185320
  0.1628276518412477  0.3691996717906214  0.2003087508590125
  0.1864655623811681  0.3088863854043708  0.1985384357747714
  0.2015513022454472  0.2869345210481683  0.1673806336990935
  0.2411339888719232  0.2557035240219548  0.1655942408426817
  0.2610350737210225  0.2499228850081548  0.1344072117410446
  0.3048077340005758  0.2571526321688693  0.1325839233566757
  0.3236058813073145  0.2692732188391717  0.1014052305828842
  0.3585247964895658  0.3127689498960146  0.0995637771703969
  0.3706200183681913  0.3391452752298560  0.0683977919815712
  0.3863407716876858  0.4059211750014965  0.0665862659734913
  0.3881448275769143  0.4387059825043312  0.0354302683811776
  0.3799807551946763  0.5089610809572296  0.0336122013038796
  0.3668997263268113  0.5468927764427064  0.4564897703579716
  0.3525774144594693  0.5707342482302554  0.4255307576119335
  0.3162093118684844  0.6104446857986309  0.4237946081184549
  0.2972576563808444  0.6219569135873139  0.3926719759055287
  0.2533569628058623  0.6258609081100721  0.3908415261985181
  0.2337381452569159  0.6186758454649656  0.3596486366563802
  0.1952822328038534  0.5839518869396537  0.3577821473863254
  0.1811440228440258  0.5606038043642398  0.3265991726695271
  0.1598620351899241  0.4980417382930645  0.3247575066877904
  0.1554597276247778  0.4658976001619842  0.2936164804142724
  0.1577032798624062  0.3944926730708791  0.2918432838439162
  0.1643308084667692  0.3632474402664239  0.2607330393259768
  0.1893225448035642  0.3043926105714801  0.2589817120605714
  0.2049120792642798  0.2832672810275922  0.2278464645274963
  0.2451499658965670  0.2543155461870474  0.2260858186103648
  0.2651452530605563  0.2495619564518280  0.1948946805454403
  0.3087397326098034  0.2592260008242400  0.1930616392750072
  0.3272461910645838  0.2723531071009285  0.1618668542982600
  0.3612213737865570  0.3177765117638583  0.1600122534613723
  0.3727297080621652  0.3448054773962957  0.1288391159705693
  0.3870116289432018  0.4124274417177688  0.1270177707956273
  0.3881043283593075  0.4452880464731186  0.0958638375149054
  0.3784559056444265  0.5150438590760245  0.0940481258307407
  0.3645745395411226  0.5516009237849125  0.5171795400159552
  0.3506340542580889  0.5752900284560200  0.4859693199813845
  0.3128060964944520  0.6122878805105887  0.4841697354779025
  0.2932720795326269  0.6221520767325385  0.4531324586149558
  0.2493138271313018  0.6241622760393382  0.4512875449025047
  0.2297610116455011  0.6161596928482543  0.4200953088374247
  0.1919704010189546  0.5796037002843765  0.4182269655424613
  0.1782820991611867  0.5555818248906893  0.3870296856974458
  0.1582957765167323  0.4918825551028761  0.3851949295758682
  0.1546129121454110  0.4595221964555141  0.3540348008954615
  0.1583893711129028  0.3882913763181790  0.3522523807634917
  0.1658111129314702  0.3574443191777067  0.3211499363035525
  0.1921760151910649  0.3001841618709608  0.3194082759433586
  0.2083177591395234  0.2799843115855417  0.2883066243408627
  0.2491924768958209  0.2534639218275080  0.2865757144323983
  0.2692852321686952  0.2496675394024815  0.2553923176515174
  0.3126614740362786  0.2616793156571356  0.2535517070487131
  0.3308693897779971  0.2756999239562563  0.2223368135593057
  0.3638948384716086  0.3229399434970803  0.2204631125842444
  0.3747767766167179  0.3505893230393907  0.1892776428551952
  0.3876116887847665  0.4189728463214660  0.1874429893374231
  0.3879539340645566  0.4518768133380512  0.1562914290030545
  0.3768165353129407  0.5210423934750535  0.1544863321969561
  0.3618533442444709  0.5568556399570507  0.5773927904940344
  0.3467454509533289  0.5786866587873629  0.5462947134617412
  0.3088173223699168  0.6144151483517335  0.5444767158142690
  0.2893657872371466  0.6229630413031130  0.5133456647402563
  0.2453778068478031  0.6226992726423105  0.5115922246054468
  0.2258779586455026  0.6135821474624237  0.4805016891971918
  0.1887866192436744  0.5751114555744042  0.4786714930634617
  0.1755613369256263  0.5503403930148727  0.4474902171365510
  0.1569164945162045  0.4855953760789508  0.4456672163353915
  0.1538730309942337  0.4530783884481202  0.4144840025038617
  0.1591611126978235  0.3821005318511103  0.4126883767545923
  0.1672385547902160  0.3517321104586105  0.3815678312263036
  0.1949337654307625  0.2961659403845363  0.3798149426331524
  0.2116981804041453  0.2770737237340704  0.3487488759386708
  0.2532231846051887  0.2533608079752900  0.3470374894305169
  0.2734050186705055  0.2504481841574924  0.3158851640009644
  0.3165331033762649  0.2646804949454484  0.3140519298450982
  0.3344752631663516  0.2793909811954843  0.2828169761496565
  0.3665883329484000  0.3282614591310219  0.2809200471262287
  0.3768339458425523  0.3564692344534295  0.2497139996791496
  0.3882201598341253  0.4255255808542951  0.2478622632382846
  0.3877647831559514  0.4584437447394072  0.2167160040117170
  0.3751109681685781  0.5269253669544853  0.2149301377869357
  0.3594384623772442  0.5636604671852838  0.6378690335240523
  0.3444837402575008  0.5850160104276168  0.6065829622362721
  0.3054786371679385  0.6182108991140246  0.6048000077262076
  0.2854802460684466  0.6247964516477647  0.5737487798098944
  0.2415560296813081  0.6216156590547783  0.5720044972645009
  0.2222842082333530  0.6109818444194209  0.5408976130969257
  0.1860736203362875  0.5704118785925872  0.5391167885022446
  0.1731717346352916  0.5449546373346301  0.5079641476960733
  0.1558924295770753  0.4791908030684786  0.5061618820397875
  0.1533942481015367  0.4465755843552177  0.4749781754289528
  0.1602054764402538  0.3759290302272713  0.4731663426858637
  0.1688801492959235  0.3461044938213137  0.4420177835735715
  0.1978786718517816  0.2923663769181296  0.4402475939274001
  0.2149688476887345  0.2743818701132349  0.4091432294777954
  0.2570824453719601  0.2538578621849912  0.4073976729759377
  0.2774681433610535  0.2522842186569214  0.3763545663032608
  0.3202784373394949  0.2689982266766015  0.3745698778741074
  0.3379931610557909  0.2837271228125329  0.3432826782440556
  0.3693045235256515  0.3338473096703468  0.3413871038730393
  0.3789625556817263  0.3624498218339786  0.3101524388648187
  0.3889003458856510  0.4320691693375249  0.3082823010386941
  0.3875938415040757  0.4649768056509216  0.2771423540305535
  0.3733473931008206  0.5326268175872791  0.2753832949389436
  0.3566637847953826  0.5691772646057990  0.6983400778604798
  0.3414884158017476  0.5906095265928976  0.6671062863135663
  0.3018084364170223  0.6215392355810718  0.6652816349940845
  0.2818077810994180  0.6267571158033943  0.6341210246940926
  0.2379739772691142  0.6202755478815006  0.6324031659058589
  0.2188485302534257  0.6084515286661594  0.6013337313741866
  0.1836182817293648  0.5656030071722922  0.5995739242238617
  0.1712126242613215  0.5393896719382570  0.5684470566254973
  0.1553576288496201  0.4726979103438836  0.5666551388513191
  0.1534009194361347  0.4399672825381888  0.5354742295005037
  0.1617012586639830  0.3697652631716754  0.5336387303395713
  0.1707928061219563  0.3404777019348353  0.5024603898949722
  0.2009691112710846  0.2884404965733067  0.5006415496572497
  0.2185056840722972  0.2718435526433721  0.4695525287085054
  0.2611186172386769  0.2541258707204608  0.4677915624319912
  0.2812695458631436  0.2546909665863826  0.4366664265905019
  0.3234149085710593  0.2742907575931335  0.4348500678142308
  0.3413570497915269  0.2894332857149337  0.4037537560438214
  0.3725669130101046  0.3400017114816148  0.4020260779338262
  0.3812790557834359  0.3685813200136667  0.3705992475458388
  0.3897539733815281  0.4384680718763935  0.3687118093768271
  0.3874297986886411  0.4713700468356694  0.3375849442987245
  0.3537318376074202  0.5741226217908539  0.7588189653720379
  0.3381787232864073  0.5949883383216040  0.7276097467620777
  0.2979286389404386  0.6238792352833092  0.7257808068588232
  0.2778762076383855  0.6282149522097683  0.6945926972472910
  0.2342502848497463  0.6187692255584263  0.6928497492592702
  0.2155608667150684  0.6056212250987988  0.6617439634510852
  0.1813645017352162  0.5606093445549067  0.6600010878240465
  0.1695208867730947  0.5336792738852931  0.6288893848149013
  0.1551001032210425  0.4661360405309548  0.6271022219182372
  0.1537870085135702  0.4333074131691907  0.5959427306451598
  0.1635595439121090  0.3635964192412257  0.5940956010039448
  0.1732070718903136  0.3348601128260950  0.5628986842355352
  0.2043506012306569  0.2843973248836960  0.5610396928180266
  0.2221074070642398  0.2688695714573567  0.5298500343987389
  0.2650304024471607  0.2533537029950053  0.5279940550087318
  0.2854561749673938  0.2551771167400156  0.4969615476120084
  0.3276952433453907  0.2760475888376345  0.4951700440663881
  0.3447788468416589  0.2934749108119306  0.4639606289131398
  0.3792514218494468  0.3381441590608562  0.4620882965796983
  0.3864623186714157  0.3732709337120241  0.4313548032974805
  0.3935152464817080  0.4448658711439982  0.4294823264864588
  0.3876521544943455  0.4770279308898293  0.3982334253674363
  0.3507251183677380  0.5787408632308870  0.8192874394917208
  0.3347521317591420  0.5988583960491700  0.7880969228053089
  0.2939390182185352  0.6255678390321462  0.7862752656657688
  0.2738278435913502  0.6289401513161108  0.7550880909198395
  0.2304515069585270  0.6168845423824392  0.7533139696306284
  0.2121565708657294  0.6026371277292931  0.7221739420034893
  0.1790552518370295  0.5555254087841024  0.7204255245915840
  0.1679113674871920  0.5279069564323977  0.6893055191795967
  0.1549556900178402  0.4595820808294407  0.6875188322819699
  0.1543738297239987  0.4266841515113616  0.6563755211319923
  0.1655915952263058  0.3575666575797308  0.6545234956727902
  0.1757802903602121  0.3293211702121348  0.6233382777557017
  0.2078371143116393  0.2803585372757876  0.6214761683963000
  0.2257743675733924  0.2656045681036984  0.5902868554611307
  0.2689263799577427  0.2519319801587200  0.5884447414635582
  0.2890343380172079  0.2555900196375718  0.5573264232967625
  0.3302697697887491  0.2796586473211263  0.5556030887520447
  0.3477465301942329  0.2971029373404884  0.5246468590606359
  0.3811584303706219  0.3436599210966712  0.5230531097531959
  0.3990624704416576  0.3565335579241569  0.4918594161289845
  0.4076929657503983  0.4688382175153950  0.4892727003092434
  0.3922764184626135  0.4884528839457757  0.4580771502752101
  0.3476615053461918  0.5831269069251040  0.8797477577860103
  0.3312630226300294  0.6023881501922407  0.8485720286590950
  0.2899115219802659  0.6268115618064793  0.8467562948401899
  0.2697393862738021  0.6291384242017101  0.8155763538508244
  0.2266574918543572  0.6145983878216428  0.8137768285370688
  0.2087117496970718  0.5993509905100819  0.7826195029888079
  0.1766974358290056  0.5502916327259287  0.7808540427795718
  0.1662658352887364  0.5220374528702137  0.7497168090509048
  0.1548103580406883  0.4530060156036631  0.7479210250373300
  0.1550001514802817  0.4200969790647330  0.7167780076383031
  0.1676401962789726  0.3516173581337472  0.7149294472724809
  0.1784805854924530  0.3239392086280755  0.6837542650062871
  0.2114659210015076  0.2766167592676469  0.6818837899303252
  0.2297152784066784  0.2626700023720238  0.6506876048167174
  0.2730958833443326  0.2506564538139705  0.6488178301180626
  0.2932183454779665  0.2547935042166194  0.6176483280994578
  0.3342674062437029  0.2806764239189092  0.6158699429489746
  0.3505885342610895  0.3010020534790401  0.5848217693467013
  0.3784027176579887  0.3565376684592096  0.5828926404819988
  0.3889442934290459  0.3854023818324175  0.5516497804666324
  0.3929376584666220  0.4576216941162178  0.5497850007014310
  0.3912637922106608  0.4945659425578673  0.5190481707701003
  0.3445232339119660  0.5872953649585624  0.9402012063617980
  0.3277099717488668  0.6056380210262918  0.9090341889876774
  0.2858654678557753  0.6277272948109224  0.9072211694078465
  0.2656470716024583  0.6289580387263661  0.8760488025959448
  0.2229054867627039  0.6119913318981051  0.8742360318471784
  0.2053066636106965  0.5957629901601017  0.8430709931992096
  0.1743773211486986  0.5448997187856394  0.8412889099889618
  0.1646004350214686  0.5160721229232664  0.8101380706745747
  0.1546519390304108  0.4464213514649766  0.8083312689593575
  0.1556072868072519  0.4135399381342106  0.7771838731545674
  0.1696502139955204  0.3457813911011048  0.7753495348821240
  0.1811071305450914  0.3186854551564649  0.7441791704245444
  0.2149780979414508  0.2730533890411048  0.7423226424156721
  0.2335313281432370  0.2599448665217204  0.7111398643909513
  0.2771048776718187  0.2499703753644893  0.7092901469416738
  0.2971977959909580  0.2547322942342388  0.6781306638193435
  0.3376398767001071  0.2829566206172237  0.6763877171075968
  0.3534996641694622  0.3038964819302281  0.6452936575254068
  0.3790452975687260  0.3620449407110286  0.6435378772831666
  0.3862623442396046  0.3930545220684323  0.6124186352330317
  0.3886121384531673  0.4641882689031128  0.6105482014884090
  0.3844841708028092  0.4953979198283421  0.5791202538562805
  0.3413160467298207  0.5912865557538716  0.0006504525353982
  0.3241144925617086  0.6086726626242872  0.9694875492031872
  0.2818240524120132  0.6283968024783412  0.9676746317457791
  0.2615774232042529  0.6284981776459486  0.9365100097884751
  0.2192205462169543  0.6091477714762281  0.9346936438980217
  0.2019714378996673  0.5919442825350085  0.9035263573605654
  0.1721502693775887  0.5393665940880774  0.9017328344559494
  0.1630124561750038  0.5100087266144265  0.8705735123242921
  0.1545571567285962  0.4398403563375879  0.8687592432784839
  0.1562399186782723  0.4070298805862598  0.8376056819026984
  0.1716903256690699  0.3400837914453482  0.8357862644397208
  0.1837215250372210  0.3135987633913819  0.8046198168523387
  0.2185062283810540  0.2698069027057294  0.8027807206442388
  0.2373207003121458  0.2576014595885093  0.7716090356735343
  0.2810753487703815  0.2500031543001697  0.7697813168631978
  0.3010695867806694  0.2557001884819686  0.7386191955330922
  0.3408015066935129  0.2864369213275337  0.7368653626042292
  0.3561459382883607  0.3081800499499953  0.7057392365826842
  0.3801520862385318  0.3681057563956757  0.7039796827219187
  0.3863892600540934  0.3995291935671241  0.6728481726255638
  0.3872710839510170  0.4709842706716683  0.6709989286073654
  0.3822394961537452  0.5026017255688497  0.6397679449509573
  0.2575426774651934  0.6278055168479109  0.9969631141307006
  0.2156215360123068  0.6060942674190208  0.9951499743264003
  0.1987345238520080  0.5879358063279517  0.9639831531803096
  0.1700432861526192  0.5337213986630476  0.9621828231053983
  0.1615307534018550  0.5038649179683334  0.9310211345514888
  0.1545755644195181  0.4332609123231463  0.9292057586303755
  0.1569644103394262  0.4005725993021503  0.8980449688377496
  0.1738269557879846  0.3345300026526655  0.8962375486418568
  0.1864126226504283  0.3087205549342211  0.8650726582600319
  0.2220946812571014  0.2668819334017885  0.8632449721397075
  0.2411542103861487  0.2556656899820891  0.8320789292188447
  0.2850395089414956  0.2505133880536130  0.8302654908643854
  0.3048969042845840  0.2572435306663746  0.7991009910526585
  0.3439142663869910  0.2902973631605257  0.7973271134820513
  0.3587053479418171  0.3129148951976228  0.7661893785115774
  0.3812955723187197  0.3742780161979594  0.7644087451716098
  0.3867096637701098  0.4060539796236988  0.7332703967265889
  0.3861093847100266  0.4775428143573091  0.7314390472906372
  0.3804296868798567  0.5090143098092310  0.7002418091095023
  0.1601956143668715  0.4976481374039894  0.9914742417472424
  0.1547489920941708  0.4266930456502848  0.9896619914034427
  0.1578215749795872  0.3941550757616986  0.9584976011042641
  0.1760848130767022  0.3291014346017753  0.9566965574080620
  0.1892032028972613  0.3040096404846065  0.9255310931175910
  0.2257552985861389  0.2642014000985965  0.9237082819324214
  0.2450334765875368  0.2540390988245840  0.8925439038219845
  0.2890019442387288  0.2513615439618037  0.8907373506639505
  0.3086979969319073  0.2591592339358064  0.8595732706631634
  0.3469801551986241  0.2944139807612480  0.8577802975559812
  0.3612391499037734  0.3178555090684290  0.8266334593129396
  0.3824602257368909  0.3804891519022734  0.8248381718995654
  0.3871009687900320  0.4125654558545186  0.7936917926064569
  0.3849978304753701  0.4839799917148793  0.7918705818449112
  0.3786300392806056  0.5151728222166745  0.7606967490289408
  0.1921177755218205  0.2994799390254294  0.9859921945305120
  0.2294945400563125  0.2617509223470939  0.9841720630716955
  0.2489631074456213  0.2526681820052313  0.9530056048193662
  0.2929638508443104  0.2524694638739318  0.9512016124121545
  0.3124697001166456  0.2613721052226847  0.9200371279058840
  0.3499750486860045  0.2987562191984007  0.9182279345491310
  0.3637135423251051  0.3229667003192117  0.8870740928009001
  0.3835832211260488  0.3867585415367742  0.8852711060269790
  0.3874927948015209  0.4190784185441744  0.8541192578649237
  0.3838678467954165  0.4903327249660868  0.8523040475029273
  0.3768048517709639  0.5211621335266661  0.8211411334950823
  0.3162223493042141  0.2637887747044807  0.9804933052677517
  0.3529132591926754  0.3032547132271182  0.9786720559185405
  0.3661143504799630  0.3282235748553877  0.9475147742639491
  0.3846296864921026  0.3930822859380351  0.9457088533433865
  0.3878261576512769  0.4256018368209591  0.9145532819377957
  0.3826865788563957  0.4966109279260463  0.9127387828368674
  0.3749438176738754  0.5270348219649343  0.8815823414249118
  0.3880540621462908  0.4321427755996916  0.9749906459360023
  0.3813950317160600  0.5028178336309442  0.9731744551943877
  0.3729962008884266  0.5327832116628596  0.9420210259476540
  0.4449081727560247  0.4042611192605373  0.4905653996023255
 
  0.00000000E+00  0.00000000E+00  0.00000000E+00
  0.00000000E+00  0.00000000E+00  0.00000000E+00
  0.00000000E+00  0.00000000E+00  0.00000000E+00
  0.00000000E+00  0.00000000E+00  0.00000000E+00
  0.00000000E+00  0.00000000E+00  0.00000000E+00
  0.00000000E+00  0.00000000E+00  0.00000000E+00
  0.00000000E+00  0.00000000E+00  0.00000000E+00
  0.00000000E+00  0.00000000E+00  0.00000000E+00
  0.00000000E+00  0.00000000E+00  0.00000000E+00
  0.00000000E+00  0.00000000E+00  0.00000000E+00
  0.00000000E+00  0.00000000E+00  0.00000000E+00
  0.00000000E+00  0.00000000E+00  0.00000000E+00
  0.00000000E+00  0.00000000E+00  0.00000000E+00
  0.00000000E+00  0.00000000E+00  0.00000000E+00
  0.00000000E+00  0.00000000E+00  0.00000000E+00
  0.00000000E+00  0.00000000E+00  0.00000000E+00
  0.00000000E+00  0.00000000E+00  0.00000000E+00
  0.00000000E+00  0.00000000E+00  0.00000000E+00
  0.00000000E+00  0.00000000E+00  0.00000000E+00
  0.00000000E+00  0.00000000E+00  0.00000000E+00
  0.00000000E+00  0.00000000E+00  0.00000000E+00
  0.00000000E+00  0.00000000E+00  0.00000000E+00
  0.00000000E+00  0.00000000E+00  0.00000000E+00
  0.00000000E+00  0.00000000E+00  0.00000000E+00
  0.00000000E+00  0.00000000E+00  0.00000000E+00
  0.00000000E+00  0.00000000E+00  0.00000000E+00
  0.00000000E+00  0.00000000E+00  0.00000000E+00
  0.00000000E+00  0.00000000E+00  0.00000000E+00
  0.00000000E+00  0.00000000E+00  0.00000000E+00
  0.00000000E+00  0.00000000E+00  0.00000000E+00
  0.00000000E+00  0.00000000E+00  0.00000000E+00
  0.00000000E+00  0.00000000E+00  0.00000000E+00
  0.00000000E+00  0.00000000E+00  0.00000000E+00
  0.00000000E+00  0.00000000E+00  0.00000000E+00
  0.00000000E+00  0.00000000E+00  0.00000000E+00
  0.00000000E+00  0.00000000E+00  0.00000000E+00
  0.00000000E+00  0.00000000E+00  0.00000000E+00
  0.00000000E+00  0.00000000E+00  0.00000000E+00
  0.00000000E+00  0.00000000E+00  0.00000000E+00
  0.00000000E+00  0.00000000E+00  0.00000000E+00
  0.00000000E+00  0.00000000E+00  0.00000000E+00
  0.00000000E+00  0.00000000E+00  0.00000000E+00
  0.00000000E+00  0.00000000E+00  0.00000000E+00
  0.00000000E+00  0.00000000E+00  0.00000000E+00
  0.00000000E+00  0.00000000E+00  0.00000000E+00
  0.00000000E+00  0.00000000E+00  0.00000000E+00
  0.00000000E+00  0.00000000E+00  0.00000000E+00
  0.00000000E+00  0.00000000E+00  0.00000000E+00
  0.00000000E+00  0.00000000E+00  0.00000000E+00
  0.00000000E+00  0.00000000E+00  0.00000000E+00
  0.00000000E+00  0.00000000E+00  0.00000000E+00
  0.00000000E+00  0.00000000E+00  0.00000000E+00
  0.00000000E+00  0.00000000E+00  0.00000000E+00
  0.00000000E+00  0.00000000E+00  0.00000000E+00
  0.00000000E+00  0.00000000E+00  0.00000000E+00
  0.00000000E+00  0.00000000E+00  0.00000000E+00
  0.00000000E+00  0.00000000E+00  0.00000000E+00
  0.00000000E+00  0.00000000E+00  0.00000000E+00
  0.00000000E+00  0.00000000E+00  0.00000000E+00
  0.00000000E+00  0.00000000E+00  0.00000000E+00
  0.00000000E+00  0.00000000E+00  0.00000000E+00
  0.00000000E+00  0.00000000E+00  0.00000000E+00
  0.00000000E+00  0.00000000E+00  0.00000000E+00
  0.00000000E+00  0.00000000E+00  0.00000000E+00
  0.00000000E+00  0.00000000E+00  0.00000000E+00
  0.00000000E+00  0.00000000E+00  0.00000000E+00
  0.00000000E+00  0.00000000E+00  0.00000000E+00
  0.00000000E+00  0.00000000E+00  0.00000000E+00
  0.00000000E+00  0.00000000E+00  0.00000000E+00
  0.00000000E+00  0.00000000E+00  0.00000000E+00
  0.00000000E+00  0.00000000E+00  0.00000000E+00
  0.00000000E+00  0.00000000E+00  0.00000000E+00
  0.00000000E+00  0.00000000E+00  0.00000000E+00
  0.00000000E+00  0.00000000E+00  0.00000000E+00
  0.00000000E+00  0.00000000E+00  0.00000000E+00
  0.00000000E+00  0.00000000E+00  0.00000000E+00
  0.00000000E+00  0.00000000E+00  0.00000000E+00
  0.00000000E+00  0.00000000E+00  0.00000000E+00
  0.00000000E+00  0.00000000E+00  0.00000000E+00
  0.00000000E+00  0.00000000E+00  0.00000000E+00
  0.00000000E+00  0.00000000E+00  0.00000000E+00
  0.00000000E+00  0.00000000E+00  0.00000000E+00
  0.00000000E+00  0.00000000E+00  0.00000000E+00
  0.00000000E+00  0.00000000E+00  0.00000000E+00
  0.00000000E+00  0.00000000E+00  0.00000000E+00
  0.00000000E+00  0.00000000E+00  0.00000000E+00
  0.00000000E+00  0.00000000E+00  0.00000000E+00
  0.00000000E+00  0.00000000E+00  0.00000000E+00
  0.00000000E+00  0.00000000E+00  0.00000000E+00
  0.00000000E+00  0.00000000E+00  0.00000000E+00
  0.00000000E+00  0.00000000E+00  0.00000000E+00
  0.00000000E+00  0.00000000E+00  0.00000000E+00
  0.00000000E+00  0.00000000E+00  0.00000000E+00
  0.00000000E+00  0.00000000E+00  0.00000000E+00
  0.00000000E+00  0.00000000E+00  0.00000000E+00
  0.00000000E+00  0.00000000E+00  0.00000000E+00
  0.00000000E+00  0.00000000E+00  0.00000000E+00
  0.00000000E+00  0.00000000E+00  0.00000000E+00
  0.00000000E+00  0.00000000E+00  0.00000000E+00
  0.00000000E+00  0.00000000E+00  0.00000000E+00
  0.00000000E+00  0.00000000E+00  0.00000000E+00
  0.00000000E+00  0.00000000E+00  0.00000000E+00
  0.00000000E+00  0.00000000E+00  0.00000000E+00
  0.00000000E+00  0.00000000E+00  0.00000000E+00
  0.00000000E+00  0.00000000E+00  0.00000000E+00
  0.00000000E+00  0.00000000E+00  0.00000000E+00
  0.00000000E+00  0.00000000E+00  0.00000000E+00
  0.00000000E+00  0.00000000E+00  0.00000000E+00
  0.00000000E+00  0.00000000E+00  0.00000000E+00
  0.00000000E+00  0.00000000E+00  0.00000000E+00
  0.00000000E+00  0.00000000E+00  0.00000000E+00
  0.00000000E+00  0.00000000E+00  0.00000000E+00
  0.00000000E+00  0.00000000E+00  0.00000000E+00
  0.00000000E+00  0.00000000E+00  0.00000000E+00
  0.00000000E+00  0.00000000E+00  0.00000000E+00
  0.00000000E+00  0.00000000E+00  0.00000000E+00
  0.00000000E+00  0.00000000E+00  0.00000000E+00
  0.00000000E+00  0.00000000E+00  0.00000000E+00
  0.00000000E+00  0.00000000E+00  0.00000000E+00
  0.00000000E+00  0.00000000E+00  0.00000000E+00
  0.00000000E+00  0.00000000E+00  0.00000000E+00
  0.00000000E+00  0.00000000E+00  0.00000000E+00
  0.00000000E+00  0.00000000E+00  0.00000000E+00
  0.00000000E+00  0.00000000E+00  0.00000000E+00
  0.00000000E+00  0.00000000E+00  0.00000000E+00
  0.00000000E+00  0.00000000E+00  0.00000000E+00
  0.00000000E+00  0.00000000E+00  0.00000000E+00
  0.00000000E+00  0.00000000E+00  0.00000000E+00
  0.00000000E+00  0.00000000E+00  0.00000000E+00
  0.00000000E+00  0.00000000E+00  0.00000000E+00
  0.00000000E+00  0.00000000E+00  0.00000000E+00
  0.00000000E+00  0.00000000E+00  0.00000000E+00
  0.00000000E+00  0.00000000E+00  0.00000000E+00
  0.00000000E+00  0.00000000E+00  0.00000000E+00
  0.00000000E+00  0.00000000E+00  0.00000000E+00
  0.00000000E+00  0.00000000E+00  0.00000000E+00
  0.00000000E+00  0.00000000E+00  0.00000000E+00
  0.00000000E+00  0.00000000E+00  0.00000000E+00
  0.00000000E+00  0.00000000E+00  0.00000000E+00
  0.00000000E+00  0.00000000E+00  0.00000000E+00
  0.00000000E+00  0.00000000E+00  0.00000000E+00
  0.00000000E+00  0.00000000E+00  0.00000000E+00
  0.00000000E+00  0.00000000E+00  0.00000000E+00
  0.00000000E+00  0.00000000E+00  0.00000000E+00
  0.00000000E+00  0.00000000E+00  0.00000000E+00
  0.00000000E+00  0.00000000E+00  0.00000000E+00
  0.00000000E+00  0.00000000E+00  0.00000000E+00
  0.00000000E+00  0.00000000E+00  0.00000000E+00
  0.00000000E+00  0.00000000E+00  0.00000000E+00
  0.00000000E+00  0.00000000E+00  0.00000000E+00
  0.00000000E+00  0.00000000E+00  0.00000000E+00