Ge Se
 1.0000000000000000
     3.8581001759000002    0.0000000000000000    0.0000000000000000
     0.0000000000000000    4.5265750884999996    0.0000000000000000
     0.0000000000000000    0.0000000000000000   21.0851764678999984
 Ge  Se 
   4   4
Cartesian
  0.9645250440000001  0.5234617410000000  1.3694657470000000
  2.8935751320000005  4.0031133810000004 14.7157106379999991
  2.8935751320000005  2.7867492519999999  4.1731224039999999
  0.9645250440000001  1.7398258370000002 11.9120540639999994
  0.9645250440000001  2.2856894450000000 14.4515548849999984
  2.8935751320000005  2.2408853739999999  1.6336212520000000
  2.8935751320000005  0.0224021220000000 12.1762098169999984
  0.9645250440000001  4.5041731880000002  3.9089669819999995
