Ge Se                                   
    1.000000000000000     
     4.7999999999999998    0.0000000000000000    0.0000000000000000
     0.0000000000000000    3.8999999999999995    0.0000000000000000
     0.0000000000000000    0.0000000000000000   11.1422209999999993
   Ge   Se
     4     4
Selective dynamics
Direct
  0.1178306802228590  0.2500000000000000  0.1249331828128177   T   T   T
  0.6178306802228590  0.7500000000000000  0.3750668171871823   T   T   T
  0.8821693197771410  0.7500000000000000  0.8750668171871823   T   T   T
  0.3821693197771410  0.2500000000000000  0.6249331828128177   T   T   T
  0.9732769971924853  0.2500000000000000  0.3494165953315900   T   T   T
  0.4732769971924853  0.7500000000000000  0.1505834046684100   T   T   T
  0.0267230028075147  0.7500000000000000  0.6505834046684100   T   T   T
  0.5267230028075147  0.2500000000000000  0.8494165953315900   T   T   T
 
  0.00000000E+00  0.00000000E+00  0.00000000E+00
  0.00000000E+00  0.00000000E+00  0.00000000E+00
  0.00000000E+00  0.00000000E+00  0.00000000E+00
  0.00000000E+00  0.00000000E+00  0.00000000E+00
  0.00000000E+00  0.00000000E+00  0.00000000E+00
  0.00000000E+00  0.00000000E+00  0.00000000E+00
  0.00000000E+00  0.00000000E+00  0.00000000E+00
  0.00000000E+00  0.00000000E+00  0.00000000E+00
