Ge Se                                   
    1.000000000000000     
     3.8581001759000002    0.0000000000000000    0.0000000000000000
     0.0000000000000000    4.5265750884999996    0.0000000000000000
     0.0000000000000000    0.0000000000000000   10.5851764679000002
   Ge   Se
     4     4
Direct
  0.1050721726797263  0.8438338040629105  0.1162932343646688
  0.6050722207114561  0.3438338294771128  0.3837066632165786
  0.7499995288418759  0.8808035479327430  0.8837066983297674
  0.2499989129793434  0.3808035900050939  0.6162933008206437
  0.1050722445334458  0.7195788913061563  0.3545217537523442
  0.6050721233093839  0.2195789919995477  0.1454782560698860
  0.7499991188041832  0.0050583627741787  0.6454782049300576
  0.2499994226354758  0.5050584457094658  0.8545217376194714
 
  0.00000000E+00  0.00000000E+00  0.00000000E+00
  0.00000000E+00  0.00000000E+00  0.00000000E+00
  0.00000000E+00  0.00000000E+00  0.00000000E+00
  0.00000000E+00  0.00000000E+00  0.00000000E+00
  0.00000000E+00  0.00000000E+00  0.00000000E+00
  0.00000000E+00  0.00000000E+00  0.00000000E+00
  0.00000000E+00  0.00000000E+00  0.00000000E+00
  0.00000000E+00  0.00000000E+00  0.00000000E+00
