Ge Se                                   
    1.000000000000000     
    12.4632624440992217    0.0000005045575423    0.0000015329301059
     0.0000005062042028   12.5039400115333752    0.0000055461616260
     0.0000017517989748    0.0000063174147744   11.0642985853314570
   Ge   Se
    36    36
Direct
  0.0863138702959603  0.0507633767121760  0.1364305332281006
  0.2528136979214608  0.8782821321928864  0.3647722252687373
  0.5794397802292224  0.2088851539577377  0.3751251869231567
  0.5773425852883776  0.5483827659783813  0.3819965267966481
  0.5861164451468426  0.8645485061174654  0.3761305155265617
  0.9021759313779754  0.2009868815453402  0.3812418351213509
  0.9261077318494984  0.5267707056214093  0.3822045584355038
  0.9236639163402529  0.8772012566648542  0.3669416387112534
  0.0621365231309952  0.1328528967518992  0.6193812829917960
  0.0540640087430972  0.4824452814225708  0.6243716760142490
  0.0338891690386234  0.8447742270494203  0.6382539023011944
  0.3723877274155214  0.1581202557677059  0.6266362649128396
  0.3759319745164476  0.4984640989284870  0.6202397488817724
  0.4063476183374064  0.8060588536905584  0.6318008342783372
  0.6815793541118040  0.1678335745710484  0.6219176324964621
  0.7203846336403430  0.4788853730072233  0.6249522232088154
  0.2505253285736586  0.5429316689194081  0.3776682194692285
  0.2648013376166460  0.1937925265637332  0.3593669443746563
  0.7224388525939460  0.8145126364278426  0.6199933027226905
  0.8902229525798404  0.6521008915015329  0.8640818017255114
  0.8632180724112501  0.0002736807823567  0.8842576591555087
  0.1042464684929740  0.3539884692517035  0.1290271044042370
  0.0712480329141201  0.7105068565914010  0.1513895270130234
  0.4344383980912667  0.0275559854926613  0.1280912635066542
  0.4319223832776728  0.3739456954207938  0.1207732868772524
  0.7487124850926747  0.0397534824639507  0.1419498973646256
  0.7374804313663930  0.3783468877981591  0.1074576071223916
  0.4081255890838165  0.7275335805254244  0.1020032360849825
  0.2158491836272987  0.3085075544210056  0.8698325373334583
  0.1964577856230392  0.6654885392732837  0.8607111698687859
  0.2329326911694309  0.9796029283679601  0.8706568566074111
  0.5196534995864042  0.3370123797567857  0.8533245500963673
  0.5754883009106635  0.6337277403564343  0.8761749651119999
  0.5516083802549048  0.0052827908862341  0.8764497457218070
  0.8920894565165867  0.3073030886656554  0.8633940213652664
  0.7689116801275873  0.7009826693813963  0.1271269029563058
  0.8914526331189592  0.0084049813787743  0.6463221783043025
  0.2077206656398616  0.3532529290237107  0.6420253646939784
  0.2331854482862141  0.6739190349352242  0.6357357904258976
  0.5356901318847420  0.0317490538421339  0.6411499732146027
  0.5619651469498805  0.3332685882465540  0.6315932636090267
  0.5705642398050443  0.6689437600466448  0.6316103232317687
  0.9000603819911106  0.3409816249991096  0.6418764129155079
  0.7650283069412822  0.0160171475687036  0.3681404248121325
  0.0790221575909911  0.0153870864068040  0.3601379250940724
  0.0597488985744761  0.3461567462586501  0.3581571310544618
  0.0785541164689363  0.6623393707356655  0.3812636912390417
  0.3993395860746958  0.0280266993758218  0.3561152874471674
  0.4199154854414360  0.3445154020292591  0.3428057430392641
  0.4068168842211648  0.6669668283030177  0.3331037307444973
  0.2326546566155940  0.9944956263437419  0.6280612271242276
  0.8881087741756559  0.6827978164173345  0.6289147346899782
  0.9149095693619174  0.8527506512404628  0.1451361796825807
  0.2424508949503519  0.1861885622584651  0.1297817721844723
  0.9148684394019000  0.1860640672939056  0.1449933682975413
  0.7276401310418663  0.3596204868410240  0.3577198744963539
  0.0641109596960305  0.1750111002938439  0.8562999282078181
  0.0487524091540408  0.5259660284501066  0.8473881445643272
  0.0668376409980453  0.8293869229941393  0.8570904865760767
  0.3852951530486379  0.1845884763483170  0.8544094345032036
  0.4070617064516995  0.5133532462893413  0.8562291610976658
  0.4143241658932695  0.8511979671039427  0.8659907742128325
  0.7311495433821946  0.1707921014445404  0.8625369700606811
  0.7287096386318694  0.5030468076014500  0.8527672621731668
  0.7034433050102535  0.8539238576703738  0.8512099740679417
  0.2475032196904365  0.4960649199170604  0.1460708833637696
  0.2407064186993964  0.8573920941306525  0.1284895439485041
  0.5862244026040102  0.1737381928878108  0.1453464526546639
  0.5830159834595889  0.5146498978484360  0.1402108424378596
  0.5659274135854986  0.8623172725276049  0.1421849595060181
  0.8990243108420586  0.5215071690358997  0.1472026426889954
  0.7213166204957133  0.6961523554654434  0.3512169574492390
 
  0.00000000E+00  0.00000000E+00  0.00000000E+00
  0.00000000E+00  0.00000000E+00  0.00000000E+00
  0.00000000E+00  0.00000000E+00  0.00000000E+00
  0.00000000E+00  0.00000000E+00  0.00000000E+00
  0.00000000E+00  0.00000000E+00  0.00000000E+00
  0.00000000E+00  0.00000000E+00  0.00000000E+00
  0.00000000E+00  0.00000000E+00  0.00000000E+00
  0.00000000E+00  0.00000000E+00  0.00000000E+00
  0.00000000E+00  0.00000000E+00  0.00000000E+00
  0.00000000E+00  0.00000000E+00  0.00000000E+00
  0.00000000E+00  0.00000000E+00  0.00000000E+00
  0.00000000E+00  0.00000000E+00  0.00000000E+00
  0.00000000E+00  0.00000000E+00  0.00000000E+00
  0.00000000E+00  0.00000000E+00  0.00000000E+00
  0.00000000E+00  0.00000000E+00  0.00000000E+00
  0.00000000E+00  0.00000000E+00  0.00000000E+00
  0.00000000E+00  0.00000000E+00  0.00000000E+00
  0.00000000E+00  0.00000000E+00  0.00000000E+00
  0.00000000E+00  0.00000000E+00  0.00000000E+00
  0.00000000E+00  0.00000000E+00  0.00000000E+00
  0.00000000E+00  0.00000000E+00  0.00000000E+00
  0.00000000E+00  0.00000000E+00  0.00000000E+00
  0.00000000E+00  0.00000000E+00  0.00000000E+00
  0.00000000E+00  0.00000000E+00  0.00000000E+00
  0.00000000E+00  0.00000000E+00  0.00000000E+00
  0.00000000E+00  0.00000000E+00  0.00000000E+00
  0.00000000E+00  0.00000000E+00  0.00000000E+00
  0.00000000E+00  0.00000000E+00  0.00000000E+00
  0.00000000E+00  0.00000000E+00  0.00000000E+00
  0.00000000E+00  0.00000000E+00  0.00000000E+00
  0.00000000E+00  0.00000000E+00  0.00000000E+00
  0.00000000E+00  0.00000000E+00  0.00000000E+00
  0.00000000E+00  0.00000000E+00  0.00000000E+00
  0.00000000E+00  0.00000000E+00  0.00000000E+00
  0.00000000E+00  0.00000000E+00  0.00000000E+00
  0.00000000E+00  0.00000000E+00  0.00000000E+00
  0.00000000E+00  0.00000000E+00  0.00000000E+00
  0.00000000E+00  0.00000000E+00  0.00000000E+00
  0.00000000E+00  0.00000000E+00  0.00000000E+00
  0.00000000E+00  0.00000000E+00  0.00000000E+00
  0.00000000E+00  0.00000000E+00  0.00000000E+00
  0.00000000E+00  0.00000000E+00  0.00000000E+00
  0.00000000E+00  0.00000000E+00  0.00000000E+00
  0.00000000E+00  0.00000000E+00  0.00000000E+00
  0.00000000E+00  0.00000000E+00  0.00000000E+00
  0.00000000E+00  0.00000000E+00  0.00000000E+00
  0.00000000E+00  0.00000000E+00  0.00000000E+00
  0.00000000E+00  0.00000000E+00  0.00000000E+00
  0.00000000E+00  0.00000000E+00  0.00000000E+00
  0.00000000E+00  0.00000000E+00  0.00000000E+00
  0.00000000E+00  0.00000000E+00  0.00000000E+00
  0.00000000E+00  0.00000000E+00  0.00000000E+00
  0.00000000E+00  0.00000000E+00  0.00000000E+00
  0.00000000E+00  0.00000000E+00  0.00000000E+00
  0.00000000E+00  0.00000000E+00  0.00000000E+00
  0.00000000E+00  0.00000000E+00  0.00000000E+00
  0.00000000E+00  0.00000000E+00  0.00000000E+00
  0.00000000E+00  0.00000000E+00  0.00000000E+00
  0.00000000E+00  0.00000000E+00  0.00000000E+00
  0.00000000E+00  0.00000000E+00  0.00000000E+00
  0.00000000E+00  0.00000000E+00  0.00000000E+00
  0.00000000E+00  0.00000000E+00  0.00000000E+00
  0.00000000E+00  0.00000000E+00  0.00000000E+00
  0.00000000E+00  0.00000000E+00  0.00000000E+00
  0.00000000E+00  0.00000000E+00  0.00000000E+00
  0.00000000E+00  0.00000000E+00  0.00000000E+00
  0.00000000E+00  0.00000000E+00  0.00000000E+00
  0.00000000E+00  0.00000000E+00  0.00000000E+00
  0.00000000E+00  0.00000000E+00  0.00000000E+00
  0.00000000E+00  0.00000000E+00  0.00000000E+00
  0.00000000E+00  0.00000000E+00  0.00000000E+00
  0.00000000E+00  0.00000000E+00  0.00000000E+00
