Ge Se                                   
    1.000000000000000     
    12.4329795614818046   -0.0000023811665824    0.0000009835421665
    -0.0000023970577476   12.5159534809645336   -0.0000002816052445
     0.0000011286354327   -0.0000003210056805   11.0832277939183719
   Ge   Se
    36    36
Direct
  0.0921059733546130  0.0499752977382784  0.1118788513008866
  0.2562127076295511  0.8577381506921213  0.3733078154597820
  0.5498584300148721  0.2162467376127211  0.3711844766941041
  0.5909092021889464  0.5269963372918340  0.3712396718204758
  0.5818512374838818  0.8747668311843313  0.3567681102323590
  0.9211229613503349  0.1973508168577922  0.3667845007641048
  0.8985927788235983  0.5470477729678507  0.3920737364352576
  0.8956754258614055  0.8913948118183228  0.3826919316236896
  0.0586191651143508  0.1473258672055451  0.6238914985396775
  0.0575897691082901  0.4804998055077192  0.6299803084640345
  0.0817282496459057  0.7943932914546750  0.6120868053479214
  0.3946989664987157  0.1399333223002373  0.6211136591946484
  0.4115982066785691  0.4768326209174063  0.6405202731936939
  0.3958222025989997  0.8141361780746763  0.6441760636408205
  0.7389376302424466  0.1472336762936308  0.6241527221898551
  0.7146186080091539  0.4689182764107045  0.6346724609330394
  0.2222302801711109  0.5466138124344866  0.3744594287249043
  0.2294733932728761  0.2093780216837118  0.3958245725691114
  0.7479048525938836  0.8025607694978376  0.6241390474278674
  0.9341186114221571  0.6677596019042795  0.8790246111867717
  0.9123984739075937  0.9932523495434395  0.8627116953070981
  0.0833601541796085  0.3660548993432116  0.1339465972853020
  0.0400048881460151  0.7185586000017992  0.1274356671748080
  0.4023065064670064  0.0397073790266589  0.1306677529908669
  0.4017167179745229  0.3781907322300881  0.1409388829489302
  0.7373694703740341  0.0594844108059789  0.1045475998916530
  0.7691851222439183  0.3496002211972709  0.1484664895120744
  0.4187198733487065  0.6867034333465583  0.1340086295870435
  0.2471965327727830  0.3187290523042918  0.8862561973327274
  0.2504674105852658  0.6585588674271250  0.8786630221225948
  0.2487549709008903  0.9924171700112367  0.8559483284872229
  0.5807480203948785  0.3288563194772962  0.8788400226847912
  0.5851786364667362  0.6496040466517314  0.8555977944814828
  0.5755874201448350  0.9793984099936637  0.8655497027334178
  0.9098889810788293  0.3294498236359900  0.8665066227032554
  0.7495052242048530  0.6998817435049958  0.1135346382822391
  0.8952945135526136  0.0151157660005055  0.6408958992832083
  0.2352507001827959  0.3703605230091824  0.6577165309942927
  0.2377936885700365  0.6754428332267537  0.6490468060320822
  0.5573952186655831  0.0008601919352174  0.6381373205624143
  0.5516577057803218  0.3203310523816043  0.6496441588653568
  0.5717056533198956  0.6917810751154363  0.6352740877300533
  0.8862722038146273  0.3439550697199181  0.6353632008242727
  0.7352243322198007  0.0222983770721825  0.3287754309634394
  0.0528151185263326  0.0233207950813110  0.3316914124571753
  0.0755813140435677  0.3403826282659708  0.3630135893117554
  0.0645284841512321  0.6714400070382638  0.3694831192958006
  0.4035652546257680  0.9902023712964834  0.3471379012387246
  0.3927786628938890  0.3542426258169655  0.3770918886087813
  0.3956729994332591  0.6876583308975270  0.3678915439061896
  0.2131373906553904  0.0026412029080305  0.6319128356525994
  0.8932688728311646  0.6676758027028100  0.6312910288872615
  0.8954932672479146  0.8465927542658207  0.1633477033241277
  0.2465155092423288  0.1750652680015179  0.1672950674787756
  0.8995181760266391  0.1950991726770184  0.1406525569311938
  0.7277038147680059  0.3470980806823434  0.3689513242293572
  0.0772179743468868  0.1873246007526319  0.8516032404804648
  0.0702582866094659  0.5153231453155627  0.8606074841125633
  0.0583823351407347  0.8413041058970379  0.8429951745425583
  0.3780093293268294  0.1701375174031980  0.8609492000509746
  0.4079379710424789  0.5337824837088121  0.8660286040141756
  0.4119009323282086  0.8457965341675475  0.8597885327348749
  0.7300612895242296  0.1796858655434406  0.8518997390170853
  0.7155686484041723  0.4946273033838864  0.8591166873358844
  0.7390708315612926  0.8504149059947252  0.8545563879008000
  0.2302923509940342  0.5037861682450853  0.1459252679948975
  0.2076358019812972  0.8615436205438627  0.1417989543428106
  0.5429305629758687  0.1834857947574733  0.1379247517774971
  0.5548697277729602  0.5262890896336216  0.1324635649254802
  0.5808839826208967  0.8352413408712778  0.1347500922318901
  0.9116792164320913  0.4991800182943820  0.1637290407514485
  0.7406844381220949  0.6756509585074255  0.3278950190814598
 
  0.00000000E+00  0.00000000E+00  0.00000000E+00
  0.00000000E+00  0.00000000E+00  0.00000000E+00
  0.00000000E+00  0.00000000E+00  0.00000000E+00
  0.00000000E+00  0.00000000E+00  0.00000000E+00
  0.00000000E+00  0.00000000E+00  0.00000000E+00
  0.00000000E+00  0.00000000E+00  0.00000000E+00
  0.00000000E+00  0.00000000E+00  0.00000000E+00
  0.00000000E+00  0.00000000E+00  0.00000000E+00
  0.00000000E+00  0.00000000E+00  0.00000000E+00
  0.00000000E+00  0.00000000E+00  0.00000000E+00
  0.00000000E+00  0.00000000E+00  0.00000000E+00
  0.00000000E+00  0.00000000E+00  0.00000000E+00
  0.00000000E+00  0.00000000E+00  0.00000000E+00
  0.00000000E+00  0.00000000E+00  0.00000000E+00
  0.00000000E+00  0.00000000E+00  0.00000000E+00
  0.00000000E+00  0.00000000E+00  0.00000000E+00
  0.00000000E+00  0.00000000E+00  0.00000000E+00
  0.00000000E+00  0.00000000E+00  0.00000000E+00
  0.00000000E+00  0.00000000E+00  0.00000000E+00
  0.00000000E+00  0.00000000E+00  0.00000000E+00
  0.00000000E+00  0.00000000E+00  0.00000000E+00
  0.00000000E+00  0.00000000E+00  0.00000000E+00
  0.00000000E+00  0.00000000E+00  0.00000000E+00
  0.00000000E+00  0.00000000E+00  0.00000000E+00
  0.00000000E+00  0.00000000E+00  0.00000000E+00
  0.00000000E+00  0.00000000E+00  0.00000000E+00
  0.00000000E+00  0.00000000E+00  0.00000000E+00
  0.00000000E+00  0.00000000E+00  0.00000000E+00
  0.00000000E+00  0.00000000E+00  0.00000000E+00
  0.00000000E+00  0.00000000E+00  0.00000000E+00
  0.00000000E+00  0.00000000E+00  0.00000000E+00
  0.00000000E+00  0.00000000E+00  0.00000000E+00
  0.00000000E+00  0.00000000E+00  0.00000000E+00
  0.00000000E+00  0.00000000E+00  0.00000000E+00
  0.00000000E+00  0.00000000E+00  0.00000000E+00
  0.00000000E+00  0.00000000E+00  0.00000000E+00
  0.00000000E+00  0.00000000E+00  0.00000000E+00
  0.00000000E+00  0.00000000E+00  0.00000000E+00
  0.00000000E+00  0.00000000E+00  0.00000000E+00
  0.00000000E+00  0.00000000E+00  0.00000000E+00
  0.00000000E+00  0.00000000E+00  0.00000000E+00
  0.00000000E+00  0.00000000E+00  0.00000000E+00
  0.00000000E+00  0.00000000E+00  0.00000000E+00
  0.00000000E+00  0.00000000E+00  0.00000000E+00
  0.00000000E+00  0.00000000E+00  0.00000000E+00
  0.00000000E+00  0.00000000E+00  0.00000000E+00
  0.00000000E+00  0.00000000E+00  0.00000000E+00
  0.00000000E+00  0.00000000E+00  0.00000000E+00
  0.00000000E+00  0.00000000E+00  0.00000000E+00
  0.00000000E+00  0.00000000E+00  0.00000000E+00
  0.00000000E+00  0.00000000E+00  0.00000000E+00
  0.00000000E+00  0.00000000E+00  0.00000000E+00
  0.00000000E+00  0.00000000E+00  0.00000000E+00
  0.00000000E+00  0.00000000E+00  0.00000000E+00
  0.00000000E+00  0.00000000E+00  0.00000000E+00
  0.00000000E+00  0.00000000E+00  0.00000000E+00
  0.00000000E+00  0.00000000E+00  0.00000000E+00
  0.00000000E+00  0.00000000E+00  0.00000000E+00
  0.00000000E+00  0.00000000E+00  0.00000000E+00
  0.00000000E+00  0.00000000E+00  0.00000000E+00
  0.00000000E+00  0.00000000E+00  0.00000000E+00
  0.00000000E+00  0.00000000E+00  0.00000000E+00
  0.00000000E+00  0.00000000E+00  0.00000000E+00
  0.00000000E+00  0.00000000E+00  0.00000000E+00
  0.00000000E+00  0.00000000E+00  0.00000000E+00
  0.00000000E+00  0.00000000E+00  0.00000000E+00
  0.00000000E+00  0.00000000E+00  0.00000000E+00
  0.00000000E+00  0.00000000E+00  0.00000000E+00
  0.00000000E+00  0.00000000E+00  0.00000000E+00
  0.00000000E+00  0.00000000E+00  0.00000000E+00
  0.00000000E+00  0.00000000E+00  0.00000000E+00
  0.00000000E+00  0.00000000E+00  0.00000000E+00
