 C 
 1.0000000000000000
    32.3722991942999982    0.0000000000000000    0.0000000000000000
     0.0000000000000000   19.9214134216000005    0.0000000000000000
     0.0000000000000000    0.0000000000000000   40.4480476378999967
 C  
 364
Cartesian
 12.0082597730000007 10.7232570650000003  0.0368333530000000
 11.9381513600000009 10.8334417340000009  2.4891955850000000
 10.9430799479999994 11.8529291150000002  2.4156179430000000
 10.3750877379999995 12.1791696550000008  1.1515549420000000
  8.9930715560000003 12.5249519350000007  1.0779851680000001
 11.8642282489999999 10.9411487580000006  4.9415550230000003
 10.8345127110000004 11.9256410600000002  4.8679571150000003
 10.2556409839999993 12.2320413590000001  3.6038961409999999
  8.8624992369999998 12.5298595430000006  3.5303092000000000
  8.2089281080000003 12.4870290760000007  2.2662489410000002
  6.8666944499999998 12.0096378329999993  2.1926538940000002
  6.3327770230000002 11.6302490229999993  0.9286015030000000
  5.4406666760000002 10.5195713039999994  0.8550128340000001
 11.7865629199999997 11.0461769099999998  7.3938779830000003
 10.7235059740000001 11.9945697780000007  7.3202629090000002
 10.1343936919999997 12.2808084490000002  6.0562105180000003
  8.7318115229999993 12.5303297039999997  5.9826045040000002
  8.0801219940000006 12.4649133679999995  4.7185521130000003
  6.7551589009999997 11.9414548870000008  4.6449484830000003
  6.2347364430000001 11.5438327790000006  3.3809008600000001
  5.3814597129999999 10.4030303960000001  3.3073139189999998
  5.1471009250000002  9.7914485930000001  2.0432462689999999
  5.0193619729999996  8.3725919720000004  1.9696637390000000
  5.1406755449999997  7.7289342879999996  0.7056398990000000
  5.7762846950000002  6.4539866449999996  0.6320598720000000
 11.7052469250000009 11.1484804149999999  9.8461780549999993
 10.6101274490000002 12.0596275330000005  9.7725419999999996
 10.0115137099999991 12.3253669739999996  8.5084800719999993
  8.6011438370000004 12.5263338090000005  8.4348611830000007
  7.9521098139999999 12.4384536739999998  7.1708202360000000
  6.6460061069999998 11.8695545199999994  7.0972166059999999
  6.1396117209999996 11.4541521070000005  5.8331804280000004
  5.3262314799999997 10.2845735549999997  5.7596025470000001
  5.1131553649999999  9.6652297970000003  4.4955511090000000
  5.0344619750000001  8.2427854539999998  4.4219641689999998
  5.1780095099999999  7.6037302020000004  3.1579222680000001
  5.8573122020000001  6.3515090939999999  3.0843477250000002
  6.3148317340000002  5.8827753070000002  1.8203017710000000
  7.5501823430000004  5.1732788090000001  1.7467238899999999
  8.1855897899999999  5.0143184659999998  0.4826900660000000
  9.6095256809999992  5.0584921840000003  0.4091099500000000
 12.0090074540000007 10.7206249239999991 13.5624704359999999
 11.6204872130000005 11.2479381560000000 12.2984418869999992
 10.4946212770000002 12.1208238599999998 12.2248010639999993
  9.8871603009999998 12.3657302859999998 10.9607553479999993
  8.4706993100000005 12.5179462430000008 10.8871212009999994
  7.8250684740000001 12.4076404569999994  9.6230735779999996
  6.5394134519999998 11.7939929960000001  9.5494747160000006
  6.0476593970000003 11.3613071439999995  8.2854442600000002
  5.2751779560000003 10.1643018719999993  8.2118692400000004
  5.0835881230000002  9.5379343030000001  6.9478335380000003
  5.0540366170000004  8.1136217120000005  6.8742504120000003
  5.2195692060000001  7.4798731800000002  5.6102170940000002
  5.9417862890000004  6.2519030569999998  5.5366334920000000
  6.4152522090000001  5.7992663379999998  4.2726025580000000
  7.6744065279999996  5.1328892709999998  4.1990270609999998
  8.3149509429999995  4.9959921840000003  2.9349973199999999
  9.7365026470000000  5.0892910960000002  2.8614237309999999
 10.3536329269999996  5.3087711329999996  1.5973502399999999
 11.5148401259999993  6.1340646740000002  1.5237896440000001
 11.9249887470000004  6.6447215079999999  0.2597429450000000
 12.4804964070000004  7.9565749170000002  0.1861611750000000
 11.9388484950000002 10.8308477399999994 16.0146923070000007
 11.5323944090000001 11.3444728850000001 14.7506561279999993
 10.3771524429999999 12.1780872339999995 14.6770124440000007
  9.7615604400000002 12.4018726350000001 13.4129848480000007
  8.3406972889999995 12.5051803590000006 13.3393583299999996
  7.6992263789999997 12.3726272579999996 12.0753459930000009
  6.4355292320000004 11.7149124150000006 12.0017509459999996
  5.9590229990000001 11.2653894420000000 10.7377367019999994
  5.2284283640000000 10.0423851010000007 10.6641712190000000
  5.0585417750000001  9.4097499849999995  9.4001359939999993
  5.0781970019999996  7.9852705000000004  9.3265523909999999
  5.2654414180000000  7.3575949669999998  8.0625028610000005
  6.0296349530000004  6.1552853580000004  7.9889097209999997
  6.5184769630000003  5.7192702290000001  6.7248859410000001
  7.7998580930000001  5.0967335699999996  6.6512989999999999
  8.4448013310000007  4.9820628170000001  5.3872795099999999
  9.8622932429999999  5.1243262290000002  5.3137226100000001
 10.4714851380000002  5.3650531770000001  4.0496973990000003
 11.6035022740000002  6.2299695010000002  3.9761457440000001
 11.9958162309999992  6.7545094490000004  2.7120900149999998
 12.5057096479999998  8.0847539899999994  2.6385302540000000
 12.5644388199999995  8.7371129990000007  1.3744407890000001
 12.3005342479999999 10.1370735169999993  1.3008803130000000
 11.8650455469999994 10.9385929110000006 18.4669151310000004
 11.4411144260000004 11.4379463200000000 17.2029056549999986
 10.2578277589999995 12.2312765120000009 17.1292762759999988
  9.6348752980000008 12.4337291719999996 15.8652286530000008
  8.2112960820000005 12.4879283910000005 15.7916145320000005
  7.5747418399999997 12.3332891460000003 14.5275945659999994
  6.3345313069999998 11.6323089599999996 14.4540157320000002
  5.8738007550000004 11.1665916440000004 13.1900148389999998
  5.1859593390000001  9.9190301900000009 13.1164493560000004
  5.0380387310000003  9.2808580400000000 11.8524551389999999
  5.1068458559999996  7.8578948970000004 11.7788705829999998
  5.3156104089999996  7.2370119089999996 10.5148277280000002
  6.1207246780000002  6.0617332460000002 10.4412288669999995
  6.6242957120000003  5.6428246499999997  9.1771650309999995
  7.9263887410000002  5.0648145680000001  9.1035757060000009
  8.5749454499999995  4.9725112920000001  7.8395633699999996
  9.9866790769999998  5.1636571880000002  7.7660079000000000
 10.5872869489999992  5.4252648350000001  6.5020093919999997
 11.6887435909999997  6.3287568089999997  6.4284720420000001
 12.0627365110000007  6.8666038509999998  5.1644468310000002
 12.5263757709999997  8.2136754990000007  5.0908899310000004
 12.5625905990000000  8.8676967619999996  3.8268404010000001
 12.2504587170000008 10.2577009199999996  3.7532742020000001
 11.7876472470000007 11.0436553960000001 20.9191112520000004
 11.3467044829999999 11.5281448359999992 19.6551246639999988
 10.1367835999999993 12.2802238460000002 19.5815181729999992
  9.5072116849999997 12.4611263280000006 18.3175086980000010
  8.0826044079999999 12.4661970140000005 18.2439060210000008
  7.4517693520000003 12.2896823879999992 16.9798851010000007
  6.2365422250000000 11.5461921689999993 16.9063053130000007
  5.7921733860000000 11.0648546220000004 15.6422920229999995
  5.1478481289999998  9.7942876820000002 15.5687179570000005
  5.0220398900000003  9.1513757709999997 14.3047170640000001
  5.1398687360000004  7.7316479679999999 14.2311334610000007
  5.3699002269999996  7.1182756420000004 12.9671173100000008
  6.2150006290000004  5.9714007379999998 12.8935155869999996
  6.7327103609999996  5.5700745580000000 11.6294784549999992
  8.0539455409999992  5.0372600560000000 11.5558843610000004
  8.7052984240000004  4.9674015049999998 10.2918691639999995
 10.1095829009999996  5.2072148320000000 10.2183284759999999
 10.7007961270000003  5.4894542690000003  8.9543189999999999
 11.7703933719999991  6.4304723739999998  8.8807916640000002
 12.1256532670000006  6.9808764459999999  7.6167759899999998
 12.5424480440000004  8.3431711199999992  7.5432286260000003
 12.5561351779999999  8.9980964659999998  6.2791962620000001
 12.1962070469999997 10.3765001300000002  6.2056183819999999
 11.7067899700000009 11.1460256579999992 23.3712978360000001
 11.2493247990000000 11.6149759289999999 22.1073379520000017
 10.0141754150000004 12.3248348239999999 22.0337562560000002
  9.3787031170000006 12.4839744570000004 20.7697677610000007
  7.9547591210000004 12.4399061199999998 20.6961708070000014
  7.3303580280000000 12.2417802810000005 19.4321556089999987
  6.1415448189999999 11.4567518229999994 19.3585777280000002
  5.7140989299999996 10.9603424070000006 18.0945758820000009
  5.1139984130000000  9.6682901379999997 18.0209960940000009
  5.0104818340000001  9.0214328770000005 16.7569904329999986
  5.1771798130000004  7.6065936089999999 16.6834030149999997
  5.4282441140000000  7.0015363690000001 15.4193830490000003
  6.3123292920000003  5.8844337460000000 15.3457851410000004
  6.8435382840000001  5.5011234279999996 14.0817613599999998
  8.1823492049999995  5.0141553879999998 14.0081653589999995
  8.8357381820000001  4.9667735100000003 12.7441577909999992
 10.2309179310000005  5.2549495700000000 12.6706123349999995
 10.8120336530000003  5.5574798579999998 11.4066381450000005
 11.8484554289999995  6.5349197390000002 11.3331165309999999
 12.1844844820000002  7.0972971920000001 10.0691099170000005
 12.5539913179999996  8.4731540679999995  9.9955577850000008
 12.5450658799999992  9.1281452180000002  8.7315187450000007
 12.1377735139999992 10.4933042529999998  8.6579341890000006
 11.6225175860000007 11.2455282210000007 25.8235511779999989
 11.1490898129999998 11.6983776089999996 24.5595779420000007
  9.8901300429999992 12.3651390079999999 24.4860210420000008
  9.2495269780000005 12.5022487640000008 23.2220134740000006
  7.8279509540000003 12.4090900420000008 23.1484355929999985
  7.2107405660000001 12.1895751949999998 21.8844184880000014
  6.0497021679999996 11.3640422819999998 21.8108348849999985
  5.6396245960000000 10.8531932829999995 20.5468254090000002
  5.0844373699999998  9.5411996840000004 20.4732379910000013
  5.0033164020000003  8.8911409379999995 19.2092399600000014
  5.2186961170000004  7.4828925130000004 19.1356620789999994
  5.4905061719999999  6.8868665699999996 17.8716678619999989
  6.4125685690000003  5.8008880620000003 17.7980823520000015
  6.9566917420000003  5.4360966680000002 16.5340499879999996
  8.3114862439999992  4.9955410960000002 16.4604530330000003
  8.9661064150000005  4.9706959719999997 15.1964340210000000
 10.3504858019999997  5.3069090839999999 15.1228771210000001
 10.9208221440000006  5.6293120380000001 13.8589048389999991
 11.9228181840000005  6.6420159339999998 13.7853784560000001
 12.2392435069999994  7.2156710620000002 12.5214061739999991
 12.5610017779999996  8.6034793850000000 12.4478635789999998
 12.5295171740000004  9.2577714919999998 11.1838397979999993
 12.0753440859999994 10.6080608370000000 11.1102323530000007
 11.5349044799999998 11.3420963290000003 28.2757835389999990
 11.0460634229999997 11.7782812119999996 27.0118160250000017
  9.7648344040000001 12.4011449809999998 26.9382705690000002
  9.1198349000000007 12.5160589219999991 25.6743030549999993
  7.7023248669999997 12.3739500049999993 25.6007385250000006
  7.0930490490000002 12.1332654949999998 24.3367156979999990
  5.9611525539999999 11.2681922910000001 24.2631244660000007
  5.5689086909999999 10.7435245510000001 22.9990882869999993
  5.0592412949999996  9.4131727220000005 22.9254932400000015
  5.0005807879999997  8.7607116699999992 21.6614856720000013
  5.2644062040000001  7.3607435230000000 21.5879154210000017
  5.5566239360000003  6.7743978499999997 20.3239269259999986
  6.5156064029999996  5.7208776470000000 20.2503452300000006
  7.0720019340000002  5.3750419620000001 18.9863395689999983
  8.4411745069999995  4.9814491270000003 18.9127578740000004
  9.0962610240000004  4.9791398050000000 17.6487445829999992
 10.4682168959999995  5.3629641530000001 17.5751686099999986
 11.0270423890000000  5.7048859600000004 16.3111705779999987
 11.9934120180000008  6.7516331669999996 16.2376213070000013
 12.2898273469999992  7.3358664510000002 14.9736480709999995
 12.5634489059999996  8.7339754099999993 14.9000854490000005
 12.5094633099999992  9.3868036270000008 13.6360950469999995
 11.4439811710000008 11.4356060030000002 30.7280941009999999
 10.9404058460000009 11.8546228409999994 29.4640769959999993
  9.6383962630000006 12.4328498839999995 29.3905448910000011
  8.9898109440000002 12.5253791809999999 28.1265563960000016
  7.5780572890000002 12.3344058990000001 28.0530109410000001
  6.9773845669999996 12.0729284289999992 26.7890052800000014
  5.8759603499999997 11.1693859100000008 26.7154121400000015
  5.5020132060000000 10.6314954759999996 25.4513931269999993
  5.0385046009999996  9.2843856809999998 25.3777961730000001
  5.0023546220000004  8.6302804949999992 24.1137809750000010
  5.3143329619999999  7.2402405740000004 24.0402069089999983
  5.6265926359999998  6.6643457410000000 22.7761878969999998
  6.6213493349999997  5.6445336340000001 22.7026157379999987
  7.1893134119999997  5.3180599209999997 21.4386196140000003
  8.5712738040000005  4.9719710350000001 21.3650360110000008
  9.2260704039999997  4.9921765330000003 20.1010265349999990
 10.5839624400000005  5.4231071469999996 20.0274257660000004
 11.1306285860000003  5.7840986250000004 18.7634334560000013
 12.0602312089999995  6.8636116979999997 18.6898574830000008
 12.3362340929999998  7.4577622410000002 17.4258937839999994
 12.5614042280000007  8.8644762040000007 17.3523254390000012
 12.4849233630000001  9.5150547030000006 16.0883102419999986
 11.3497982030000006 11.5259132389999994 33.1804199219999987
 10.8320770260000003 11.9272813800000002 31.9164047239999995
  9.5108795169999993 12.4601650240000001 31.8428726200000014
  8.8595275880000006 12.5302305220000001 30.5788574219999987
  7.4552092549999998 12.2905931469999992 30.5053138729999986
  6.8639440540000001 12.0085506439999996 29.2412910460000006
  5.7942924500000004 11.0675992969999992 29.1677036289999982
  5.4390516279999996 10.5172300340000007 27.9036731720000013
  5.0222411160000000  9.1549472810000001 27.8300724029999991
  5.0086331370000003  8.4999933240000001 26.5660629270000008
  5.3683676719999998  7.1215262409999998 26.4924831390000008
  5.7003211980000001  6.5567431450000004 25.2284889220000004
  6.7297372820000003  5.5719342230000004 25.1549243930000017
  7.3086075780000002  5.2652702329999999 23.8909072880000011
  8.7016830439999993  4.9671311380000001 23.8173179630000007
  9.3553466800000002  5.0098705289999996 22.5532855989999987
 10.6975479129999993  5.4873785970000002 22.4796733860000018
 11.2314586639999998  5.8669066430000001 21.2156677249999994
 12.1232862469999993  6.9778280260000001 21.1420555109999988
 12.3785495759999993  7.5811495779999998 19.8780822750000006
 12.5550069810000000  8.9947862629999999 19.8044891360000008
 12.4560689930000006  9.6423721310000001 18.5405349729999998
 11.2524747850000004 11.6128730769999997 35.6327552799999978
 10.7212524410000007 11.9961395260000003 34.3687171939999985
  9.3824272160000000 12.4830427170000000 34.2951736449999984
  8.7290830610000008 12.5305767059999997 33.0311622620000023
  7.3338656430000002 12.2425746919999998 32.9576148989999993
  6.7527208329999997 11.9402866359999997 31.6935997010000001
  5.7161417009999997 10.9630136490000005 31.6200218200000016
  5.3800969120000000 10.4007501599999994 30.3559684750000010
  5.0104346279999996  9.0249385830000008 30.2823715210000017
  5.0194201469999999  8.3699684140000006 29.0183372499999983
  5.4265327450000003  7.0047435760000001 28.9447631839999993
  5.7777619360000001  6.4517788889999999 27.6807594299999984
  6.8405823710000000  5.5031318660000004 27.6071949009999997
  7.4297056200000000  5.2166514399999997 26.3431892400000010
  8.8322429660000008  4.9668245320000004 26.2696037290000000
  9.4840078349999999  5.0320739750000003 25.0055809019999984
 10.8089551929999992  5.5555787089999997 24.9319458010000012
 11.3293886179999994  5.9532761570000003 23.6678962710000000
 12.1824417109999992  7.0942492489999998 23.5942668910000002
 12.4167051320000006  7.7059493059999999 22.3302574159999985
 12.5443248749999992  9.1248168950000004 22.2566604609999992
 12.4230098719999997  9.7685842510000001 20.9926948549999999
 11.1521568299999991 11.6964368820000004 38.0850906370000004
 10.6080236429999992 12.0611047740000004 36.8210411069999992
  9.2531747820000003 12.5014944079999992 36.7474861150000010
  8.5986337660000007 12.5264253619999995 35.4834594730000035
  7.2142086030000003 12.1904001239999999 35.4099006650000021
  6.6438617710000001 11.8682317729999998 34.1458778379999970
  5.6416130070000001 10.8557968139999996 34.0723075869999974
  5.3251509669999999 10.2822866439999991 32.8082809449999999
  5.0031437870000000  8.8945274350000005 32.7346916199999995
  5.0346779819999998  8.2402830120000008 31.4706478119999993
  5.4887070659999999  6.8899526599999996 31.3970661160000013
  5.8588457109999998  6.3495025629999997 30.1330223080000010
  6.9538416859999996  5.4381942749999999 30.0594577789999988
  7.5524582860000002  5.1722598079999997 28.7954406740000017
  8.9628057479999992  4.9710717200000003 28.7218456270000004
  9.6119012829999999  5.0587434770000002 27.4578208920000009
 10.9180154799999993  5.6275892259999996 27.3841819760000007
 11.4244279859999995  6.0429744720000000 26.1201381680000004
 12.2376937869999995  7.2126345629999999 26.0465068819999992
 12.4506893160000001  7.8320384030000003 24.7824764249999987
 12.5293674470000003  9.2544794079999999 24.7088699339999991
 12.3858165739999997  9.8936376569999993 23.4448757169999986
 11.0489778520000002 11.7765092849999995  0.0893910380000000
 10.4925804140000007 12.1221446989999997 39.2733955380000026
  9.1233329770000005 12.5154905319999994 39.1998405459999972
  8.4683313370000004 12.5178232190000003 37.9357719420000024
  7.0963492390000003 12.1341991419999999 37.8622055049999986
  6.5375165940000004 11.7924928670000000 36.5981636050000034
  5.5708408360000004 10.7460308070000004 36.5245857239999978
  5.2743563650000000 10.1619691850000002 35.2605590820000003
  5.0004506109999998  8.7639198300000007 35.1869812010000018
  5.0544667240000001  8.1111545560000007 33.9229393009999995
  5.5548577310000002  6.7773146630000003 33.8493461609999997
  5.9434318540000000  6.2500252720000002 32.5853157040000028
  7.0692939760000000  5.3771176340000002 32.5117378229999971
  7.6767492290000003  5.1320891380000004 31.2477111819999998
  9.0931863780000004  4.9797368049999999 31.1741065980000016
  9.7388486860000008  5.0898213390000002 29.9100608829999999
 11.0245761869999992  5.7033414840000001 29.8364219669999997
 11.5163602829999991  6.1359100340000001 28.5723648069999996
 12.2888669969999995  7.3328928949999996 28.4987258909999994
 12.4803857800000007  7.9592599870000003 27.2347011569999999
 12.5100240710000001  9.3835716250000001 27.1610908510000009
 12.3444528580000004 10.0173921589999999 25.8971023560000013
  8.3383750919999997 12.5047149659999999 40.3881073000000015
  6.9804296490000004 12.0739555359999997 40.3145141600000017
  6.4337725639999999 11.7131614689999992 39.0504837040000012
  5.5038485530000001 10.6339235310000007 38.9769020080000033
  5.2277722359999999 10.0399322509999998 37.7128486630000026
  5.0023274420000003  8.6332731250000005 37.6392707819999970
  5.0788335800000004  7.9827842709999999 36.3752288820000018
  5.6249518390000004  6.6670055389999998 36.3016395570000014
  6.0314555170000004  6.1534657480000003 35.0375862120000008
  7.1867785450000001  5.3199591640000001 34.9639968870000004
  7.8023486139999996  5.0961441990000003 33.6999664310000000
  9.2232017519999996  4.9927854539999998 33.6263694760000007
  9.8646783829999993  5.1251125340000003 32.3623352050000008
 11.1284742360000006  5.7826304439999996 32.2887001040000001
 11.6050243379999998  6.2319688800000002 31.0246410369999985
 12.3357925420000001  7.4548544879999996 30.9510154720000017
 12.5056438449999998  8.0874443050000000 29.6869487760000013
 12.4861516950000002  9.5119333269999995 29.6133537290000000
 12.2988595959999998 10.1396389009999996 28.3493366239999993
  5.1853075029999998  9.9164047239999995 40.1651382450000014
  5.0086297990000004  8.5027933119999997 40.0915565490000034
  5.1075940129999999  7.8553113940000001 38.8275375369999978
  5.6987762450000004  6.5591664310000004 38.7539443969999979
  6.1227750780000001  6.0599613190000001 37.4898757930000031
  7.3062024120000002  5.2668495179999999 37.4162940980000016
  7.9291014669999997  5.0644445420000004 36.1522407530000010
  9.3526821140000003  5.0102634430000004 36.0786437989999982
  9.9892005919999995  5.1647148129999998 34.8145980829999999
 11.2295570369999993  5.8654289249999998 34.7409896850000024
 11.6903486250000004  6.3309168820000004 33.4769363400000017
 12.3784923550000006  7.5783143040000001 33.4033203119999982
 12.5264196400000003  8.2164039609999993 32.1392745970000036
 12.4577960969999992  9.6393671039999997 32.0656852720000032
 12.2489662169999995 10.2602338789999994 30.8016395570000014
  6.2172875400000001  5.9696912769999999 39.9421844479999990
  7.4273910519999999  5.2179269789999996 39.8686027529999976
  8.0569114689999992  5.0371327399999997 38.6045570369999993
  9.4815120700000008  5.0321245189999999 38.5309677119999989
 10.1122865680000000  5.2085046769999996 37.2668991090000006
 11.3276844019999992  5.9516897200000001 37.1933059690000007
 11.7721195220000006  6.4328026769999997 35.9292526249999966
 12.4168090820000003  7.7031826969999999 35.8556442260000026
 12.5426616670000008  8.3459825520000006 34.5915832519999995
 12.4249992369999998  9.7657260889999993 34.5180053710000010
 12.1949081419999992 10.3790321349999992 33.2539672850000017
 10.2338514329999999  5.2565131190000001 39.7192153929999989
 11.4228420259999996  6.0412406919999997 39.6456413269999999
 11.8503732680000002  6.5374398229999997 38.3815765379999974
 12.4508333209999993  7.8293151859999996 38.3079872129999970
 12.5544004440000005  8.4760551450000001 37.0439186099999986
 12.3878030779999992  9.8909034729999998 36.9703445430000031
 12.1366891859999999 10.4958705900000009 35.7062988280000013
 12.5616846080000002  8.6065082549999996 39.4962654110000031
 12.3463144299999996 10.0147428509999994 39.4227104189999977
 12.0744352339999992 10.6106605530000007 38.1586418150000029
