Ge Se                                   
    1.000000000000000     
     4.2999999999999998    0.0000000000000000    0.0000000000000000
     0.0000000000000000    4.2500000000000000    0.0000000000000000
     0.0000000000000000    0.0000000000000000   11.1422209999999975
   Ge   Se
     4     4
Selective dynamics
Direct
  0.1021657457965048  0.2500000000000000  0.1323204427530271   T   T   T
  0.6021657457965048  0.7500000000000000  0.3676795572469729   T   T   T
  0.8978342542034952  0.7500000000000000  0.8676795572469729   T   T   T
  0.3978342542034952  0.2500000000000000  0.6323204427530271   T   T   T
  0.9868120787018029  0.2500000000000000  0.3568869625398037   T   T   T
  0.4868120787018029  0.7500000000000000  0.1431130374601963   T   T   T
  0.0131879212981971  0.7500000000000000  0.6431130374601963   T   T   T
  0.5131879212981971  0.2500000000000000  0.8568869625398037   T   T   T
 
  0.00000000E+00  0.00000000E+00  0.00000000E+00
  0.00000000E+00  0.00000000E+00  0.00000000E+00
  0.00000000E+00  0.00000000E+00  0.00000000E+00
  0.00000000E+00  0.00000000E+00  0.00000000E+00
  0.00000000E+00  0.00000000E+00  0.00000000E+00
  0.00000000E+00  0.00000000E+00  0.00000000E+00
  0.00000000E+00  0.00000000E+00  0.00000000E+00
  0.00000000E+00  0.00000000E+00  0.00000000E+00
