
     Program PWSCF v.7.2 starts on 30Oct2024 at 17:39:49 

     This program is part of the open-source Quantum ESPRESSO suite
     for quantum simulation of materials; please cite
         "P. Giannozzi et al., J. Phys.:Condens. Matter 21 395502 (2009);
         "P. Giannozzi et al., J. Phys.:Condens. Matter 29 465901 (2017);
         "P. Giannozzi et al., J. Chem. Phys. 152 154105 (2020);
          URL http://www.quantum-espresso.org", 
     in publications or presentations arising from this work. More details at
     http://www.quantum-espresso.org/quote

     Parallel version (MPI & OpenMP), running on    1536 processor cores
     Number of MPI processes:               768
     Threads/MPI process:                     2

     MPI processes distributed on    12 nodes
     483062 MiB available memory on the printing compute node when the environment starts

     Reading input from espresso.pwi
Warning: card &CELL ignored
Warning: card / ignored

     Current dimensions of program PWSCF are:
     Max number of different atomic species (ntypx) = 10
     Max number of k-points (npk) =  40000
     Max angular momentum in pseudopotentials (lmaxx) =  4

     K-points division:     npool     =       2
     R & G space division:  proc/nbgrp/npool/nimage =     384
     Subspace diagonalization in iterative solution of the eigenvalue problem:
     one sub-group per band group will be used
     custom distributed-memory algorithm (size of sub-group:  7*  7 procs)


     Parallelization info
     --------------------
     sticks:   dense  smooth     PW     G-vecs:    dense   smooth      PW
     Min         114     114     28                28776    28776    3638
     Max         115     115     29                28795    28795    3665
     Sum       43977   43977  11115             11053081 11053081 1403663

     Using Slab Decomposition



     bravais-lattice index     =            0
     lattice parameter (alat)  =      61.1748  a.u.
     unit-cell volume          =  176044.1909 (a.u.)^3
     number of atoms/cell      =          365
     number of atomic types    =            2
     number of electrons       =      1462.00
     number of Kohn-Sham states=          732
     kinetic-energy cutoff     =      60.0000  Ry
     charge density cutoff     =     240.0000  Ry
     scf convergence threshold =      7.4E-08
     mixing beta               =       0.7000
     number of iterations used =            8  plain     mixing
     Exchange-correlation= PBE
                           (   1   4   3   4   0   0   0)

     celldm(1)=  61.174780  celldm(2)=   0.000000  celldm(3)=   0.000000
     celldm(4)=   0.000000  celldm(5)=   0.000000  celldm(6)=   0.000000

     crystal axes: (cart. coord. in units of alat)
               a(1) = (   1.000000   0.000000   0.000000 )  
               a(2) = (   0.000000   0.615409   0.000000 )  
               a(3) = (   0.000000   0.000000   1.249513 )  

     reciprocal axes: (cart. coord. in units 2 pi/alat)
               b(1) = (  1.000000  0.000000  0.000000 )  
               b(2) = (  0.000000  1.624937  0.000000 )  
               b(3) = (  0.000000  0.000000  0.800312 )  


     PseudoPot. # 1 for C  read from file:
     ./C_ONCV_PBE-1.2.upf
     MD5 check sum: 1a5f83a7b1f58d24996abe00ed223ac6
     Pseudo is Norm-conserving, Zval =  4.0
     Generated using ONCVPSP code by D. R. Hamann
     Using radial grid of  602 points,  4 beta functions with: 
                l(1) =   0
                l(2) =   0
                l(3) =   1
                l(4) =   1

     PseudoPot. # 2 for Se read from file:
     ./Se_ONCV_PBE-1.2.upf
     MD5 check sum: e78e48a4f5d8ce1f8dc76ec1271f249c
     Pseudo is Norm-conserving, Zval =  6.0
     Generated using ONCVPSP code by D. R. Hamann
     Using radial grid of  602 points,  6 beta functions with: 
                l(1) =   0
                l(2) =   0
                l(3) =   1
                l(4) =   1
                l(5) =   2
                l(6) =   2

     atomic species   valence    mass     pseudopotential
        C              4.00    12.01100     C ( 1.00)
        Se             6.00    78.96000     Se( 1.00)

     No symmetry found


                                    s                        frac. trans.

      isym =  1     identity                                     

 cryst.   s( 1) = (     1          0          0      )
                  (     0          1          0      )
                  (     0          0          1      )

 cart.    s( 1) = (  1.0000000  0.0000000  0.0000000 )
                  (  0.0000000  1.0000000  0.0000000 )
                  (  0.0000000  0.0000000  1.0000000 )


   Cartesian axes

     site n.     atom                  positions (alat units)
         1           C   tau(   1) = (   0.3709649   0.3312756   0.0030847  )
         2           C   tau(   2) = (   0.3687886   0.3346704   0.0785943  )
         3           C   tau(   3) = (   0.3380600   0.3661665   0.0763375  )
         4           C   tau(   4) = (   0.3204964   0.3762649   0.0374102  )
         5           C   tau(   5) = (   0.2778193   0.3869584   0.0351410  )
         6           C   tau(   6) = (   0.3664688   0.3379916   0.1540928  )
         7           C   tau(   7) = (   0.3346861   0.3684166   0.1518421  )
         8           C   tau(   8) = (   0.3167937   0.3779038   0.1129157  )
         9           C   tau(   9) = (   0.2737690   0.3871160   0.1106423  )
        10           C   tau(  10) = (   0.2535560   0.3857890   0.0717233  )
        11           C   tau(  11) = (   0.2121012   0.3710454   0.0694638  )
        12           C   tau(  12) = (   0.1955926   0.3593031   0.0305382  )
        13           C   tau(  13) = (   0.1680345   0.3250008   0.0282795  )
        14           C   tau(  14) = (   0.3640065   0.3412351   0.2295858  )
        15           C   tau(  15) = (   0.3312186   0.3705826   0.2273467  )
        16           C   tau(  16) = (   0.3130234   0.3794345   0.1884219  )
        17           C   tau(  17) = (   0.2697107   0.3871643   0.1861506  )
        18           C   tau(  18) = (   0.2495609   0.3851183   0.1472239  )
        19           C   tau(  19) = (   0.2086489   0.3689473   0.1449717  )
        20           C   tau(  20) = (   0.1925505   0.3566441   0.1060477  )
        21           C   tau(  21) = (   0.1661941   0.3214094   0.1037848  )
        22           C   tau(  22) = (   0.1589423   0.3024890   0.0648678  )
        23           C   tau(  23) = (   0.1549889   0.2586644   0.0626042  )
        24           C   tau(  24) = (   0.1587453   0.2387469   0.0236811  )
        25           C   tau(  25) = (   0.1783760   0.1993668   0.0214272  )
        26           C   tau(  26) = (   0.3614371   0.3444016   0.3050804  )
        27           C   tau(  27) = (   0.3276868   0.3726295   0.3028690  )
        28           C   tau(  28) = (   0.3091910   0.3808546   0.2639297  )
        29           C   tau(  29) = (   0.2656522   0.3870857   0.2616659  )
        30           C   tau(  30) = (   0.2455861   0.3843490   0.2227347  )
        31           C   tau(  31) = (   0.2052578   0.3667505   0.2204849  )
        32           C   tau(  32) = (   0.1896013   0.3538869   0.1815657  )
        33           C   tau(  33) = (   0.1644810   0.3177602   0.1792966  )
        34           C   tau(  34) = (   0.1578915   0.2985950   0.1403733  )
        35           C   tau(  35) = (   0.1554506   0.2546643   0.1381135  )
        36           C   tau(  36) = (   0.1598890   0.2348870   0.0991896  )
        37           C   tau(  37) = (   0.1808602   0.1962011   0.0969316  )
        38           C   tau(  38) = (   0.1950179   0.1816955   0.0580118  )
        39           C   tau(  39) = (   0.2331659   0.1597708   0.0557393  )
        40           C   tau(  40) = (   0.2528332   0.1548474   0.0168191  )
        41           C   tau(  41) = (   0.2968132   0.1562093   0.0145633  )
        42           C   tau(  42) = (   0.3707550   0.3309338   0.4194296  )
        43           C   tau(  43) = (   0.3587737   0.3474162   0.3805436  )
        44           C   tau(  44) = (   0.3241009   0.3744057   0.3783907  )
        45           C   tau(  45) = (   0.3053437   0.3821229   0.3394669  )
        46           C   tau(  46) = (   0.2615925   0.3868531   0.3372075  )
        47           C   tau(  47) = (   0.2416408   0.3834358   0.2982800  )
        48           C   tau(  48) = (   0.2019449   0.3644380   0.2960149  )
        49           C   tau(  49) = (   0.1867615   0.3510245   0.2570824  )
        50           C   tau(  50) = (   0.1629242   0.3140498   0.2548053  )
        51           C   tau(  51) = (   0.1569822   0.2946723   0.2158831  )
        52           C   tau(  52) = (   0.1560556   0.2506778   0.2136269  )
        53           C   tau(  53) = (   0.1611672   0.2310679   0.1747042  )
        54           C   tau(  54) = (   0.1834541   0.1931271   0.1724391  )
        55           C   tau(  55) = (   0.1981025   0.1791163   0.1335133  )
        56           C   tau(  56) = (   0.2369801   0.1585154   0.1312461  )
        57           C   tau(  57) = (   0.2568083   0.1542785   0.0923242  )
        58           C   tau(  58) = (   0.3007161   0.1571584   0.0900684  )
        59           C   tau(  59) = (   0.3198171   0.1639567   0.0511476  )
        60           C   tau(  60) = (   0.3556797   0.1894472   0.0488712  )
        61           C   tau(  61) = (   0.3683813   0.2052489   0.0099499  )
        62           C   tau(  62) = (   0.3855513   0.2457602   0.0076920  )
        63           C   tau(  63) = (   0.3685623   0.3332953   0.4948979  )
        64           C   tau(  64) = (   0.3559057   0.3497062   0.4561388  )
        65           C   tau(  65) = (   0.3203548   0.3755662   0.4539651  )
        66           C   tau(  66) = (   0.3014490   0.3829636   0.4151023  )
        67           C   tau(  67) = (   0.2575525   0.3863115   0.4128030  )
        68           C   tau(  68) = (   0.2377349   0.3823035   0.3738302  )
        69           C   tau(  69) = (   0.1987238   0.3619798   0.3715394  )
        70           C   tau(  70) = (   0.1840007   0.3480827   0.3326005  )
        71           C   tau(  71) = (   0.1614608   0.3102855   0.3303184  )
        72           C   tau(  72) = (   0.1562158   0.2907166   0.2914010  )
        73           C   tau(  73) = (   0.1568029   0.2467157   0.2891440  )
        74           C   tau(  74) = (   0.1625902   0.2272955   0.2502153  )
        75           C   tau(  75) = (   0.1861583   0.1901443   0.2479421  )
        76           C   tau(  76) = (   0.2012654   0.1766378   0.2090244  )
        77           C   tau(  77) = (   0.2408294   0.1573637   0.2067701  )
        78           C   tau(  78) = (   0.2607915   0.1538278   0.1678344  )
        79           C   tau(  79) = (   0.3045667   0.1582160   0.1655732  )
        80           C   tau(  80) = (   0.3234345   0.1656742   0.1266534  )
        81           C   tau(  81) = (   0.3583996   0.1923857   0.1243777  )
        82           C   tau(  82) = (   0.3705530   0.2086251   0.0854598  )
        83           C   tau(  83) = (   0.3863175   0.2497038   0.0832051  )
        84           C   tau(  84) = (   0.3881502   0.2698964   0.0442817  )
        85           C   tau(  85) = (   0.3799997   0.3131326   0.0420076  )
        86           C   tau(  86) = (   0.3674523   0.3382404   0.5706301  )
        87           C   tau(  87) = (   0.3532560   0.3521135   0.5320906  )
        88           C   tau(  88) = (   0.3165410   0.3764334   0.5295983  )
        89           C   tau(  89) = (   0.2973730   0.3831006   0.4906587  )
        90           C   tau(  90) = (   0.2535402   0.3853693   0.4883297  )
        91           C   tau(  91) = (   0.2338222   0.3809629   0.4493544  )
        92           C   tau(  92) = (   0.1954531   0.3594170   0.4470548  )
        93           C   tau(  93) = (   0.1812863   0.3450143   0.4081280  )
        94           C   tau(  94) = (   0.1600863   0.3064470   0.4058436  )
        95           C   tau(  95) = (   0.1555663   0.2867166   0.3669060  )
        96           C   tau(  96) = (   0.1576662   0.2427762   0.3646448  )
        97           C   tau(  97) = (   0.1641046   0.2235636   0.3257238  )
        98           C   tau(  98) = (   0.1889344   0.1872236   0.3234478  )
        99           C   tau(  99) = (   0.2045256   0.1742668   0.2845391  )
       100           C   tau( 100) = (   0.2447183   0.1563464   0.2822975  )
       101           C   tau( 101) = (   0.2647814   0.1534750   0.2433501  )
       102           C   tau( 102) = (   0.3083902   0.1593541   0.2410889  )
       103           C   tau( 103) = (   0.3269753   0.1674895   0.2021678  )
       104           C   tau( 104) = (   0.3609867   0.1954104   0.1998895  )
       105           C   tau( 105) = (   0.3725808   0.2120702   0.1609671  )
       106           C   tau( 106) = (   0.3869013   0.2536696   0.1587062  )
       107           C   tau( 107) = (   0.3880665   0.2739171   0.1197888  )
       108           C   tau( 108) = (   0.3784364   0.3168518   0.1175143  )
       109           C   tau( 109) = (   0.3645212   0.3413294   0.6463916  )
       110           C   tau( 110) = (   0.3504626   0.3553848   0.6070502  )
       111           C   tau( 111) = (   0.3128293   0.3782488   0.6048630  )
       112           C   tau( 112) = (   0.2934310   0.3839791   0.5660643  )
       113           C   tau( 113) = (   0.2493267   0.3849046   0.5637888  )
       114           C   tau( 114) = (   0.2298761   0.3795261   0.5249253  )
       115           C   tau( 115) = (   0.1922385   0.3567443   0.5226040  )
       116           C   tau( 116) = (   0.1786262   0.3418254   0.4836411  )
       117           C   tau( 117) = (   0.1588363   0.3025678   0.4813609  )
       118           C   tau( 118) = (   0.1549851   0.2826986   0.4424231  )
       119           C   tau( 119) = (   0.1586031   0.2388334   0.4401586  )
       120           C   tau( 120) = (   0.1657246   0.2198719   0.4012442  )
       121           C   tau( 121) = (   0.1917490   0.1843795   0.3989640  )
       122           C   tau( 122) = (   0.2078134   0.1719812   0.3600419  )
       123           C   tau( 123) = (   0.2486038   0.1554831   0.3578055  )
       124           C   tau( 124) = (   0.2687669   0.1532667   0.3188982  )
       125           C   tau( 125) = (   0.3121886   0.1606339   0.3166513  )
       126           C   tau( 126) = (   0.3304597   0.1694081   0.2776858  )
       127           C   tau( 127) = (   0.3634460   0.1985080   0.2753931  )
       128           C   tau( 128) = (   0.3744585   0.2155681   0.2364706  )
       129           C   tau( 129) = (   0.3873174   0.2576524   0.2341886  )
       130           C   tau( 130) = (   0.3877902   0.2779301   0.1952864  )
       131           C   tau( 131) = (   0.3766916   0.3205093   0.1930214  )
       132           C   tau( 132) = (   0.3615246   0.3443322   0.7217988  )
       133           C   tau( 133) = (   0.3476054   0.3588705   0.6826684  )
       134           C   tau( 134) = (   0.3092093   0.3806542   0.6803952  )
       135           C   tau( 135) = (   0.2894983   0.3851092   0.6415051  )
       136           C   tau( 136) = (   0.2455266   0.3841021   0.6392752  )
       137           C   tau( 137) = (   0.2260929   0.3781214   0.6003680  )
       138           C   tau( 138) = (   0.1892983   0.3539753   0.5980940  )
       139           C   tau( 139) = (   0.1760717   0.3386508   0.5591892  )
       140           C   tau( 140) = (   0.1576549   0.2986247   0.5569102  )
       141           C   tau( 141) = (   0.1545716   0.2786406   0.5179878  )
       142           C   tau( 142) = (   0.1596962   0.2349302   0.5157075  )
       143           C   tau( 143) = (   0.1674462   0.2162184   0.4767568  )
       144           C   tau( 144) = (   0.1946095   0.1816222   0.4744676  )
       145           C   tau( 145) = (   0.2110688   0.1697480   0.4355597  )
       146           C   tau( 146) = (   0.2524705   0.1547325   0.4333199  )
       147           C   tau( 147) = (   0.2727503   0.1533280   0.3944493  )
       148           C   tau( 148) = (   0.3158674   0.1622403   0.3922255  )
       149           C   tau( 149) = (   0.3338818   0.1714512   0.3532134  )
       150           C   tau( 150) = (   0.3658960   0.2016672   0.3509095  )
       151           C   tau( 151) = (   0.3762221   0.2191229   0.3119794  )
       152           C   tau( 152) = (   0.3875645   0.2616353   0.3096454  )
       153           C   tau( 153) = (   0.3873335   0.2819280   0.2707454  )
       154           C   tau( 154) = (   0.3747965   0.3240958   0.2685032  )
       155           C   tau( 155) = (   0.3588392   0.3473784   0.7972417  )
       156           C   tau( 156) = (   0.3442726   0.3614725   0.7583150  )
       157           C   tau( 157) = (   0.3054003   0.3821209   0.7559938  )
       158           C   tau( 158) = (   0.2856024   0.3862091   0.7169703  )
       159           C   tau( 159) = (   0.2416696   0.3833209   0.7147623  )
       160           C   tau( 160) = (   0.2225108   0.3765584   0.6758886  )
       161           C   tau( 161) = (   0.1865837   0.3510854   0.6736276  )
       162           C   tau( 162) = (   0.1738771   0.3352522   0.6347251  )
       163           C   tau( 163) = (   0.1568637   0.2946940   0.6324559  )
       164           C   tau( 164) = (   0.1543455   0.2745895   0.5935058  )
       165           C   tau( 165) = (   0.1609927   0.2310853   0.5912209  )
       166           C   tau( 166) = (   0.1692596   0.2126324   0.5523030  )
       167           C   tau( 167) = (   0.1976213   0.1789107   0.5500169  )
       168           C   tau( 168) = (   0.2144417   0.1676554   0.5111017  )
       169           C   tau( 169) = (   0.2563269   0.1541466   0.5088443  )
       170           C   tau( 170) = (   0.2766569   0.1535694   0.4699386  )
       171           C   tau( 171) = (   0.3193072   0.1643125   0.4676930  )
       172           C   tau( 172) = (   0.3371325   0.1738615   0.4288095  )
       173           C   tau( 173) = (   0.3683848   0.2050418   0.4265654  )
       174           C   tau( 174) = (   0.3779829   0.2227497   0.3874355  )
       175           C   tau( 175) = (   0.3877226   0.2655755   0.3849909  )
       176           C   tau( 176) = (   0.3867688   0.2858947   0.3461544  )
       177           C   tau( 177) = (   0.3728444   0.3276472   0.3439658  )
       178           C   tau( 178) = (   0.3561932   0.3503666   0.8727408  )
       179           C   tau( 179) = (   0.3410544   0.3638822   0.8338225  )
       180           C   tau( 180) = (   0.3015367   0.3831968   0.8315258  )
       181           C   tau( 181) = (   0.2816016   0.3867928   0.7925507  )
       182           C   tau( 182) = (   0.2377860   0.3823386   0.7903126  )
       183           C   tau( 183) = (   0.2189529   0.3748316   0.7514025  )
       184           C   tau( 184) = (   0.1840051   0.3480977   0.7491479  )
       185           C   tau( 185) = (   0.1718268   0.3318638   0.7102251  )
       186           C   tau( 186) = (   0.1561535   0.2907424   0.7079715  )
       187           C   tau( 187) = (   0.1543327   0.2705566   0.6690599  )
       188           C   tau( 188) = (   0.1624776   0.2273054   0.6667839  )
       189           C   tau( 189) = (   0.1714482   0.2091534   0.6278525  )
       190           C   tau( 190) = (   0.2009293   0.1765363   0.6255798  )
       191           C   tau( 191) = (   0.2180027   0.1657471   0.5866069  )
       192           C   tau( 192) = (   0.2603371   0.1537631   0.5842949  )
       193           C   tau( 193) = (   0.2805220   0.1537665   0.5454296  )
       194           C   tau( 194) = (   0.3227878   0.1664016   0.5431422  )
       195           C   tau( 195) = (   0.3399685   0.1771088   0.5043452  )
       196           C   tau( 196) = (   0.3701984   0.2091296   0.5021922  )
       197           C   tau( 197) = (   0.3800533   0.2264149   0.4628541  )
       198           C   tau( 198) = (   0.3885372   0.2696743   0.4602790  )
       199           C   tau( 199) = (   0.3861870   0.2898228   0.4215027  )
       200           C   tau( 200) = (   0.3534591   0.3532752   0.9482388  )
       201           C   tau( 201) = (   0.3378597   0.3662448   0.9093179  )
       202           C   tau( 202) = (   0.2976596   0.3841450   0.9070505  )
       203           C   tau( 203) = (   0.2775841   0.3870379   0.8681220  )
       204           C   tau( 204) = (   0.2339806   0.3811077   0.8658588  )
       205           C   tau( 205) = (   0.2154103   0.3729912   0.8269127  )
       206           C   tau( 206) = (   0.1814204   0.3450372   0.8246622  )
       207           C   tau( 207) = (   0.1698404   0.3283982   0.7857469  )
       208           C   tau( 208) = (   0.1555459   0.2867731   0.7834955  )
       209           C   tau( 209) = (   0.1544506   0.2665294   0.7445776  )
       210           C   tau( 210) = (   0.1640954   0.2236113   0.7423012  )
       211           C   tau( 211) = (   0.1736877   0.2057696   0.7033705  )
       212           C   tau( 212) = (   0.2043492   0.1741953   0.7011069  )
       213           C   tau( 213) = (   0.2218231   0.1640498   0.6621736  )
       214           C   tau( 214) = (   0.2645265   0.1534315   0.6598720  )
       215           C   tau( 215) = (   0.2847047   0.1544110   0.6208949  )
       216           C   tau( 216) = (   0.3263533   0.1682586   0.6185630  )
       217           C   tau( 217) = (   0.3430554   0.1798002   0.5796189  )
       218           C   tau( 218) = (   0.3719934   0.2130003   0.5771577  )
       219           C   tau( 219) = (   0.3820275   0.2301457   0.5386258  )
       220           C   tau( 220) = (   0.3954587   0.2735384   0.5358113  )
       221           C   tau( 221) = (   0.3867406   0.2939108   0.4965031  )
       222           C   tau( 222) = (   0.3505949   0.3560813   1.0237443  )
       223           C   tau( 223) = (   0.3345598   0.3684976   0.9848253  )
       224           C   tau( 224) = (   0.2937555   0.3849656   0.9825717  )
       225           C   tau( 225) = (   0.2735873   0.3871367   0.9436468  )
       226           C   tau( 226) = (   0.2302189   0.3797210   0.9413783  )
       227           C   tau( 227) = (   0.2119250   0.3710024   0.9024433  )
       228           C   tau( 228) = (   0.1789056   0.3418993   0.9001916  )
       229           C   tau( 229) = (   0.1679286   0.3248623   0.8612678  )
       230           C   tau( 230) = (   0.1550609   0.2827883   0.8590105  )
       231           C   tau( 231) = (   0.1546442   0.2625231   0.8200843  )
       232           C   tau( 232) = (   0.1657707   0.2199481   0.8178122  )
       233           C   tau( 233) = (   0.1760278   0.2024665   0.7788981  )
       234           C   tau( 234) = (   0.2077788   0.1719924   0.7766441  )
       235           C   tau( 235) = (   0.2256534   0.1624676   0.7377043  )
       236           C   tau( 236) = (   0.2686514   0.1531946   0.7354024  )
       237           C   tau( 237) = (   0.2888226   0.1545756   0.6964301  )
       238           C   tau( 238) = (   0.3302467   0.1694754   0.6941360  )
       239           C   tau( 239) = (   0.3465037   0.1816316   0.6552633  )
       240           C   tau( 240) = (   0.3738910   0.2160193   0.6531062  )
       241           C   tau( 241) = (   0.3817464   0.2352029   0.6143560  )
       242           C   tau( 242) = (   0.3888418   0.2779957   0.6127443  )
       243           C   tau( 243) = (   0.3918830   0.2999487   0.5734374  )
       244           C   tau( 244) = (   0.3476196   0.3587802   1.0992603  )
       245           C   tau( 245) = (   0.3311698   0.3706328   1.0603337  )
       246           C   tau( 246) = (   0.2898219   0.3856713   1.0580832  )
       247           C   tau( 247) = (   0.2695939   0.3871370   1.0191609  )
       248           C   tau( 248) = (   0.2265036   0.3782228   1.0168911  )
       249           C   tau( 249) = (   0.2085136   0.3688685   0.9779700  )
       250           C   tau( 250) = (   0.1765097   0.3386687   0.9757187  )
       251           C   tau( 251) = (   0.1661199   0.3212723   0.9367831  )
       252           C   tau( 252) = (   0.1546955   0.2787773   0.9345231  )
       253           C   tau( 253) = (   0.1549686   0.2585146   0.8956046  )
       254           C   tau( 254) = (   0.1675430   0.2163433   0.8933397  )
       255           C   tau( 255) = (   0.1784217   0.1992373   0.8544162  )
       256           C   tau( 256) = (   0.2112140   0.1699068   0.8521654  )
       257           C   tau( 257) = (   0.2294103   0.1609872   0.8132369  )
       258           C   tau( 258) = (   0.2727190   0.1531846   0.8109559  )
       259           C   tau( 259) = (   0.2928613   0.1551595   0.7720288  )
       260           C   tau( 260) = (   0.3337784   0.1713506   0.7697849  )
       261           C   tau( 261) = (   0.3498047   0.1837645   0.7308504  )
       262           C   tau( 262) = (   0.3760423   0.2190079   0.7286949  )
       263           C   tau( 263) = (   0.3832108   0.2380725   0.6898144  )
       264           C   tau( 264) = (   0.3871795   0.2818029   0.6877395  )
       265           C   tau( 265) = (   0.3841299   0.3018504   0.6489603  )
       266           C   tau( 266) = (   0.3445315   0.3613558   1.1747747  )
       267           C   tau( 267) = (   0.3276912   0.3726430   1.1358477  )
       268           C   tau( 268) = (   0.2858482   0.3862478   1.1335922  )
       269           C   tau( 269) = (   0.2655863   0.3870109   1.0946723  )
       270           C   tau( 270) = (   0.2228360   0.3766092   1.0924013  )
       271           C   tau( 271) = (   0.2051834   0.3666321   1.0534806  )
       272           C   tau( 272) = (   0.1742296   0.3353602   1.0512319  )
       273           C   tau( 273) = (   0.1644249   0.3176190   1.0123046  )
       274           C   tau( 274) = (   0.1544689   0.2747541   1.0100403  )
       275           C   tau( 275) = (   0.1554408   0.2545117   0.9711196  )
       276           C   tau( 276) = (   0.1694562   0.2128049   0.9688627  )
       277           C   tau( 277) = (   0.1808976   0.1960804   0.9299340  )
       278           C   tau( 278) = (   0.2147008   0.1679087   0.9276831  )
       279           C   tau( 279) = (   0.2332089   0.1596515   0.8887692  )
       280           C   tau( 280) = (   0.2767624   0.1533894   0.8865022  )
       281           C   tau( 281) = (   0.2968360   0.1560574   0.8475721  )
       282           C   tau( 282) = (   0.3371524   0.1736406   0.8453278  )
       283           C   tau( 283) = (   0.3527944   0.1864601   0.8063801  )
       284           C   tau( 284) = (   0.3778194   0.2226486   0.8041516  )
       285           C   tau( 285) = (   0.3843510   0.2418195   0.7652676  )
       286           C   tau( 286) = (   0.3866903   0.2857696   0.7630822  )
       287           C   tau( 287) = (   0.3822339   0.3056061   0.7242423  )
       288           C   tau( 288) = (   0.3413440   0.3638141   0.0008251  )
       289           C   tau( 289) = (   0.3241350   0.3745214   1.2113636  )
       290           C   tau( 290) = (   0.2818483   0.3866788   1.2091007  )
       291           C   tau( 291) = (   0.2615765   0.3867477   1.1701807  )
       292           C   tau( 292) = (   0.2192103   0.3748797   1.1679102  )
       293           C   tau( 293) = (   0.2019166   0.3642998   1.1289890  )
       294           C   tau( 294) = (   0.1720622   0.3319752   1.1267403  )
       295           C   tau( 295) = (   0.1628798   0.3139054   1.0878207  )
       296           C   tau( 296) = (   0.1544051   0.2707305   1.0855520  )
       297           C   tau( 297) = (   0.1560616   0.2505305   1.0466296  )
       298           C   tau( 298) = (   0.1715070   0.2093317   1.0443791  )
       299           C   tau( 299) = (   0.1835113   0.1930097   1.0054561  )
       300           C   tau( 300) = (   0.2182806   0.1660406   1.0031996  )
       301           C   tau( 301) = (   0.2370597   0.1584483   0.9642804  )
       302           C   tau( 302) = (   0.2807995   0.1537329   0.9620176  )
       303           C   tau( 303) = (   0.3007627   0.1571022   0.9230862  )
       304           C   tau( 304) = (   0.3404596   0.1760718   0.9208314  )
       305           C   tau( 305) = (   0.3556511   0.1894210   0.8819043  )
       306           C   tau( 306) = (   0.3794641   0.2264252   0.8796394  )
       307           C   tau( 307) = (   0.3853086   0.2457940   0.8407201  )
       308           C   tau( 308) = (   0.3861941   0.2897768   0.8384878  )
       309           C   tau( 309) = (   0.3810300   0.3093871   0.7995845  )
       310           C   tau( 310) = (   0.2575684   0.3863381   1.2456856  )
       311           C   tau( 311) = (   0.2156330   0.3730194   1.2434191  )
       312           C   tau( 312) = (   0.1987219   0.3618540   1.2044974  )
       313           C   tau( 313) = (   0.1699993   0.3285206   1.2022447  )
       314           C   tau( 314) = (   0.1614524   0.3101433   1.1633266  )
       315           C   tau( 315) = (   0.1544736   0.2667012   1.1610572  )
       316           C   tau( 316) = (   0.1568322   0.2465747   1.1221380  )
       317           C   tau( 317) = (   0.1736929   0.2059336   1.1198905  )
       318           C   tau( 318) = (   0.1862565   0.1900403   1.0809684  )
       319           C   tau( 319) = (   0.2219342   0.1642959   1.0787030  )
       320           C   tau( 320) = (   0.2409656   0.1573637   1.0397817  )
       321           C   tau( 321) = (   0.2848457   0.1541710   1.0375202  )
       322           C   tau( 322) = (   0.3046758   0.1582539   0.9985936  )
       323           C   tau( 323) = (   0.3437026   0.1785697   0.9963318  )
       324           C   tau( 324) = (   0.3584190   0.1924607   0.9574043  )
       325           C   tau( 325) = (   0.3809756   0.2302357   0.9551272  )
       326           C   tau( 326) = (   0.3861907   0.2497894   0.9161968  )
       327           C   tau( 327) = (   0.3855879   0.2937903   0.9139475  )
       328           C   tau( 328) = (   0.3797474   0.3131945   0.8750394  )
       329           C   tau( 329) = (   0.1601384   0.3063368   1.2388283  )
       330           C   tau( 330) = (   0.1546662   0.2626753   1.2365608  )
       331           C   tau( 331) = (   0.1577283   0.2426407   1.1976418  )
       332           C   tau( 332) = (   0.1759845   0.2026073   1.1953928  )
       333           C   tau( 333) = (   0.1890932   0.1871563   1.1564724  )
       334           C   tau( 334) = (   0.2256410   0.1626554   1.1542013  )
       335           C   tau( 335) = (   0.2449049   0.1563910   1.1152816  )
       336           C   tau( 336) = (   0.2888723   0.1547173   1.1130237  )
       337           C   tau( 337) = (   0.3085524   0.1594978   1.0740965  )
       338           C   tau( 338) = (   0.3468558   0.1811453   1.0718285  )
       339           C   tau( 339) = (   0.3610944   0.1955455   1.0329023  )
       340           C   tau( 340) = (   0.3823444   0.2340738   1.0306254  )
       341           C   tau( 341) = (   0.3869028   0.2538047   0.9916988  )
       342           C   tau( 342) = (   0.3847943   0.2977582   0.9894418  )
       343           C   tau( 343) = (   0.3783040   0.3169600   0.9505217  )
       344           C   tau( 344) = (   0.1920183   0.1843774   1.2319758  )
       345           C   tau( 345) = (   0.2293897   0.1611477   1.2297019  )
       346           C   tau( 346) = (   0.2488630   0.1555481   1.1907823  )
       347           C   tau( 347) = (   0.2928635   0.1553937   1.1885274  )
       348           C   tau( 348) = (   0.3123715   0.1608576   1.1496016  )
       349           C   tau( 349) = (   0.3499039   0.1838201   1.1473284  )
       350           C   tau( 350) = (   0.3636444   0.1987054   1.1084049  )
       351           C   tau( 351) = (   0.3835523   0.2379429   1.1061351  )
       352           C   tau( 352) = (   0.3874358   0.2578283   1.0672049  )
       353           C   tau( 353) = (   0.3838100   0.3016775   1.0649451  )
       354           C   tau( 354) = (   0.3766858   0.3206490   1.0260196  )
       355           C   tau( 355) = (   0.3161361   0.1623347   1.2251088  )
       356           C   tau( 356) = (   0.3528568   0.1865813   1.2228316  )
       357           C   tau( 357) = (   0.3660745   0.2019405   1.1839091  )
       358           C   tau( 358) = (   0.3846254   0.2418360   1.1816453  )
       359           C   tau( 359) = (   0.3878256   0.2618496   1.1427166  )
       360           C   tau( 360) = (   0.3826906   0.3055497   1.1404514  )
       361           C   tau( 361) = (   0.3749177   0.3242713   1.1015303  )
       362           C   tau( 362) = (   0.3880683   0.2658723   1.2182321  )
       363           C   tau( 363) = (   0.3814198   0.3093681   1.2159621  )
       364           C   tau( 364) = (   0.3730093   0.3278125   1.1770402  )
       365           Se  tau( 365) = (   0.4534243   0.2947929   0.5546461  )

   Crystallographic axes

     site n.     atom                  positions (cryst. coord.)
         1           C   tau(   1) = (  0.3709649  0.5383020  0.0024687  )
         2           C   tau(   2) = (  0.3687886  0.5438183  0.0629000  )
         3           C   tau(   3) = (  0.3380600  0.5949973  0.0610938  )
         4           C   tau(   4) = (  0.3204964  0.6114068  0.0299398  )
         5           C   tau(   5) = (  0.2778193  0.6287830  0.0281237  )
         6           C   tau(   6) = (  0.3664688  0.5492150  0.1233222  )
         7           C   tau(   7) = (  0.3346861  0.5986537  0.1215210  )
         8           C   tau(   8) = (  0.3167937  0.6140698  0.0903677  )
         9           C   tau(   9) = (  0.2737690  0.6290390  0.0885483  )
        10           C   tau(  10) = (  0.2535560  0.6268828  0.0574010  )
        11           C   tau(  11) = (  0.2121012  0.6029254  0.0555927  )
        12           C   tau(  12) = (  0.1955926  0.5838448  0.0244400  )
        13           C   tau(  13) = (  0.1680345  0.5281058  0.0226324  )
        14           C   tau(  14) = (  0.3640065  0.5544854  0.1837401  )
        15           C   tau(  15) = (  0.3312186  0.6021733  0.1819482  )
        16           C   tau(  16) = (  0.3130234  0.6165571  0.1507962  )
        17           C   tau(  17) = (  0.2697107  0.6291176  0.1489785  )
        18           C   tau(  18) = (  0.2495609  0.6257929  0.1178250  )
        19           C   tau(  19) = (  0.2086489  0.5995161  0.1160225  )
        20           C   tau(  20) = (  0.1925505  0.5795241  0.0848712  )
        21           C   tau(  21) = (  0.1661941  0.5222700  0.0830601  )
        22           C   tau(  22) = (  0.1589423  0.4915256  0.0519144  )
        23           C   tau(  23) = (  0.1549889  0.4203133  0.0501029  )
        24           C   tau(  24) = (  0.1587453  0.3879487  0.0189523  )
        25           C   tau(  25) = (  0.1783760  0.3239585  0.0171484  )
        26           C   tau(  26) = (  0.3614371  0.5596308  0.2441594  )
        27           C   tau(  27) = (  0.3276868  0.6054995  0.2423896  )
        28           C   tau(  28) = (  0.3091910  0.6188646  0.2112260  )
        29           C   tau(  29) = (  0.2656522  0.6289899  0.2094142  )
        30           C   tau(  30) = (  0.2455861  0.6245428  0.1782572  )
        31           C   tau(  31) = (  0.2052578  0.5959463  0.1764566  )
        32           C   tau(  32) = (  0.1896013  0.5750439  0.1453092  )
        33           C   tau(  33) = (  0.1644810  0.5163403  0.1434931  )
        34           C   tau(  34) = (  0.1578915  0.4851980  0.1123423  )
        35           C   tau(  35) = (  0.1554506  0.4138133  0.1105338  )
        36           C   tau(  36) = (  0.1598890  0.3816766  0.0793826  )
        37           C   tau(  37) = (  0.1808602  0.3188144  0.0775755  )
        38           C   tau(  38) = (  0.1950179  0.2952437  0.0464275  )
        39           C   tau(  39) = (  0.2331659  0.2596174  0.0446088  )
        40           C   tau(  40) = (  0.2528332  0.2516172  0.0134605  )
        41           C   tau(  41) = (  0.2968132  0.2538302  0.0116552  )
        42           C   tau(  42) = (  0.3707550  0.5377465  0.3356744  )
        43           C   tau(  43) = (  0.3587737  0.5645293  0.3045534  )
        44           C   tau(  44) = (  0.3241009  0.6083856  0.3028304  )
        45           C   tau(  45) = (  0.3053437  0.6209256  0.2716792  )
        46           C   tau(  46) = (  0.2615925  0.6286118  0.2698710  )
        47           C   tau(  47) = (  0.2416408  0.6230590  0.2387169  )
        48           C   tau(  48) = (  0.2019449  0.5921887  0.2369041  )
        49           C   tau(  49) = (  0.1867615  0.5703926  0.2057460  )
        50           C   tau(  50) = (  0.1629242  0.5103111  0.2039236  )
        51           C   tau(  51) = (  0.1569822  0.4788239  0.1727737  )
        52           C   tau(  52) = (  0.1560556  0.4073356  0.1709681  )
        53           C   tau(  53) = (  0.1611672  0.3754707  0.1398178  )
        54           C   tau(  54) = (  0.1834541  0.3138193  0.1380050  )
        55           C   tau(  55) = (  0.1981025  0.2910527  0.1068523  )
        56           C   tau(  56) = (  0.2369801  0.2575775  0.1050378  )
        57           C   tau(  57) = (  0.2568083  0.2506929  0.0738881  )
        58           C   tau(  58) = (  0.3007161  0.2553724  0.0720828  )
        59           C   tau(  59) = (  0.3198171  0.2664193  0.0409340  )
        60           C   tau(  60) = (  0.3556797  0.3078397  0.0391122  )
        61           C   tau(  61) = (  0.3683813  0.3335165  0.0079630  )
        62           C   tau(  62) = (  0.3855513  0.3993447  0.0061560  )
        63           C   tau(  63) = (  0.3685623  0.5415838  0.3960725  )
        64           C   tau(  64) = (  0.3559057  0.5682505  0.3650532  )
        65           C   tau(  65) = (  0.3203548  0.6102714  0.3633135  )
        66           C   tau(  66) = (  0.3014490  0.6222916  0.3322112  )
        67           C   tau(  67) = (  0.2575525  0.6277318  0.3303710  )
        68           C   tau(  68) = (  0.2377349  0.6212190  0.2991806  )
        69           C   tau(  69) = (  0.1987238  0.5881943  0.2973472  )
        70           C   tau(  70) = (  0.1840007  0.5656125  0.2661840  )
        71           C   tau(  71) = (  0.1614608  0.5041944  0.2643576  )
        72           C   tau(  72) = (  0.1562158  0.4723961  0.2332115  )
        73           C   tau(  73) = (  0.1568029  0.4008975  0.2314053  )
        74           C   tau(  74) = (  0.1625902  0.3693408  0.2002502  )
        75           C   tau(  75) = (  0.1861583  0.3089724  0.1984309  )
        76           C   tau(  76) = (  0.2012654  0.2870253  0.1672847  )
        77           C   tau(  77) = (  0.2408294  0.2557061  0.1654805  )
        78           C   tau(  78) = (  0.2607915  0.2499604  0.1343198  )
        79           C   tau(  79) = (  0.3045667  0.2570910  0.1325101  )
        80           C   tau(  80) = (  0.3234345  0.2692101  0.1013622  )
        81           C   tau(  81) = (  0.3583996  0.3126146  0.0995409  )
        82           C   tau(  82) = (  0.3705530  0.3390027  0.0683944  )
        83           C   tau(  83) = (  0.3863175  0.4057528  0.0665900  )
        84           C   tau(  84) = (  0.3881502  0.4385645  0.0354391  )
        85           C   tau(  85) = (  0.3799997  0.5088207  0.0336191  )
        86           C   tau(  86) = (  0.3674523  0.5496192  0.4566818  )
        87           C   tau(  87) = (  0.3532560  0.5721622  0.4258382  )
        88           C   tau(  88) = (  0.3165410  0.6116805  0.4238437  )
        89           C   tau(  89) = (  0.2973730  0.6225142  0.3926798  )
        90           C   tau(  90) = (  0.2535402  0.6262007  0.3908159  )
        91           C   tau(  91) = (  0.2338222  0.6190407  0.3596235  )
        92           C   tau(  92) = (  0.1954531  0.5840300  0.3577831  )
        93           C   tau(  93) = (  0.1812863  0.5606264  0.3266296  )
        94           C   tau(  94) = (  0.1600863  0.4979569  0.3248013  )
        95           C   tau(  95) = (  0.1555663  0.4658963  0.2936391  )
        96           C   tau(  96) = (  0.1576662  0.3944960  0.2918295  )
        97           C   tau(  97) = (  0.1641046  0.3632768  0.2606805  )
        98           C   tau(  98) = (  0.1889344  0.3042265  0.2588590  )
        99           C   tau(  99) = (  0.2045256  0.2831725  0.2277199  )
       100           C   tau( 100) = (  0.2447183  0.2540531  0.2259260  )
       101           C   tau( 101) = (  0.2647814  0.2493872  0.1947559  )
       102           C   tau( 102) = (  0.3083902  0.2589403  0.1929462  )
       103           C   tau( 103) = (  0.3269753  0.2721599  0.1617972  )
       104           C   tau( 104) = (  0.3609867  0.3175296  0.1599739  )
       105           C   tau( 105) = (  0.3725808  0.3446006  0.1288238  )
       106           C   tau( 106) = (  0.3869013  0.4121971  0.1270144  )
       107           C   tau( 107) = (  0.3880665  0.4450980  0.0958684  )
       108           C   tau( 108) = (  0.3784364  0.5148642  0.0940481  )
       109           C   tau( 109) = (  0.3645212  0.5546388  0.5173147  )
       110           C   tau( 110) = (  0.3504626  0.5774778  0.4858293  )
       111           C   tau( 111) = (  0.3128293  0.6146304  0.4840788  )
       112           C   tau( 112) = (  0.2934310  0.6239418  0.4530277  )
       113           C   tau( 113) = (  0.2493267  0.6254456  0.4512066  )
       114           C   tau( 114) = (  0.2298761  0.6167059  0.4201037  )
       115           C   tau( 115) = (  0.1922385  0.5796869  0.4182460  )
       116           C   tau( 116) = (  0.1786262  0.5554447  0.3870635  )
       117           C   tau( 117) = (  0.1588363  0.4916536  0.3852386  )
       118           C   tau( 118) = (  0.1549851  0.4593674  0.3540763  )
       119           C   tau( 119) = (  0.1586031  0.3880892  0.3522640  )
       120           C   tau( 120) = (  0.1657246  0.3572780  0.3211204  )
       121           C   tau( 121) = (  0.1917490  0.2996051  0.3192955  )
       122           C   tau( 122) = (  0.2078134  0.2794587  0.2881456  )
       123           C   tau( 123) = (  0.2486038  0.2526502  0.2863559  )
       124           C   tau( 124) = (  0.2687669  0.2490486  0.2552179  )
       125           C   tau( 125) = (  0.3121886  0.2610199  0.2534197  )
       126           C   tau( 126) = (  0.3304597  0.2752775  0.2222351  )
       127           C   tau( 127) = (  0.3634460  0.3225630  0.2204003  )
       128           C   tau( 128) = (  0.3744585  0.3502845  0.1892501  )
       129           C   tau( 129) = (  0.3873174  0.4186689  0.1874239  )
       130           C   tau( 130) = (  0.3877902  0.4516188  0.1562900  )
       131           C   tau( 131) = (  0.3766916  0.5208073  0.1544772  )
       132           C   tau( 132) = (  0.3615246  0.5595181  0.5776639  )
       133           C   tau( 133) = (  0.3476054  0.5831419  0.5463474  )
       134           C   tau( 134) = (  0.3092093  0.6185391  0.5445281  )
       135           C   tau( 135) = (  0.2894983  0.6257781  0.5134039  )
       136           C   tau( 136) = (  0.2455266  0.6241417  0.5116193  )
       137           C   tau( 137) = (  0.2260929  0.6144234  0.4804814  )
       138           C   tau( 138) = (  0.1892983  0.5751876  0.4786615  )
       139           C   tau( 139) = (  0.1760717  0.5502861  0.4475256  )
       140           C   tau( 140) = (  0.1576549  0.4852462  0.4457016  )
       141           C   tau( 141) = (  0.1545716  0.4527734  0.4145516  )
       142           C   tau( 142) = (  0.1596962  0.3817468  0.4127267  )
       143           C   tau( 143) = (  0.1674462  0.3513412  0.3815539  )
       144           C   tau( 144) = (  0.1946095  0.2951246  0.3797219  )
       145           C   tau( 145) = (  0.2110688  0.2758297  0.3485834  )
       146           C   tau( 146) = (  0.2524705  0.2514306  0.3467909  )
       147           C   tau( 147) = (  0.2727503  0.2491483  0.3156823  )
       148           C   tau( 148) = (  0.3158674  0.2636303  0.3139026  )
       149           C   tau( 149) = (  0.3338818  0.2785974  0.2826807  )
       150           C   tau( 150) = (  0.3658960  0.3276965  0.2808369  )
       151           C   tau( 151) = (  0.3762221  0.3560608  0.2496807  )
       152           C   tau( 152) = (  0.3875645  0.4251408  0.2478128  )
       153           C   tau( 153) = (  0.3873335  0.4581152  0.2166806  )
       154           C   tau( 154) = (  0.3747965  0.5266353  0.2148862  )
       155           C   tau( 155) = (  0.3588392  0.5644680  0.6380417  )
       156           C   tau( 156) = (  0.3442726  0.5873700  0.6068882  )
       157           C   tau( 157) = (  0.3054003  0.6209223  0.6050305  )
       158           C   tau( 158) = (  0.2856024  0.6275654  0.5737996  )
       159           C   tau( 159) = (  0.2416696  0.6228723  0.5720325  )
       160           C   tau( 160) = (  0.2225108  0.6118836  0.5409214  )
       161           C   tau( 161) = (  0.1865837  0.5704916  0.5391120  )
       162           C   tau( 162) = (  0.1738771  0.5447636  0.5079778  )
       163           C   tau( 163) = (  0.1568637  0.4788591  0.5061617  )
       164           C   tau( 164) = (  0.1543455  0.4461905  0.4749895  )
       165           C   tau( 165) = (  0.1609927  0.3754991  0.4731609  )
       166           C   tau( 166) = (  0.1692596  0.3455142  0.4420144  )
       167           C   tau( 167) = (  0.1976213  0.2907185  0.4401849  )
       168           C   tau( 168) = (  0.2144417  0.2724294  0.4090406  )
       169           C   tau( 169) = (  0.2563269  0.2504784  0.4072340  )
       170           C   tau( 170) = (  0.2766569  0.2495406  0.3760973  )
       171           C   tau( 171) = (  0.3193072  0.2669974  0.3743001  )
       172           C   tau( 172) = (  0.3371325  0.2825139  0.3431812  )
       173           C   tau( 173) = (  0.3683848  0.3331800  0.3413852  )
       174           C   tau( 174) = (  0.3779829  0.3619543  0.3100691  )
       175           C   tau( 175) = (  0.3877226  0.4315433  0.3081126  )
       176           C   tau( 176) = (  0.3867688  0.4645608  0.2770314  )
       177           C   tau( 177) = (  0.3728444  0.5324060  0.2752798  )
       178           C   tau( 178) = (  0.3561932  0.5693236  0.6984645  )
       179           C   tau( 179) = (  0.3410544  0.5912856  0.6673177  )
       180           C   tau( 180) = (  0.3015367  0.6226706  0.6654797  )
       181           C   tau( 181) = (  0.2816016  0.6285139  0.6342874  )
       182           C   tau( 182) = (  0.2377860  0.6212761  0.6324963  )
       183           C   tau( 183) = (  0.2189529  0.6090777  0.6013561  )
       184           C   tau( 184) = (  0.1840051  0.5656368  0.5995517  )
       185           C   tau( 185) = (  0.1718268  0.5392577  0.5684013  )
       186           C   tau( 186) = (  0.1561535  0.4724380  0.5665977  )
       187           C   tau( 187) = (  0.1543327  0.4396373  0.5354564  )
       188           C   tau( 188) = (  0.1624776  0.3693570  0.5336348  )
       189           C   tau( 189) = (  0.1714482  0.3398610  0.5024776  )
       190           C   tau( 190) = (  0.2009293  0.2868603  0.5006587  )
       191           C   tau( 191) = (  0.2180027  0.2693286  0.4694682  )
       192           C   tau( 192) = (  0.2603371  0.2498554  0.4676180  )
       193           C   tau( 193) = (  0.2805220  0.2498608  0.4365136  )
       194           C   tau( 194) = (  0.3227878  0.2703920  0.4346829  )
       195           C   tau( 195) = (  0.3399685  0.2877906  0.4036332  )
       196           C   tau( 196) = (  0.3701984  0.3398224  0.4019102  )
       197           C   tau( 197) = (  0.3800533  0.3679100  0.3704275  )
       198           C   tau( 198) = (  0.3885372  0.4382036  0.3683666  )
       199           C   tau( 199) = (  0.3861870  0.4709437  0.3373335  )
       200           C   tau( 200) = (  0.3534591  0.5740499  0.7588865  )
       201           C   tau( 201) = (  0.3378597  0.5951247  0.7277376  )
       202           C   tau( 202) = (  0.2976596  0.6242114  0.7259230  )
       203           C   tau( 203) = (  0.2775841  0.6289121  0.6947680  )
       204           C   tau( 204) = (  0.2339806  0.6192759  0.6929568  )
       205           C   tau( 205) = (  0.2154103  0.6060871  0.6617878  )
       206           C   tau( 206) = (  0.1814204  0.5606637  0.6599867  )
       207           C   tau( 207) = (  0.1698404  0.5336263  0.6288423  )
       208           C   tau( 208) = (  0.1555459  0.4659882  0.6270405  )
       209           C   tau( 209) = (  0.1544506  0.4330935  0.5958940  )
       210           C   tau( 210) = (  0.1640954  0.3633542  0.5940722  )
       211           C   tau( 211) = (  0.1736877  0.3343626  0.5629155  )
       212           C   tau( 212) = (  0.2043492  0.2830563  0.5611039  )
       213           C   tau( 213) = (  0.2218231  0.2665706  0.5299452  )
       214           C   tau( 214) = (  0.2645265  0.2493165  0.5281032  )
       215           C   tau( 215) = (  0.2847047  0.2509082  0.4969093  )
       216           C   tau( 216) = (  0.3263533  0.2734096  0.4950431  )
       217           C   tau( 217) = (  0.3430554  0.2921640  0.4638757  )
       218           C   tau( 218) = (  0.3719934  0.3461121  0.4619060  )
       219           C   tau( 219) = (  0.3820275  0.3739722  0.4310685  )
       220           C   tau( 220) = (  0.3954587  0.4444826  0.4288159  )
       221           C   tau( 221) = (  0.3867406  0.4775865  0.3973571  )
       222           C   tau( 222) = (  0.3505949  0.5786096  0.8193143  )
       223           C   tau( 223) = (  0.3345598  0.5987854  0.7881671  )
       224           C   tau( 224) = (  0.2937555  0.6255449  0.7863634  )
       225           C   tau( 225) = (  0.2735873  0.6290727  0.7552114  )
       226           C   tau( 226) = (  0.2302189  0.6170226  0.7533959  )
       227           C   tau( 227) = (  0.2119250  0.6028555  0.7222358  )
       228           C   tau( 228) = (  0.1789056  0.5555647  0.7204337  )
       229           C   tau( 229) = (  0.1679286  0.5278807  0.6892826  )
       230           C   tau( 230) = (  0.1550609  0.4595131  0.6874760  )
       231           C   tau( 231) = (  0.1546442  0.4265834  0.6563229  )
       232           C   tau( 232) = (  0.1657707  0.3574018  0.6545045  )
       233           C   tau( 233) = (  0.1760278  0.3289953  0.6233611  )
       234           C   tau( 234) = (  0.2077788  0.2794768  0.6215572  )
       235           C   tau( 235) = (  0.2256534  0.2639995  0.5903933  )
       236           C   tau( 236) = (  0.2686514  0.2489315  0.5885510  )
       237           C   tau( 237) = (  0.2888226  0.2511756  0.5573610  )
       238           C   tau( 238) = (  0.3302467  0.2753868  0.5555251  )
       239           C   tau( 239) = (  0.3465037  0.2951399  0.5244147  )
       240           C   tau( 240) = (  0.3738910  0.3510178  0.5226884  )
       241           C   tau( 241) = (  0.3817464  0.3821899  0.4916762  )
       242           C   tau( 242) = (  0.3888418  0.4517255  0.4903863  )
       243           C   tau( 243) = (  0.3918830  0.4873976  0.4589286  )
       244           C   tau( 244) = (  0.3476196  0.5829952  0.8797507  )
       245           C   tau( 245) = (  0.3311698  0.6022548  0.8485972  )
       246           C   tau( 246) = (  0.2898219  0.6266914  0.8467962  )
       247           C   tau( 247) = (  0.2695939  0.6290731  0.8156462  )
       248           C   tau( 248) = (  0.2265036  0.6145882  0.8138297  )
       249           C   tau( 249) = (  0.2085136  0.5993880  0.7826807  )
       250           C   tau( 250) = (  0.1765097  0.5503152  0.7808789  )
       251           C   tau( 251) = (  0.1661199  0.5220471  0.7497183  )
       252           C   tau( 252) = (  0.1546955  0.4529956  0.7479096  )
       253           C   tau( 253) = (  0.1549686  0.4200698  0.7167627  )
       254           C   tau( 254) = (  0.1675430  0.3515442  0.7149500  )
       255           C   tau( 255) = (  0.1784217  0.3237480  0.6837992  )
       256           C   tau( 256) = (  0.2112140  0.2760878  0.6819978  )
       257           C   tau( 257) = (  0.2294103  0.2615941  0.6508428  )
       258           C   tau( 258) = (  0.2727190  0.2489153  0.6490173  )
       259           C   tau( 259) = (  0.2928613  0.2521244  0.6178635  )
       260           C   tau( 260) = (  0.3337784  0.2784339  0.6160677  )
       261           C   tau( 261) = (  0.3498047  0.2986058  0.5849080  )
       262           C   tau( 262) = (  0.3760423  0.3558740  0.5831829  )
       263           C   tau( 263) = (  0.3832108  0.3868527  0.5520664  )
       264           C   tau( 264) = (  0.3871795  0.4579120  0.5504058  )
       265           C   tau( 265) = (  0.3841299  0.4904877  0.5193704  )
       266           C   tau( 266) = (  0.3445315  0.5871803  0.9401857  )
       267           C   tau( 267) = (  0.3276912  0.6055214  0.9090320  )
       268           C   tau( 268) = (  0.2858482  0.6276283  0.9072269  )
       269           C   tau( 269) = (  0.2655863  0.6288682  0.8760789  )
       270           C   tau( 270) = (  0.2228360  0.6119661  0.8742614  )
       271           C   tau( 271) = (  0.2051834  0.5957540  0.8431126  )
       272           C   tau( 272) = (  0.1742296  0.5449391  0.8413130  )
       273           C   tau( 273) = (  0.1644249  0.5161108  0.8101590  )
       274           C   tau( 274) = (  0.1544689  0.4464580  0.8083468  )
       275           C   tau( 275) = (  0.1554408  0.4135654  0.7771982  )
       276           C   tau( 276) = (  0.1694562  0.3457945  0.7753920  )
       277           C   tau( 277) = (  0.1808976  0.3186183  0.7442369  )
       278           C   tau( 278) = (  0.2147008  0.2728411  0.7424354  )
       279           C   tau( 279) = (  0.2332089  0.2594236  0.7112922  )
       280           C   tau( 280) = (  0.2767624  0.2492481  0.7094779  )
       281           C   tau( 281) = (  0.2968360  0.2535834  0.6783217  )
       282           C   tau( 282) = (  0.3371524  0.2821550  0.6765256  )
       283           C   tau( 283) = (  0.3527944  0.3029859  0.6453553  )
       284           C   tau( 284) = (  0.3778194  0.3617899  0.6435718  )
       285           C   tau( 285) = (  0.3843510  0.3929415  0.6124525  )
       286           C   tau( 286) = (  0.3866903  0.4643575  0.6107035  )
       287           C   tau( 287) = (  0.3822339  0.4965907  0.5796195  )
       288           C   tau( 288) = (  0.3413440  0.5911749  0.0006603  )
       289           C   tau( 289) = (  0.3241350  0.6085736  0.9694683  )
       290           C   tau( 290) = (  0.2818483  0.6283286  0.9676572  )
       291           C   tau( 291) = (  0.2615765  0.6284406  0.9365091  )
       292           C   tau( 292) = (  0.2192103  0.6091558  0.9346920  )
       293           C   tau( 293) = (  0.2019166  0.5919641  0.9035429  )
       294           C   tau( 294) = (  0.1720622  0.5394387  0.9017432  )
       295           C   tau( 295) = (  0.1628798  0.5100765  0.8705955  )
       296           C   tau( 296) = (  0.1544051  0.4399199  0.8687797  )
       297           C   tau( 297) = (  0.1560616  0.4070963  0.8376297  )
       298           C   tau( 298) = (  0.1715070  0.3401507  0.8358286  )
       299           C   tau( 299) = (  0.1835113  0.3136286  0.8046781  )
       300           C   tau( 300) = (  0.2182806  0.2698055  0.8028722  )
       301           C   tau( 301) = (  0.2370597  0.2574685  0.7717247  )
       302           C   tau( 302) = (  0.2807995  0.2498062  0.7699138  )
       303           C   tau( 303) = (  0.3007627  0.2552812  0.7387565  )
       304           C   tau( 304) = (  0.3404596  0.2861055  0.7369520  )
       305           C   tau( 305) = (  0.3556511  0.3077971  0.7057982  )
       306           C   tau( 306) = (  0.3794641  0.3679267  0.7039856  )
       307           C   tau( 307) = (  0.3853086  0.3993997  0.6728380  )
       308           C   tau( 308) = (  0.3861941  0.4708690  0.6710515  )
       309           C   tau( 309) = (  0.3810300  0.5027346  0.6399166  )
       310           C   tau( 310) = (  0.2575684  0.6277751  0.9969365  )
       311           C   tau( 311) = (  0.2156330  0.6061330  0.9951226  )
       312           C   tau( 312) = (  0.1987219  0.5879900  0.9639732  )
       313           C   tau( 313) = (  0.1699993  0.5338252  0.9621703  )
       314           C   tau( 314) = (  0.1614524  0.5039632  0.9310237  )
       315           C   tau( 315) = (  0.1544736  0.4333727  0.9292074  )
       316           C   tau( 316) = (  0.1568322  0.4006683  0.8980600  )
       317           C   tau( 317) = (  0.1736929  0.3346291  0.8962613  )
       318           C   tau( 318) = (  0.1862565  0.3088034  0.8651114  )
       319           C   tau( 319) = (  0.2219342  0.2669705  0.8632984  )
       320           C   tau( 320) = (  0.2409656  0.2557061  0.8321493  )
       321           C   tau( 321) = (  0.2848457  0.2505181  0.8303393  )
       322           C   tau( 322) = (  0.3046758  0.2571526  0.7991860  )
       323           C   tau( 323) = (  0.3437026  0.2901645  0.7973758  )
       324           C   tau( 324) = (  0.3584190  0.3127365  0.7662217  )
       325           C   tau( 325) = (  0.3809756  0.3741184  0.7643993  )
       326           C   tau( 326) = (  0.3861907  0.4058921  0.7332429  )
       327           C   tau( 327) = (  0.3855879  0.4773907  0.7314427  )
       328           C   tau( 328) = (  0.3797474  0.5089213  0.7003041  )
       329           C   tau( 329) = (  0.1601384  0.4977779  0.9914485  )
       330           C   tau( 330) = (  0.1546662  0.4268307  0.9896339  )
       331           C   tau( 331) = (  0.1577283  0.3942758  0.9584865  )
       332           C   tau( 332) = (  0.1759845  0.3292240  0.9566866  )
       333           C   tau( 333) = (  0.1890932  0.3041172  0.9255382  )
       334           C   tau( 334) = (  0.2256410  0.2643047  0.9237206  )
       335           C   tau( 335) = (  0.2449049  0.2541255  0.8925727  )
       336           C   tau( 336) = (  0.2888723  0.2514059  0.8907657  )
       337           C   tau( 337) = (  0.3085524  0.2591738  0.8596118  )
       338           C   tau( 338) = (  0.3468558  0.2943496  0.8577967  )
       339           C   tau( 339) = (  0.3610944  0.3177492  0.8266436  )
       340           C   tau( 340) = (  0.3823444  0.3803552  0.8248213  )
       341           C   tau( 341) = (  0.3869028  0.4124165  0.7936680  )
       342           C   tau( 342) = (  0.3847943  0.4838382  0.7918617  )
       343           C   tau( 343) = (  0.3783040  0.5150399  0.7607134  )
       344           C   tau( 344) = (  0.1920183  0.2996016  0.9859645  )
       345           C   tau( 345) = (  0.2293897  0.2618548  0.9841446  )
       346           C   tau( 346) = (  0.2488630  0.2527558  0.9529968  )
       347           C   tau( 347) = (  0.2928635  0.2525050  0.9511922  )
       348           C   tau( 348) = (  0.3123715  0.2613835  0.9200394  )
       349           C   tau( 349) = (  0.3499039  0.2986961  0.9182202  )
       350           C   tau( 350) = (  0.3636444  0.3228837  0.8870692  )
       351           C   tau( 351) = (  0.3835523  0.3866422  0.8852527  )
       352           C   tau( 352) = (  0.3874358  0.4189547  0.8540964  )
       353           C   tau( 353) = (  0.3838100  0.4902068  0.8522878  )
       354           C   tau( 354) = (  0.3766858  0.5210343  0.8211353  )
       355           C   tau( 355) = (  0.3161361  0.2637837  0.9804686  )
       356           C   tau( 356) = (  0.3528568  0.3031828  0.9786462  )
       357           C   tau( 357) = (  0.3660745  0.3281405  0.9474961  )
       358           C   tau( 358) = (  0.3846254  0.3929682  0.9456843  )
       359           C   tau( 359) = (  0.3878256  0.4254890  0.9145293  )
       360           C   tau( 360) = (  0.3826906  0.4964990  0.9127164  )
       361           C   tau( 361) = (  0.3749177  0.5269204  0.8815673  )
       362           C   tau( 362) = (  0.3880683  0.4320258  0.9749652  )
       363           C   tau( 363) = (  0.3814198  0.5027037  0.9731485  )
       364           C   tau( 364) = (  0.3730093  0.5326746  0.9419989  )
       365           Se  tau( 365) = (  0.4534243  0.4790198  0.4438896  )

     number of k points=     2
                       cart. coord. in units 2pi/alat
        k(    1) = (   0.0000000   0.0000000   0.0000000), wk =   1.0000000
        k(    2) = (   0.0000000   0.0000000   0.4001558), wk =   1.0000000

                       cryst. coord.
        k(    1) = (   0.0000000   0.0000000   0.0000000), wk =   1.0000000
        k(    2) = (   0.0000000   0.0000000   0.5000000), wk =   1.0000000

     Dense  grid: 11053081 G-vectors     FFT dimensions: ( 320, 192, 384)

     Dynamical RAM for                 wfc:      40.19 MB

     Dynamical RAM for     wfc (w. buffer):      40.19 MB

     Dynamical RAM for           str. fact:       0.88 MB

     Dynamical RAM for           local pot:       0.00 MB

     Dynamical RAM for          nlocal pot:     160.86 MB

     Dynamical RAM for                qrad:       2.49 MB

     Dynamical RAM for          rho,v,vnew:       2.72 MB

     Dynamical RAM for               rhoin:       0.91 MB

     Dynamical RAM for            rho*nmix:       7.03 MB

     Dynamical RAM for           G-vectors:       1.87 MB

     Dynamical RAM for          h,s,v(r/c):       8.00 MB

     Dynamical RAM for          <psi|beta>:      32.73 MB

     Dynamical RAM for                 psi:     160.75 MB

     Dynamical RAM for                hpsi:     160.75 MB

     Dynamical RAM for      wfcinit/wfcrot:      92.64 MB

     Estimated static dynamical RAM per process >     213.57 MB

     Estimated max dynamical RAM per process >     582.83 MB

     Estimated total dynamical RAM >     434.48 GB

     Initial potential from superposition of free atoms

     starting charge    1459.4463, renormalised to    1462.0000

     negative rho (up, down):  1.529E-02 0.000E+00
     Starting wfcs are random

     total cpu time spent up to now is      115.1 secs

     Self-consistent Calculation

     iteration #  1     ecut=    60.00 Ry     beta= 0.70
     Davidson diagonalization with overlap

---- Real-time Memory Report at c_bands before calling an iterative solver
           539 MiB given to the printing process from OS
             0 MiB allocation reported by mallinfo(arena+hblkhd)
        467756 MiB available memory on the node where the printing process lives
------------------
     ethr =  1.00E-02,  avg # of iterations = 12.0

     negative rho (up, down):  5.039E-06 0.000E+00

     total cpu time spent up to now is     1784.1 secs

     total energy              =   -4156.17395668 Ry
     estimated scf accuracy    <      38.95113300 Ry

     iteration #  2     ecut=    60.00 Ry     beta= 0.70
     Davidson diagonalization with overlap

---- Real-time Memory Report at c_bands before calling an iterative solver
           835 MiB given to the printing process from OS
             0 MiB allocation reported by mallinfo(arena+hblkhd)
        465808 MiB available memory on the node where the printing process lives
------------------
     ethr =  2.66E-03,  avg # of iterations =  7.0

     negative rho (up, down):  9.094E-07 0.000E+00

     total cpu time spent up to now is     2301.7 secs

     total energy              =   -4135.39616246 Ry
     estimated scf accuracy    <      93.87816531 Ry

     iteration #  3     ecut=    60.00 Ry     beta= 0.70
     Davidson diagonalization with overlap

---- Real-time Memory Report at c_bands before calling an iterative solver
           835 MiB given to the printing process from OS
             0 MiB allocation reported by mallinfo(arena+hblkhd)
        465758 MiB available memory on the node where the printing process lives
------------------
     ethr =  2.66E-03,  avg # of iterations = 14.5

     negative rho (up, down):  2.115E-07 0.000E+00

     total cpu time spent up to now is     2912.3 secs

     total energy              =   -4090.81510782 Ry
     estimated scf accuracy    <    1531.90220103 Ry

     iteration #  4     ecut=    60.00 Ry     beta= 0.70
     Davidson diagonalization with overlap

---- Real-time Memory Report at c_bands before calling an iterative solver
           835 MiB given to the printing process from OS
             0 MiB allocation reported by mallinfo(arena+hblkhd)
        465912 MiB available memory on the node where the printing process lives
------------------
     ethr =  2.66E-03,  avg # of iterations = 12.0

     negative rho (up, down):  2.839E-08 0.000E+00

     total cpu time spent up to now is     3767.8 secs

     total energy              =   -4142.81422543 Ry
     estimated scf accuracy    <     315.80655822 Ry

     iteration #  5     ecut=    60.00 Ry     beta= 0.70
     Davidson diagonalization with overlap

---- Real-time Memory Report at c_bands before calling an iterative solver
           835 MiB given to the printing process from OS
             0 MiB allocation reported by mallinfo(arena+hblkhd)
        465752 MiB available memory on the node where the printing process lives
------------------
     ethr =  2.66E-03,  avg # of iterations =  9.0

     total cpu time spent up to now is     4251.7 secs

     total energy              =   -4153.41608564 Ry
     estimated scf accuracy    <     149.29063629 Ry

     iteration #  6     ecut=    60.00 Ry     beta= 0.70
     Davidson diagonalization with overlap

---- Real-time Memory Report at c_bands before calling an iterative solver
           835 MiB given to the printing process from OS
             0 MiB allocation reported by mallinfo(arena+hblkhd)
        465713 MiB available memory on the node where the printing process lives
------------------
     ethr =  2.66E-03,  avg # of iterations =  8.5

     total cpu time spent up to now is     4635.3 secs

     total energy              =   -4164.67381603 Ry
     estimated scf accuracy    <       7.73411552 Ry

     iteration #  7     ecut=    60.00 Ry     beta= 0.70
     Davidson diagonalization with overlap

---- Real-time Memory Report at c_bands before calling an iterative solver
           835 MiB given to the printing process from OS
             0 MiB allocation reported by mallinfo(arena+hblkhd)
        465635 MiB available memory on the node where the printing process lives
------------------
     ethr =  5.29E-04,  avg # of iterations =  6.0

     total cpu time spent up to now is     4944.4 secs

     total energy              =   -4165.42874905 Ry
     estimated scf accuracy    <       0.90171400 Ry

     iteration #  8     ecut=    60.00 Ry     beta= 0.70
     Davidson diagonalization with overlap

---- Real-time Memory Report at c_bands before calling an iterative solver
           835 MiB given to the printing process from OS
             0 MiB allocation reported by mallinfo(arena+hblkhd)
        465565 MiB available memory on the node where the printing process lives
------------------
     ethr =  6.17E-05,  avg # of iterations =  7.0

     total cpu time spent up to now is     5242.6 secs

     total energy              =   -4165.43432906 Ry
     estimated scf accuracy    <       0.56776949 Ry

     iteration #  9     ecut=    60.00 Ry     beta= 0.70
     Davidson diagonalization with overlap

---- Real-time Memory Report at c_bands before calling an iterative solver
           835 MiB given to the printing process from OS
             0 MiB allocation reported by mallinfo(arena+hblkhd)
        465580 MiB available memory on the node where the printing process lives
------------------
     ethr =  3.88E-05,  avg # of iterations =  6.0

     total cpu time spent up to now is     5509.1 secs

     total energy              =   -4165.38445847 Ry
     estimated scf accuracy    <       0.35410361 Ry

     iteration # 10     ecut=    60.00 Ry     beta= 0.70
     Davidson diagonalization with overlap

---- Real-time Memory Report at c_bands before calling an iterative solver
           835 MiB given to the printing process from OS
             0 MiB allocation reported by mallinfo(arena+hblkhd)
        465418 MiB available memory on the node where the printing process lives
------------------
     ethr =  2.42E-05,  avg # of iterations =  6.5

     negative rho (up, down):  4.445E-07 0.000E+00

     total cpu time spent up to now is     5796.3 secs

     total energy              =   -4165.39660515 Ry
     estimated scf accuracy    <       0.11046001 Ry

     iteration # 11     ecut=    60.00 Ry     beta= 0.70
     Davidson diagonalization with overlap

---- Real-time Memory Report at c_bands before calling an iterative solver
           835 MiB given to the printing process from OS
             0 MiB allocation reported by mallinfo(arena+hblkhd)
        465407 MiB available memory on the node where the printing process lives
------------------
     ethr =  7.56E-06,  avg # of iterations =  6.5

     negative rho (up, down):  1.268E-04 0.000E+00

     total cpu time spent up to now is     6083.3 secs

     total energy              =   -4165.39872328 Ry
     estimated scf accuracy    <       0.06208065 Ry

     iteration # 12     ecut=    60.00 Ry     beta= 0.70
     Davidson diagonalization with overlap

---- Real-time Memory Report at c_bands before calling an iterative solver
           835 MiB given to the printing process from OS
             0 MiB allocation reported by mallinfo(arena+hblkhd)
        465314 MiB available memory on the node where the printing process lives
------------------
     ethr =  4.25E-06,  avg # of iterations =  6.0

     negative rho (up, down):  3.898E-04 0.000E+00

     total cpu time spent up to now is     6354.3 secs

     total energy              =   -4165.38820873 Ry
     estimated scf accuracy    <       0.03871071 Ry

     iteration # 13     ecut=    60.00 Ry     beta= 0.70
     Davidson diagonalization with overlap

---- Real-time Memory Report at c_bands before calling an iterative solver
           835 MiB given to the printing process from OS
             0 MiB allocation reported by mallinfo(arena+hblkhd)
        465365 MiB available memory on the node where the printing process lives
------------------
     ethr =  2.65E-06,  avg # of iterations = 13.5

     negative rho (up, down):  2.562E-04 0.000E+00

     total cpu time spent up to now is     6743.2 secs

     total energy              =   -4165.38758355 Ry
     estimated scf accuracy    <       0.05502616 Ry

     iteration # 14     ecut=    60.00 Ry     beta= 0.70
     Davidson diagonalization with overlap

---- Real-time Memory Report at c_bands before calling an iterative solver
           835 MiB given to the printing process from OS
             0 MiB allocation reported by mallinfo(arena+hblkhd)
        465265 MiB available memory on the node where the printing process lives
------------------
     ethr =  2.65E-06,  avg # of iterations = 12.0

     total cpu time spent up to now is     7079.1 secs

     total energy              =   -4165.39190105 Ry
     estimated scf accuracy    <       0.00859893 Ry

     iteration # 15     ecut=    60.00 Ry     beta= 0.70
     Davidson diagonalization with overlap

---- Real-time Memory Report at c_bands before calling an iterative solver
           835 MiB given to the printing process from OS
             0 MiB allocation reported by mallinfo(arena+hblkhd)
        465258 MiB available memory on the node where the printing process lives
------------------
     ethr =  5.88E-07,  avg # of iterations = 10.0

     total cpu time spent up to now is     7532.2 secs

     total energy              =   -4165.39259149 Ry
     estimated scf accuracy    <       0.01850593 Ry

     iteration # 16     ecut=    60.00 Ry     beta= 0.70
     Davidson diagonalization with overlap

---- Real-time Memory Report at c_bands before calling an iterative solver
           835 MiB given to the printing process from OS
             0 MiB allocation reported by mallinfo(arena+hblkhd)
        465071 MiB available memory on the node where the printing process lives
------------------
     ethr =  5.88E-07,  avg # of iterations = 11.0

     total cpu time spent up to now is     7920.8 secs

     total energy              =   -4165.39534419 Ry
     estimated scf accuracy    <       0.00046922 Ry

     iteration # 17     ecut=    60.00 Ry     beta= 0.70
     Davidson diagonalization with overlap

---- Real-time Memory Report at c_bands before calling an iterative solver
           835 MiB given to the printing process from OS
             0 MiB allocation reported by mallinfo(arena+hblkhd)
        464950 MiB available memory on the node where the printing process lives
------------------
     ethr =  3.21E-08,  avg # of iterations = 10.0

     total cpu time spent up to now is     8346.9 secs

     total energy              =   -4165.39546175 Ry
     estimated scf accuracy    <       0.00004364 Ry

     iteration # 18     ecut=    60.00 Ry     beta= 0.70
     Davidson diagonalization with overlap

---- Real-time Memory Report at c_bands before calling an iterative solver
           835 MiB given to the printing process from OS
             0 MiB allocation reported by mallinfo(arena+hblkhd)
        464795 MiB available memory on the node where the printing process lives
------------------
     ethr =  2.99E-09,  avg # of iterations =  8.5

     total cpu time spent up to now is     8800.3 secs

     total energy              =   -4165.39547007 Ry
     estimated scf accuracy    <       0.00001763 Ry

     iteration # 19     ecut=    60.00 Ry     beta= 0.70
     Davidson diagonalization with overlap

---- Real-time Memory Report at c_bands before calling an iterative solver
           835 MiB given to the printing process from OS
             0 MiB allocation reported by mallinfo(arena+hblkhd)
        464589 MiB available memory on the node where the printing process lives
------------------
     ethr =  1.21E-09,  avg # of iterations =  8.0

     total cpu time spent up to now is     9196.1 secs

     total energy              =   -4165.39547338 Ry
     estimated scf accuracy    <       0.00000598 Ry

     iteration # 20     ecut=    60.00 Ry     beta= 0.70
     Davidson diagonalization with overlap

---- Real-time Memory Report at c_bands before calling an iterative solver
           835 MiB given to the printing process from OS
             0 MiB allocation reported by mallinfo(arena+hblkhd)
        464647 MiB available memory on the node where the printing process lives
------------------
     ethr =  4.09E-10,  avg # of iterations =  9.0

     total cpu time spent up to now is     9557.8 secs

     total energy              =   -4165.39547440 Ry
     estimated scf accuracy    <       0.00000059 Ry

     iteration # 21     ecut=    60.00 Ry     beta= 0.70
     Davidson diagonalization with overlap

---- Real-time Memory Report at c_bands before calling an iterative solver
           835 MiB given to the printing process from OS
             0 MiB allocation reported by mallinfo(arena+hblkhd)
        464581 MiB available memory on the node where the printing process lives
------------------
     ethr =  4.06E-11,  avg # of iterations =  7.0

     total cpu time spent up to now is     9999.2 secs

     total energy              =   -4165.39547452 Ry
     estimated scf accuracy    <       0.00000025 Ry

     iteration # 22     ecut=    60.00 Ry     beta= 0.70
     Davidson diagonalization with overlap

---- Real-time Memory Report at c_bands before calling an iterative solver
           835 MiB given to the printing process from OS
             0 MiB allocation reported by mallinfo(arena+hblkhd)
        464509 MiB available memory on the node where the printing process lives
------------------
     ethr =  1.72E-11,  avg # of iterations =  8.0

     total cpu time spent up to now is    10409.4 secs

     total energy              =   -4165.39547456 Ry
     estimated scf accuracy    <       0.00000013 Ry

     iteration # 23     ecut=    60.00 Ry     beta= 0.70
     Davidson diagonalization with overlap

---- Real-time Memory Report at c_bands before calling an iterative solver
           835 MiB given to the printing process from OS
             0 MiB allocation reported by mallinfo(arena+hblkhd)
        464543 MiB available memory on the node where the printing process lives
------------------
     ethr =  8.75E-12,  avg # of iterations = 11.5

     total cpu time spent up to now is    10778.1 secs

     End of self-consistent calculation

          k = 0.0000 0.0000 0.0000 (****** PWs)   bands (ev):

   -22.6859 -22.6227 -22.6142 -22.4813 -22.4677 -22.4278 -22.4168 -22.4113
   -22.4031 -22.4027 -22.4005 -22.2195 -22.2067 -22.2057 -22.2030 -22.0944
   -22.0880 -21.8982 -21.8789 -21.8776 -21.8753 -21.8509 -21.8384 -21.7911
   -21.7748 -21.7735 -21.7727 -21.6376 -21.6291 -21.5954 -21.5811 -21.5782
   -21.5770 -21.4340 -21.4214 -21.4205 -21.4180 -21.2717 -21.2574 -21.2540
   -21.2516 -21.0527 -21.0425 -20.8778 -20.8374 -20.8367 -20.8351 -20.8326
   -20.8233 -20.8113 -20.8047 -20.8018 -20.7984 -20.7742 -20.7597 -20.7593
   -20.7589 -20.5891 -20.5689 -20.5673 -20.5663 -20.3462 -20.3328 -20.2793
   -20.2511 -20.2484 -20.2477 -20.2351 -20.2263 -20.2251 -20.2201 -20.1428
   -20.1304 -20.1285 -20.1267 -19.8330 -19.8071 -19.8050 -19.8035 -19.5709
   -19.5287 -19.5272 -19.5226 -19.5120 -19.5061 -19.4881 -19.4646 -19.4287
   -19.4032 -19.4024 -19.4020 -19.3261 -19.3060 -19.3054 -19.3051 -19.2669
   -19.2421 -19.2404 -19.2380 -19.2285 -19.2180 -19.2163 -19.2155 -18.9415
   -18.9099 -18.9079 -18.9073 -18.7426 -18.7207 -18.7175 -18.7147 -18.6053
   -18.5725 -18.5693 -18.5644 -18.5622 -18.5590 -18.5066 -18.4824 -18.4800
   -18.4792 -18.3948 -18.3793 -18.3783 -18.3771 -18.0455 -17.9424 -17.9416
   -17.9391 -17.9120 -17.8738 -17.8571 -17.8349 -17.8342 -17.8240 -17.8237
   -17.8221 -17.8141 -17.8096 -17.8062 -17.8030 -17.8000 -17.7978 -17.6820
   -17.6531 -17.6370 -17.6299 -17.5579 -17.5495 -17.4361 -17.3938 -17.3897
   -17.3732 -17.3731 -17.3696 -17.3468 -17.3370 -17.3281 -17.3273 -17.3164
   -17.3103 -17.2505 -17.2265 -17.2175 -17.0505 -17.0472 -17.0148 -16.9789
   -16.9430 -16.9338 -16.8029 -16.7790 -16.5547 -16.4962 -16.4944 -16.4861
   -16.4651 -16.4618 -16.4320 -16.4312 -16.2767 -16.2212 -16.2209 -16.1110
   -16.0247 -15.9893 -15.9635 -15.7928 -15.7924 -15.7770 -15.6189 -15.6140
   -15.6048 -15.5912 -15.5776 -15.5593 -15.5279 -15.5220 -15.5216 -15.5046
   -15.4601 -15.4425 -15.4279 -15.4256 -15.4241 -15.4142 -15.4129 -15.3955
   -15.3825 -15.3739 -15.3707 -15.3679 -15.3661 -15.3312 -15.3304 -15.2228
   -15.1498 -15.1420 -15.1166 -15.1036 -15.0728 -15.0601 -15.0436 -14.9979
   -14.9956 -14.9579 -14.8816 -14.8785 -14.8512 -14.8272 -14.8070 -14.7662
   -14.6053 -14.5916 -14.5493 -14.5467 -14.5447 -14.5238 -14.4760 -14.4658
   -14.4217 -14.4018 -14.3448 -14.3285 -14.2863 -14.2741 -14.2722 -14.2561
   -14.0107 -13.9974 -13.8768 -13.8712 -13.5417 -13.5306 -13.5202 -13.5102
   -13.4774 -13.4715 -13.4472 -13.4360 -13.4207 -13.4141 -13.4137 -13.4128
   -13.4055 -13.4032 -13.3985 -13.3911 -13.3811 -13.3764 -13.3692 -13.3641
   -13.3543 -13.3475 -13.3427 -13.3372 -13.3345 -13.3269 -13.1428 -13.1415
   -13.0832 -13.0806 -13.0796 -13.0729 -13.0608 -13.0602 -13.0538 -13.0466
   -13.0255 -13.0248 -12.9981 -12.9949 -12.8761 -12.8737 -12.5772 -12.5767
   -12.3905 -12.3894 -12.3704 -12.3693 -12.2584 -12.2554 -12.2540 -12.2537
   -12.1965 -12.1919 -12.1535 -12.1534 -12.1439 -12.1361 -12.0704 -12.0689
   -12.0294 -12.0199 -12.0063 -12.0027 -11.9793 -11.9792 -11.9100 -11.9077
   -11.8886 -11.8850 -11.7025 -11.6986 -11.6558 -11.6542 -11.5890 -11.5886
   -11.5553 -11.5543 -11.5064 -11.4967 -11.4773 -11.4745 -11.3957 -11.3950
   -11.3748 -11.3641 -11.3530 -11.3519 -11.3252 -11.3188 -11.2914 -11.2845
   -11.2239 -11.2208 -11.1980 -11.1895 -11.1300 -11.1204 -11.1135 -11.1076
   -11.0594 -11.0566 -11.0351 -11.0341 -11.0246 -11.0216 -11.0202 -11.0147
   -10.9555 -10.9450 -10.9435 -10.9423 -10.8931 -10.8915 -10.8100 -10.8095
   -10.8083 -10.7376 -10.7356 -10.7346 -10.7272 -10.6461 -10.6422 -10.5716
   -10.5654 -10.5176 -10.5071 -10.5058 -10.5053 -10.4975 -10.4952 -10.4948
   -10.4895 -10.4694 -10.4677 -10.4373 -10.4286 -10.4177 -10.4156 -10.3124
   -10.3119 -10.2996 -10.2979 -10.2820 -10.2756 -10.2695 -10.2623 -10.2592
   -10.2565 -10.2072 -10.2036 -10.1383 -10.1279 -10.0906 -10.0866 -10.0712
   -10.0680 -10.0617 -10.0609 -10.0441 -10.0437 -10.0342 -10.0273 -10.0209
   -10.0175  -9.9966  -9.9848  -9.9828  -9.9791  -9.9778  -9.9748  -9.9719
    -9.9669  -9.9586  -9.9450  -9.9414  -9.9399  -9.9301  -9.9271  -9.9071
    -9.9040  -9.8852  -9.8819  -9.8802  -9.8761  -9.8699  -9.8695  -9.8616
    -9.8588  -9.8313  -9.8216  -9.8188  -9.8135  -9.7959  -9.7941  -9.7849
    -9.7843  -9.6961  -9.6845  -9.6777  -9.6743  -9.6501  -9.6393  -9.5797
    -9.5711  -9.5578  -9.5425  -9.5219  -9.5162  -9.5145  -9.5111  -9.4947
    -9.4122  -9.4009  -9.3919  -9.3876  -9.3752  -9.3592  -9.3561  -9.3535
    -9.3481  -9.3378  -9.3357  -9.3271  -9.2536  -9.2518  -9.2349  -9.2139
    -9.2108  -9.2031  -9.1932  -9.1909  -9.1733  -9.1620  -9.1476  -9.1373
    -9.1292  -9.1095  -9.0993  -9.0889  -9.0454  -9.0397  -9.0305  -9.0291
    -9.0183  -9.0161  -9.0070  -8.9997  -8.9946  -8.9943  -8.9881  -8.9808
    -8.9424  -8.9416  -8.9348  -8.9296  -8.8934  -8.8840  -8.7945  -8.7776
    -8.6779  -8.6682  -8.6062  -8.6006  -8.5923  -8.5897  -8.5809  -8.5626
    -8.5437  -8.5415  -8.5297  -8.5237  -8.5165  -8.5152  -8.4809  -8.4778
    -8.3666  -8.3647  -8.3359  -8.3241  -8.3065  -8.2999  -8.2472  -8.2370
    -8.2188  -8.2149  -8.2131  -8.2123  -8.1763  -8.1715  -8.1666  -8.1642
    -8.1421  -8.1386  -8.0992  -8.0929  -8.0449  -8.0438  -8.0227  -8.0184
    -8.0138  -8.0129  -8.0001  -7.9982  -7.9744  -7.9677  -7.9651  -7.9563
    -7.9354  -7.9338  -7.9220  -7.9135  -7.8468  -7.8425  -7.8324  -7.8286
    -7.7477  -7.7390  -7.7043  -7.7021  -7.6914  -7.6877  -7.6794  -7.6793
    -7.6770  -7.6722  -7.6636  -7.6588  -7.6267  -7.6264  -7.5919  -7.5888
    -7.5272  -7.5263  -7.4417  -7.4333  -7.3960  -7.3863  -7.3406  -7.3340
    -7.2655  -7.2518  -7.2392  -7.2362  -7.2274  -7.2196  -7.2071  -7.2059
    -7.1118  -7.0975  -7.0835  -7.0664  -7.0552  -7.0525  -7.0387  -7.0363
    -7.0162  -7.0136  -6.9899  -6.9773  -6.9425  -6.9388  -6.9326  -6.9245
    -6.9240  -6.9218  -6.8917  -6.8823  -6.8540  -6.8508  -6.8355  -6.8323
    -6.7819  -6.7756  -6.7595  -6.7587  -6.6779  -6.6712  -6.6616  -6.6605
    -6.6365  -6.6290  -6.5767  -6.5678  -6.5615  -6.5585  -6.5504  -6.5475
    -6.5464  -6.5392  -6.3569  -6.3540  -6.3378  -6.3106  -6.2969  -6.2925
    -6.2522  -6.2454  -6.2285  -6.2233  -6.2148  -6.2142  -6.2063  -6.2030
    -6.1754  -6.1226  -6.0844  -6.0527  -6.0355  -6.0040  -5.9901  -5.9527
    -5.9521  -5.9317  -5.9088  -5.8896  -5.8041  -5.7976  -5.7602  -5.7566
    -5.6266  -5.5843  -5.5361  -5.4901  -5.4766  -5.4749  -5.4480  -5.4068
    -5.3685  -5.3599  -5.3163  -5.3014  -5.2817  -5.2793  -5.2454  -5.2439
    -5.2213  -5.2155  -5.2136  -5.1807  -5.1764  -5.1229  -5.1140  -5.0933
    -5.0695  -5.0564  -5.0306  -5.0070  -4.9854  -4.9622  -4.9396  -4.9264
    -4.9139  -4.9093  -4.9084  -4.7934  -4.7638  -4.7235  -4.7146  -4.6441
    -4.6207  -4.5718  -4.5601  -4.4115  -4.3249  -4.3089  -4.1695  -4.1286
    -4.0871  -4.0668  -4.0319  -4.0099  -3.8944  -3.8261  -3.7600  -3.7231
    -3.5554  -3.3902  -3.3332  -2.4906

     occupation numbers 
     1.0000   1.0000   1.0000   1.0000   1.0000   1.0000   1.0000   1.0000
     1.0000   1.0000   1.0000   1.0000   1.0000   1.0000   1.0000   1.0000
     1.0000   1.0000   1.0000   1.0000   1.0000   1.0000   1.0000   1.0000
     1.0000   1.0000   1.0000   1.0000   1.0000   1.0000   1.0000   1.0000
     1.0000   1.0000   1.0000   1.0000   1.0000   1.0000   1.0000   1.0000
     1.0000   1.0000   1.0000   1.0000   1.0000   1.0000   1.0000   1.0000
     1.0000   1.0000   1.0000   1.0000   1.0000   1.0000   1.0000   1.0000
     1.0000   1.0000   1.0000   1.0000   1.0000   1.0000   1.0000   1.0000
     1.0000   1.0000   1.0000   1.0000   1.0000   1.0000   1.0000   1.0000
     1.0000   1.0000   1.0000   1.0000   1.0000   1.0000   1.0000   1.0000
     1.0000   1.0000   1.0000   1.0000   1.0000   1.0000   1.0000   1.0000
     1.0000   1.0000   1.0000   1.0000   1.0000   1.0000   1.0000   1.0000
     1.0000   1.0000   1.0000   1.0000   1.0000   1.0000   1.0000   1.0000
     1.0000   1.0000   1.0000   1.0000   1.0000   1.0000   1.0000   1.0000
     1.0000   1.0000   1.0000   1.0000   1.0000   1.0000   1.0000   1.0000
     1.0000   1.0000   1.0000   1.0000   1.0000   1.0000   1.0000   1.0000
     1.0000   1.0000   1.0000   1.0000   1.0000   1.0000   1.0000   1.0000
     1.0000   1.0000   1.0000   1.0000   1.0000   1.0000   1.0000   1.0000
     1.0000   1.0000   1.0000   1.0000   1.0000   1.0000   1.0000   1.0000
     1.0000   1.0000   1.0000   1.0000   1.0000   1.0000   1.0000   1.0000
     1.0000   1.0000   1.0000   1.0000   1.0000   1.0000   1.0000   1.0000
     1.0000   1.0000   1.0000   1.0000   1.0000   1.0000   1.0000   1.0000
     1.0000   1.0000   1.0000   1.0000   1.0000   1.0000   1.0000   1.0000
     1.0000   1.0000   1.0000   1.0000   1.0000   1.0000   1.0000   1.0000
     1.0000   1.0000   1.0000   1.0000   1.0000   1.0000   1.0000   1.0000
     1.0000   1.0000   1.0000   1.0000   1.0000   1.0000   1.0000   1.0000
     1.0000   1.0000   1.0000   1.0000   1.0000   1.0000   1.0000   1.0000
     1.0000   1.0000   1.0000   1.0000   1.0000   1.0000   1.0000   1.0000
     1.0000   1.0000   1.0000   1.0000   1.0000   1.0000   1.0000   1.0000
     1.0000   1.0000   1.0000   1.0000   1.0000   1.0000   1.0000   1.0000
     1.0000   1.0000   1.0000   1.0000   1.0000   1.0000   1.0000   1.0000
     1.0000   1.0000   1.0000   1.0000   1.0000   1.0000   1.0000   1.0000
     1.0000   1.0000   1.0000   1.0000   1.0000   1.0000   1.0000   1.0000
     1.0000   1.0000   1.0000   1.0000   1.0000   1.0000   1.0000   1.0000
     1.0000   1.0000   1.0000   1.0000   1.0000   1.0000   1.0000   1.0000
     1.0000   1.0000   1.0000   1.0000   1.0000   1.0000   1.0000   1.0000
     1.0000   1.0000   1.0000   1.0000   1.0000   1.0000   1.0000   1.0000
     1.0000   1.0000   1.0000   1.0000   1.0000   1.0000   1.0000   1.0000
     1.0000   1.0000   1.0000   1.0000   1.0000   1.0000   1.0000   1.0000
     1.0000   1.0000   1.0000   1.0000   1.0000   1.0000   1.0000   1.0000
     1.0000   1.0000   1.0000   1.0000   1.0000   1.0000   1.0000   1.0000
     1.0000   1.0000   1.0000   1.0000   1.0000   1.0000   1.0000   1.0000
     1.0000   1.0000   1.0000   1.0000   1.0000   1.0000   1.0000   1.0000
     1.0000   1.0000   1.0000   1.0000   1.0000   1.0000   1.0000   1.0000
     1.0000   1.0000   1.0000   1.0000   1.0000   1.0000   1.0000   1.0000
     1.0000   1.0000   1.0000   1.0000   1.0000   1.0000   1.0000   1.0000
     1.0000   1.0000   1.0000   1.0000   1.0000   1.0000   1.0000   1.0000
     1.0000   1.0000   1.0000   1.0000   1.0000   1.0000   1.0000   1.0000
     1.0000   1.0000   1.0000   1.0000   1.0000   1.0000   1.0000   1.0000
     1.0000   1.0000   1.0000   1.0000   1.0000   1.0000   1.0000   1.0000
     1.0000   1.0000   1.0000   1.0000   1.0000   1.0000   1.0000   1.0000
     1.0000   1.0000   1.0000   1.0000   1.0000   1.0000   1.0000   1.0000
     1.0000   1.0000   1.0000   1.0000   1.0000   1.0000   1.0000   1.0000
     1.0000   1.0000   1.0000   1.0000   1.0000   1.0000   1.0000   1.0000
     1.0000   1.0000   1.0000   1.0000   1.0000   1.0000   1.0000   1.0000
     1.0000   1.0000   1.0000   1.0000   1.0000   1.0000   1.0000   1.0000
     1.0000   1.0000   1.0000   1.0000   1.0000   1.0000   1.0000   1.0000
     1.0000   1.0000   1.0000   1.0000   1.0000   1.0000   1.0000   1.0000
     1.0000   1.0000   1.0000   1.0000   1.0000   1.0000   1.0000   1.0000
     1.0000   1.0000   1.0000   1.0000   1.0000   1.0000   1.0000   1.0000
     1.0000   1.0000   1.0000   1.0000   1.0000   1.0000   1.0000   1.0000
     1.0000   1.0000   1.0000   1.0000   1.0000   1.0000   1.0000   1.0000
     1.0000   1.0000   1.0000   1.0000   1.0000   1.0000   1.0000   1.0000
     1.0000   1.0000   1.0000   1.0000   1.0000   1.0000   1.0000   1.0000
     1.0000   1.0000   1.0000   1.0000   1.0000   1.0000   1.0000   1.0000
     1.0000   1.0000   1.0000   1.0000   1.0000   1.0000   1.0000   1.0000
     1.0000   1.0000   1.0000   1.0000   1.0000   1.0000   1.0000   1.0000
     1.0000   1.0000   1.0000   1.0000   1.0000   1.0000   1.0000   1.0000
     1.0000   1.0000   1.0000   1.0000   1.0000   1.0000   1.0000   1.0000
     1.0000   1.0000   1.0000   1.0000   1.0000   1.0000   1.0000   1.0000
     1.0000   1.0000   1.0000   1.0000   1.0000   1.0000   1.0000   1.0000
     1.0000   1.0000   1.0000   1.0000   1.0000   1.0000   1.0000   1.0000
     1.0000   1.0000   1.0000   1.0000   1.0000   1.0000   1.0000   1.0000
     1.0000   1.0000   1.0000   1.0000   1.0000   1.0000   1.0000   1.0000
     1.0000   1.0000   1.0000   1.0000   1.0000   1.0000   1.0000   1.0000
     1.0000   1.0000   1.0000   1.0000   1.0000   1.0000   1.0000   1.0000
     1.0000   1.0000   1.0000   1.0000   1.0000   1.0000   1.0000   1.0000
     1.0000   1.0000   1.0000   1.0000   1.0000   1.0000   1.0000   1.0000
     1.0000   1.0000   1.0000   1.0000   1.0000   1.0000   1.0000   1.0000
     1.0000   1.0000   1.0000   1.0000   1.0000   1.0000   1.0000   1.0000
     1.0000   1.0000   1.0000   1.0000   1.0000   1.0000   1.0000   1.0000
     1.0000   1.0000   1.0000   1.0000   1.0000   1.0000   1.0000   1.0000
     1.0000   1.0000   1.0000   1.0000   1.0000   1.0000   1.0000   1.0000
     1.0000   1.0000   1.0000   1.0000   1.0000   1.0000   1.0000   1.0000
     1.0000   1.0000   1.0000   1.0000   1.0000   1.0000   1.0000   1.0000
     1.0000   1.0000   1.0000   1.0000   1.0000   1.0000   1.0000   1.0000
     1.0000   1.0000   1.0000   1.0000   1.0000   1.0000   1.0000   1.0000
     1.0000   1.0000   1.0000   1.0000   1.0000   1.0000   1.0000   1.0000
     1.0000   1.0000   1.0000   1.0000   1.0000   1.0000   1.0000   1.0000
     1.0000   1.0000   1.0000   1.0000   1.0000   1.0000   1.0000   1.0000
     1.0000   1.0000   1.0000   1.0000   1.0000   1.0000   1.0000   1.0000
     1.0000   1.0000   1.0000   0.0000

          k = 0.0000 0.0000 0.4002 (****** PWs)   bands (ev):

   -22.6747 -22.6625 -22.5414 -22.5314 -22.4715 -22.4528 -22.4502 -22.4496
   -22.3353 -22.3215 -22.3207 -22.3175 -22.2741 -22.2688 -22.0723 -22.0592
   -22.0577 -22.0556 -21.8837 -21.8753 -21.8478 -21.8224 -21.8222 -21.8217
   -21.7151 -21.6939 -21.6923 -21.6910 -21.6727 -21.6666 -21.6643 -21.6632
   -21.4507 -21.4357 -21.4321 -21.4305 -21.3582 -21.3524 -21.1603 -21.1456
   -21.1437 -21.1423 -21.0608 -21.0477 -21.0432 -21.0415 -20.8415 -20.8081
   -20.8065 -20.8064 -20.7183 -20.7030 -20.6970 -20.6802 -20.6790 -20.6783
   -20.5512 -20.5322 -20.5282 -20.5260 -20.5079 -20.4989 -20.4977 -20.4949
   -20.4416 -20.4258 -20.4237 -20.4223 -20.0697 -20.0450 -20.0420 -20.0414
   -19.9463 -19.9338 -19.9067 -19.8923 -19.8906 -19.8861 -19.7499 -19.7320
   -19.7311 -19.7301 -19.5753 -19.5400 -19.5371 -19.5364 -19.4837 -19.4500
   -19.4482 -19.4480 -19.3541 -19.3263 -19.3245 -19.3238 -19.1645 -19.1376
   -19.1351 -19.1317 -19.1031 -19.0792 -19.0776 -19.0766 -19.0577 -19.0512
   -18.9383 -18.9167 -18.9149 -18.9114 -18.8681 -18.8541 -18.8533 -18.8530
   -18.7369 -18.7111 -18.7088 -18.7079 -18.3344 -18.2824 -18.2778 -18.2769
   -18.2559 -18.2264 -18.2231 -18.2230 -18.2006 -18.1895 -18.1883 -18.1847
   -18.0790 -18.0692 -17.9631 -17.8885 -17.8883 -17.8816 -17.8808 -17.8628
   -17.8575 -17.8559 -17.7851 -17.7524 -17.7397 -17.7341 -17.6598 -17.6389
   -17.6347 -17.6339 -17.5570 -17.5259 -17.5054 -17.4973 -17.4514 -17.4419
   -17.4341 -17.4295 -17.4229 -17.4190 -17.3825 -17.3809 -17.2238 -17.1884
   -17.1575 -17.1476 -17.0667 -17.0657 -17.0370 -17.0190 -17.0058 -16.9911
   -16.9604 -16.9503 -16.8714 -16.8675 -16.7782 -16.7443 -16.7085 -16.6998
   -16.3187 -16.2896 -16.2691 -16.2120 -16.1158 -16.0501 -16.0494 -16.0418
   -16.0406 -16.0400 -15.9402 -15.9275 -15.9141 -15.8712 -15.8192 -15.7835
   -15.7614 -15.7605 -15.6603 -15.5689 -15.5610 -15.5608 -15.5262 -15.4635
   -15.4564 -15.4559 -15.4406 -15.4028 -15.4020 -15.3994 -15.3788 -15.3715
   -15.3139 -15.2653 -15.2597 -15.2522 -15.2365 -15.2073 -15.1520 -15.1034
   -15.0977 -15.0940 -15.0851 -15.0841 -15.0583 -15.0441 -15.0327 -14.9689
   -14.9647 -14.9622 -14.9454 -14.9209 -14.9057 -14.8954 -14.8658 -14.8634
   -14.8245 -14.7230 -14.7115 -14.6965 -14.6778 -14.6676 -14.6111 -14.4477
   -14.4215 -14.3495 -14.3450 -13.9783 -13.9706 -13.9702 -13.9635 -13.9544
   -13.9478 -13.8943 -13.8826 -13.8471 -13.8374 -13.8110 -13.8009 -13.6755
   -13.6684 -13.5588 -13.5459 -13.5438 -13.5398 -13.5352 -13.5277 -13.5146
   -13.5087 -13.4853 -13.4750 -13.4159 -13.4120 -13.4070 -13.4005 -13.3705
   -13.3659 -13.2714 -13.2712 -13.2431 -13.2399 -13.0975 -13.0961 -13.0706
   -13.0667 -13.0492 -13.0474 -12.8971 -12.8940 -12.8601 -12.8601 -12.8402
   -12.8381 -12.8172 -12.8135 -12.7762 -12.7700 -12.7590 -12.7521 -12.7180
   -12.7176 -12.6174 -12.6152 -12.5402 -12.5349 -12.5161 -12.5084 -12.4411
   -12.4388 -12.2482 -12.2462 -12.1172 -12.1171 -12.0111 -12.0100 -11.9910
   -11.9910 -11.8659 -11.8648 -11.7858 -11.7855 -11.7526 -11.7485 -11.6903
   -11.6756 -11.6582 -11.6572 -11.6406 -11.6371 -11.6120 -11.6087 -11.5730
   -11.5694 -11.5375 -11.5270 -11.5082 -11.5032 -11.5002 -11.5000 -11.4562
   -11.4530 -11.4266 -11.4228 -11.3756 -11.3718 -11.3529 -11.3515 -11.3283
   -11.3221 -11.2985 -11.2945 -11.2649 -11.2627 -11.2470 -11.2394 -11.1808
   -11.1704 -11.1702 -11.1681 -11.1657 -11.1646 -11.1485 -11.1431 -10.7922
   -10.7871 -10.7772 -10.7742 -10.7668 -10.7629 -10.7526 -10.7524 -10.7268
   -10.7210 -10.7082 -10.7035 -10.6394 -10.6349 -10.5546 -10.5516 -10.5512
   -10.5419 -10.5084 -10.4932 -10.4858 -10.4852 -10.4750 -10.4640 -10.4454
   -10.4319 -10.4290 -10.4255 -10.4089 -10.4068 -10.4026 -10.4020 -10.3950
   -10.3873 -10.3391 -10.3308 -10.3275 -10.3272 -10.3100 -10.3098 -10.3001
   -10.2945 -10.2514 -10.2407 -10.2341 -10.2222 -10.1961 -10.1905 -10.1393
   -10.1384 -10.1226 -10.1167 -10.1064 -10.1039 -10.1023 -10.0920 -10.0779
   -10.0727 -10.0502 -10.0427 -10.0284 -10.0194  -9.9906  -9.9831  -9.9697
    -9.9687  -9.9504  -9.9466  -9.9403  -9.9315  -9.9050  -9.9048  -9.8986
    -9.8979  -9.8911  -9.8903  -9.8201  -9.8113  -9.8002  -9.7961  -9.7958
    -9.7830  -9.7809  -9.7757  -9.7428  -9.7388  -9.7191  -9.7164  -9.7070
    -9.6985  -9.6897  -9.6895  -9.6584  -9.6529  -9.6217  -9.6187  -9.6139
    -9.6035  -9.5579  -9.5533  -9.5162  -9.5033  -9.4971  -9.4818  -9.4784
    -9.4744  -9.4639  -9.4585  -9.4321  -9.4287  -9.3472  -9.3374  -9.3178
    -9.3087  -9.3000  -9.2980  -9.2953  -9.2929  -9.2844  -9.2725  -9.2001
    -9.1865  -9.1722  -9.1548  -9.1419  -9.1329  -9.1216  -9.1199  -9.1086
    -9.1070  -9.1029  -9.1017  -9.0915  -9.0898  -9.0856  -9.0746  -9.0583
    -9.0523  -9.0476  -9.0392  -9.0317  -9.0239  -9.0095  -9.0081  -8.9625
    -8.9557  -8.9434  -8.9394  -8.9265  -8.9264  -8.9135  -8.9116  -8.8174
    -8.8081  -8.6371  -8.6292  -8.6263  -8.5991  -8.5963  -8.5947  -8.5479
    -8.5359  -8.5135  -8.5076  -8.4744  -8.4647  -8.3769  -8.3722  -8.3235
    -8.3209  -8.3123  -8.3072  -8.2851  -8.2827  -8.2697  -8.2596  -8.2493
    -8.2455  -8.2294  -8.2273  -8.1874  -8.1829  -8.1611  -8.1482  -8.1374
    -8.1314  -8.1072  -8.0963  -8.0895  -8.0846  -8.0796  -8.0772  -8.0652
    -8.0633  -8.0600  -8.0526  -8.0448  -8.0437  -8.0357  -8.0354  -8.0233
    -8.0212  -7.9427  -7.9399  -7.9017  -7.8872  -7.8758  -7.8689  -7.8634
    -7.8588  -7.7719  -7.7715  -7.7054  -7.6956  -7.6125  -7.6033  -7.5876
    -7.5787  -7.5723  -7.5706  -7.5592  -7.5474  -7.4871  -7.4811  -7.4607
    -7.4544  -7.4180  -7.4048  -7.3828  -7.3779  -7.3658  -7.3611  -7.3332
    -7.3302  -7.3182  -7.3080  -7.2984  -7.2955  -7.2833  -7.2729  -7.2684
    -7.2663  -7.2633  -7.2594  -7.1919  -7.1808  -7.1249  -7.1178  -7.0076
    -6.9953  -6.9622  -6.9565  -6.9445  -6.9443  -6.9331  -6.9309  -6.9250
    -6.9177  -6.8464  -6.8386  -6.8120  -6.8115  -6.7779  -6.7593  -6.7539
    -6.7429  -6.7297  -6.7114  -6.6775  -6.6701  -6.6597  -6.6485  -6.6396
    -6.6375  -6.5967  -6.5914  -6.5322  -6.5202  -6.4706  -6.4683  -6.4539
    -6.4501  -6.4071  -6.4052  -6.4038  -6.3949  -6.3932  -6.3903  -6.3863
    -6.3848  -6.3793  -6.3693  -6.3496  -6.3402  -6.3130  -6.3112  -6.2138
    -6.2038  -6.0700  -6.0564  -6.0115  -6.0063  -5.9984  -5.9948  -5.9279
    -5.8941  -5.8721  -5.8523  -5.7862  -5.7431  -5.7042  -5.6789  -5.6304
    -5.5964  -5.5410  -5.5401  -5.5131  -5.4966  -5.4845  -5.4808  -5.4349
    -5.4070  -5.3700  -5.3476  -5.3182  -5.3024  -5.2904  -5.2872  -5.2855
    -5.2853  -5.2401  -5.2225  -5.2165  -5.2073  -5.2054  -5.1604  -5.1269
    -5.1185  -5.0904  -5.0697  -4.9876  -4.9534  -4.9427  -4.9426  -4.9266
    -4.8550  -4.8205  -4.8116  -4.7534  -4.7416  -4.6184  -4.6037  -4.5655
    -4.5499  -4.5446  -4.5115  -4.4908  -4.4619  -4.4062  -4.3971  -4.2270
    -4.0728  -4.0560  -3.9554  -3.9459  -3.8890  -3.8521  -3.6504  -3.6249
    -3.5219  -3.4880  -3.4204  -2.4485

     occupation numbers 
     1.0000   1.0000   1.0000   1.0000   1.0000   1.0000   1.0000   1.0000
     1.0000   1.0000   1.0000   1.0000   1.0000   1.0000   1.0000   1.0000
     1.0000   1.0000   1.0000   1.0000   1.0000   1.0000   1.0000   1.0000
     1.0000   1.0000   1.0000   1.0000   1.0000   1.0000   1.0000   1.0000
     1.0000   1.0000   1.0000   1.0000   1.0000   1.0000   1.0000   1.0000
     1.0000   1.0000   1.0000   1.0000   1.0000   1.0000   1.0000   1.0000
     1.0000   1.0000   1.0000   1.0000   1.0000   1.0000   1.0000   1.0000
     1.0000   1.0000   1.0000   1.0000   1.0000   1.0000   1.0000   1.0000
     1.0000   1.0000   1.0000   1.0000   1.0000   1.0000   1.0000   1.0000
     1.0000   1.0000   1.0000   1.0000   1.0000   1.0000   1.0000   1.0000
     1.0000   1.0000   1.0000   1.0000   1.0000   1.0000   1.0000   1.0000
     1.0000   1.0000   1.0000   1.0000   1.0000   1.0000   1.0000   1.0000
     1.0000   1.0000   1.0000   1.0000   1.0000   1.0000   1.0000   1.0000
     1.0000   1.0000   1.0000   1.0000   1.0000   1.0000   1.0000   1.0000
     1.0000   1.0000   1.0000   1.0000   1.0000   1.0000   1.0000   1.0000
     1.0000   1.0000   1.0000   1.0000   1.0000   1.0000   1.0000   1.0000
     1.0000   1.0000   1.0000   1.0000   1.0000   1.0000   1.0000   1.0000
     1.0000   1.0000   1.0000   1.0000   1.0000   1.0000   1.0000   1.0000
     1.0000   1.0000   1.0000   1.0000   1.0000   1.0000   1.0000   1.0000
     1.0000   1.0000   1.0000   1.0000   1.0000   1.0000   1.0000   1.0000
     1.0000   1.0000   1.0000   1.0000   1.0000   1.0000   1.0000   1.0000
     1.0000   1.0000   1.0000   1.0000   1.0000   1.0000   1.0000   1.0000
     1.0000   1.0000   1.0000   1.0000   1.0000   1.0000   1.0000   1.0000
     1.0000   1.0000   1.0000   1.0000   1.0000   1.0000   1.0000   1.0000
     1.0000   1.0000   1.0000   1.0000   1.0000   1.0000   1.0000   1.0000
     1.0000   1.0000   1.0000   1.0000   1.0000   1.0000   1.0000   1.0000
     1.0000   1.0000   1.0000   1.0000   1.0000   1.0000   1.0000   1.0000
     1.0000   1.0000   1.0000   1.0000   1.0000   1.0000   1.0000   1.0000
     1.0000   1.0000   1.0000   1.0000   1.0000   1.0000   1.0000   1.0000
     1.0000   1.0000   1.0000   1.0000   1.0000   1.0000   1.0000   1.0000
     1.0000   1.0000   1.0000   1.0000   1.0000   1.0000   1.0000   1.0000
     1.0000   1.0000   1.0000   1.0000   1.0000   1.0000   1.0000   1.0000
     1.0000   1.0000   1.0000   1.0000   1.0000   1.0000   1.0000   1.0000
     1.0000   1.0000   1.0000   1.0000   1.0000   1.0000   1.0000   1.0000
     1.0000   1.0000   1.0000   1.0000   1.0000   1.0000   1.0000   1.0000
     1.0000   1.0000   1.0000   1.0000   1.0000   1.0000   1.0000   1.0000
     1.0000   1.0000   1.0000   1.0000   1.0000   1.0000   1.0000   1.0000
     1.0000   1.0000   1.0000   1.0000   1.0000   1.0000   1.0000   1.0000
     1.0000   1.0000   1.0000   1.0000   1.0000   1.0000   1.0000   1.0000
     1.0000   1.0000   1.0000   1.0000   1.0000   1.0000   1.0000   1.0000
     1.0000   1.0000   1.0000   1.0000   1.0000   1.0000   1.0000   1.0000
     1.0000   1.0000   1.0000   1.0000   1.0000   1.0000   1.0000   1.0000
     1.0000   1.0000   1.0000   1.0000   1.0000   1.0000   1.0000   1.0000
     1.0000   1.0000   1.0000   1.0000   1.0000   1.0000   1.0000   1.0000
     1.0000   1.0000   1.0000   1.0000   1.0000   1.0000   1.0000   1.0000
     1.0000   1.0000   1.0000   1.0000   1.0000   1.0000   1.0000   1.0000
     1.0000   1.0000   1.0000   1.0000   1.0000   1.0000   1.0000   1.0000
     1.0000   1.0000   1.0000   1.0000   1.0000   1.0000   1.0000   1.0000
     1.0000   1.0000   1.0000   1.0000   1.0000   1.0000   1.0000   1.0000
     1.0000   1.0000   1.0000   1.0000   1.0000   1.0000   1.0000   1.0000
     1.0000   1.0000   1.0000   1.0000   1.0000   1.0000   1.0000   1.0000
     1.0000   1.0000   1.0000   1.0000   1.0000   1.0000   1.0000   1.0000
     1.0000   1.0000   1.0000   1.0000   1.0000   1.0000   1.0000   1.0000
     1.0000   1.0000   1.0000   1.0000   1.0000   1.0000   1.0000   1.0000
     1.0000   1.0000   1.0000   1.0000   1.0000   1.0000   1.0000   1.0000
     1.0000   1.0000   1.0000   1.0000   1.0000   1.0000   1.0000   1.0000
     1.0000   1.0000   1.0000   1.0000   1.0000   1.0000   1.0000   1.0000
     1.0000   1.0000   1.0000   1.0000   1.0000   1.0000   1.0000   1.0000
     1.0000   1.0000   1.0000   1.0000   1.0000   1.0000   1.0000   1.0000
     1.0000   1.0000   1.0000   1.0000   1.0000   1.0000   1.0000   1.0000
     1.0000   1.0000   1.0000   1.0000   1.0000   1.0000   1.0000   1.0000
     1.0000   1.0000   1.0000   1.0000   1.0000   1.0000   1.0000   1.0000
     1.0000   1.0000   1.0000   1.0000   1.0000   1.0000   1.0000   1.0000
     1.0000   1.0000   1.0000   1.0000   1.0000   1.0000   1.0000   1.0000
     1.0000   1.0000   1.0000   1.0000   1.0000   1.0000   1.0000   1.0000
     1.0000   1.0000   1.0000   1.0000   1.0000   1.0000   1.0000   1.0000
     1.0000   1.0000   1.0000   1.0000   1.0000   1.0000   1.0000   1.0000
     1.0000   1.0000   1.0000   1.0000   1.0000   1.0000   1.0000   1.0000
     1.0000   1.0000   1.0000   1.0000   1.0000   1.0000   1.0000   1.0000
     1.0000   1.0000   1.0000   1.0000   1.0000   1.0000   1.0000   1.0000
     1.0000   1.0000   1.0000   1.0000   1.0000   1.0000   1.0000   1.0000
     1.0000   1.0000   1.0000   1.0000   1.0000   1.0000   1.0000   1.0000
     1.0000   1.0000   1.0000   1.0000   1.0000   1.0000   1.0000   1.0000
     1.0000   1.0000   1.0000   1.0000   1.0000   1.0000   1.0000   1.0000
     1.0000   1.0000   1.0000   1.0000   1.0000   1.0000   1.0000   1.0000
     1.0000   1.0000   1.0000   1.0000   1.0000   1.0000   1.0000   1.0000
     1.0000   1.0000   1.0000   1.0000   1.0000   1.0000   1.0000   1.0000
     1.0000   1.0000   1.0000   1.0000   1.0000   1.0000   1.0000   1.0000
     1.0000   1.0000   1.0000   1.0000   1.0000   1.0000   1.0000   1.0000
     1.0000   1.0000   1.0000   1.0000   1.0000   1.0000   1.0000   1.0000
     1.0000   1.0000   1.0000   1.0000   1.0000   1.0000   1.0000   1.0000
     1.0000   1.0000   1.0000   1.0000   1.0000   1.0000   1.0000   1.0000
     1.0000   1.0000   1.0000   1.0000   1.0000   1.0000   1.0000   1.0000
     1.0000   1.0000   1.0000   1.0000   1.0000   1.0000   1.0000   1.0000
     1.0000   1.0000   1.0000   1.0000   1.0000   1.0000   1.0000   1.0000
     1.0000   1.0000   1.0000   1.0000   1.0000   1.0000   1.0000   1.0000
     1.0000   1.0000   1.0000   1.0000   1.0000   1.0000   1.0000   1.0000
     1.0000   1.0000   1.0000   1.0000   1.0000   1.0000   1.0000   1.0000
     1.0000   1.0000   1.0000   1.0000   1.0000   1.0000   1.0000   1.0000
     1.0000   1.0000   1.0000   1.0000   1.0000   1.0000   1.0000   1.0000
     1.0000   1.0000   1.0000   1.0000   1.0000   1.0000   1.0000   1.0000
     1.0000   1.0000   1.0000   0.0000

     highest occupied, lowest unoccupied level (ev):    -3.3332   -2.4906

!    total energy              =   -4165.39547455 Ry
     estimated scf accuracy    <       0.00000003 Ry

     The total energy is the sum of the following terms:
     one-electron contribution =  -74544.51702266 Ry
     hartree contribution      =   37453.90135886 Ry
     xc contribution           =   -1280.43671426 Ry
     ewald contribution        =   34205.65690350 Ry

     convergence has been achieved in  23 iterations

     Writing all to output data dir ./CNT_PBE.save/

     init_run     :    113.90s CPU    114.58s WALL (       1 calls)
     electrons    :  10445.40s CPU  10663.82s WALL (       1 calls)

     Called by init_run:
     wfcinit      :    103.10s CPU    102.90s WALL (       1 calls)
     wfcinit:wfcr :    102.64s CPU    102.34s WALL (       1 calls)
     potinit      :      0.55s CPU      1.12s WALL (       1 calls)
     hinit0       :      1.54s CPU      1.65s WALL (       1 calls)

     Called by electrons:
     c_bands      :  10369.35s CPU  10608.04s WALL (      23 calls)
     sum_band     :     72.84s CPU     51.28s WALL (      23 calls)
     v_of_rho     :      2.06s CPU      3.33s WALL (      24 calls)
     v_h          :      0.32s CPU      0.52s WALL (      24 calls)
     v_xc         :      1.74s CPU      2.81s WALL (      24 calls)
     mix_rho      :      0.73s CPU      0.74s WALL (      23 calls)

     Called by c_bands:
     init_us_2    :     16.44s CPU      8.89s WALL (      47 calls)
     init_us_2:cp :     16.44s CPU      8.89s WALL (      47 calls)
     cegterg      :  10348.78s CPU  10560.97s WALL (      23 calls)

     Called by sum_band:
     sum_band:wei :      0.00s CPU      0.00s WALL (      23 calls)
     sum_band:loo :     71.76s CPU     47.45s WALL (      23 calls)
     sum_band:buf :      0.00s CPU      0.00s WALL (      23 calls)
     sum_band:ini :      8.05s CPU      4.25s WALL (      23 calls)

     Called by *egterg:
     cdiaghg      :    342.97s CPU    564.53s WALL (     237 calls)
     cegterg:over :   1645.76s CPU   1699.81s WALL (     214 calls)
     cegterg:upda :   1061.95s CPU   1073.16s WALL (     214 calls)
     cegterg:last :    765.48s CPU    771.02s WALL (      26 calls)
     cdiaghg:chol :     11.14s CPU     54.89s WALL (     237 calls)
     cdiaghg:inve :      1.67s CPU      4.58s WALL (     237 calls)
     cdiaghg:para :    138.96s CPU    202.58s WALL (     474 calls)
     h_psi        :   6501.90s CPU   6411.31s WALL (     238 calls)
     g_psi        :      1.30s CPU      0.67s WALL (     214 calls)

     Called by h_psi:
     h_psi:calbec :   3057.30s CPU   3093.97s WALL (     238 calls)
     vloc_psi     :    394.12s CPU    266.07s WALL (     238 calls)
     add_vuspsi   :   3044.66s CPU   3046.49s WALL (     238 calls)

     General routines
     calbec       :   3057.30s CPU   3093.97s WALL (     238 calls)
     fft          :      2.46s CPU      4.47s WALL (     239 calls)
     ffts         :      0.13s CPU      0.19s WALL (      23 calls)
     fftw         :    443.47s CPU    301.09s WALL (  119262 calls)

     Parallel routines

     PWSCF        :      2h56m CPU      3h 0m WALL


   This run was terminated on:  20:40: 4  30Oct2024            

=------------------------------------------------------------------------------=
   JOB DONE.
=------------------------------------------------------------------------------=
Note: The following floating-point exceptions are signalling: IEEE_DENORMAL
Note: The following floating-point exceptions are signalling: IEEE_DENORMAL
Note: The following floating-point exceptions are signalling: IEEE_DENORMAL
Note: The following floating-point exceptions are signalling: IEEE_DENORMAL
Note: The following floating-point exceptions are signalling: IEEE_DENORMAL
Note: The following floating-point exceptions are signalling: IEEE_UNDERFLOW_FLAG IEEE_DENORMAL
Note: The following floating-point exceptions are signalling: IEEE_UNDERFLOW_FLAG IEEE_DENORMAL
Note: The following floating-point exceptions are signalling: IEEE_DENORMAL
Note: The following floating-point exceptions are signalling: IEEE_DENORMAL
Note: The following floating-point exceptions are signalling: IEEE_DENORMAL
Note: The following floating-point exceptions are signalling: IEEE_DENORMAL
Note: The following floating-point exceptions are signalling: IEEE_DENORMAL
Note: The following floating-point exceptions are signalling: IEEE_DENORMAL
Note: The following floating-point exceptions are signalling: IEEE_DENORMAL
Note: The following floating-point exceptions are signalling: IEEE_DENORMAL
Note: The following floating-point exceptions are signalling: IEEE_DENORMAL
Note: The following floating-point exceptions are signalling: IEEE_DENORMAL
Note: The following floating-point exceptions are signalling: IEEE_DENORMAL
Note: The following floating-point exceptions are signalling: IEEE_DENORMAL
Note: The following floating-point exceptions are signalling: IEEE_DENORMAL
Note: The following floating-point exceptions are signalling: IEEE_DENORMAL
Note: The following floating-point exceptions are signalling: IEEE_DENORMAL
Note: The following floating-point exceptions are signalling: IEEE_DENORMAL
Note: The following floating-point exceptions are signalling: IEEE_DENORMAL
Note: The following floating-point exceptions are signalling: IEEE_DENORMAL
Note: The following floating-point exceptions are signalling: IEEE_DENORMAL
Note: The following floating-point exceptions are signalling: IEEE_DENORMAL
Note: The following floating-point exceptions are signalling: IEEE_DENORMAL
Note: The following floating-point exceptions are signalling: IEEE_DENORMAL
Note: The following floating-point exceptions are signalling: IEEE_DENORMAL
Note: The following floating-point exceptions are signalling: IEEE_DENORMAL
Note: The following floating-point exceptions are signalling: IEEE_DENORMAL
Note: The following floating-point exceptions are signalling: IEEE_DENORMAL
Note: The following floating-point exceptions are signalling: IEEE_DENORMAL
Note: The following floating-point exceptions are signalling: IEEE_DENORMAL
Note: The following floating-point exceptions are signalling: IEEE_DENORMAL
Note: The following floating-point exceptions are signalling: IEEE_DENORMAL
Note: The following floating-point exceptions are signalling: IEEE_INVALID_FLAG IEEE_DENORMAL
Note: The following floating-point exceptions are signalling: IEEE_DENORMAL
Note: The following floating-point exceptions are signalling: IEEE_DENORMAL
Note: The following floating-point exceptions are signalling: IEEE_INVALID_FLAG IEEE_DENORMAL
Note: The following floating-point exceptions are signalling: IEEE_DENORMAL
Note: The following floating-point exceptions are signalling: IEEE_DENORMAL
Note: The following floating-point exceptions are signalling: IEEE_DENORMAL
Note: The following floating-point exceptions are signalling: IEEE_DENORMAL
Note: The following floating-point exceptions are signalling: IEEE_DENORMAL
Note: The following floating-point exceptions are signalling: IEEE_DENORMAL
Note: The following floating-point exceptions are signalling: IEEE_DENORMAL
Note: The following floating-point exceptions are signalling: IEEE_DENORMAL
