&CONTROL
   pseudo_dir       = './'
   verbosity        = 'high'
   prefix           = 'CNT_PBE'
/
&SYSTEM
   nbnd             = 732
   ecutwfc          = 60.0
   ntyp             = 2
   nat              = 365
   ibrav            = 0
/
&ELECTRONS
   electron_maxstep = 100
   conv_thr         = 7.35e-08
   mixing_mode      = 'plain'
   mixing_beta      = 0.7
   mixing_ndim      = 8
   diagonalization  = 'david'
   diago_david_ndim = 4
   diago_full_acc   = .true.
/
&IONS
/
&CELL
/

ATOMIC_SPECIES
C 12.011 C_ONCV_PBE-1.2.upf
Se 78.96 Se_ONCV_PBE-1.2.upf

K_POINTS CRYSTAL
2
0.00000 0.00000 0.00000 1.0
0.00000 0.00000 0.50000 1.0

CELL_PARAMETERS angstrom
32.3722991943000 0.00000000000000 0.00000000000000
0.00000000000000 19.92218961916977 0.00000000000000
0.00000000000000 0.00000000000000 40.44962340753452

ATOMIC_POSITIONS angstrom
C    12.008988170        10.724153555         0.099859023
C    11.938533933        10.834050611         2.544279509
C    10.943779194        11.853650024         2.471221058
C    10.375203750        12.180561470         1.211054845
C     8.993650650        12.526733873         1.137594906
C    11.863439154        10.941564538         4.988338559
C    10.834557616        11.926491615         4.915478705
C    10.255341728        12.233614894         3.655339766
C     8.862530730        12.531834981         3.581744891
C     8.208190154        12.488878094         2.321847042
C     6.866203224        12.011593202         2.248704059
C     6.331781110        11.631466845         0.988590660
C     5.439662430        10.521023536         0.915471259
C    11.783728917        11.046563534         7.432219203
C    10.722306662        11.996610478         7.359736352
C    10.133286784        12.283166649         6.099649548
C     8.731155146        12.533399986         6.026122782
C     8.078861329        12.467163950         4.765976610
C     6.754443820        11.943673420         4.693066429
C     6.233302243        11.545389208         3.433009460
C     5.380086454        10.404761969         3.359751508
C     5.145328561         9.792265652         2.099918300
C     5.017346555         8.373560340         2.026642417
C     5.138950951         7.728787285         0.766612344
C     5.774439927         6.453962074         0.693646864
C    11.700551297        11.149071345         9.876153790
C    10.607974700        12.062875012         9.804566586
C    10.009223189        12.329138367         8.544010261
C     8.599773773        12.530855369         8.470725186
C     7.950186135        12.442260426         7.210435265
C     6.644668464        11.872555947         7.137603438
C     6.137831528        11.456134066         5.877700465
C     5.324627150        10.286629045         5.804242409
C     5.111311264         9.666205588         4.544205028
C     5.032294696         8.244067477         4.471050443
C     5.175975435         7.603833291         3.210996488
C     5.854859752         6.351481573         3.137897956
C     6.313176973         5.881899995         1.877974942
C     7.548114988         5.172146589         1.804408547
C     8.184792559         5.012765459         0.544471746
C     9.608524426         5.056853947         0.471448592
C    12.002192332        10.713086905        13.577901108
C    11.614329830        11.246659723        12.319070982
C    10.491889750        12.120372907        12.249376930
C     9.884679140        12.370197775        10.989323276
C     8.468351880        12.523323635        10.916181649
C     7.822469441        12.412699885         9.656010465
C     6.537420806        11.797695761         9.582682596
C     6.045897659        11.363468685         8.322349882
C     5.274231440        10.166514336         8.248633258
C     5.081875658         9.539220531         6.988632643
C     5.051879039         8.115016329         6.915595288
C     5.217353443         7.480197915         5.655575989
C     5.938829930         6.251968406         5.582249327
C     6.413033531         5.798407941         4.322133592
C     7.671590555         5.131506930         4.248739425
C     8.313475471         4.994351124         2.988746345
C     9.734872595         5.087577555         2.915721947
C    10.353213754         5.307656646         1.655766537
C    11.514169369         6.132841621         1.582072365
C    11.925350355         6.644378507         0.322101020
C    12.481181191         7.955821623         0.249006933
C    11.931209401        10.789534656        16.020984048
C    11.521485218        11.320794402        14.766263286
C    10.370622059        12.157942520        14.695892980
C     9.758596282        12.397410809        13.437816257
C     8.337565770        12.505792732        13.363381187
C     7.696024795        12.376043389        12.101742372
C     6.433145120        11.718118000        12.027583349
C     5.956527183        11.268238502        10.767043900
C     5.226857389        10.044656511        10.693165746
C     5.057063711         9.411165026         9.433318827
C     5.076069192         7.986755402         9.360255554
C     5.263419266         7.358078267         8.100043987
C     6.026373132         6.155407138         8.026456948
C     6.515423574         5.718171762         6.766601590
C     7.796200209         5.094225263         6.693622095
C     8.442420800         4.979758464         5.433186315
C     9.859524699         5.121814706         5.359984416
C    10.470317500         5.363254093         4.100063362
C    11.602219076         6.227967906         4.026391037
C    11.995654088         6.753675328         2.766529351
C    12.505986385         8.083484689         2.693539912
C    12.565313932         8.737165685         1.433500271
C    12.301463892        10.136823180         1.359881137
C    11.895275589        10.949618732        18.472607572
C    11.435707544        11.398722852        17.224995323
C    10.247160481        12.186014051        17.144316044
C     9.626648590        12.401845781        15.883750076
C     8.207680756        12.475289388        15.808354266
C     7.569362593        12.332645973        14.546634686
C     6.327265505        11.635156124        14.472192383
C     5.868654511        11.168904634        13.212042294
C     5.182363176         9.920392402        13.138089402
C     5.036040415         9.281675131        11.877590939
C     5.104016640         7.859224138        11.804391451
C     5.312444039         7.237268330        10.544429411
C     6.116239982         6.060858527        10.470748950
C     6.620965520         5.641417065         9.211185310
C     7.922094936         5.061293074         9.138619886
C     8.571581273         4.968338857         7.877802583
C     9.983300792         5.158657031         7.804600684
C    10.584943717         5.422020734         6.544636233
C    11.685970733         6.325884008         6.470884048
C    12.061296053         6.865198541         5.210875598
C    12.524883329         8.211869107         5.137683946
C    12.562603894         8.867325872         3.877839437
C    12.250856897        10.257222867         3.804209303
C    11.800390489        11.049618736        20.925183397
C    11.345279680        11.504623090        19.651611875
C    10.127003239        12.244782473        19.580805196
C     9.499035608        12.430286596        18.324801840
C     8.071277757        12.460246107        18.251138256
C     7.441617920        12.286132796        16.993037424
C     6.223201586        11.548632022        16.917892346
C     5.782541098        11.065674878        15.656574180
C     5.141894946         9.794816800        15.582757504
C     5.017223064         9.151605187        14.322254219
C     5.134345623         7.731586007        14.248946240
C     5.364885543         7.117759199        12.989198770
C     6.207356691         5.968789819        12.915380888
C     6.727397466         5.567428437        11.655382685
C     8.047876785         5.033345628        11.582987229
C     8.700600889         4.961594078        10.323468793
C    10.106261655         5.200087504        10.250730991
C    10.697739766         5.484129931         8.989327840
C    11.765582564         6.426161867         8.915107340
C    12.122081368         6.978433997         7.655096479
C    12.538353443         8.340800326         7.581224352
C    12.553659514         8.997236110         6.321869857
C    12.194373491        10.375621770         6.248546208
C    11.703383861        11.146824768        23.366288201
C    11.252787209        11.617463733        22.099545529
C    10.009815558        12.322652741        22.025955476
C     9.371725563        12.466869473        20.766995162
C     7.948260938        12.434269165        20.694808248
C     7.319146678        12.240658603        19.435292223
C     6.128022714        11.458995721        19.361678062
C     5.699846346        10.962904649        18.102241596
C     5.103652440         9.667166795        18.028462288
C     5.003838332         9.020236812        16.768456852
C     5.169731928         7.605232059        16.694638971
C     5.420618358         6.999485568        15.433712574
C     6.299956252         5.879528146        15.359607796
C     6.832783601         5.495132461        14.100068868
C     8.173050347         5.009048276        14.027560100
C     8.829555866         4.963579425        12.769231439
C    10.225352826         5.252093040        12.697241013
C    10.808522341         5.550270974        11.434329247
C    11.844894351         6.528431603        11.359747113
C    12.179173544         7.093511125        10.099491547
C    12.546353314         8.469735701        10.023933002
C    12.538875384         9.126657135         8.764650230
C    12.133023786        10.491727787         8.692067328
C    11.616450393        11.245439066        25.808547822
C    11.144894120        11.701696137        24.548398938
C     9.886508343        12.370131280        24.473256271
C     9.245606044        12.502477487        23.209978050
C     7.823399961        12.408979733        23.138497527
C     7.203185219        12.190060740        21.880067609
C     6.040142325        11.365442159        21.806875354
C     5.628803117        10.852884102        20.547512420
C     5.078039734         9.539921103        20.474050145
C     4.996519106         8.889092263        19.213146652
C     5.211704716         7.480763716        19.139180500
C     5.479323147         6.883399737        17.879317307
C     6.397454430         5.791749546        17.805312581
C     6.941970929         5.427389603        16.545537385
C     8.297891546         4.990078827        16.472460853
C     8.956018843         4.971394950        15.212993045
C    10.336708474         5.319172136        15.140297434
C    10.913753631         5.628295011        13.881550483
C    11.925464198         6.637675584        13.808903089
C    12.236176962         7.210921510        12.542177293
C    12.551473346         8.597288338        12.463039779
C    12.520596857         9.255068863        11.205814101
C    12.069831370        10.606693892        11.134962821
C    11.530794281        11.342173697        28.252625255
C    11.040716358        11.779704143        26.992751212
C     9.761435599        12.404961542        26.918401729
C     9.116090537        12.521372723        25.656688176
C     7.697680339        12.377180926        25.584236065
C     7.088008601        12.134162285        24.324627220
C     5.956666592        11.268724152        24.251639891
C     5.562426962        10.743193654        22.991618784
C     5.055047342         9.411999775        22.918665207
C     4.996103773         8.758537856        21.659008145
C     5.259774849         7.358399461        21.585326478
C     5.550172940         6.770775202        20.325030530
C     6.504543866         5.714886202        20.251457353
C     7.057248366         5.365615849        18.989813717
C     8.427710957         4.977666546        18.914970001
C     9.081141754         4.977774007        17.656811308
C    10.449383927         5.386801596        17.582760775
C    11.005562080         5.733418684        16.326812869
C    11.984173328         6.770005761        16.257117612
C    12.303197583         7.329572144        14.983650963
C    12.577843396         8.729975925        14.900288362
C    12.501760693         9.382229656        13.645011890
C    11.442284379        11.436331650        30.696671346
C    10.937296906        11.856186330        29.436710512
C     9.635925815        12.435658433        29.363310919
C     8.986036687        12.529306988        28.103104174
C     7.574491309        12.337331488        28.029839592
C     6.973326427        12.074581675        26.769066287
C     5.872995493        11.169647952        26.696211556
C     5.498123132        10.631003711        25.436433950
C     5.035379065         9.283506116        25.363550288
C     4.999921367         8.628169872        24.103688300
C     5.312144478         7.238811367        24.029996990
C     5.622670558         6.661234962        22.769720329
C     6.615253601         5.639101025        22.696441282
C     7.180924606         5.310669696        21.436082650
C     8.563331527         4.966930293        21.361574048
C     9.216547181         4.998640638        20.099794196
C    10.564805115         5.446918321        20.024306772
C    11.105491961         5.820546584        18.763596150
C    12.042281407         6.895310040        18.683922213
C    12.367107787         7.450344678        17.436557081
C    12.801907299         8.855065877        17.345442258
C    12.519682255         9.514568144        16.072945993
C    11.349562293        11.527169608        33.140956116
C    10.830468922        11.929115789        31.881060375
C     9.509540020        12.462223142        31.808104387
C     8.856650458        12.532505867        30.548015775
C     7.452713736        12.292441499        30.474580020
C     6.860498540        12.010201559        29.214165938
C     5.791584367        11.068065132        29.141270222
C     5.436235568        10.516539881        27.881220185
C     5.019679368         9.154506621        27.808146063
C     5.006187064         8.498475743        26.548014055
C     5.366378041         7.120226041        26.474460166
C     5.698424275         6.554305834        25.214721134
C     6.726276404         5.567790597        25.141755502
C     7.304920184         5.259448444        23.881184712
C     8.696864336         4.959261413        23.806666466
C     9.349852305         5.003968541        22.545044527
C    10.690843593         5.486308232        22.470779425
C    11.217121603         5.879833310        21.212378438
C    12.103711188         6.993042688        21.142549376
C    12.358007114         7.614059256        19.888115510
C    12.587702378         8.999360978        19.835942612
C    12.686155196         9.710027502        18.563488538
C    11.253244510        11.614541520        35.585583232
C    10.720729264        11.998234853        34.325439170
C     9.382201997        12.485065325        34.252586850
C     8.727374213        12.532514179        32.992582619
C     7.332440722        12.243941788        32.919103468
C     6.750065695        11.941120492        31.659137812
C     5.714025083        10.963482917        31.586258972
C     5.377683695        10.400322247        30.325823192
C     5.007848397         9.024663472        30.252662278
C     5.016690029         8.368710963        28.992781003
C     5.423751930         7.003529288        28.919458560
C     5.775920366         6.449768147        27.659418166
C     6.837482512         5.500273347        27.586553792
C     7.426539052         5.211527000        26.326347046
C     8.828539964         4.958937251        26.252506261
C     9.480592105         5.022869714        24.992347733
C    10.805173626         5.547013318        24.919707572
C    11.323982389         5.948880536        23.659307955
C    12.173353088         7.089789786        23.589529522
C    12.405413968         7.706953212        22.330877802
C    12.533889454         9.122609259        22.263707953
C    12.435166500         9.771589897        21.008337456
C    11.153276039        11.697916615        38.030157309
C    10.608116521        12.063311978        36.770001192
C     9.253563465        12.503730203        36.696984932
C     8.597639702        12.528431868        35.437060260
C     7.213712786        12.191705301        35.363542535
C     6.642258470        11.868724179        34.103588933
C     5.640212483        10.856379833        34.030794475
C     5.322810489        10.282056334        32.770626303
C     5.000514218         8.894421353        32.697325558
C     5.031975358         8.239127856        31.437374367
C     5.485685321         6.888982933        31.364314711
C     5.856071985         6.347573217        30.104103143
C     6.950358155         5.435591629        30.031233947
C     7.549509080         5.168286916        28.771502148
C     8.959436057         4.965567741        28.698114610
C     9.609264405         5.051936887        27.437857236
C    10.914398097         5.621146217        27.365205020
C    11.420766156         6.036142613        26.104378676
C    12.230884235         7.207646637        26.032237569
C    12.442324127         7.828254143        24.773472536
C    12.518053724         9.251017424        24.702724925
C    12.373788817         9.893173431        23.445389551
C    11.050089096        11.777499125         0.026710196
C    10.492994412        12.124119182        39.214625897
C     9.124076900        12.517681069        39.141368548
C     8.467832834        12.519912210        37.881439055
C     7.096339870        12.135716603        37.807938205
C     6.536504757        11.793221605        36.547970138
C     5.570050090        10.746799815        36.475173269
C     5.272793451        10.161840695        35.215258241
C     4.998447681         8.764167954        35.141812842
C     5.052071510         8.110248883        33.881806201
C     5.552077395         6.776547196        33.808951470
C     5.940682770         6.248167511        32.548925542
C     7.066244844         5.375116900        32.475877940
C     7.674168902         5.129336346        31.215974967
C     9.090124725         4.976687231        31.142722439
C     9.736378601         5.085760226        29.882421669
C    11.021460520         5.699848857        29.809429517
C    11.513242225         6.131992030        28.549270990
C    12.284124086         7.329904619        28.475950957
C    12.473325071         7.956917007        27.216043162
C    12.501990309         9.380740645        27.143779100
C    12.334815980        10.015573308        25.884387236
C     8.338082887        12.506653604        40.325706948
C     6.980534704        12.075497167        40.252336287
C     6.433085305        11.714047563        38.992351343
C     5.503269214        10.634967282        38.919424286
C     5.226583877        10.040050552        37.659557476
C     5.000664722         8.633732288        37.586090379
C     5.077017560         7.982189222        36.326187406
C     5.622836981         6.666543867        36.253431522
C     6.029552530         6.152040834        34.993432113
C     7.184519337         5.318637209        34.920095205
C     7.800610654         5.094224669        33.660124726
C     9.221111507         4.990869641        33.586913184
C     9.863055756         5.123043080        32.326771533
C    11.126443864         5.780713176        32.253550346
C    11.602846176         6.230396751        30.993377353
C    12.333056240         7.453258579        30.919661935
C    12.501882254         8.086258476        29.659397328
C    12.482367858         9.510668694        29.586581171
C    12.293296152        10.138827526        28.327037421
C     5.184049593         9.916826020        40.103719291
C     5.006900511         8.503402302        40.030317288
C     5.106026738         7.854837256        38.770419136
C     5.697023912         6.558863702        38.697612623
C     6.121381240         6.058680225        37.437671076
C     7.304519322         5.265529164        37.364148529
C     7.928135359         5.062736370        36.104231090
C     9.351459611         5.008555501        36.031135270
C     9.988549139         5.163309892        34.770971921
C    11.228519392         5.864089457        34.697553042
C    11.689456446         6.330259016        33.437423445
C    12.377366183         7.577508439        33.363712848
C    12.524932532         8.216240552        32.103571196
C    12.456675076         9.639116638        32.030506718
C    12.246571390        10.260723348        30.770572404
C     6.216074833         5.968720356        39.881890752
C     7.425871914         5.216720133        39.808279001
C     8.056267870         5.035449122        38.548361563
C     9.480666393         5.030451913        38.475364590
C    10.112184376         5.207330698        37.215247047
C    11.327192178         5.950680648        37.141659405
C    11.772006000         6.432549532        35.881614190
C    12.416470228         7.702758691        35.808137449
C    12.542186473         8.346495138        34.547877664
C    12.424813557         9.765993640        34.474721572
C    12.194184396        10.380144610        33.214613673
C    10.234052155         5.255148243        39.659587267
C    11.422786383         6.040064624        39.585871848
C    11.850672357         6.537277798        38.325860385
C    12.451207726         7.828786695        38.252574105
C    12.554807590         8.476673137        36.992364949
C    12.388574877         9.891346602        36.919032862
C    12.136947504        10.497407163        35.659067205
C    12.562661780         8.606899225        39.436975189
C    12.347437097        10.014958230        39.363488804
C    12.075168476        10.612044356        38.103499039
Se    14.678388219         9.543123544        17.955168776

