Ge Se                                   
    1.000000000000000     
     3.8581001759000002    0.0000000000000000    0.0000000000000000
     0.0000000000000000    4.5265750884999996    0.0000000000000000
     0.0000000000000000    0.0000000000000000   11.5851764679000002
   Ge   Se
     4     4
Direct
  0.0181159452005488  0.6034897341593037  0.1319717445072186
  0.5181159093055498  0.1034897214717390  0.3680282282876917
  0.7499998549169717  0.9037565484439227  0.8680282493168505
  0.2499997814687589  0.4037565014541187  0.6319717590821057
  0.0181159290254058  0.4867120814996753  0.3511099272482383
  0.5181159455118447  0.9867121022160958  0.1488900489974512
  0.7499997605040534  0.0205341518219768  0.6488900756728953
  0.2499998376634309  0.5205341758546211  0.8511099464221417
 
  0.00000000E+00  0.00000000E+00  0.00000000E+00
  0.00000000E+00  0.00000000E+00  0.00000000E+00
  0.00000000E+00  0.00000000E+00  0.00000000E+00
  0.00000000E+00  0.00000000E+00  0.00000000E+00
  0.00000000E+00  0.00000000E+00  0.00000000E+00
  0.00000000E+00  0.00000000E+00  0.00000000E+00
  0.00000000E+00  0.00000000E+00  0.00000000E+00
  0.00000000E+00  0.00000000E+00  0.00000000E+00
