Ge Se 
 1.0000000000000000
    12.4714333640159243    0.0000048245478038   -0.0000015888041349
     0.0000048335077212   12.4945961450114620    0.0000022487552547
    -0.0000018150595965    0.0000025642296433   11.0679535346586153
 Ge  Se 
  36  36
Cartesian
  1.0177537937461796  0.1732360263021492  1.4817926273503650
  3.0891617296511198 10.4562196447529860  4.1701339996591837
  7.1221837224421520  2.3527265666220201  3.9593257307604630
  7.2557755633226266  6.3805305657663922  4.3086035065008232
  7.2096391247055926 11.0609715519372145  4.0809663680973163
 11.5488026627222897  2.2315201915192913  4.0586964891911217
 11.0722005515166124  6.7022001266713298  4.2317757797003228
 11.3224568968816826 10.7832763359493686  4.1117931571555637
  0.9068173861851212  2.0336489916317015  7.1077265652940582
  1.2807427217819465  6.2011675229780119  6.8840434792886622
  0.8185628350751939 10.3125797357427018  7.0898318589892542
  5.2513109495705459  1.8759724939529594  6.9565099329310689
  4.9756257350843489  6.1236289397913026  6.8498851214822762
  5.5126493365700746 10.3986000465477275  6.8965726399141838
  9.3387897777468662  2.1167751297624839  6.7142422512783835
  9.2993729574958799  6.0963647244974535  6.9151985845224626
  3.1507715673606747  6.6390388590977585  4.0907595877269607
  2.8479582784927451  2.5610159281752427  4.0523574232864767
  8.9631826748176895 10.1410902037490533  6.9632397571803537
 11.0862119802151575  8.0116141557979947  9.8272132746247607
 11.3205984521591532 12.4748405382599064  9.4553165731911264
  0.9861858594913608  4.7757866570963845  1.5351873159986533
  0.9763855600348116  8.7104267624635963  1.4988641021592342
  5.0218099471981512  0.6911327237111637  1.4236983497916564
  5.1490534959994996  4.5355353763178421  1.1699039475149398
  9.5122999345047834  0.4524421258221588  1.2121762736005792
  9.4048295157148516  4.2640011054327713  1.3893047102047154
  5.2133627292318545  8.4882469632349107  1.4298350575917325
  3.0037374224460471  4.0371798018860074  9.8186917650013719
  3.0780403374388574  8.2748033211612952  9.7078119600075183
  2.8979445826594987 12.1438999522184119  9.3943591848106998
  6.9860988498831871  3.9309436737718322  9.6776476086443992
  7.1019167217993990  8.2110504646636659  9.6288051646849979
  7.4966389694509097 12.6597249047740927  9.6693107469743271
 11.5396492866817546  4.2245592450905596  9.4309619390661155
  9.1050789731943205  8.6208105912058990  1.5476603579202222
 11.2217938205322678  0.4547251789953968  6.9365264029779032
  3.0063972937429719  4.3565532730473997  7.3023601786117673
  2.6636384859140820  8.5717217255365306  7.1370811608964457
  7.1097275141505500  0.0523214274627783  7.1923943236998351
  6.7403594938936093  4.3019093586771779  7.1040520659437361
  7.0570715876379824  8.3402803444282085  7.1095228903143823
 11.1149898266929963  4.4108115306163169  6.9917959720170710
  8.9835122593114551  0.4423432611273246  3.8031173702577772
  0.6349545759233837  0.1228325084201735  4.0454374910800741
  0.9325024432264400  4.2326406856269871  3.9581953069439404
  0.5274679539394140  8.5064330793206082  3.9984871400394946
  4.9111580133566131  0.1179454580736547  3.9035944593017629
  4.6684806543752391  4.5043602093432140  3.8323191721100214
  4.7784759826947676  8.5007393818801820  3.8987907447229255
  2.6889471097775908  0.2164835914880452  6.9653398814919605
 11.1220010621318846  8.4290970816277646  7.1706690917334903
 11.0617635244905834 10.6413673860793612  1.5211551652168631
  2.7550346811986870  2.1403957163913003  1.5744663649645165
 11.3093761975817131  2.3315510598538562  1.4857925318336929
  8.8481453870832727  4.4760732239872025  3.9702784179097885
  0.8444322668823216  2.3120322655508425  9.7271237008471161
  0.7653276713436683  6.2310937845775118  9.3657420404650633
  0.5999300593674187 10.6248158000100457  9.6670699889431670
  4.7803129209273205  2.1908672577967288  9.4261269228529674
  4.9702962837399509  6.4327699559894258  9.3559202531543946
  4.8568658302700642 10.4575106603981549  9.3474041659864042
  9.0311600470734330  2.2494595629751406  9.4982605883905808
  8.9810686735596637  6.3527814272303473  9.4452241667314389
  9.2201917899295527 10.6229406359048451  9.3362759617202524
  2.8274374655617356  6.6157404828918640  1.4433784694180165
  2.6838507433548422 10.6782292446745135  1.5879600933999631
  6.7320159220599063  2.4473125357427614  1.5107402142607016
  6.9929013775259712  6.3512587952476647  1.6833850399024053
  7.1916677457569600 10.3824739139155913  1.5795946776682599
 11.2724261034915205  6.2345342975026030  1.6077957206456850
  9.1340814907916048  8.2599920215327050  3.9441466860303152
