Ge Se
 1.0000000000000000
     4.4500000000000002    0.0000000000000000    0.0000000000000000
     0.0000000000000000    3.8999999999999995    0.0000000000000000
     0.0000000000000000    0.0000000000000000   11.1422209999999993
 Ge  Se 
   4   4
Selective dynamics
Cartesian
  0.4821241305748178  0.9750000000000001  1.3969465961499550   T   T   T
  2.7071241305748170  2.9249999999999998  4.1741639038500447   T   T   T
  3.9678758694251823  2.9249999999999998  9.7452744038500452   T   T   T
  1.7428758694251831  0.9750000000000001  6.9680570961499546   T   T   T
 -0.0302148387731692  0.9750000000000001  3.9349629629405398   T   T   T
  2.1947851612268319  2.9249999999999998  1.6361475370594611   T   T   T
  4.4802148387731711  2.9249999999999998  7.2072580370594599   T   T   T
  2.2552148387731683  0.9750000000000001  9.5060734629405399   T   T   T
