Ge Se 
 1.0000000000000000
    12.4483300390324327   -0.0000007625926991   -0.0000008179650978
    -0.0000007659587816   12.5032723162445638    0.0000021537700853
    -0.0000009362288566    0.0000024543349624   11.0684945329172688
 Ge  Se 
  36  36
Cartesian
  1.0624219633118110  0.3345916326141878  1.4064099652063604
  3.2608409353765682 10.7993590316314254  4.0571552674422469
  6.9955118727157917  2.5905315072215207  3.8942287228539709
  7.2759026259300477  6.5620844146731629  4.1965248549978824
  7.2286016119259786 11.1272108159036875  4.1461653662523750
 11.4431804142319500  2.4720616807437223  3.9791453120609730
 11.1350362084557872  6.6991712304692115  4.1156945612822451
 11.3497847085312298 10.9689736150722243  4.2455187139633210
  0.7960852106875748  1.6107477824743521  6.9616335831670977
  1.0250564537018774  5.9088122436388888  6.7636751916533173
  0.9131519574644158 10.3136345457461527  7.0146078379735961
  5.2115641268218589  2.2036110147313073  7.0597256505387378
  4.9180326780910972  6.1065098738018051  6.9637550996351472
  5.2455768334599586 10.3205591444604252  6.6510716166274504
  9.4213816284173770  1.7900912766353674  6.6165182106316029
  9.6672947752558898  6.2868142412599282  6.8733288158086925
  2.8196052592228797  7.0229907334383750  4.3823650855557217
  3.0912578729393707  2.5079356712178917  4.2451012299686024
  8.9735660965155368  9.8681597542059585  6.7785001892965067
 11.5504540393651673  8.2964692628663173  9.8444195316273539
 10.9654608910979654 12.1069104931706892  9.6284474829982720
  0.8444122283939608  4.9169706685518113  1.3995138648184260
  0.9433444517012091  8.8974704677471586  1.5075999888353553
  4.9826030411515205  0.5438772725994823  1.4021916424268821
  4.7917095973273938  4.9635586253640662  1.3775204504722038
  9.2415309062903379  0.4111381116922666  1.2434474111791838
  9.4527510593884578  4.5552002507163767  1.3138790703594661
  5.3821045256065023  8.8016627681995878  1.3573972914169707
  2.6036419426812953  3.8125811989103395  9.4449153633368965
  2.9977216204905446  8.1138332892922485  9.5249522548204659
  3.3319121974145656 12.4077801693486940  9.4996488770233096
  7.2602327416647112  4.1972679327031850  9.6200622144762065
  7.0582714899219079  8.0365567130677427  9.7712334626407085
  7.1877219718984735 12.2082066553152835  9.5474518395914103
 11.1511696057556300  3.9372906339951452  9.7028528996906722
  8.9720772875983492  8.9710894013775189  1.2734099979550029
 11.0796424426514655 -0.0241330188931467  7.0151091242017500
  2.9808560761227718  4.3019820422373041  7.0017705246464796
  2.9868888407880885  8.6312864150495532  7.1058859667461522
  7.1163324949251336  0.4695806506243114  7.0490964715190909
  6.7727694661155278  4.2913266977077020  7.0594227469095472
  6.9419387961878716  8.3644643062140993  7.1712593640686038
 11.3719719249685376  4.3207420273425985  7.0412010615923633
  9.0420828875847299  0.2785221466825846  3.7877014565294607
  0.7732416138693484  0.2386324303245763  3.8463873705605129
  0.9313244088024313  4.3572873518980684  3.8666592730499998
  0.6066018804031176  8.4508088892988660  4.0676250902124629
  4.9316582482746281  0.4010931221570985  4.0428582369923101
  4.8825731223248479  4.4166631853601066  3.8856784587100019
  4.8051889059416499  8.6118020265262896  3.9593792944135302
  2.7027150482668469 -0.0343865585029383  7.1200039383570850
 10.9756403056200202  8.3922083241934899  7.3358551939796284
 11.1614509506291828 10.3573025831915473  1.6222918679794891
  2.9617866847875578  2.1759263994417992  1.6035977473353307
 11.0876419945439757  2.3058345281975328  1.4329332489112947
  9.1193995296919610  4.2185034800837586  3.9827167775848040
  0.6811471792118694  2.1782315408879245  9.4930809418200610
  0.9440220216878602  6.6036011734352345  9.4707721555508790
  0.5594354537708766 10.5483843304356721  9.4648589107810963
  4.7651609973967499  2.2751579956213801  9.6186184388021960
  4.8568575956003297  6.3653555898272938  9.6587500419897960
  5.1095203018876783 10.7379483938104858  9.1844505723466003
  8.9867206508181496  2.3489979988947094  9.1116339738687557
  8.8761063040219987  6.2671045099854004  9.2965825397006139
  9.0516740851282460 10.4191153995448111  9.3472034463131912
  2.7996922328237956  6.6339720998645717  1.6623652805856930
  2.9201699763462101 10.6862770919841736  1.4739079729003608
  7.0896377696936899  2.2812595660346000  1.5271939045450029
  6.8835942973796822  6.4121747176116815  1.6719825562878059
  7.0770561985767308 10.6740384938019837  1.5304063287586376
 11.2212219091491292  6.5580866951997825  1.5309762495153860
  9.0853618499332462  8.3745862713287842  3.9015504530167067
