 C  S 
 1.0000000000000000
    32.3722991942999982    0.0000000000000000    0.0000000000000000
     0.0000000000000000   19.9214134216000005    0.0000000000000000
     0.0000000000000000    0.0000000000000000   40.4480476378999967
 C   S  
 364   1
Cartesian
    12.008395801        10.724119120         0.099733082
    11.937693618        10.834083859         2.544045351
    10.943130868        11.853872070         2.471079870
    10.374669268        12.180733644         1.210900172
     8.993108449        12.526963043         1.137509244
    11.862361506        10.941664281         4.987946789
    10.833819567        11.926925020         4.915288847
    10.254701120        12.234062547         3.655160154
     8.861933537        12.532407312         3.581716262
     8.207665319        12.489239067         2.321773359
     6.865716980        12.011829496         2.248738866
     6.331363364        11.631555901         0.988567757
     5.439326208        10.521081719         0.915549236
    11.782725556        11.046646652         7.431618891
    10.721636147        11.997080692         7.359534440
    10.132652930        12.283839910         6.099531415
     8.730551200        12.534263232         6.026213190
     8.078294527        12.467869271         4.766030855
     6.753968188        11.944137697         4.693224342
     6.232932254        11.545655188         3.433157730
     5.379900253        10.404885459         3.359972406
     5.145104735         9.792361832         2.100079227
     5.017115492         8.373670769         2.026869945
     5.138555396         7.728915525         0.766735601
     5.773913645         6.454058848         0.693779689
    11.700175037        11.148908670         9.875277431
    10.607673691        12.062854826         9.804385166
    10.008743699        12.329591957         8.543955413
     8.599383041        12.531614123         8.471047643
     7.949699409        12.443161669         7.210699861
     6.644280145        11.873203085         7.137921676
     6.137564287        11.456606655         5.878004237
     5.324700955        10.286815468         5.804566071
     5.111374939         9.666368856         4.544517540
     5.032428799         8.244185624         4.471403940
     5.175830720         7.603980530         3.211270124
     5.854519671         6.351499978         3.138166469
     6.312614030         5.881921962         1.878114322
     7.547443025         5.171999944         1.804476353
     8.184048722         5.012660967         0.544456828
     9.607758399         5.056698396         0.471370615
    12.003402153        10.711703574        13.576362959
    11.614771694        11.245861784        12.317736553
    10.492466683        12.119228245        12.249206962
     9.884707118        12.369871238        10.989383548
     8.468475371        12.523231017        10.916780756
     7.822265392        12.413269841         9.656603544
     6.537280914        11.798143414         9.583252170
     6.045776580        11.363966210         8.322845320
     5.274507847        10.166735194         8.248999110
     5.082250954         9.539406955         6.989023208
     5.052382166         8.115158818         6.916000920
     5.217608624         7.480352278         5.655976800
     5.938807740         6.251876976         5.582641699
     6.412621574         5.798286825         4.322422297
     7.671065238         5.131037903         4.248920242
     8.312766365         4.993962247         2.988824397
     9.734164454         5.087135245         2.915633347
    10.352450621         5.307381167         1.655673718
    11.513355104         6.132654604         1.581890342
    11.924558279         6.644238393         0.321962808
    12.480410340         7.955730786         0.248881134
    11.937240177        10.786797679        16.020076348
    11.524066941        11.318544262        14.765125346
    10.372803403        12.154329236        14.695851994
     9.759877496        12.395032430        13.438376789
     8.338813218        12.503115126        13.364332284
     7.696623917        12.375021030        12.102693468
     6.433518486        11.717609789        12.028377738
     5.956568185        11.268352493        10.767630953
     5.226862695        10.044827498        10.693496039
     5.057378708         9.411356793         9.433670817
     5.076512986         7.986931733         9.360550285
     5.263941689         7.358255191         8.100434551
     6.026683305         6.155368547         8.026945153
     6.515325650         5.717959810         6.767031331
     7.795976865         5.093511630         6.694003619
     8.441886318         4.979005646         5.433391844
     9.858992146         5.121021517         5.359959102
    10.469621901         5.362668701         4.099972049
    11.601351748         6.227652056         4.026108662
    11.994710543         6.753469313         2.766317795
    12.504923208         8.083415226         2.693297617
    12.564420556         8.737048132         1.433302879
    12.300682428        10.136786370         1.359726087
    11.911161487        10.957624242        18.472936658
    11.446300715        11.399089761        17.226756480
    10.251478790        12.179721972        17.145035696
     9.629471506        12.394812759        15.884921769
     8.210610761        12.468416666        15.809390949
     7.571317216        12.328487667        14.547668959
     6.328057581        11.633160090        14.472959047
     5.868656923        11.168219499        13.212620908
     5.181346308         9.920305721        13.138341340
     5.035495320         9.281748157        11.877778989
     5.103583941         7.859343473        11.804501146
     5.312669312         7.237425661        10.544723540
     6.116667375         6.061113226        10.471264881
     6.621324897         5.641447938         9.211748856
     7.922347223         5.061017595         9.139276252
     8.571453923         4.967565854         7.878213640
     9.983178266         5.157819908         7.804692900
    10.584512465         5.421223389         6.544577769
    11.685209530         6.325441699         6.470446471
    12.060255066         6.864942061         5.210482623
    12.523522039         8.211745022         5.137162590
    12.561333293         8.867219599         3.877457310
    12.249762848        10.257205056         3.803920297
    11.806402934        11.052027989        20.927051838
    11.351672244        11.503189888        19.651283993
    10.129755727        12.237755388        19.580660543
     9.502272410        12.422161158        18.324751212
     8.074047128        12.452993414        18.251159954
     7.443991736        12.280065138        16.993635325
     6.223589906        11.545740681        16.918322691
     5.782114670        11.064027942        15.656976799
     5.139417417         9.794320463        15.582887692
     5.015018083         9.151387891        14.322280738
     5.132227471         7.731453611        14.248919721
     5.364054393         7.117821538        12.989369943
     6.207524079         5.969596070        12.915820876
     6.728065087         5.568237657        11.656002284
     8.048737360         5.034660683        11.583858766
     8.701109323         4.961813749        10.324128172
    10.106895509         5.199925423        10.251117939
    10.697910531         5.483511291         8.989271184
    11.765464862         6.425715995         8.914424455
    12.121372262         6.978156738         7.654395513
    12.537179318         8.340587780         7.580223230
    12.552221043         8.997127462         6.321152617
    12.193138585        10.375574274         6.247980251
    11.705848848        11.147817442        23.367845637
    11.256378082        11.618039627        22.100189237
    10.011646691        12.320736263        22.025938600
     9.373920414        12.460978738        20.766578077
     7.950491485        12.428675282        20.694304372
     7.321360342        12.235002975        19.434973985
     6.128349771        11.456296741        19.361559928
     5.698748438        10.961155596        18.102375400
     5.100127171         9.666503627        18.028573189
     5.000058846         9.019771347        16.768544850
     5.166103429         7.604820622        16.694647409
     5.418327513         6.999481412        15.433788517
     6.299651867         5.881107993        15.359869378
     6.833412631         5.497119589        14.100629400
     8.174386553         5.012899042        14.028409939
     8.830769546         4.966271875        12.770080073
    10.226788404         5.253898495        12.697841325
    10.809743740         5.550338657        11.434290673
    11.846492974         6.528086661        11.358882809
    12.179709956         7.093221991        10.098411468
    12.546498029         8.469445973        10.022283349
    12.538057259         9.126571048         8.763357390
    12.132221097        10.491587673         8.691119245
    11.616725353        11.245861784        25.809632723
    11.145919670        11.702250657        24.549254804
     9.887203942        12.370125343        24.473326187
     9.246831302        12.500842425        23.209519980
     7.824609300        12.406632226        23.137848998
     7.204642504        12.186817927        21.879503460
     6.040373387        11.363775037        21.806571581
     5.628025995        10.851450899        20.547514831
     5.075351403         9.539275152        20.474187566
     4.992712608         8.888563866        19.213310592
     5.208161117         7.480313688        19.139254032
     5.476214659         6.883298213        17.879373963
     6.396840837         5.793743799        17.805358388
     6.942602854         5.430760063        16.545911073
     8.299550950         4.996955705        16.473050316
     8.957594312         4.977801614        15.213735600
    10.338277190         5.325451747        15.140900157
    10.915925328         5.630451939        13.881654151
    11.930014052         6.637902973        13.808317242
    12.239394469         7.210583692        12.540625884
    12.554115851         8.596789627        12.460461331
    12.521603112         9.254877690        11.203782925
    12.070162286        10.606305609        11.133615133
    11.530089999        11.342310249        28.253276195
    11.040362288        11.780106675        26.993378044
     9.761266765        12.405493501        26.918440303
     9.116327870        12.521512837        25.656374760
     7.697881011        12.376949381        25.583691203
     7.088677186        12.133044933        24.324005210
     5.956991237        11.267966585        24.251242094
     5.562179498        10.742386216        22.991433145
     5.053879489         9.411502250        22.918701370
     4.993788808         8.758019552        21.659210659
     5.257762822         7.357989805        21.585439790
     5.548070706         6.770741361        20.325020886
     6.504537113         5.716903609        20.251170457
     7.057905857         5.369330657        18.989547313
     8.429468767         4.985272790        18.914556533
     9.082913071         4.986442388        17.657058424
    10.451580708         5.395738629        17.583032000
    11.007600639         5.740814460        16.327122669
    11.991267280         6.772900664        16.257564832
    12.310576142         7.328790829        14.981850027
    12.583084990         8.729952177        14.897065000
    12.504390656         9.381858590        13.641910278
    11.441363024        11.436344711        30.696960653
    10.936487464        11.856484369        29.437057680
     9.635355636        12.436304384        29.363298865
     8.985606400        12.529987373        28.102966753
     7.574110707        12.337874134        28.029444206
     6.973288801        12.074707540        26.768528658
     5.873193753        11.169472215        26.695765541
     5.498317051        10.630617804        25.436094014
     5.035482295         9.283119020        25.363395991
     4.999402803         8.627700252        24.103688300
     5.311780277         7.238404086        24.029857159
     5.622016445         6.661016479        22.769520225
     6.615741292         5.640041452        22.695877133
     7.182068822         5.313422703        21.435369026
     8.565049782         4.972270367        21.360628978
     9.218548114         5.006910346        20.098944356
    10.566935326         5.454653696        20.023306252
    11.109468741         5.827721501        18.763111561
    12.054190524         6.897663484        18.682338257
    12.385807918         7.446759297        17.436391935
    12.845248613         8.854259626        17.339618749
    12.523047372         9.514097337        16.067628772
    11.348796266        11.527148235        33.141009155
    10.829681670        11.929271339        31.881224316
     9.508892660        12.462641110        31.808060991
     8.855983802        12.533112633        30.547960325
     7.452131980        12.292921212        30.474293124
     6.860072112        12.010600528        29.213789839
     5.791523104        11.068050883        29.140857960
     5.436472901        10.516332084        27.880781402
     5.020230251         9.154195519        27.807808538
     5.006653047         8.498075586        26.547751268
     5.366830518         7.119840133        26.474125052
     5.698733484         6.553911614        25.214366733
     6.726775672         5.567657014        25.141114205
     7.305785582         5.260279036        23.880369831
     8.697858049         4.960785749        23.805740684
     9.351156673         5.007402527        22.544210359
    10.692442216         5.489169294        22.470391272
    11.219559576         5.883947682        21.212655690
    12.107016489         6.995910280        21.143889832
    12.364386171         7.618219936        19.889219698
    12.591191950         9.000841677        19.841498512
    12.727412607         9.722378334        18.569447056
    11.252676261        11.614501148        35.585510905
    10.720132071        11.998258602        34.325470511
     9.381614453        12.485199502        34.252490414
     8.726747113        12.532792033        32.992527169
     7.331865719        12.244113962        32.918862379
     6.749544719        11.941306915        31.658887079
     5.713778585        10.963403360        31.585853942
     5.377712638        10.400154823        30.325379588
     5.008196196         9.024421834        30.252223496
     5.017244289         8.368386206        28.992334988
     5.424178359         7.003177221        28.919005312
     5.776383938         6.449289027        27.658972151
     6.837656653         5.499537154        27.585979999
     7.426897464         5.210967731        26.325705749
     8.828867020         4.958388965        26.251874607
     9.481245254         5.023211094        24.991788406
    10.805712932         5.547487688        24.919750968
    11.325120817         5.950272180        23.659693698
    12.174512742         7.090775929        23.591070082
    12.407255713         7.708699297        22.332640163
    12.536756749         9.123863162        22.267003642
    12.440164972         9.773055159        21.011727170
    11.152794619        11.697885742        38.030051229
    10.607651502        12.063281106        36.769916811
     9.253039595        12.503726641        36.696874031
     8.597151529        12.528466303        35.436956592
     7.213200976        12.191663742        35.363349663
     6.641788144        11.868708742        34.103362309
     5.639863719        10.856232594        34.030444895
     5.322625736        10.281896034        32.770255026
     5.000460191         8.894218306        32.696886776
     5.032143710         8.238892749        31.436906654
     5.485707028         6.888684893        31.363871106
     5.856176180         6.347133876        30.103649896
     6.950181120         5.434806752        30.030802398
     7.549442993         5.167290087        28.771060954
     8.959296165         4.964409127        28.697769852
     9.609389825         5.051073047        27.437507656
    10.914290043         5.620609508        27.365294223
    11.420955251         6.036209702        26.104689681
    12.230945980         7.207790907        26.033259787
    12.443197243         7.828874564        24.775003453
    12.519280911         9.251644970        24.704918836
    12.376248980         9.894429709        23.448092161
    11.049559438        11.777562058         0.026568512
    10.492533252        12.124138180        39.214495709
     9.123569431        12.517710754        39.141260058
     8.467405441        12.519892024        37.881296812
     7.095873403        12.135648921        37.807795963
     6.536095695        11.793151548        36.547791732
     5.569649228        10.746685823        36.474939412
     5.272463500        10.161713642        35.214983400
     4.998117247         8.764044464        35.141492194
     5.051825976         8.110133111        33.881449389
     5.551737314         6.776336431        33.808613946
     5.940376938         6.247865315        32.548559086
     7.065785613         5.374573067        32.475607920
     7.673760804         5.128511691        31.215707358
     9.089684790         4.975652107        31.142551266
     9.736098818         5.084617345        29.882279426
    11.021009973         5.698974924        29.809525953
    11.512868860         6.131423262        28.549531366
    12.283269300         7.329593518        28.476630829
    12.472787695         7.956971628        27.217087078
    12.501366103         9.380728771        27.145172595
    12.334984815        10.016017399        25.886079682
     8.337618833        12.506743847        40.325545418
     6.980073544        12.075549413        40.252263960
     6.432683960        11.714030939        38.992230799
     5.502875105        10.634951846        38.919327850
     5.226200381        10.040018492        37.659415234
     5.000237811         8.633728132        37.585931260
     5.076575213         7.982185660        36.325965604
     5.622312147         6.666473809        36.253236240
     6.028981387         6.151929811        34.993198257
     7.183890790         5.318367073        34.919936086
     7.799958469         5.093749706        33.659948731
     9.220481512         4.990274749        33.586838446
     9.862466282         5.122201207        32.326737780
    11.125781067         5.780055351        32.253620262
    11.602151542         6.229769206        30.993534061
    12.331926495         7.452844173        30.920013925
    12.500669539         8.086035243        29.659980764
    12.481032616         9.510400933        29.587289974
    12.292205962        10.138847712        28.328035530
     5.183692628         9.916866985        40.103733756
     5.006496272         8.503481264        40.030370327
     5.105552071         7.854915625        38.770373329
     5.696444085         6.558916542        38.697583693
     6.120731467         6.058698037        37.437562586
     7.303832406         5.265462669        37.364073791
     7.927383804         5.062559446        36.104144298
     9.350742787         5.008329300        36.031082231
     9.987793725         5.162905580        34.770950223
    11.227790027         5.863758170        34.697567507
    11.688647969         6.329814925        33.437481306
    12.376410096         7.577196744        33.363826160
    12.523769020         8.215946668        32.103792998
    12.455468149         9.638823941        32.030779149
    12.245291141        10.260536925        30.771047349
     6.215440979         5.968786257        39.881905217
     7.425167149         5.216716570        39.808281412
     8.055523068         5.035415281        38.548313345
     9.479909048         5.030371169        38.475311550
    10.111412560         5.207182865        37.215206062
    11.326457024         5.950529847        37.141596722
    11.771236114         6.432296020        35.881609368
    12.415727356         7.702561581        35.808115751
    12.541320110         8.346239252        34.547911417
    12.423985784         9.765789999        34.474745681
    12.193239886        10.379923752        33.214755916
    10.233280339         5.255033064        39.659498064
    11.422021321         6.039951227        39.585780234
    11.849930449         6.537131747        38.325768771
    12.450538176         7.828669142        38.252504189
    12.554147688         8.476484339        36.992285389
    12.387991192         9.891220737        36.918970178
    12.136331981        10.497244488        35.659040685
    12.562002843         8.606755548        39.436842590
    12.346857271        10.014882236        39.363370671
    12.074669690        10.611946988        38.103392960
    14.493572112         9.519005491        17.955190474

