 C  S  O                                
    1.000000000000000     
    32.3722991942999982    0.0000000000000000    0.0000000000000000
     0.0000000000000000   19.9214134216000005    0.0000000000000000
     0.0000000000000000    0.0000000000000000   40.4480476378999967
   C    S    O 
   364     1     1
Direct
  0.3709817626802338  0.5383322715108306  0.0024661398839323
  0.3688198886269446  0.5438510754383921  0.0629105739706986
  0.3380825130703505  0.5950172388959331  0.0610984830958156
  0.3205152732085701  0.6114246953239888  0.0299438849059852
  0.2778328842845288  0.6287878788788355  0.0281224304875201
  0.3665256967512728  0.5492434406127235  0.1233549242520007
  0.3347169679463394  0.5986503490228060  0.1215399253236832
  0.3168153599444771  0.6140603751945005  0.0903812595551114
  0.2737892395985004  0.6290087939193907  0.0885521729818033
  0.2535747251214752  0.6268673633756869  0.0574017245471963
  0.2121197346542237  0.6028981643256720  0.0555867112591420
  0.1956105068157115  0.5838183652914241  0.0244350853012704
  0.1680557620815670  0.5280712193144776  0.0226229096515086
  0.3640658162660493  0.5544886644553084  0.1837972596860676
  0.3312388341545782  0.6020884479613594  0.1819726307920124
  0.3130449277070796  0.6164937428163684  0.1508117676662285
  0.2697275188523364  0.6290311826104333  0.1489774819425614
  0.2495804486995675  0.6257427627629341  0.1178267957335458
  0.2086594169182653  0.5994723396973328  0.1160160607008427
  0.1925681402988915  0.5794817465185308  0.0848623238310955
  0.1662117146118315  0.5222326103352694  0.0830472958464824
  0.1589626346359748  0.4914842051228736  0.0519009495873062
  0.1550115795649653  0.4202683241938134  0.0500875701639215
  0.1587789422366000  0.3879014220709767  0.0189392535170070
  0.1784167619667328  0.3239170968285479  0.0171328406339783
  0.3614488174846278  0.5596032783037252  0.2442318699235579
  0.3276595561405118  0.6054068549073469  0.2423973314196273
  0.3091876377669537  0.6187551087688371  0.2112390107091406
  0.2656370481458117  0.6288826281878139  0.2094008185895029
  0.2455851574190623  0.6244310656093286  0.1782449748213353
  0.2052510244355797  0.5958888860789172  0.1764387024167589
  0.1895982445580262  0.5750026400171726  0.1452889577932009
  0.1644677260697014  0.5163095670463493  0.1434728576249150
  0.1578941713339190  0.4851605510900224  0.1123269919794034
  0.1554568690470406  0.4137702306775844  0.1105194090535799
  0.1599143702677683  0.3816300408076749  0.0793669675884727
  0.1808938467863343  0.3187833262134332  0.0775600775004219
  0.1950605760764394  0.2952092539491190  0.0464160130840976
  0.2332172994842016  0.2595980988086843  0.0445973800589119
  0.2528870476459783  0.2516101493266907  0.0134497389572853
  0.2968648448898130  0.2538444580701191  0.0116437456904403
  0.3704706725058564  0.5379761311424552  0.3358053102214903
  0.3586531948675201  0.5646139957532654  0.3046559151681085
  0.3239955388763014  0.6086562695485325  0.3028267235069781
  0.3052606652240862  0.6209110729070275  0.2716512780246449
  0.2615350837463498  0.6286124823693842  0.2698213887876181
  0.2415961984518041  0.6229910690410695  0.2386658256808822
  0.2018925189032601  0.5921777576674283  0.2368658689279493
  0.1867151536111744  0.5703788171674322  0.2057209835134144
  0.1628581876098337  0.5102996514552380  0.2039063635552662
  0.1569522779530702  0.4787964286233993  0.1727549335515196
  0.1560350763832391  0.4073161613140847  0.1709524442423375
  0.1611636413194839  0.3754393443581347  0.1398009399796235
  0.1834674579053810  0.3137966752293141  0.1379915592815154
  0.1981391273436023  0.2910389670400462  0.1068435499879498
  0.2370281155668959  0.2575995182173776  0.1050329458187047
  0.2568620199278333  0.2507081386967251  0.0738829496064059
  0.3007682004131128  0.2554101921558690  0.0720814808010166
  0.3198649074735024  0.2664473292975819  0.0409327529797830
  0.3557249608166592  0.3078839970666226  0.0391121541821770
  0.3684147350374803  0.3335572723464267  0.0079571879548128
  0.3855785214544039  0.3993904065547205  0.0061503229824905
  0.3679478047491241  0.5431835539747610  0.3961788288504102
  0.3556885406346879  0.5694455077314405  0.3650251418296079
  0.3202695357169208  0.6116950881080214  0.3632434474829514
  0.3013082308409208  0.6230538853978581  0.3320741344847650
  0.2574257889471779  0.6282926947860159  0.3302598514180506
  0.2376344917441481  0.6214320782952629  0.2991092988998222
  0.1986365229581064  0.5883068421017346  0.2973096261578974
  0.1839368513360881  0.5656325770386595  0.2661565997058756
  0.1614000151953573  0.5042314388298937  0.2643470851537617
  0.1561444440857407  0.4724152242206501  0.2331931184662373
  0.1567480742822836  0.4009125279862338  0.2313918081801225
  0.1625546047434151  0.3693446517118994  0.2002403743957107
  0.1861470702119887  0.3089847393732228  0.1984236921821067
  0.2012831467786319  0.2870472996220748  0.1672695950305925
  0.2408555976812713  0.2557892391711290  0.1654656722260426
  0.2608339830744737  0.2500250907452947  0.1343162519651441
  0.3046154179863399  0.2571795063405692  0.1325189064018209
  0.3234823614752896  0.2692821593204766  0.1013693262435925
  0.3584480057100102  0.3126853677675303  0.0995581935785773
  0.3705947850449073  0.3390530506814857  0.0684018985335179
  0.3863613831130931  0.4058059244270215  0.0666005021757246
  0.3881828753462205  0.4386033212713957  0.0354432290934496
  0.3800268670384596  0.5088644040081252  0.0336208751543050
  0.3656279061553693  0.5472617019204510  0.4565271807252135
  0.3526418513756887  0.5733579222215863  0.4254589913057187
  0.3164760268562872  0.6139606654744054  0.4237039840608116
  0.2973324168378620  0.6247342565323873  0.3925708841713252
  0.2533555857563412  0.6276055242722982  0.3907484705642514
  0.2337146229064235  0.6196808604147974  0.3595641629767155
  0.1955042040259001  0.5842561445750407  0.3577552708518556
  0.1812970434263277  0.5607440055949096  0.3266030009978810
  0.1601150810148000  0.4980579938694912  0.3247967245115624
  0.1555234187673260  0.4659780886779701  0.2936446824635180
  0.1576262187791713  0.3945495542032537  0.2918374650968311
  0.1640738446864946  0.3633259592662301  0.2606757301269115
  0.1889103096769812  0.3043119992056365  0.2588448425431997
  0.2044993032335249  0.2832203065658858  0.2277000168760229
  0.2447084469336026  0.2541340467944213  0.2258981928420562
  0.2648032513453720  0.2495257324345382  0.1947451061862326
  0.3084004284272966  0.2591146312183119  0.1929461571078401
  0.3270133229307968  0.2722944302355012  0.1618014965031423
  0.3610465956286761  0.3176201865240954  0.1600028190950279
  0.3726454194324109  0.3446617184789020  0.1288491066229758
  0.3869860710948756  0.4122598349365952  0.1270511859041921
  0.3881223840243784  0.4451455114625913  0.0958919887302013
  0.3784828623667826  0.5149056487174507  0.0940677326770007
  0.3640217731928015  0.5537246696102314  0.5170418740190844
  0.3498136964845576  0.5773979978361808  0.4860754629522283
  0.3127433900716625  0.6154512761669270  0.4842088805968681
  0.2932951942116759  0.6253370013171987  0.4530319646849735
  0.2493946036414030  0.6261819007680604  0.4512136272632221
  0.2298614199492203  0.6175705833435294  0.4200311535746350
  0.1924127461999508  0.5799911646321586  0.4182107317032761
  0.1787713545653553  0.5556750182260838  0.3870662411561033
  0.1589876596145466  0.4917840754186799  0.3852570200127733
  0.1550930133196328  0.4594727269207337  0.3540929688011027
  0.1586850443164291  0.3882274908716551  0.3522771543928520
  0.1657249194328876  0.3573714646310822  0.3211161634439607
  0.1917450564711543  0.2996915431122024  0.3192725188534251
  0.2077764873572000  0.2795275585552920  0.2881303150414607
  0.2485527159010858  0.2526301659421583  0.2863247395762070
  0.2687485097227678  0.2491444577893140  0.2551700923285280
  0.3121288280549950  0.2611357821747343  0.2533696950711716
  0.3304588947939658  0.2754247657555666  0.2222372436833162
  0.3635005398594184  0.3226541110430611  0.2204486190836376
  0.3745351037811992  0.3503682192895238  0.1892961507237612
  0.3874275193214213  0.4187271870327086  0.1874985057590388
  0.3878930599622756  0.4516689083972587  0.1563406129842366
  0.3767723324843335  0.5208512579029735  0.1545171815563944
  0.3615768406517671  0.5594254113028048  0.5775418201278278
  0.3471592136544578  0.5821598957393668  0.5462917435020055
  0.3090201551393710  0.6179275955303759  0.5445364740022804
  0.2893800909872999  0.6263385437013955  0.5134932655836634
  0.2453414695675857  0.6248815233349578  0.5116765166269879
  0.2260607975082676  0.6149575068373739  0.4805385466180999
  0.1894198558455972  0.5754318236471724  0.4786909663670594
  0.1763395175748310  0.5503666997757538  0.4475087155030516
  0.1580104876548308  0.4854200582741297  0.4456960610520503
  0.1547960844454035  0.4529215702898964  0.4145403822105316
  0.1598826929288887  0.3818777923108451  0.4127200745749361
  0.1675426835259792  0.3514545703942089  0.3815644571100939
  0.1946450316499199  0.2951115062617547  0.3797171896722205
  0.2110867337449737  0.2758612912358677  0.3485493161401270
  0.2523665668278371  0.2511500132712624  0.3467306228417434
  0.2726490662519028  0.2488243152471778  0.3156096168157774
  0.3157987378656245  0.2631875459263722  0.3138201727335462
  0.3338046573684238  0.2786336935490473  0.2826697218119158
  0.3657623115152756  0.3277470197842549  0.2808794649204819
  0.3762398569312354  0.3561191710349445  0.2497440346234784
  0.3876479350115691  0.4251889139047054  0.2479393157505801
  0.3874603791516030  0.4581532543198019  0.2167907220159279
  0.3748803039995415  0.5266780700784109  0.2149679022113231
  0.3588810374255388  0.5645136292178161  0.6379707879897770
  0.3442751266148614  0.5872003604045397  0.6067630567676640
  0.3053338505014480  0.6206828144674564  0.6049925019249714
  0.2854740010645389  0.6273719040131390  0.5738712303392139
  0.2415638865086327  0.6230934173743301  0.5720936954702550
  0.2223801444368443  0.6122780125178547  0.5409579066207802
  0.1865665208060246  0.5706923775208413  0.5391198486687789
  0.1739552402393797  0.5450078776324426  0.5079808120394180
  0.1569831600730715  0.4789439403352027  0.5061509945313866
  0.1546029810457274  0.4463122552668806  0.4750068707131952
  0.1611591232982137  0.3755874734602307  0.4731771602066666
  0.1694826937721567  0.3455899522264637  0.4420023524657897
  0.1976152837778236  0.2906429621439098  0.4401654501617059
  0.2143642964229384  0.2721382011943911  0.4089922251357882
  0.2561408473302935  0.2494926281691703  0.4071620553885634
  0.2765119036562103  0.2485711791090692  0.3760611236632169
  0.3193139891814538  0.2654441896509956  0.3742856164031086
  0.3370415618303245  0.2818123257878425  0.3431037600908727
  0.3679104899575446  0.3328299719751096  0.3413101793502563
  0.3777102293400716  0.3619057920616796  0.3101961096121716
  0.3875461296779437  0.4316019772318223  0.3083616433862835
  0.3867422591196608  0.4645863484744877  0.2772170159736621
  0.3727697199540688  0.5323685549010012  0.2754000039006698
  0.3562128612988077  0.5693705107058048  0.6984046831400720
  0.3410948634917769  0.5913486872104310  0.6672549927002860
  0.3015333198013899  0.6226691864919758  0.6654635769839933
  0.2815718061973426  0.6283804049645481  0.6342932378095021
  0.2377679095274708  0.6212561857961593  0.6325213603160345
  0.2188686962436334  0.6092377841368081  0.6014029532372809
  0.1839035633196324  0.5657593479189194  0.5995788494375780
  0.1718196302826205  0.5393400060655812  0.5684238410878890
  0.1562138241550727  0.4725110866388596  0.5665994748867574
  0.1544416980118536  0.4397226857952018  0.5354315658120629
  0.1625086061871853  0.3694179784809311  0.5335993030801269
  0.1713957756759397  0.3398459728529114  0.5024652397552500
  0.2006981101859543  0.2863372457423204  0.5006473519274273
  0.2177869380676880  0.2687225940767261  0.4694940079132014
  0.2599886137087871  0.2482804368123950  0.4676754050370445
  0.2802938380669204  0.2483421177497074  0.4364844814760006
  0.3225667047102057  0.2680731693170259  0.4346693801425969
  0.3400567609436769  0.2852662281911298  0.4035968101186428
  0.3699358007537886  0.3381832185362604  0.4018395543822391
  0.3790001937741302  0.3677427683667155  0.3705812235144582
  0.3871092110430188  0.4378737099982560  0.3686816146196106
  0.3857344538041153  0.4708987824305598  0.3375978871651483
  0.3534770314099903  0.5740873534755851  0.7588579840271389
  0.3378671710451407  0.5951442927615034  0.7277087167762915
  0.2976691036814502  0.6242084892480496  0.7259184683024724
  0.2775940243232129  0.6288953479460744  0.6947538819255857
  0.2339713797110609  0.6192678412786222  0.6929704130373794
  0.2153786313997895  0.6060904070175654  0.6618289307737824
  0.1813780836201866  0.5607153305079131  0.6600197495676515
  0.1697870533311971  0.5337000774536458  0.6288597558777731
  0.1555135110154349  0.4660468784424209  0.6270440491607533
  0.1544301753584112  0.4331811428354426  0.5958990056611004
  0.1640066990453976  0.3633657219465281  0.5940777298505052
  0.1736143328988863  0.3343544929178836  0.5629300605467408
  0.2040833798666349  0.2828338645372632  0.5611318687954026
  0.2214506271469242  0.2659597189398070  0.5299527350332622
  0.2640716162990718  0.2481966666828886  0.5281146248407232
  0.2841730020783103  0.2487401406477906  0.4969743969622072
  0.3260359720894059  0.2714137169333782  0.4951257150123584
  0.3425971074124372  0.2898910740844131  0.4640353351844951
  0.3709459506894333  0.3445841802036381  0.4622875751885114
  0.3803095225203313  0.3736652201888858  0.4308745828355244
  0.3871063059338884  0.4444207439526526  0.4289175599242558
  0.3844374281471293  0.4771014976525234  0.3978919182745522
  0.3506066120098950  0.5786325617841568  0.8193075808998669
  0.3345689971253881  0.5987916765242649  0.7881520896382885
  0.2937652098874385  0.6255463517539387  0.7863637335951842
  0.2735965841096356  0.6290830598947218  0.7552124185821842
  0.2302252442686956  0.6170257301140707  0.7534143718643931
  0.2119262806329107  0.6028472313672640  0.7222588081305742
  0.1788974068802165  0.5555854569307219  0.7204595429122214
  0.1678903736266378  0.5279326187763472  0.6893106906269834
  0.1550006807823454  0.4595507381621887  0.6874996272926931
  0.1545977051979203  0.4266347353207557  0.6563457265120186
  0.1656904449137964  0.3574636075778938  0.6545255496497161
  0.1758886370801253  0.3290144647055137  0.6233726697958343
  0.2075994734859563  0.2794309331800531  0.6215705802787218
  0.2253534130635242  0.2637322226649922  0.5904330600249872
  0.2683977208130132  0.2487358092086517  0.5885858206623525
  0.2884710370722114  0.2508434317859599  0.5574040759325950
  0.3296836667053215  0.2755579490538467  0.5554998899651676
  0.3457671350205696  0.2948699450236897  0.5242615013852576
  0.3731662880700378  0.3507980490883865  0.5221714584134060
  0.3812341874848020  0.3796321068060506  0.4912719575121451
  0.3938325988629287  0.4506692312478834  0.4892790553006263
  0.3841273073635362  0.4834509695327792  0.4579218407051479
  0.3476293007682763  0.5830195960150009  0.8797580528033149
  0.3311847879237748  0.6022720570516746  0.8486015873601198
  0.2898303975734022  0.6266970104595526  0.8468087319454319
  0.2696033276490951  0.6290687685941908  0.8156585863703427
  0.2265157154227957  0.6145863044051887  0.8138515034032789
  0.2085235869705412  0.5993916830750886  0.7827000905106251
  0.1765065438630828  0.5503249226048275  0.7809048149148398
  0.1661080112652309  0.5220601523889004  0.7497508429194931
  0.1546770520308239  0.4530227719751186  0.7479383990643839
  0.1549280285472096  0.4201086760970391  0.7167824907228648
  0.1675156039371188  0.3515874412504033  0.7149631419883284
  0.1783536860261831  0.3237934548964669  0.6838178799068184
  0.2111763978978641  0.2761445252151010  0.6820060379960264
  0.2293457640936560  0.2616860983514488  0.6508521926566113
  0.2726495646531538  0.2491600031347333  0.6489824605292424
  0.2927140576679674  0.2524044507881393  0.6177854261334909
  0.3335961710395504  0.2789560087332333  0.6158537604926643
  0.3494910388387873  0.2990569653380852  0.5846942045966241
  0.3760598267324650  0.3563479678237442  0.5827769240106563
  0.3834470767163775  0.3873149108390577  0.5517737446719099
  0.3883968451209418  0.4583862199247069  0.5501353307250894
  0.3863342091522244  0.4918160538678619  0.5189861913583931
  0.3445423800616608  0.5872068030488126  0.9402082571835523
  0.3277018946389437  0.6055347816248985  0.9090494092868633
  0.2858556497712567  0.6276341914102557  0.9072498898086954
  0.2655984662044232  0.6288662181739472  0.8760976093466769
  0.2228450423050436  0.6119627268827633  0.8742865942335820
  0.2051929307456939  0.5957549750142543  0.8431367689950844
  0.1742398425689048  0.5449350776297783  0.8413415740871366
  0.1644309897885333  0.5161109386045160  0.8101864967947366
  0.1544796164495161  0.4464576513620013  0.8083715267857792
  0.1554377896252824  0.4135770631488555  0.7772217165046734
  0.1694710566778663  0.3458014392569196  0.7754079556924722
  0.1809186693736984  0.3186620879793786  0.7442496677943019
  0.2147372476432987  0.2729372628630099  0.7424293232589712
  0.2332269658873128  0.2595497071268830  0.7112711818188481
  0.2767875243417762  0.2494397153326630  0.7094097420972495
  0.2968160999662480  0.2537948465188373  0.6782528114820767
  0.3371749051176418  0.2823730670314681  0.6763832780020986
  0.3527214813266625  0.3033308229251084  0.6452187538922337
  0.3778532967292464  0.3619844065811707  0.6433922714061591
  0.3843786276254831  0.3931784951383330  0.6122268716809135
  0.3868124599463181  0.4644660713377247  0.6105170474319688
  0.3827368066464295  0.4967630347907775  0.5793985222597169
  0.3413578827624897  0.5911992372686490  0.0006548853497218
  0.3241474701596371  0.6085907258297734  0.9694974736296942
  0.2818577583499021  0.6283378434424275  0.9676872023595418
  0.2615884398710546  0.6284457299397738  0.9365365836577050
  0.2192209745612959  0.6091470891412224  0.9347214617060082
  0.2019302572206893  0.5919531596898739  0.9035712498556022
  0.1720798072310823  0.5394197483953745  0.9017718612227499
  0.1628969000727495  0.5100605699002952  0.8706218880233640
  0.1544269123352182  0.4398941570524059  0.8688045814411076
  0.1560885644976403  0.4070773006383105  0.8376529441243641
  0.1715484360044910  0.3401435719889579  0.8358432768505711
  0.1835541355422257  0.3136425835261229  0.8046823150477309
  0.2183419498370669  0.2698544406794431  0.8028593085545952
  0.2371127578662168  0.2575506788264724  0.7717072392704303
  0.2808687832691967  0.2499004016098116  0.7698672968846629
  0.3008150947637981  0.2554503888805375  0.7387048533090720
  0.3405190548079997  0.2862223417256639  0.7368709890048797
  0.3556945200379437  0.3079553208625766  0.7056869966556185
  0.3795204499743342  0.3680295864115925  0.7038622443480314
  0.3853917721813307  0.3994926121455962  0.6726975297844103
  0.3862409628364169  0.4709727740192914  0.6709326106593602
  0.3810587084398818  0.5028255312438537  0.6398083899100013
  0.2575818666769721  0.6277719803529669  0.9969719869685719
  0.2156492749580637  0.6061164706514515  0.9951551414054830
  0.1987378996617777  0.5879714225129782  0.9640042773447017
  0.1700180979370935  0.5337970182172738  0.9621983721360075
  0.1614736063311982  0.5039322867780407  0.9310529471480490
  0.1545032883344238  0.4333377841897861  0.9292320625841110
  0.1568662132466155  0.4006355945791182  0.8980810264661808
  0.1737389716429124  0.3346020816072518  0.8962751439593006
  0.1863063734856911  0.3087922440560588  0.8651202934925555
  0.2219971474095107  0.2669681414334349  0.8632970168564220
  0.2410350314605509  0.2557499079450302  0.8321405907760677
  0.2849135516199536  0.2505656816743127  0.8303162582269712
  0.3047409571083335  0.2572298452692522  0.7991476290834900
  0.3437659237272617  0.2902324227839072  0.7973240973359985
  0.3584887773044871  0.3127983031498639  0.7661569131955662
  0.3810451987748656  0.3741913780474055  0.7643303861022669
  0.3862450606533370  0.4059764659786223  0.7331648091457993
  0.3856327604914878  0.4774657682267788  0.7313780655867956
  0.3797664382927089  0.5089881555206230  0.7002204895899592
  0.1601628403824271  0.4977376485296337  0.9914776195060180
  0.1546970962134015  0.4267905132312075  0.9896572339900006
  0.1577633158679278  0.3942346027797785  0.9585107439590602
  0.1760266043775282  0.3291807945158123  0.9567056614223898
  0.1891449731073053  0.3040871526837876  0.9255541911970807
  0.2256967219412881  0.2642868170689321  0.9237310600266846
  0.2449654386004415  0.2541270550669302  0.8925740131370439
  0.2889316685350710  0.2514249727181954  0.8907591697743003
  0.3086108579200152  0.2592009321393172  0.8595975313479040
  0.3469164879698964  0.2943920992799781  0.8577765387530151
  0.3611476507306485  0.3178052267234140  0.8266148614535938
  0.3823951517125385  0.3804119647397853  0.8247913887384292
  0.3869507569455181  0.4124769251652551  0.7936210239039048
  0.3848317792650480  0.4838941717149843  0.7918244742293378
  0.3783498925451212  0.5150947579606701  0.7606669025922679
  0.1920656822997315  0.2995637489350040  0.9859861381907612
  0.2294412856992077  0.2618321311094102  0.9841636660542142
  0.2489160968414366  0.2527419607984733  0.9530120166782706
  0.2929189089261579  0.2525106497402256  0.9512054908725845
  0.3124232451078544  0.2614078433642852  0.9200450689483010
  0.3499509386957811  0.2987316952817238  0.9182249686785057
  0.3636879454800330  0.3229223051259503  0.8870624917609916
  0.3835888493092915  0.3866882463912084  0.8852461723549671
  0.3874775716672729  0.4189940446616851  0.8540809796422703
  0.3838371603778933  0.4902536487894825  0.8522776724305995
  0.3767087846736542  0.5210682917996439  0.8211195084184968
  0.3161843174204221  0.2638034248423505  0.9804895878369156
  0.3528977403488809  0.3032168831246538  0.9786677883539211
  0.3661119667542489  0.3281706294296100  0.9475105935519182
  0.3846556233992866  0.3930118973017528  0.9457000655189826
  0.3878491140020204  0.4255258106298800  0.9145367692127256
  0.3827073629495281  0.4965368656087946  0.9127282048444316
  0.3749335895324106  0.5269480554736540  0.8815688272062920
  0.3880899003610053  0.4320619928796280  0.9749897246931124
  0.3814366436630376  0.5027407948397929  0.9731730709944698
  0.3730266125530702  0.5327035906470357  0.9420186250418369
  0.4561255178039223  0.4709128138807326  0.4942258773298775
  0.4733374173696578  0.4926672268762342  0.4615185323235113
 
  0.00000000E+00  0.00000000E+00  0.00000000E+00
  0.00000000E+00  0.00000000E+00  0.00000000E+00
  0.00000000E+00  0.00000000E+00  0.00000000E+00
  0.00000000E+00  0.00000000E+00  0.00000000E+00
  0.00000000E+00  0.00000000E+00  0.00000000E+00
  0.00000000E+00  0.00000000E+00  0.00000000E+00
  0.00000000E+00  0.00000000E+00  0.00000000E+00
  0.00000000E+00  0.00000000E+00  0.00000000E+00
  0.00000000E+00  0.00000000E+00  0.00000000E+00
  0.00000000E+00  0.00000000E+00  0.00000000E+00
  0.00000000E+00  0.00000000E+00  0.00000000E+00
  0.00000000E+00  0.00000000E+00  0.00000000E+00
  0.00000000E+00  0.00000000E+00  0.00000000E+00
  0.00000000E+00  0.00000000E+00  0.00000000E+00
  0.00000000E+00  0.00000000E+00  0.00000000E+00
  0.00000000E+00  0.00000000E+00  0.00000000E+00
  0.00000000E+00  0.00000000E+00  0.00000000E+00
  0.00000000E+00  0.00000000E+00  0.00000000E+00
  0.00000000E+00  0.00000000E+00  0.00000000E+00
  0.00000000E+00  0.00000000E+00  0.00000000E+00
  0.00000000E+00  0.00000000E+00  0.00000000E+00
  0.00000000E+00  0.00000000E+00  0.00000000E+00
  0.00000000E+00  0.00000000E+00  0.00000000E+00
  0.00000000E+00  0.00000000E+00  0.00000000E+00
  0.00000000E+00  0.00000000E+00  0.00000000E+00
  0.00000000E+00  0.00000000E+00  0.00000000E+00
  0.00000000E+00  0.00000000E+00  0.00000000E+00
  0.00000000E+00  0.00000000E+00  0.00000000E+00
  0.00000000E+00  0.00000000E+00  0.00000000E+00
  0.00000000E+00  0.00000000E+00  0.00000000E+00
  0.00000000E+00  0.00000000E+00  0.00000000E+00
  0.00000000E+00  0.00000000E+00  0.00000000E+00
  0.00000000E+00  0.00000000E+00  0.00000000E+00
  0.00000000E+00  0.00000000E+00  0.00000000E+00
  0.00000000E+00  0.00000000E+00  0.00000000E+00
  0.00000000E+00  0.00000000E+00  0.00000000E+00
  0.00000000E+00  0.00000000E+00  0.00000000E+00
  0.00000000E+00  0.00000000E+00  0.00000000E+00
  0.00000000E+00  0.00000000E+00  0.00000000E+00
  0.00000000E+00  0.00000000E+00  0.00000000E+00
  0.00000000E+00  0.00000000E+00  0.00000000E+00
  0.00000000E+00  0.00000000E+00  0.00000000E+00
  0.00000000E+00  0.00000000E+00  0.00000000E+00
  0.00000000E+00  0.00000000E+00  0.00000000E+00
  0.00000000E+00  0.00000000E+00  0.00000000E+00
  0.00000000E+00  0.00000000E+00  0.00000000E+00
  0.00000000E+00  0.00000000E+00  0.00000000E+00
  0.00000000E+00  0.00000000E+00  0.00000000E+00
  0.00000000E+00  0.00000000E+00  0.00000000E+00
  0.00000000E+00  0.00000000E+00  0.00000000E+00
  0.00000000E+00  0.00000000E+00  0.00000000E+00
  0.00000000E+00  0.00000000E+00  0.00000000E+00
  0.00000000E+00  0.00000000E+00  0.00000000E+00
  0.00000000E+00  0.00000000E+00  0.00000000E+00
  0.00000000E+00  0.00000000E+00  0.00000000E+00
  0.00000000E+00  0.00000000E+00  0.00000000E+00
  0.00000000E+00  0.00000000E+00  0.00000000E+00
  0.00000000E+00  0.00000000E+00  0.00000000E+00
  0.00000000E+00  0.00000000E+00  0.00000000E+00
  0.00000000E+00  0.00000000E+00  0.00000000E+00
  0.00000000E+00  0.00000000E+00  0.00000000E+00
  0.00000000E+00  0.00000000E+00  0.00000000E+00
  0.00000000E+00  0.00000000E+00  0.00000000E+00
  0.00000000E+00  0.00000000E+00  0.00000000E+00
  0.00000000E+00  0.00000000E+00  0.00000000E+00
  0.00000000E+00  0.00000000E+00  0.00000000E+00
  0.00000000E+00  0.00000000E+00  0.00000000E+00
  0.00000000E+00  0.00000000E+00  0.00000000E+00
  0.00000000E+00  0.00000000E+00  0.00000000E+00
  0.00000000E+00  0.00000000E+00  0.00000000E+00
  0.00000000E+00  0.00000000E+00  0.00000000E+00
  0.00000000E+00  0.00000000E+00  0.00000000E+00
  0.00000000E+00  0.00000000E+00  0.00000000E+00
  0.00000000E+00  0.00000000E+00  0.00000000E+00
  0.00000000E+00  0.00000000E+00  0.00000000E+00
  0.00000000E+00  0.00000000E+00  0.00000000E+00
  0.00000000E+00  0.00000000E+00  0.00000000E+00
  0.00000000E+00  0.00000000E+00  0.00000000E+00
  0.00000000E+00  0.00000000E+00  0.00000000E+00
  0.00000000E+00  0.00000000E+00  0.00000000E+00
  0.00000000E+00  0.00000000E+00  0.00000000E+00
  0.00000000E+00  0.00000000E+00  0.00000000E+00
  0.00000000E+00  0.00000000E+00  0.00000000E+00
  0.00000000E+00  0.00000000E+00  0.00000000E+00
  0.00000000E+00  0.00000000E+00  0.00000000E+00
  0.00000000E+00  0.00000000E+00  0.00000000E+00
  0.00000000E+00  0.00000000E+00  0.00000000E+00
  0.00000000E+00  0.00000000E+00  0.00000000E+00
  0.00000000E+00  0.00000000E+00  0.00000000E+00
  0.00000000E+00  0.00000000E+00  0.00000000E+00
  0.00000000E+00  0.00000000E+00  0.00000000E+00
  0.00000000E+00  0.00000000E+00  0.00000000E+00
  0.00000000E+00  0.00000000E+00  0.00000000E+00
  0.00000000E+00  0.00000000E+00  0.00000000E+00
  0.00000000E+00  0.00000000E+00  0.00000000E+00
  0.00000000E+00  0.00000000E+00  0.00000000E+00
  0.00000000E+00  0.00000000E+00  0.00000000E+00
  0.00000000E+00  0.00000000E+00  0.00000000E+00
  0.00000000E+00  0.00000000E+00  0.00000000E+00
  0.00000000E+00  0.00000000E+00  0.00000000E+00
  0.00000000E+00  0.00000000E+00  0.00000000E+00
  0.00000000E+00  0.00000000E+00  0.00000000E+00
  0.00000000E+00  0.00000000E+00  0.00000000E+00
  0.00000000E+00  0.00000000E+00  0.00000000E+00
  0.00000000E+00  0.00000000E+00  0.00000000E+00
  0.00000000E+00  0.00000000E+00  0.00000000E+00
  0.00000000E+00  0.00000000E+00  0.00000000E+00
  0.00000000E+00  0.00000000E+00  0.00000000E+00
  0.00000000E+00  0.00000000E+00  0.00000000E+00
  0.00000000E+00  0.00000000E+00  0.00000000E+00
  0.00000000E+00  0.00000000E+00  0.00000000E+00
  0.00000000E+00  0.00000000E+00  0.00000000E+00
  0.00000000E+00  0.00000000E+00  0.00000000E+00
  0.00000000E+00  0.00000000E+00  0.00000000E+00
  0.00000000E+00  0.00000000E+00  0.00000000E+00
  0.00000000E+00  0.00000000E+00  0.00000000E+00
  0.00000000E+00  0.00000000E+00  0.00000000E+00
  0.00000000E+00  0.00000000E+00  0.00000000E+00
  0.00000000E+00  0.00000000E+00  0.00000000E+00
  0.00000000E+00  0.00000000E+00  0.00000000E+00
  0.00000000E+00  0.00000000E+00  0.00000000E+00
  0.00000000E+00  0.00000000E+00  0.00000000E+00
  0.00000000E+00  0.00000000E+00  0.00000000E+00
  0.00000000E+00  0.00000000E+00  0.00000000E+00
  0.00000000E+00  0.00000000E+00  0.00000000E+00
  0.00000000E+00  0.00000000E+00  0.00000000E+00
  0.00000000E+00  0.00000000E+00  0.00000000E+00
  0.00000000E+00  0.00000000E+00  0.00000000E+00
  0.00000000E+00  0.00000000E+00  0.00000000E+00
  0.00000000E+00  0.00000000E+00  0.00000000E+00
  0.00000000E+00  0.00000000E+00  0.00000000E+00
  0.00000000E+00  0.00000000E+00  0.00000000E+00
  0.00000000E+00  0.00000000E+00  0.00000000E+00
  0.00000000E+00  0.00000000E+00  0.00000000E+00
  0.00000000E+00  0.00000000E+00  0.00000000E+00
  0.00000000E+00  0.00000000E+00  0.00000000E+00
  0.00000000E+00  0.00000000E+00  0.00000000E+00
  0.00000000E+00  0.00000000E+00  0.00000000E+00
  0.00000000E+00  0.00000000E+00  0.00000000E+00
  0.00000000E+00  0.00000000E+00  0.00000000E+00
  0.00000000E+00  0.00000000E+00  0.00000000E+00
  0.00000000E+00  0.00000000E+00  0.00000000E+00
  0.00000000E+00  0.00000000E+00  0.00000000E+00
  0.00000000E+00  0.00000000E+00  0.00000000E+00
  0.00000000E+00  0.00000000E+00  0.00000000E+00
  0.00000000E+00  0.00000000E+00  0.00000000E+00
  0.00000000E+00  0.00000000E+00  0.00000000E+00
  0.00000000E+00  0.00000000E+00  0.00000000E+00
  0.00000000E+00  0.00000000E+00  0.00000000E+00
  0.00000000E+00  0.00000000E+00  0.00000000E+00