 C  S  O                                
    1.000000000000000     
    32.3722991942999982    0.0000000000000000    0.0000000000000000
     0.0000000000000000   19.9214134216000005    0.0000000000000000
     0.0000000000000000    0.0000000000000000   40.4480476378999967
   C    S    O 
   364     1     1
Selective dynamics
Direct
  0.3709091127649665  0.5381364317441399  0.0024340682600542   T   T   T
  0.3687168009399123  0.5436288399545741  0.0628699126386085   T   T   T
  0.3380428879260748  0.5948976266347955  0.0610627188294541   T   T   T
  0.3205043360158866  0.6113609538127625  0.0299026245664844   T   T   T
  0.2778390097880369  0.6288302897474692  0.0280803292382450   T   T   T
  0.3663917710669736  0.5489787773159219  0.1233007674499715   T   T   T
  0.3346656395244138  0.5985273379522540  0.1215009564524179   T   T   T
  0.3167914395987539  0.6140107217514145  0.0903426347977171   T   T   T
  0.2737828243446265  0.6290872986917261  0.0885190340595364   T   T   T
  0.2535744845783707  0.6269723272658785  0.0573589657629890   T   T   T
  0.2121085998696335  0.6030584467221946  0.0555423124003691   T   T   T
  0.1956018890938687  0.5839851937053949  0.0243802041859203   T   T   T
  0.1680277820689057  0.5282635044797692  0.0225671758433299   T   T   T
  0.3639408825321275  0.5541738627385159  0.1837207364346174   T   T   T
  0.3312082078126367  0.6019459240158331  0.1819323410509390   T   T   T
  0.3130258330233810  0.6164528503089223  0.1507798636123490   T   T   T
  0.2697236749836582  0.6291429271565621  0.1489615096074957   T   T   T
  0.2495730979552033  0.6258885283166324  0.1178025682159872   T   T   T
  0.2086418658152590  0.5996611000467692  0.1159906777193280   T   T   T
  0.1925492585723874  0.5796726343046262  0.0848260501804097   T   T   T
  0.1661822754297064  0.5224367850342512  0.0830059382627483   T   T   T
  0.1589192268888382  0.4916986956736245  0.0518509880036221   T   T   T
  0.1549277300017889  0.4204881188531600  0.0500336818472431   T   T   T
  0.1586661562224739  0.3881140326890949  0.0188797348309321   T   T   T
  0.1782426597620210  0.3240792306297381  0.0170747846784824   T   T   T
  0.3614347448318883  0.5592310012323447  0.2441308797840634   T   T   T
  0.3277158417579640  0.6051744699322753  0.2423616715792026   T   T   T
  0.3092173040635440  0.6186688042468746  0.2112215258516758   T   T   T
  0.2656760757296119  0.6289478274022174  0.2094147645718785   T   T   T
  0.2455992968294104  0.6245838312718699  0.1782491038496577   T   T   T
  0.2052551057381802  0.5960679737970573  0.1764404729920668   T   T   T
  0.1895891350181986  0.5752022492490342  0.1452762609127064   T   T   T
  0.1644596208813064  0.5165046319610648  0.1434477280607237   T   T   T
  0.1578635280666627  0.4853742478951374  0.1122920576113215   T   T   T
  0.1553849737436832  0.4139843283174152  0.1104739696446470   T   T   T
  0.1598007996812053  0.3818421886752721  0.0793146819566778   T   T   T
  0.1807087484404797  0.3189301763846217  0.0775026125130481   T   T   T
  0.1948476562920310  0.2953202008585926  0.0463547060670829   T   T   T
  0.2329622975999265  0.2595926159961582  0.0445358565676777   T   T   T
  0.2526349604131110  0.2515633542563778  0.0133913538408823   T   T   T
  0.2966136467397556  0.2537032334172655  0.0115911694899963   T   T   T
  0.3709564527645846  0.5375141083453464  0.3356357088554865   T   T   T
  0.3588977591489373  0.5641471494283165  0.3045417717564374   T   T   T
  0.3242145461307614  0.6081420579008227  0.3028035978116454   T   T   T
  0.3054009102793458  0.6206068089368429  0.2716614099322198   T   T   T
  0.2616776156410034  0.6284149664754443  0.2698733733526673   T   T   T
  0.2416807404175172  0.6230118451520195  0.2387095557204224   T   T   T
  0.2019562099851097  0.5922491755726111  0.2368969830109218   T   T   T
  0.1867440197982798  0.5705308697733186  0.2057335551756593   T   T   T
  0.1628835617697482  0.5104516139512320  0.2038928756633316   T   T   T
  0.1569524071770765  0.4789800211188596  0.1727309512089608   T   T   T
  0.1559885846746697  0.4075000052273713  0.1709107707206106   T   T   T
  0.1610665236988674  0.3756280079130159  0.1397532417014504   T   T   T
  0.1832833951922596  0.3139015328487321  0.1379345477598986   T   T   T
  0.1979132621562991  0.2911067582313471  0.1067825358477523   T   T   T
  0.2367532332112907  0.2575151880963242  0.1049646462685864   T   T   T
  0.2565860530462231  0.2505996041600758  0.0738160155966622   T   T   T
  0.3004954958249583  0.2551974382138667  0.0720139229616722   T   T   T
  0.3196139268338024  0.2662447984101388  0.0408737489106643   T   T   T
  0.3554909759898089  0.3076407786906818  0.0390594585254713   T   T   T
  0.3682068297078330  0.3333286425404009  0.0079159109732304   T   T   T
  0.3854009984326638  0.3991425590084279  0.0061167686863931   T   T   T
  0.3689895651231268  0.5427604640228489  0.3960353177769693   T   T   T
  0.3563227709520428  0.5688305328157059  0.3649261153525137   T   T   T
  0.3207136996133448  0.6106504579579720  0.3632377137378581   T   T   T
  0.3016181069015218  0.6222253187966598  0.3321203606677343   T   T   T
  0.2577331064135188  0.6275112784486134  0.3303434009099742   T   T   T
  0.2378465903166089  0.6210673609879854  0.2991936313299128   T   T   T
  0.1987865074277282  0.5881203054227103  0.2973638896092764   T   T   T
  0.1840183772105317  0.5656390648599475  0.2661874006757717   T   T   T
  0.1614304331606753  0.5042889450730020  0.2643340569211843   T   T   T
  0.1561590053210223  0.4725287149319211  0.2331683475530374   T   T   T
  0.1567040087480571  0.4010273989978916  0.2313444273335040   T   T   T
  0.1624734679757883  0.3694725436789200  0.2001916324466671   T   T   T
  0.1859670917595520  0.3090112025461645  0.1983693257970507   T   T   T
  0.2010575685001678  0.2870387299320703  0.1672120497563561   T   T   T
  0.2405743315446075  0.2555969400250368  0.1654009621987950   T   T   T
  0.2605430743284135  0.2498061076788025  0.1342490218007990   T   T   T
  0.3043299379319469  0.2568533883449971  0.1324416792863435   T   T   T
  0.3232111814934181  0.2689857247287319  0.1013004689497791   T   T   T
  0.3581848957316690  0.3123688882311279  0.0994856973865737   T   T   T
  0.3703572050627538  0.3387759868118401  0.0683454153709822   T   T   T
  0.3861446552717742  0.4055170791061051  0.0665498793805750   T   T   T
  0.3880097116833042  0.4383444085282256  0.0354041564420606   T   T   T
  0.3799103150287142  0.5086257250842423  0.0335876153748508   T   T   T
  0.3672467962025626  0.5469656502742299  0.4564273252517055   T   T   T
  0.3537532923770642  0.5727063431327777  0.4254125240720811   T   T   T
  0.3171682540800653  0.6123594639836142  0.4237087772518046   T   T   T
  0.2978568494856629  0.6231514476522341  0.3926499182899189   T   T   T
  0.2538651748573078  0.6259960058354431  0.3908361612438712   T   T   T
  0.2341009620191871  0.6186521114408792  0.3596653460040522   T   T   T
  0.1957393954459736  0.5836736168079073  0.3578129701471895   T   T   T
  0.1814109699224731  0.5604998554325196  0.3266317510065267   T   T   T
  0.1600591530569573  0.4979736119297278  0.3247714159405848   T   T   T
  0.1554706259970297  0.4659813977811927  0.2936049090090987   T   T   T
  0.1574932365985495  0.3945489506281090  0.2917758612390446   T   T   T
  0.1639644228026677  0.3633587373534322  0.2606184176726475   T   T   T
  0.1887240434644515  0.3042575953245549  0.2587961044355938   T   T   T
  0.2042806211947494  0.2831292496811449  0.2276498465531828   T   T   T
  0.2444430126570923  0.2538746839878078  0.2258523222582172   T   T   T
  0.2645149941561288  0.2492049811223361  0.1946890602510663   T   T   T
  0.3081221537109429  0.2586931608022551  0.1928751768597992   T   T   T
  0.3267330768779087  0.2718869546559300  0.1617293049300114   T   T   T
  0.3607629325682049  0.3172174527463898  0.1599115084262051   T   T   T
  0.3723709901725651  0.3443099236440819  0.1287748801302023   T   T   T
  0.3867161379789442  0.4119053599806671  0.1269753752633002   T   T   T
  0.3878986098489577  0.4448355513179108  0.0958356205498207   T   T   T
  0.3783236457446175  0.5146207815444686  0.0940199292423368   T   T   T
  0.3656258632574400  0.5547950410439756  0.5170911545800903   T   T   T
  0.3512478264605698  0.5768304277268956  0.4862056504724845   T   T   T
  0.3134336106133888  0.6136403015755341  0.4842264104612873   T   T   T
  0.2939322277845434  0.6230848453293376  0.4530934121276261   T   T   T
  0.2500324599627432  0.6239215578906582  0.4512515647788619   T   T   T
  0.2303986134195752  0.6158291011890863  0.4200875127695961   T   T   T
  0.1926699999965635  0.5790412622444605  0.4182322008782218   T   T   T
  0.1788495724292414  0.5551491385245296  0.3870729073893749   T   T   T
  0.1587269072241274  0.4915487880890960  0.3852147352212906   T   T   T
  0.1548455558792143  0.4593391922385170  0.3540330248067843   T   T   T
  0.1583404760197943  0.3880817132527585  0.3522004506020285   T   T   T
  0.1654876734841630  0.3572845151530120  0.3210470073552263   T   T   T
  0.1915251582857596  0.2996195892766638  0.3192299867885975   T   T   T
  0.2075680257704925  0.2794270499767662  0.2880947633401403   T   T   T
  0.2483334559777916  0.2524745492330793  0.2863122533184925   T   T   T
  0.2684910411260699  0.2488494771636587  0.2551404846127558   T   T   T
  0.3118795810457590  0.2607678515262341  0.2533220474382461   T   T   T
  0.3301928284240171  0.2749729732712455  0.2221689980791429   T   T   T
  0.3632304474722929  0.3222068505783108  0.2203413667466622   T   T   T
  0.3742470105024778  0.3499411301644309  0.1891971391023882   T   T   T
  0.3871360078763061  0.4182959111224112  0.1873852174274452   T   T   T
  0.3876238610810707  0.4512884747753578  0.1562546253187631   T   T   T
  0.3765865072666678  0.5205031800963377  0.1544439685417101   T   T   T
  0.3625913211659264  0.5595659515288153  0.5777070183669794   T   T   T
  0.3480157485300540  0.5815831530057783  0.5462567352296483   T   T   T
  0.3094944940931096  0.6161544225003777  0.5444771037573647   T   T   T
  0.2899557451135936  0.6241392274374180  0.5133978339432912   T   T   T
  0.2458536496437622  0.6228372415212582  0.5115908480608189   T   T   T
  0.2265698624771821  0.6130925287502105  0.4805151257006970   T   T   T
  0.1895676864389341  0.5744155353178638  0.4786594253522387   T   T   T
  0.1763195886063582  0.5496608997587099  0.4474862172129211   T   T   T
  0.1575299607261919  0.4850811683777835  0.4456458260774272   T   T   T
  0.1542752435247043  0.4526704238508300  0.4144697417167000   T   T   T
  0.1592615101829309  0.3816094412536906  0.4126402028267006   T   T   T
  0.1670881451970697  0.3512577127652182  0.3814920083472104   T   T   T
  0.1943602916455849  0.2951216230950603  0.3796778656705982   T   T   T
  0.2108898087505284  0.2759218608141578  0.3485321219860278   T   T   T
  0.2522287468634122  0.2514413228482125  0.3467534743126718   T   T   T
  0.2724627459362399  0.2488587926456046  0.3156118045474107   T   T   T
  0.3156128212636586  0.2631695569909794  0.3138029295958339   T   T   T
  0.3335896012220652  0.2783358301302102  0.2826103511303193   T   T   T
  0.3655959677275464  0.3273617839166279  0.2807612364285390   T   T   T
  0.3760223271788908  0.3556699307507716  0.2496108944389051   T   T   T
  0.3874699725993586  0.4247078756813799  0.2477769989103020   T   T   T
  0.3872296781633396  0.4577077987691085  0.2166580707638163   T   T   T
  0.3747452828213483  0.5262703464124303  0.2148582388564652   T   T   T
  0.3593795414461997  0.5642709244655281  0.6380718127413080   T   T   T
  0.3449495994917473  0.5869360476263641  0.6067465010650945   T   T   T
  0.3057238737468087  0.6198155943440469  0.6049043173839327   T   T   T
  0.2858787511800953  0.6257612318956896  0.5737778454535325   T   T   T
  0.2419799114289686  0.6215325438640393  0.5719805032533617   T   T   T
  0.2228149678884729  0.6106517912610135  0.5408479926065585   T   T   T
  0.1866947557256373  0.5698079049143189  0.5390407284564080   T   T   T
  0.1738441063900251  0.5443549475731548  0.5079218530829346   T   T   T
  0.1564095292931058  0.4786024558918302  0.5061020955175176   T   T   T
  0.1538868919187642  0.4460052181627349  0.4749534631479678   T   T   T
  0.1603755753406352  0.3752628901255618  0.4731189142939265   T   T   T
  0.1688258550964607  0.3453470172828912  0.4419418511743753   T   T   T
  0.1972715291694720  0.2908207125140416  0.4401222699925838   T   T   T
  0.2141798411411054  0.2725253662602236  0.4089811881746298   T   T   T
  0.2561012580695646  0.2506022048282437  0.4071919581129333   T   T   T
  0.2764266709358814  0.2493684120938546  0.3760846000602746   T   T   T
  0.3192335054484561  0.2661345873802724  0.3742883679606818   T   T   T
  0.3369434746341942  0.2819505623686812  0.3430529349420157   T   T   T
  0.3679963253637742  0.3326373934016658  0.3411864332277869   T   T   T
  0.3777360287007983  0.3615092284347714  0.3100255255905888   T   T   T
  0.3877327629772445  0.4311324517553430  0.3081508542179540   T   T   T
  0.3867570466347928  0.4641147150701903  0.2770303939301453   T   T   T
  0.3728497112019808  0.5319265888990286  0.2752523212317557   T   T   T
  0.3564337663764889  0.5691135899101188  0.6984537914204167   T   T   T
  0.3414193231365134  0.5910643831610174  0.6672740334489593   T   T   T
  0.3017945924645741  0.6222150945283812  0.6653918620212284   T   T   T
  0.2818916912627928  0.6275190663159530  0.6341534963592933   T   T   T
  0.2380888527716818  0.6203391572261719  0.6323704204028292   T   T   T
  0.2191821049500310  0.6082171284365587  0.6012704583860432   T   T   T
  0.1839972909705277  0.5651749579750298  0.5994806645645794   T   T   T
  0.1717280081282760  0.5388305635065448  0.5683642895341393   T   T   T
  0.1557507977964269  0.4722350632133313  0.5665688794266667   T   T   T
  0.1537769929845423  0.4394303799420375  0.5354016484857840   T   T   T
  0.1618012292950466  0.3691196123155163  0.5335708600910474   T   T   T
  0.1707100468039030  0.3396112778824918  0.5024192319578389   T   T   T
  0.2003779111319486  0.2866661305764344  0.5005946713638593   T   T   T
  0.2176192569179153  0.2694197192283880  0.4694565931903809   T   T   T
  0.2599968261966517  0.2500680172186286  0.4676488689631149   T   T   T
  0.2803105881181490  0.2501569163967242  0.4365021772269371   T   T   T
  0.3225973615090428  0.2697922863664508  0.4346803110820400   T   T   T
  0.3401366609787453  0.2861359266633240  0.4035443530705276   T   T   T
  0.3704690383228957  0.3382575144251522  0.4017112765585160   T   T   T
  0.3795102801070070  0.3674680786716563  0.3704012720383464   T   T   T
  0.3879614700166873  0.4375078737827792  0.3684575299355199   T   T   T
  0.3862690583820267  0.4704713302159194  0.3373748117431514   T   T   T
  0.3535490073151693  0.5738670012122188  0.7588749769634960   T   T   T
  0.3380013340989904  0.5949178782627752  0.7277059174928198   T   T   T
  0.2978228436416335  0.6239976006079208  0.7258411011998709   T   T   T
  0.2778070252109636  0.6285538046448014  0.6946304825954164   T   T   T
  0.2341698940964306  0.6188875698865289  0.6928272225631447   T   T   T
  0.2156206958809991  0.6055327253164391  0.6616935037712637   T   T   T
  0.1814975206390109  0.5603888001375718  0.6599156466517470   T   T   T
  0.1697716146160537  0.5333731301214339  0.6287855661684069   T   T   T
  0.1552491646136369  0.4658629699427617  0.6270091194915818   T   T   T
  0.1539552828082796  0.4329476941917121  0.5958793819935951   T   T   T
  0.1635101127694820  0.3631303348447656  0.5940622127336804   T   T   T
  0.1730869368778775  0.3341578862417295  0.5628993629581061   T   T   T
  0.2038433629199357  0.2831161205962094  0.5610775918775667   T   T   T
  0.2213206978496320  0.2667193120299589  0.5298833307942087   T   T   T
  0.2640771957872601  0.2499940851232875  0.5280259816750994   T   T   T
  0.2842112937524123  0.2510076059028761  0.4969176774047537   T   T   T
  0.3260470751404386  0.2736543260533447  0.4950675810274602   T   T   T
  0.3428606154666367  0.2916144706768673  0.4639931518503053   T   T   T
  0.3721541040394894  0.3450271601186263  0.4622154323589384   T   T   T
  0.3815230906702735  0.3735423178046914  0.4307434492216652   T   T   T
  0.3887054502308201  0.4441904144904057  0.4287385367364497   T   T   T
  0.3857455945192281  0.4768089337582532  0.3976853677749732   T   T   T
  0.3506191122140688  0.5784510715999185  0.8192966677560901   T   T   T
  0.3346287265501445  0.5986492980038531  0.7881307756564004   T   T   T
  0.2938477224140322  0.6254968544884427  0.7862918585803041   T   T   T
  0.2737170923751464  0.6289890827947751  0.7551184075269786   T   T   T
  0.2303382632709395  0.6169494996486851  0.7532972309185234   T   T   T
  0.2120809472862197  0.6026556820158486  0.7221274617424510   T   T   T
  0.1790067908081803  0.5554743432310167  0.7203518243414930   T   T   T
  0.1679328402672771  0.5277921665026514  0.6892266067690659   T   T   T
  0.1549076623596191  0.4594723536303042  0.6874516311942647   T   T   T
  0.1543595011887112  0.4264925917799068  0.6563202877098688   T   T   T
  0.1654151436369524  0.3573050986740083  0.6545041022169857   T   T   T
  0.1755653395531251  0.3288576986565047  0.6233396599151895   T   T   T
  0.2074296679794380  0.2795333334435199  0.6215115551277435   T   T   T
  0.2252604516472210  0.2642193699978269  0.5903469074404345   T   T   T
  0.2683556473078011  0.2497735794166996  0.5884878596772638   T   T   T
  0.2884619445705535  0.2525742016998800  0.5573005150353356   T   T   T
  0.3296589966849597  0.2771293407730619  0.5554294928347980   T   T   T
  0.3459949517737787  0.2965337006627147  0.5242330316749192   T   T   T
  0.3741757322997177  0.3514035892011343  0.5221911350419289   T   T   T
  0.3833234571057350  0.3797996770128810  0.4913071657215244   T   T   T
  0.3950888658646695  0.4509091167034431  0.4891168044666446   T   T   T
  0.3860556610287748  0.4834390258629212  0.4577486307783264   T   T   T
  0.3476260890510477  0.5828756505248343  0.8797306158535382   T   T   T
  0.3312083318390158  0.6021687239200791  0.8485709079767172   T   T   T
  0.2898791709317137  0.6267023601136719  0.8467467211153468   T   T   T
  0.2696710535793139  0.6290859866460166  0.8155795059246862   T   T   T
  0.2265805521417069  0.6146441125961578  0.8137520180436906   T   T   T
  0.2086100936600856  0.5994198587629402  0.7825873029780654   T   T   T
  0.1765797928323168  0.5503592850007015  0.7808036955040569   T   T   T
  0.1661732026064514  0.5220561872398676  0.7496632857206983   T   T   T
  0.1546742026123946  0.4530429584949979  0.7478784736747909   T   T   T
  0.1548507354664991  0.4200706746751533  0.7167400260243999   T   T   T
  0.1673811955362219  0.3515246828946564  0.7149285732924892   T   T   T
  0.1781707711273749  0.3236830255246068  0.6837799338810273   T   T   T
  0.2110266660239688  0.2761095211736324  0.6819525797781694   T   T   T
  0.2292218861804582  0.2618166429370227  0.6507763919378708   T   T   T
  0.2725374218687961  0.2494234316417622  0.6489125315509787   T   T   T
  0.2926270756460503  0.2529867586173799  0.6177205394961089   T   T   T
  0.3335677096079741  0.2792824718723013  0.6158801531705678   T   T   T
  0.3495414130779321  0.2996952514376593  0.5847784226303943   T   T   T
  0.3762116207211708  0.3565672274607525  0.5830502792625749   T   T   T
  0.3837344104040105  0.3879744935893963  0.5520078634182790   T   T   T
  0.3890565625302022  0.4580552724667575  0.5507049761967089   T   T   T
  0.3907777818181670  0.4936823133765990  0.5192978972463421   T   T   T
  0.3445334930697607  0.5870824933506548  0.9401746494934621   T   T   T
  0.3277136163235740  0.6054526900953607  0.9090125308764695   T   T   T
  0.2858895943310097  0.6276482840797551  0.9071934662115121   T   T   T
  0.2656417665099972  0.6289221466939091  0.8760304795450371   T   T   T
  0.2228813648076534  0.6120668702230482  0.8742031550053284   T   T   T
  0.2052411245141194  0.5958583997109379  0.8430448637600116   T   T   T
  0.1742798238304056  0.5450455196099278  0.8412513253246431   T   T   T
  0.1644805764269498  0.5161981078985733  0.8100979016572573   T   T   T
  0.1544919462942456  0.4465573120660742  0.8083008684272387   T   T   T
  0.1554148635432748  0.4136315183390203  0.7771649604603359   T   T   T
  0.1693831689394505  0.3458214153664751  0.7753608557567171   T   T   T
  0.1807940897111631  0.3186133112393923  0.7442083558575867   T   T   T
  0.2145812208414876  0.2728288486354448  0.7423856160014777   T   T   T
  0.2330725015554468  0.2594644219285436  0.7112176075832836   T   T   T
  0.2766316383405206  0.2493249107083776  0.7093734822716531   T   T   T
  0.2966811094012770  0.2538161675103664  0.6782179735390169   T   T   T
  0.3370506785188108  0.2822790828037811  0.6764306831723487   T   T   T
  0.3527054626281728  0.3033010422869343  0.6452881384208599   T   T   T
  0.3779631186349258  0.3617198775048114  0.6435837208493144   T   T   T
  0.3846949285502222  0.3929733631497864  0.6124457813228698   T   T   T
  0.3873324386163035  0.4642223998976420  0.6108001285457419   T   T   T
  0.3836554663577665  0.4965920720428965  0.5797244626568719   T   T   T
  0.3413371595756796  0.5910797183467115  0.0006202279961776   T   T   T
  0.3241516621118196  0.6085195070349063  0.9694569574644851   T   T   T
  0.2818787447799186  0.6283594261960519  0.9676371726803805   T   T   T
  0.2616175781811917  0.6285034584621750  0.9364782063102717   T   T   T
  0.2192409947274893  0.6092628560629447  0.9346523102358161   T   T   T
  0.2019551028257058  0.5920814885933862  0.9034918751379754   T   T   T
  0.1720924647866946  0.5395698502536580  0.9016915487836329   T   T   T
  0.1629133893187377  0.5102071808957906  0.8705382343193876   T   T   T
  0.1544125924842955  0.4400473335243474  0.8687305727964270   T   T   T
  0.1560604202912013  0.4072019154926558  0.8375890112434620   T   T   T
  0.1714522913019869  0.3402235112663532  0.8357892287746088   T   T   T
  0.1834343635110142  0.3136534954844078  0.8046377051153598   T   T   T
  0.2181687837032371  0.2697545074461889  0.8028213886460202   T   T   T
  0.2369360008922698  0.2573914068651716  0.7716696683652545   T   T   T
  0.2806810171333084  0.2496674339273918  0.7698469669547683   T   T   T
  0.3006411622744048  0.2552267683320564  0.7386840897023675   T   T   T
  0.3403478376107588  0.2859670073793172  0.7369000805750718   T   T   T
  0.3555798110986885  0.3076999885121490  0.7057400539247406   T   T   T
  0.3794984696092268  0.3677022375216092  0.7039837122041962   T   T   T
  0.3855356622438143  0.3991680245495802  0.6728668281877493   T   T   T
  0.3865271188578043  0.4706710768280144  0.6711304275638902   T   T   T
  0.3815108431017013  0.5026197198859398  0.6400279603532213   T   T   T
  0.2575965839016212  0.6278434275349349  0.9969194097081394   T   T   T
  0.2156540376071434  0.6062477590507874  0.9950974000635184   T   T   T
  0.1987453085653165  0.5881180169790013  0.9639359123742171   T   T   T
  0.1700066768924554  0.5339713429386185  0.9621297027502823   T   T   T
  0.1614611995951517  0.5041111523839402  0.9309776304950159   T   T   T
  0.1544534090318201  0.4335250503718292  0.9291627253114382   T   T   T
  0.1568075516762139  0.4008047693025818  0.8980144483982886   T   T   T
  0.1736165581155358  0.3347281620857316  0.8962175353005799   T   T   T
  0.1861637459092463  0.3088535573643672  0.8650715611015605   T   T   T
  0.2218051005520434  0.2669227198605638  0.8632578012118610   T   T   T
  0.2408374527109257  0.2556150060933404  0.8321081805657566   T   T   T
  0.2847107038226807  0.2503454739961881  0.8302978222979210   T   T   T
  0.3045479481180852  0.2569571661355403  0.7991343634626663   T   T   T
  0.3435847670510398  0.2899352299533674  0.7973409192729516   T   T   T
  0.3583250133770544  0.3124943925838743  0.7661924574743428   T   T   T
  0.3809132948868980  0.3738606139005565  0.7644053843623856   T   T   T
  0.3861980974755436  0.4056472435073282  0.7332694424112112   T   T   T
  0.3856699871843043  0.4771239026064704  0.7314929718244841   T   T   T
  0.3799571217646625  0.5087013363839297  0.7003469878185254   T   T   T
  0.1601286841485201  0.4979377322710294  0.9914131135501334   T   T   T
  0.1546213751683216  0.4270003562682670  0.9895952058745281   T   T   T
  0.1576699610130955  0.3944319259926264  0.9584450918256235   T   T   T
  0.1758754113308308  0.3293360765161118  0.9566465595580631   T   T   T
  0.1889770175330901  0.3041901421371112  0.9255010597248364   T   T   T
  0.2254874336116476  0.2642897229809456  0.9236857453549265   T   T   T
  0.2447532811237412  0.2540513727357783  0.8925382649905101   T   T   T
  0.2887179497434966  0.2512571235644732  0.8907344244816013   T   T   T
  0.3084082053884130  0.2589753464194187  0.8595809003784973   T   T   T
  0.3467242743668488  0.2941310692024580  0.8577783282244937   T   T   T
  0.3609691676808146  0.3175162542042369  0.8266267472372341   T   T   T
  0.3822272599175797  0.3801090535116858  0.8248244801773087   T   T   T
  0.3868193308615233  0.4121603430905683  0.7936735661565145   T   T   T
  0.3847590054340712  0.4835825797429301  0.7918775010928498   T   T   T
  0.3783527444722866  0.5148041216226974  0.7607366329642105   T   T   T
  0.1918731091815863  0.2996841394822494  0.9859281281327344   T   T   T
  0.2292093818522838  0.2618519373914917  0.9841102597767660   T   T   T
  0.2486871804286933  0.2527025361239639  0.9529666867877408   T   T   T
  0.2926882051486474  0.2523798324412357  0.9511671830299283   T   T   T
  0.3122095279633132  0.2612287736489499  0.9200173924016926   T   T   T
  0.3497512275223330  0.2985121809589158  0.9182075695460126   T   T   T
  0.3635053901513710  0.3226742716926043  0.8870555138331919   T   T   T
  0.3834278804896115  0.3864242268212226  0.8852491158898366   T   T   T
  0.3873287699683079  0.4187171791167700  0.8540964851937547   T   T   T
  0.3837399715525796  0.4899819198857334  0.8522908229087037   T   T   T
  0.3766469395735498  0.5208112545739846  0.8211405386447626   T   T   T
  0.3159532647198835  0.2636399834242569  0.9804466312348807   T   T   T
  0.3526847737571802  0.3030094287798455  0.9786332745350541   T   T   T
  0.3659200935673999  0.3279536418975612  0.9474864458562962   T   T   T
  0.3844932049728439  0.3927720315562016  0.9456826486240567   T   T   T
  0.3877091210680856  0.4252819188681735  0.9145268473795601   T   T   T
  0.3826174324307127  0.4963013896704557  0.9127156008437212   T   T   T
  0.3748703228546683  0.5267272961734213  0.8815615031905507   T   T   T
  0.3879450783615884  0.4318258515516540  0.9749633370659897   T   T   T
  0.3813451811257783  0.5025207681073828  0.9731489495484402   T   T   T
  0.3729657455391487  0.5325070945109701  0.9419961552720032   T   T   T
  0.4507859447767536  0.4899856427197474  0.5039668230531070   T   T   T
  0.4624968679916676  0.5448432715279248  0.4808903778084501   T   T   T
 
  0.00000000E+00  0.00000000E+00  0.00000000E+00
  0.00000000E+00  0.00000000E+00  0.00000000E+00
  0.00000000E+00  0.00000000E+00  0.00000000E+00
  0.00000000E+00  0.00000000E+00  0.00000000E+00
  0.00000000E+00  0.00000000E+00  0.00000000E+00
  0.00000000E+00  0.00000000E+00  0.00000000E+00
  0.00000000E+00  0.00000000E+00  0.00000000E+00
  0.00000000E+00  0.00000000E+00  0.00000000E+00
  0.00000000E+00  0.00000000E+00  0.00000000E+00
  0.00000000E+00  0.00000000E+00  0.00000000E+00
  0.00000000E+00  0.00000000E+00  0.00000000E+00
  0.00000000E+00  0.00000000E+00  0.00000000E+00
  0.00000000E+00  0.00000000E+00  0.00000000E+00
  0.00000000E+00  0.00000000E+00  0.00000000E+00
  0.00000000E+00  0.00000000E+00  0.00000000E+00
  0.00000000E+00  0.00000000E+00  0.00000000E+00
  0.00000000E+00  0.00000000E+00  0.00000000E+00
  0.00000000E+00  0.00000000E+00  0.00000000E+00
  0.00000000E+00  0.00000000E+00  0.00000000E+00
  0.00000000E+00  0.00000000E+00  0.00000000E+00
  0.00000000E+00  0.00000000E+00  0.00000000E+00
  0.00000000E+00  0.00000000E+00  0.00000000E+00
  0.00000000E+00  0.00000000E+00  0.00000000E+00
  0.00000000E+00  0.00000000E+00  0.00000000E+00
  0.00000000E+00  0.00000000E+00  0.00000000E+00
  0.00000000E+00  0.00000000E+00  0.00000000E+00
  0.00000000E+00  0.00000000E+00  0.00000000E+00
  0.00000000E+00  0.00000000E+00  0.00000000E+00
  0.00000000E+00  0.00000000E+00  0.00000000E+00
  0.00000000E+00  0.00000000E+00  0.00000000E+00
  0.00000000E+00  0.00000000E+00  0.00000000E+00
  0.00000000E+00  0.00000000E+00  0.00000000E+00
  0.00000000E+00  0.00000000E+00  0.00000000E+00
  0.00000000E+00  0.00000000E+00  0.00000000E+00
  0.00000000E+00  0.00000000E+00  0.00000000E+00
  0.00000000E+00  0.00000000E+00  0.00000000E+00
  0.00000000E+00  0.00000000E+00  0.00000000E+00
  0.00000000E+00  0.00000000E+00  0.00000000E+00
  0.00000000E+00  0.00000000E+00  0.00000000E+00
  0.00000000E+00  0.00000000E+00  0.00000000E+00
  0.00000000E+00  0.00000000E+00  0.00000000E+00
  0.00000000E+00  0.00000000E+00  0.00000000E+00
  0.00000000E+00  0.00000000E+00  0.00000000E+00
  0.00000000E+00  0.00000000E+00  0.00000000E+00
  0.00000000E+00  0.00000000E+00  0.00000000E+00
  0.00000000E+00  0.00000000E+00  0.00000000E+00
  0.00000000E+00  0.00000000E+00  0.00000000E+00
  0.00000000E+00  0.00000000E+00  0.00000000E+00
  0.00000000E+00  0.00000000E+00  0.00000000E+00
  0.00000000E+00  0.00000000E+00  0.00000000E+00
  0.00000000E+00  0.00000000E+00  0.00000000E+00
  0.00000000E+00  0.00000000E+00  0.00000000E+00
  0.00000000E+00  0.00000000E+00  0.00000000E+00
  0.00000000E+00  0.00000000E+00  0.00000000E+00
  0.00000000E+00  0.00000000E+00  0.00000000E+00
  0.00000000E+00  0.00000000E+00  0.00000000E+00
  0.00000000E+00  0.00000000E+00  0.00000000E+00
  0.00000000E+00  0.00000000E+00  0.00000000E+00
  0.00000000E+00  0.00000000E+00  0.00000000E+00
  0.00000000E+00  0.00000000E+00  0.00000000E+00