 C  S  O                                
    1.000000000000000     
    32.3722991942999982    0.0000000000000000    0.0000000000000000
     0.0000000000000000   19.9214134216000005    0.0000000000000000
     0.0000000000000000    0.0000000000000000   40.4480476378999967
   C    S    O 
   364     1     1
Selective dynamics
Direct
  0.3708852335462396  0.5380842283291490  0.0024309257589180   T   T   T
  0.3686971222160337  0.5435766107385698  0.0628629313019318   T   T   T
  0.3380349473523805  0.5948645397619045  0.0610577491338063   T   T   T
  0.3204980024632804  0.6113404507469483  0.0298994020370868   T   T   T
  0.2778360099138051  0.6288329029898497  0.0280780646621755   T   T   T
  0.3663832612765968  0.5489298155811962  0.1232902441119433   T   T   T
  0.3346652730575259  0.5984923620306436  0.1214943059598661   T   T   T
  0.3167898438946862  0.6139875196783804  0.0903384690672421   T   T   T
  0.2737831471699959  0.6290841339095002  0.0885172696571746   T   T   T
  0.2535728073518620  0.6269807432617458  0.0573579715886939   T   T   T
  0.2121049581573306  0.6030744487083479  0.0555419178439466   T   T   T
  0.1955967241287131  0.5840043022326769  0.0243785916797006   T   T   T
  0.1680228737229886  0.5282821411755783  0.0225657040787008   T   T   T
  0.3639503929517596  0.5541317891585308  0.1837084161277671   T   T   T
  0.3312189240125681  0.6019065924382282  0.1819244441507676   T   T   T
  0.3130322705042589  0.6164213153270067  0.1507746262308359   T   T   T
  0.2697313493410227  0.6291239054237652  0.1489607232635258   T   T   T
  0.2495761383057291  0.6258848873147796  0.1178022737249785   T   T   T
  0.2086427865052583  0.5996658488152020  0.1159917154931161   T   T   T
  0.1925472390482592  0.5796863542349727  0.0848267457608187   T   T   T
  0.1661788417731558  0.5224504510042505  0.0830063015387617   T   T   T
  0.1589143986130257  0.4917159611130465  0.0518501786303889   T   T   T
  0.1549180432055375  0.4205067009999038  0.0500333003611325   T   T   T
  0.1586507240060192  0.3881332803721099  0.0188786909567234   T   T   T
  0.1782138067262556  0.3240875373589636  0.0170740819875609   T   T   T
  0.3614631446119373  0.5592010471071800  0.2441175156285238   T   T   T
  0.3277374385896354  0.6051311836315735  0.2423529104226498   T   T   T
  0.3092328455016005  0.6186258268007674  0.2112158466393920   T   T   T
  0.2656916008792481  0.6289062485023180  0.2094134929317394   T   T   T
  0.2456104330176584  0.6245594513591132  0.1782496479043135   T   T   T
  0.2052627584718092  0.5960539496921379  0.1764423692745969   T   T   T
  0.1895917375929637  0.5752018172512625  0.1452775730342553   T   T   T
  0.1644586759071477  0.5165093767323499  0.1434487273675927   T   T   T
  0.1578597417137855  0.4853852643540867  0.1122922007903097   T   T   T
  0.1553755996358892  0.4139958403711173  0.1104741034788678   T   T   T
  0.1597866404926172  0.3818564675651554  0.0793142648997632   T   T   T
  0.1806830048275732  0.3189342197285899  0.0775033027279809   T   T   T
  0.1948139190654669  0.2953171932284367  0.0463545943531055   T   T   T
  0.2329191619812239  0.2595654377356428  0.0445357521542331   T   T   T
  0.2525867634111736  0.2515237940068818  0.0133902067254946   T   T   T
  0.2965655320235974  0.2536462266424666  0.0115891584271734   T   T   T
  0.3710126143440429  0.5375301886669664  0.3356252264030299   T   T   T
  0.3589417234153954  0.5641358562396749  0.3045298145198754   T   T   T
  0.3242439896770808  0.6081009113403858  0.3027948437118791   T   T   T
  0.3054239964390026  0.6205520065890211  0.2716555652403885   T   T   T
  0.2617002439222121  0.6283470443519040  0.2698713874168761   T   T   T
  0.2416997286431664  0.6229594850606182  0.2387095858362352   T   T   T
  0.2019711703227457  0.5922118291451116  0.2368982531849488   T   T   T
  0.1867517760656723  0.5705121365854344  0.2057346405673066   T   T   T
  0.1628818167144175  0.5104433291570875  0.2038934948808259   T   T   T
  0.1569478147343569  0.4789807803305517  0.1727308264621523   T   T   T
  0.1559768836486813  0.4075002298862142  0.1709112668313370   T   T   T
  0.1610528024660815  0.3756328281553525  0.1397534926870282   T   T   T
  0.1832615318723962  0.3138999315891502  0.1379366020224869   T   T   T
  0.1978842104369313  0.2911005847417316  0.1067833547203174   T   T   T
  0.2367178358926446  0.2574894133602644  0.1049665088058212   T   T   T
  0.2565440924851554  0.2505611252065382  0.0738159979695288   T   T   T
  0.3004539579090428  0.2551429005114458  0.0720124984141428   T   T   T
  0.3195692866324408  0.2661832486989359  0.0408713411381414   T   T   T
  0.3554463134120626  0.3075775817634053  0.0390551462659304   T   T   T
  0.3681595923515463  0.3332659742118418  0.0079121598631296   T   T   T
  0.3853550958065498  0.3990786031394444  0.0061127340950060   T   T   T
  0.3690475274239491  0.5428271791889527  0.3960317493626858   T   T   T
  0.3563727928748107  0.5688530777388459  0.3649185208496418   T   T   T
  0.3207452112193767  0.6106313884743965  0.3632303977833095   T   T   T
  0.3016455398134107  0.6221695776481196  0.3321133494611702   T   T   T
  0.2577594745269097  0.6274240237493331  0.3303392574293733   T   T   T
  0.2378721094959268  0.6209881624756404  0.2991919253863203   T   T   T
  0.1988058410567180  0.5880617785900460  0.2973633917373887   T   T   T
  0.1840293616671000  0.5656017326943175  0.2661876185202657   T   T   T
  0.1614237897653893  0.5042688080046457  0.2643336003485414   T   T   T
  0.1561492785327220  0.4725168425981970  0.2331673802130113   T   T   T
  0.1566869280374956  0.4010163083858342  0.2313444286597950   T   T   T
  0.1624573131492770  0.3694664139603883  0.2001916851384243   T   T   T
  0.1859498063257690  0.3090030789134559  0.1983726161477390   T   T   T
  0.2010355347370995  0.2870305078875061  0.1672150177928702   T   T   T
  0.2405497777562882  0.2555797935944011  0.1654055660027704   T   T   T
  0.2605113777175226  0.2497760653805095  0.1342510151399905   T   T   T
  0.3042981931694128  0.2568111494177865  0.1324423071509159   T   T   T
  0.3231748369766224  0.2689311302515763  0.1012976903562155   T   T   T
  0.3581498747337357  0.3123109096398017  0.0994799284375085   T   T   T
  0.3703172456516119  0.3387140458120678  0.0683391558188577   T   T   T
  0.3861060302623214  0.4054542127326118  0.0665420028758037   T   T   T
  0.3879697289356998  0.4382814358279329  0.0353981944306079   T   T   T
  0.3798812139611603  0.5085658800543136  0.0335819751976401   T   T   T
  0.3672707706150222  0.5470764805719004  0.4564241754284316   T   T   T
  0.3538046393808984  0.5728026435327366  0.4254073742711476   T   T   T
  0.3171940604018952  0.6123985663122984  0.4237044046363000   T   T   T
  0.2978813417810044  0.6231244306874417  0.3926436846127607   T   T   T
  0.2538875761728091  0.6259139034699416  0.3908308834628887   T   T   T
  0.2341273729567333  0.6185583449606367  0.3596614990257666   T   T   T
  0.1957593329742853  0.5836033447366893  0.3578103352416106   T   T   T
  0.1814218139996460  0.5604499391239989  0.3266291274204994   T   T   T
  0.1600443202960512  0.4979476364104017  0.3247681523864377   T   T   T
  0.1554512494431041  0.4659610846806298  0.2936030393489472   T   T   T
  0.1574680919226483  0.3945281958194958  0.2917758703366777   T   T   T
  0.1639451249985678  0.3633425479214851  0.2606190485185920   T   T   T
  0.1887126455403144  0.3042498522958686  0.2588008674368278   T   T   T
  0.2042678371632525  0.2831245014141747  0.2276546646836616   T   T   T
  0.2444322087313862  0.2538777180797910  0.2258589321788022   T   T   T
  0.2644955887720128  0.2491944596313403  0.1946935900712402   T   T   T
  0.3081035323685916  0.2586751320523880  0.1928773436551570   T   T   T
  0.3267081119268411  0.2718494990325628  0.1617274841520774   T   T   T
  0.3607415837558805  0.3171714681847069  0.1599053389582250   T   T   T
  0.3723438571629038  0.3442550542339508  0.1287659008148738   T   T   T
  0.3866925980656464  0.4118475384564290  0.1269643279888146   T   T   T
  0.3878695015069146  0.4447754197691738  0.0958251520184334   T   T   T
  0.3783034193747489  0.5145639798060261  0.0940099481817065   T   T   T
  0.3655264851833909  0.5547813542838220  0.5171055990228485   T   T   T
  0.3512268156683377  0.5768420588353139  0.4862200489799622   T   T   T
  0.3134185006509411  0.6136770821484556  0.4842316675947662   T   T   T
  0.2939396112527416  0.6230974250582922  0.4530904199585308   T   T   T
  0.2500406117656854  0.6238700678103704  0.4512470888094903   T   T   T
  0.2304174935727150  0.6157486311690629  0.4200809881730884   T   T   T
  0.1926840224014666  0.5789749716129002  0.4182269335780293   T   T   T
  0.1788555350439841  0.5550971196342321  0.3870689670084072   T   T   T
  0.1587008695458707  0.4915253943159691  0.3852109250036421   T   T   T
  0.1548140908335620  0.4593168384647061  0.3540297565400241   T   T   T
  0.1583057502145739  0.3880585397139652  0.3521994585245340   T   T   T
  0.1654643965027682  0.3572651075889692  0.3210483925558096   T   T   T
  0.1915237953860773  0.2996245144850460  0.3192359978418024   T   T   T
  0.2075671976030303  0.2794369160364265  0.2881018188796498   T   T   T
  0.2483394815943863  0.2525094799084670  0.2863221134121793   T   T   T
  0.2684881420901877  0.2488714332396261  0.2551477249363418   T   T   T
  0.3118766649176190  0.2607861202981018  0.2533258790743694   T   T   T
  0.3301831184936127  0.2749645445369333  0.2221682427577769   T   T   T
  0.3632287597479993  0.3221832906021611  0.2203350864483639   T   T   T
  0.3742388860349971  0.3499000680016656  0.1891868486574420   T   T   T
  0.3871358929257766  0.4182499910536838  0.1873717336301986   T   T   T
  0.3876145010224398  0.4512353886880438  0.1562408857169997   T   T   T
  0.3765837201354058  0.5204525042955160  0.1544315133385835   T   T   T
  0.3625969230583218  0.5595572993651211  0.5777161998746881   T   T   T
  0.3479598641823255  0.5815299078517898  0.5462704711592421   T   T   T
  0.3094610507917439  0.6161299497303380  0.5444868427216677   T   T   T
  0.2899369555113813  0.6241374594555353  0.5134007667123079   T   T   T
  0.2458365087765673  0.6228102432101020  0.5115900573824842   T   T   T
  0.2265698715055285  0.6130437044264834  0.4805105360802413   T   T   T
  0.1895652311286216  0.5743681004344594  0.4786549132215039   T   T   T
  0.1763155568072479  0.5496182864374914  0.4474814219625931   T   T   T
  0.1574933273108190  0.4850667161863059  0.4456417202431778   T   T   T
  0.1542305485387230  0.4526553083579091  0.4144659710821679   T   T   T
  0.1592180114505911  0.3815933312678356  0.4126379513363394   T   T   T
  0.1670616310035513  0.3512445345836441  0.3814934998511377   T   T   T
  0.1943730228824582  0.2951568767416901  0.3796843322808811   T   T   T
  0.2109076865035918  0.2759662402889267  0.3485399343311538   T   T   T
  0.2522561266662286  0.2515287795708934  0.3467646175134932   T   T   T
  0.2724789761010276  0.2489246456427077  0.3156205352747286   T   T   T
  0.3156300123656640  0.2632295197151404  0.3138069594640044   T   T   T
  0.3335983056795530  0.2783642940837830  0.2826107882584001   T   T   T
  0.3656177741088871  0.3273674640418565  0.2807558166209765   T   T   T
  0.3760386322942309  0.3556521955359422  0.2496002012091835   T   T   T
  0.3874991856285236  0.4246829424872212  0.2477632617007012   T   T   T
  0.3872476345386673  0.4576708662345687  0.2166420552096147   T   T   T
  0.3747651935779621  0.5262351558186893  0.2148435414409645   T   T   T
  0.3594089493619586  0.5642618529957760  0.6380818996117457   T   T   T
  0.3449622998715893  0.5869123116580703  0.6067524302031352   T   T   T
  0.3057228588686938  0.6197623298127347  0.6049086055629724   T   T   T
  0.2858608442800274  0.6257244703486396  0.5737890373918617   T   T   T
  0.2419643035114532  0.6214921731264266  0.5719856517458924   T   T   T
  0.2228015249667238  0.6106121249661816  0.5408487427002930   T   T   T
  0.1866823379323944  0.5697705443420178  0.5390394749131798   T   T   T
  0.1738284946675663  0.5443273032293652  0.5079183311009611   T   T   T
  0.1563682185592331  0.4785926704334253  0.5060994328611211   T   T   T
  0.1538344306294988  0.4459976911789189  0.4749508558671456   T   T   T
  0.1603282184489711  0.3752565738984751  0.4731162838432540   T   T   T
  0.1687973530545308  0.3453489686999726  0.4419407017655371   T   T   T
  0.1972961740435541  0.2908968509081921  0.4401243146163338   T   T   T
  0.2142205922063532  0.2726263948989179  0.4089888815996415   T   T   T
  0.2561583022783573  0.2507816539733546  0.4072032167660858   T   T   T
  0.2764677763768852  0.2495013193065964  0.3760937410785230   T   T   T
  0.3192777279402430  0.2662337520500175  0.3742928004149111   T   T   T
  0.3369780987089152  0.2820184288047618  0.3430530100682448   T   T   T
  0.3680444283914856  0.3326788625654240  0.3411800428660981   T   T   T
  0.3777806402314406  0.3615218403354064  0.3100153367021264   T   T   T
  0.3877936151464874  0.4311415042471770  0.3081390879758859   T   T   T
  0.3868051096704789  0.4641038870601177  0.2770155432660141   T   T   T
  0.3728919635367088  0.5319114198581019  0.2752386485766900   T   T   T
  0.3564615923873048  0.5690940805449787  0.6984629262968037   T   T   T
  0.3414445090844188  0.5910409163209732  0.6672818070154575   T   T   T
  0.3018082942872582  0.6221600013813372  0.6653957269572797   T   T   T
  0.2818976323944798  0.6274475308225653  0.6341582648183639   T   T   T
  0.2380962418586229  0.6202665504904796  0.6323724740704655   T   T   T
  0.2191768873194319  0.6081615716984697  0.6012741430273674   T   T   T
  0.1839859349597363  0.5651330008189839  0.5994816917227236   T   T   T
  0.1717078158962104  0.5388025363956406  0.5683642240238483   T   T   T
  0.1557106250858922  0.4722212999888613  0.5665680046984501   T   T   T
  0.1537273106067603  0.4394220345749722  0.5353996114681776   T   T   T
  0.1617606224253534  0.3691151084140591  0.5335676694768376   T   T   T
  0.1706838196263767  0.3396219915805809  0.5024158575647161   T   T   T
  0.2004090184665186  0.2867634167616291  0.5005904420664481   T   T   T
  0.2176726160190952  0.2695677527383005  0.4694571972275221   T   T   T
  0.2600682739541704  0.2503298103561655  0.4676513459250328   T   T   T
  0.2803816688031086  0.2504023916008059  0.4365094495879380   T   T   T
  0.3226796350555549  0.2699749346860408  0.4346889318777005   T   T   T
  0.3402085973448675  0.2862317736510170  0.4035421320976110   T   T   T
  0.3705574719624360  0.3383136665142110  0.4017008462117493   T   T   T
  0.3795817209888678  0.3675180360378644  0.3703935273820620   T   T   T
  0.3880408725246123  0.4375580644531272  0.3684516925215033   T   T   T
  0.3863410273906896  0.4704976362173439  0.3373629243278782   T   T   T
  0.3535656019825404  0.5738396305015399  0.7588832807320256   T   T   T
  0.3380215405735798  0.5948898360973943  0.7277126052359714   T   T   T
  0.2978401407979541  0.6239531938433341  0.7258431504617027   T   T   T
  0.2778226991494884  0.6284938138169264  0.6946309920716912   T   T   T
  0.2341857626335623  0.6188205194933305  0.6928253769801078   T   T   T
  0.2156318552680307  0.6054653921379407  0.6616945749606138   T   T   T
  0.1814979130397342  0.5603438919623827  0.6599151842988500   T   T   T
  0.1697587976378931  0.5333373938634149  0.6287859902135657   T   T   T
  0.1552190352718729  0.4658394647654964  0.6270078925594099   T   T   T
  0.1539139774374937  0.4329301389934776  0.5958772338939006   T   T   T
  0.1634786353911432  0.3631145433880122  0.5940574985812453   T   T   T
  0.1730679036453431  0.3341612857864522  0.5628937345968352   T   T   T
  0.2038679927432802  0.2831909209613204  0.5610680765340440   T   T   T
  0.2213726781422506  0.2668667508821892  0.5298747743208050   T   T   T
  0.2641406014255782  0.2502457072843273  0.5280175800679013   T   T   T
  0.2842876838694388  0.2512998207633348  0.4969149720877394   T   T   T
  0.3261382349872097  0.2738776307006002  0.4950672398469316   T   T   T
  0.3429896251491753  0.2917692421482654  0.4639967610360792   T   T   T
  0.3723660012343044  0.3450805753656969  0.4622169109828543   T   T   T
  0.3816312591318884  0.3736068594183578  0.4307376717841155   T   T   T
  0.3887342562798214  0.4442530833248716  0.4287335324436504   T   T   T
  0.3858119186494423  0.4768703443504250  0.3976809170351924   T   T   T
  0.3506243712560010  0.5784176824798948  0.8193026355687999   T   T   T
  0.3346400420269237  0.5986210566483992  0.7881349538365932   T   T   T
  0.2938591124617082  0.6254682813158787  0.7862913834336767   T   T   T
  0.2737313728078317  0.6289491849493699  0.7551171917099814   T   T   T
  0.2303524792654831  0.6169061506095554  0.7532934692822537   T   T   T
  0.2120956123757634  0.6026022766479872  0.7221246803518092   T   T   T
  0.1790132821927512  0.5554388251358955  0.7203483431408704   T   T   T
  0.1679287077629666  0.5277590064906297  0.6892251885234155   T   T   T
  0.1548872648565410  0.4594464481026024  0.6874492819440619   T   T   T
  0.1543303467364597  0.4264657708730730  0.6563179435503015   T   T   T
  0.1653898326534032  0.3572813056946375  0.6544980895543553   T   T   T
  0.1755497318537613  0.3288472778783398  0.6233317144782261   T   T   T
  0.2074401911723307  0.2795668837775220  0.6214988458615038   T   T   T
  0.2252928527230059  0.2643108564394069  0.5903330533122003   T   T   T
  0.2683965699643933  0.2499186854171178  0.5884739639525022   T   T   T
  0.2885190722799265  0.2527850943628459  0.5572916385938537   T   T   T
  0.3297301464729078  0.2772809800493323  0.5554259287533149   T   T   T
  0.3461156390776055  0.2966915885500535  0.5242348331359667   T   T   T
  0.3743728504085782  0.3514577428650839  0.5222046719841770   T   T   T
  0.3836050818833691  0.3799122264225745  0.4913136550187769   T   T   T
  0.3949201019641168  0.4511118851305021  0.4890947840840027   T   T   T
  0.3860038948725000  0.4834856389792653  0.4577560997577532   T   T   T
  0.3476215418941744  0.5828418167083330  0.8797329359281382   T   T   T
  0.3312113565621724  0.6021416386541234  0.8485735497181457   T   T   T
  0.2898844304437724  0.6266864934377551  0.8467454249155330   T   T   T
  0.2696791540574037  0.6290652390690358  0.8155763566439707   T   T   T
  0.2265892530791136  0.6146262045575712  0.8137467865304984   T   T   T
  0.2086206774444100  0.5993924895586983  0.7825816412079338   T   T   T
  0.1765846378606029  0.5503402232480320  0.7807980658150063   T   T   T
  0.1661731376764210  0.5220337939854097  0.7496599586675108   T   T   T
  0.1546603915840211  0.4530267640101976  0.7478748567351958   T   T   T
  0.1548295365168355  0.4200482460635996  0.7167369595949471   T   T   T
  0.1673573196859739  0.3515022020213607  0.7149219638739409   T   T   T
  0.1781507828873767  0.3236637332001393  0.6837719361467357   T   T   T
  0.2110190602652386  0.2761090367305423  0.6819412158056877   T   T   T
  0.2292289299008865  0.2618484480915647  0.6507648889236610   T   T   T
  0.2725464644147237  0.2494763884418358  0.6489028908779793   T   T   T
  0.2926511007460970  0.2530744788818091  0.6177139193169143   T   T   T
  0.3335998151858587  0.2793301240866360  0.6158844947382773   T   T   T
  0.3496026067623479  0.2997501213533392  0.5847901079189507   T   T   T
  0.3762865430796574  0.3565933758090099  0.5830751105695086   T   T   T
  0.3838286122128062  0.3880179972317093  0.5520345765503445   T   T   T
  0.3891100476504552  0.4580572026313228  0.5507428060920009   T   T   T
  0.3909145332924744  0.4938018595083382  0.5193187886508355   T   T   T
  0.3445232562661107  0.5870491873243822  0.9401747215527114   T   T   T
  0.3277091317042813  0.6054291682737228  0.9090125006737182   T   T   T
  0.2858892176445909  0.6276430803450900  0.9071908512750844   T   T   T
  0.2656443595961374  0.6289174222175731  0.8760270881161671   T   T   T
  0.2228824921295737  0.6120683355965518  0.8741977143644828   T   T   T
  0.2052450534952805  0.5958529255946821  0.8430393737587322   T   T   T
  0.1742807024835756  0.5450439935327512  0.8412459908040371   T   T   T
  0.1644799987561199  0.5161906580727494  0.8100929409617607   T   T   T
  0.1544809868290496  0.4465550904675430  0.8082959790598813   T   T   T
  0.1553970672046201  0.4136218609736728  0.7771612497995323   T   T   T
  0.1693577956247002  0.3458059382128938  0.7753551495498359   T   T   T
  0.1807697172090484  0.3185937969792422  0.7442024251364064   T   T   T
  0.2145585489965789  0.2728142205859918  0.7423772592879014   T   T   T
  0.2330589185229671  0.2594630243981462  0.7112083461258039   T   T   T
  0.2766187517937003  0.2493339816279818  0.7093661946071559   T   T   T
  0.2966787925366852  0.2538427474276914  0.6782132497790352   T   T   T
  0.3370535118486903  0.2822937401631519  0.6764352276497275   T   T   T
  0.3527306365466465  0.3033192705944560  0.6452988517080684   T   T   T
  0.3780020252062150  0.3617210716120216  0.6436035954968816   T   T   T
  0.3847551199677206  0.3929863014960068  0.6124691283295101   T   T   T
  0.3873838489381332  0.4642320382756014  0.6108212213127985   T   T   T
  0.3836988806486914  0.4965965644109445  0.5797436402439484   T   T   T
  0.3413260759427431  0.5910466863040756  0.0006175367950938   T   T   T
  0.3241447595592963  0.6084982630057940  0.9694550569468058   T   T   T
  0.2818754516174241  0.6283608143716457  0.9676348481019075   T   T   T
  0.2616154250373180  0.6285096062435476  0.9364749664393881   T   T   T
  0.2192371727805393  0.6092766985025211  0.9346481322670439   T   T   T
  0.2019530069163216  0.5920915651169814  0.9034868354898271   T   T   T
  0.1720893128581920  0.5395818185892931  0.9016864853802270   T   T   T
  0.1629099727782731  0.5102150680424454  0.8705335292997314   T   T   T
  0.1544017707897297  0.4400566012708640  0.8687264987873240   T   T   T
  0.1560439617507693  0.4072047239218504  0.8375857094671338   T   T   T
  0.1714243446454883  0.3402196665013885  0.8357848952910870   T   T   T
  0.1834045735766641  0.3136402424259940  0.8046329033021352   T   T   T
  0.2181347808684882  0.2697345685863842  0.8028149079379636   T   T   T
  0.2369067728179476  0.2573736677440094  0.7716630005281562   T   T   T
  0.2806533435111580  0.2496512179911544  0.7698418131638898   T   T   T
  0.3006208343014474  0.2552218499063544  0.7386814168842749   T   T   T
  0.3403290247238155  0.2859560990412540  0.7369038788900963   T   T   T
  0.3555755466231869  0.3076949107654194  0.7057479870481453   T   T   T
  0.3795075645717905  0.3676841161638183  0.7039978700930293   T   T   T
  0.3855666780183604  0.3991584935563164  0.6728857826082805   T   T   T
  0.3865668512328257  0.4706659385314250  0.6711480995612239   T   T   T
  0.3815536695666332  0.5026246593961073  0.6400466731528339   T   T   T
  0.2575929485788873  0.6278543574477695  0.9969169350247961   T   T   T
  0.2156486213613381  0.6062665407619529  0.9950949745726462   T   T   T
  0.1987403738185415  0.5881366150238305  0.9639325633440122   T   T   T
  0.1700015195491643  0.5339894240545078  0.9621266314744521   T   T   T
  0.1614556453588021  0.5041280452243714  0.9309741808903111   T   T   T
  0.1544423213190786  0.4335428639739313  0.9291597057913941   T   T   T
  0.1567913004899992  0.4008182651981961  0.8980112710653668   T   T   T
  0.1735872188577499  0.3347338874684537  0.8962143702673039   T   T   T
  0.1861289255991547  0.3088480929961575  0.8650679122181588   T   T   T
  0.2217634541789490  0.2669000173490230  0.8632530707269728   T   T   T
  0.2407975627858640  0.2555883651350779  0.8321037880357365   T   T   T
  0.2846699814723054  0.2503129462469084  0.8302943807561937   T   T   T
  0.3045137874443357  0.2569306707111935  0.7991319830781510   T   T   T
  0.3435521990118609  0.2899039734861626  0.7973430459882964   T   T   T
  0.3583025708973260  0.3124674932008250  0.7661987716335500   T   T   T
  0.3809018388280112  0.3738259011860390  0.7644163736248617   T   T   T
  0.3862039398740430  0.4056192603613177  0.7332847722427445   T   T   T
  0.3856886944793433  0.4770960879465204  0.7315082210574138   T   T   T
  0.3799880839642293  0.5086866317462915  0.7003621648828242   T   T   T
  0.1601230581782532  0.4979578663461091  0.9914109855282823   T   T   T
  0.1546106758700999  0.4270212362993326  0.9895935753183015   T   T   T
  0.1576536592903927  0.3944509143361245  0.9584430183962324   T   T   T
  0.1758455910544193  0.3293448939399505  0.9566446003544876   T   T   T
  0.1889404856303084  0.3041891991301374  0.9254988882330284   T   T   T
  0.2254410064952062  0.2642666670113892  0.9236830703267104   T   T   T
  0.2447066917511070  0.2540191912302731  0.8925346296476928   T   T   T
  0.2886706187617699  0.2512127816928026  0.8907312312665541   T   T   T
  0.3083638314114551  0.2589329054629477  0.8595793377500544   T   T   T
  0.3466819159682684  0.2940854283627660  0.8577791237083241   T   T   T
  0.3609339025368439  0.3174742677962668  0.8266311543100840   T   T   T
  0.3821992391273036  0.3800601607338823  0.8248326901152506   T   T   T
  0.3868056151326411  0.4121176970447536  0.7936844522846513   T   T   T
  0.3847583035140962  0.4835409615477038  0.7918885984022088   T   T   T
  0.3783661922363133  0.5147720281165034  0.7607496779287497   T   T   T
  0.1918362161242717  0.2996836773871793  0.9859266402907332   T   T   T
  0.2291626113816510  0.2618263972636360  0.9841086278601234   T   T   T
  0.2486374659128686  0.2526661281385626  0.9529643541280144   T   T   T
  0.2926381225398172  0.2523270198108252  0.9511647458374041   T   T   T
  0.3121609582486202  0.2611753414497164  0.9200153160354577   T   T   T
  0.3497030528308776  0.2984565414318385  0.9182069815870585   T   T   T
  0.3634617015266499  0.3226220576706253  0.8870572211420454   T   T   T
  0.3833889920338179  0.3863681958682385  0.8852533341240416   T   T   T
  0.3873003788340335  0.4186632459064630  0.8541043378460162   T   T   T
  0.3837238946874612  0.4899305043429603  0.8522985393394252   T   T   T
  0.3766434627451728  0.5207688503861657  0.8211496540044503   T   T   T
  0.3159041512528120  0.2635797998709378  0.9804440366155777   T   T   T
  0.3526355222650127  0.3029485157434675  0.9786308593119029   T   T   T
  0.3658713644964907  0.3278949468005278  0.9474855242460750   T   T   T
  0.3844467624469719  0.3927115287954799  0.9456829178378968   T   T   T
  0.3876701758790646  0.4252239131168952  0.9145299063078091   T   T   T
  0.3825907253227718  0.4962449730416953  0.9127189300249953   T   T   T
  0.3748546157324172  0.5266787202714603  0.8815662618650584   T   T   T
  0.3879018767792273  0.4317641212483747  0.9749615425233588   T   T   T
  0.3813139134787153  0.5024622498394190  0.9731480669191518   T   T   T
  0.3729427354280581  0.5324560205782616  0.9419972018811832   T   T   T
  0.4504192135196873  0.4937820144282385  0.5043300005195313   T   T   T
  0.4599943388304311  0.5511678538525075  0.4820968150007148   T   T   T
 
  0.00000000E+00  0.00000000E+00  0.00000000E+00
  0.00000000E+00  0.00000000E+00  0.00000000E+00
  0.00000000E+00  0.00000000E+00  0.00000000E+00
  0.00000000E+00  0.00000000E+00  0.00000000E+00
  0.00000000E+00  0.00000000E+00  0.00000000E+00
  0.00000000E+00  0.00000000E+00  0.00000000E+00
  0.00000000E+00  0.00000000E+00  0.00000000E+00
  0.00000000E+00  0.00000000E+00  0.00000000E+00
  0.00000000E+00  0.00000000E+00  0.00000000E+00
  0.00000000E+00  0.00000000E+00  0.00000000E+00
  0.00000000E+00  0.00000000E+00  0.00000000E+00
  0.00000000E+00  0.00000000E+00  0.00000000E+00
  0.00000000E+00  0.00000000E+00  0.00000000E+00
  0.00000000E+00  0.00000000E+00  0.00000000E+00
  0.00000000E+00  0.00000000E+00  0.00000000E+00
  0.00000000E+00  0.00000000E+00  0.00000000E+00
  0.00000000E+00  0.00000000E+00  0.00000000E+00
  0.00000000E+00  0.00000000E+00  0.00000000E+00
  0.00000000E+00  0.00000000E+00  0.00000000E+00
  0.00000000E+00  0.00000000E+00  0.00000000E+00
  0.00000000E+00  0.00000000E+00  0.00000000E+00
  0.00000000E+00  0.00000000E+00  0.00000000E+00
  0.00000000E+00  0.00000000E+00  0.00000000E+00
  0.00000000E+00  0.00000000E+00  0.00000000E+00
  0.00000000E+00  0.00000000E+00  0.00000000E+00
  0.00000000E+00  0.00000000E+00  0.00000000E+00
  0.00000000E+00  0.00000000E+00  0.00000000E+00
  0.00000000E+00  0.00000000E+00  0.00000000E+00
  0.00000000E+00  0.00000000E+00  0.00000000E+00
  0.00000000E+00  0.00000000E+00  0.00000000E+00
  0.00000000E+00  0.00000000E+00  0.00000000E+00
  0.00000000E+00  0.00000000E+00  0.00000000E+00
  0.00000000E+00  0.00000000E+00  0.00000000E+00
  0.00000000E+00  0.00000000E+00  0.00000000E+00
  0.00000000E+00  0.00000000E+00  0.00000000E+00
  0.00000000E+00  0.00000000E+00  0.00000000E+00
  0.00000000E+00  0.00000000E+00  0.00000000E+00
  0.00000000E+00  0.00000000E+00  0.00000000E+00
  0.00000000E+00  0.00000000E+00  0.00000000E+00
  0.00000000E+00  0.00000000E+00  0.00000000E+00
  0.00000000E+00  0.00000000E+00  0.00000000E+00
  0.00000000E+00  0.00000000E+00  0.00000000E+00
  0.00000000E+00  0.00000000E+00  0.00000000E+00
  0.00000000E+00  0.00000000E+00  0.00000000E+00
  0.00000000E+00  0.00000000E+00  0.00000000E+00
  0.00000000E+00  0.00000000E+00  0.00000000E+00
  0.00000000E+00  0.00000000E+00  0.00000000E+00
  0.00000000E+00  0.00000000E+00  0.00000000E+00
  0.00000000E+00  0.00000000E+00  0.00000000E+00
  0.00000000E+00  0.00000000E+00  0.00000000E+00
  0.00000000E+00  0.00000000E+00  0.00000000E+00
  0.00000000E+00  0.00000000E+00  0.00000000E+00
  0.00000000E+00  0.00000000E+00  0.00000000E+00
  0.00000000E+00  0.00000000E+00  0.00000000E+00
  0.00000000E+00  0.00000000E+00  0.00000000E+00
  0.00000000E+00  0.00000000E+00  0.00000000E+00
  0.00000000E+00  0.00000000E+00  0.00000000E+00
  0.00000000E+00  0.00000000E+00  0.00000000E+00
  0.00000000E+00  0.00000000E+00  0.00000000E+00
  0.00000000E+00  0.00000000E+00  0.00000000E+00