 C  S  O                                
    1.000000000000000     
    32.3722991942999982    0.0000000000000000    0.0000000000000000
     0.0000000000000000   19.9214134216000005    0.0000000000000000
     0.0000000000000000    0.0000000000000000   40.4480476378999967
   C    S    O 
   364     1     1
Selective dynamics
Direct
  0.3709817626802305  0.5383322715108321  0.0024661398839356   T   T   T
  0.3688198886269447  0.5438510754383898  0.0629105739706972   T   T   T
  0.3380825130703471  0.5950172388959345  0.0610984830958188   T   T   T
  0.3205152732085708  0.6114246953239899  0.0299438849059825   T   T   T
  0.2778328842845283  0.6287878788788390  0.0281224304875209   T   T   T
  0.3665256967512747  0.5492434406127202  0.1233549242519985   T   T   T
  0.3347169679463420  0.5986503490228046  0.1215399253236811   T   T   T
  0.3168153599444778  0.6140603751944980  0.0903812595551088   T   T   T
  0.2737892395985000  0.6290087939193896  0.0885521729818066   T   T   T
  0.2535747251214744  0.6268673633756876  0.0574017245471978   T   T   T
  0.2121197346542232  0.6028981643256728  0.0555867112591386   T   T   T
  0.1956105068157115  0.5838183652914211  0.0244350853012705   T   T   T
  0.1680557620815648  0.5280712193144765  0.0226229096515098   T   T   T
  0.3640658162660486  0.5544886644553060  0.1837972596860666   T   T   T
  0.3312388341545756  0.6020884479613571  0.1819726307920106   T   T   T
  0.3130449277070824  0.6164937428163668  0.1508117676662266   T   T   T
  0.2697275188523349  0.6290311826104329  0.1489774819425591   T   T   T
  0.2495804486995681  0.6257427627629326  0.1178267957335493   T   T   T
  0.2086594169182661  0.5994723396973356  0.1160160607008436   T   T   T
  0.1925681402988886  0.5794817465185318  0.0848623238310964   T   T   T
  0.1662117146118334  0.5222326103352728  0.0830472958464838   T   T   T
  0.1589626346359765  0.4914842051228732  0.0519009495873064   T   T   T
  0.1550115795649631  0.4202683241938132  0.0500875701639245   T   T   T
  0.1587789422366015  0.3879014220709749  0.0189392535170043   T   T   T
  0.1784167619667301  0.3239170968285450  0.0171328406339768   T   T   T
  0.3614488174846286  0.5596032783037259  0.2442318699235599   T   T   T
  0.3276595561405102  0.6054068549073435  0.2423973314196246   T   T   T
  0.3091876377669536  0.6187551087688377  0.2112390107091429   T   T   T
  0.2656370481458126  0.6288826281878173  0.2094008185895007   T   T   T
  0.2455851574190646  0.6244310656093290  0.1782449748213324   T   T   T
  0.2052510244355830  0.5958888860789173  0.1764387024167604   T   T   T
  0.1895982445580273  0.5750026400171748  0.1452889577931984   T   T   T
  0.1644677260697023  0.5163095670463491  0.1434728576249142   T   T   T
  0.1578941713339219  0.4851605510900256  0.1123269919794012   T   T   T
  0.1554568690470433  0.4137702306775850  0.1105194090535804   T   T   T
  0.1599143702677708  0.3816300408076714  0.0793669675884701   T   T   T
  0.1808938467863328  0.3187833262134347  0.0775600775004222   T   T   T
  0.1950605760764361  0.2952092539491176  0.0464160130840980   T   T   T
  0.2332172994842026  0.2595980988086808  0.0445973800589101   T   T   T
  0.2528870476459772  0.2516101493266873  0.0134497389572843   T   T   T
  0.2968648448898108  0.2538444580701196  0.0116437456904421   T   T   T
  0.3704706725058600  0.5379761311424573  0.3358053102214882   T   T   T
  0.3586531948675216  0.5646139957532625  0.3046559151681052   T   T   T
  0.3239955388763036  0.6086562695485327  0.3028267235069748   T   T   T
  0.3052606652240897  0.6209110729070275  0.2716512780246418   T   T   T
  0.2615350837463524  0.6286124823693839  0.2698213887876193   T   T   T
  0.2415961984518020  0.6229910690410705  0.2386658256808829   T   T   T
  0.2018925189032572  0.5921777576674288  0.2368658689279499   T   T   T
  0.1867151536111749  0.5703788171674304  0.2057209835134159   T   T   T
  0.1628581876098352  0.5102996514552416  0.2039063635552694   T   T   T
  0.1569522779530672  0.4787964286233972  0.1727549335515164   T   T   T
  0.1560350763832403  0.4073161613140854  0.1709524442423387   T   T   T
  0.1611636413194830  0.3754393443581350  0.1398009399796223   T   T   T
  0.1834674579053797  0.3137966752293124  0.1379915592815166   T   T   T
  0.1981391273436017  0.2910389670400448  0.1068435499879499   T   T   T
  0.2370281155668934  0.2575995182173756  0.1050329458187065   T   T   T
  0.2568620199278300  0.2507081386967229  0.0738829496064071   T   T   T
  0.3007682004131098  0.2554101921558711  0.0720814808010175   T   T   T
  0.3198649074735016  0.2664473292975842  0.0409327529797849   T   T   T
  0.3557249608166586  0.3078839970666252  0.0391121541821775   T   T   T
  0.3684147350374829  0.3335572723464253  0.0079571879548155   T   T   T
  0.3855785214544056  0.3993904065547227  0.0061503229824922   T   T   T
  0.3679478047491216  0.5431835539747638  0.3961788288504096   T   T   T
  0.3556885406346879  0.5694455077314373  0.3650251418296051   T   T   T
  0.3202695357169176  0.6116950881080214  0.3632434474829509   T   T   T
  0.3013082308409238  0.6230538853978587  0.3320741344847633   T   T   T
  0.2574257889471809  0.6282926947860190  0.3302598514180488   T   T   T
  0.2376344917441457  0.6214320782952640  0.2991092988998219   T   T   T
  0.1986365229581040  0.5883068421017370  0.2973096261578974   T   T   T
  0.1839368513360853  0.5656325770386630  0.2661565997058730   T   T   T
  0.1614000151953547  0.5042314388298905  0.2643470851537586   T   T   T
  0.1561444440857400  0.4724152242206472  0.2331931184662395   T   T   T
  0.1567480742822838  0.4009125279862360  0.2313918081801205   T   T   T
  0.1625546047434128  0.3693446517118986  0.2002403743957117   T   T   T
  0.1861470702119874  0.3089847393732228  0.1984236921821037   T   T   T
  0.2012831467786285  0.2870472996220741  0.1672695950305894   T   T   T
  0.2408555976812679  0.2557892391711292  0.1654656722260412   T   T   T
  0.2608339830744768  0.2500250907452966  0.1343162519651457   T   T   T
  0.3046154179863407  0.2571795063405702  0.1325189064018204   T   T   T
  0.3234823614752926  0.2692821593204755  0.1013693262435922   T   T   T
  0.3584480057100095  0.3126853677675285  0.0995581935785808   T   T   T
  0.3705947850449078  0.3390530506814855  0.0684018985335157   T   T   T
  0.3863613831130905  0.4058059244270211  0.0666005021757243   T   T   T
  0.3881828753462173  0.4386033212713940  0.0354432290934525   T   T   T
  0.3800268670384597  0.5088644040081221  0.0336208751543055   T   T   T
  0.3656279061553676  0.5472617019204478  0.4565271807252103   T   T   T
  0.3526418513756866  0.5733579222215894  0.4254589913057174   T   T   T
  0.3164760268562858  0.6139606654744085  0.4237039840608148   T   T   T
  0.2973324168378610  0.6247342565323848  0.3925708841713274   T   T   T
  0.2533555857563385  0.6276055242722975  0.3907484705642545   T   T   T
  0.2337146229064260  0.6196808604147961  0.3595641629767172   T   T   T
  0.1955042040259016  0.5842561445750434  0.3577552708518539   T   T   T
  0.1812970434263264  0.5607440055949127  0.3266030009978778   T   T   T
  0.1601150810148013  0.4980579938694945  0.3247967245115646   T   T   T
  0.1555234187673236  0.4659780886779714  0.2936446824635155   T   T   T
  0.1576262187791713  0.3945495542032518  0.2918374650968332   T   T   T
  0.1640738446864916  0.3633259592662270  0.2606757301269127   T   T   T
  0.1889103096769844  0.3043119992056376  0.2588448425431977   T   T   T
  0.2044993032335256  0.2832203065658874  0.2277000168760210   T   T   T
  0.2447084469336005  0.2541340467944195  0.2258981928420596   T   T   T
  0.2648032513453700  0.2495257324345417  0.1947451061862324   T   T   T
  0.3084004284272979  0.2591146312183099  0.1929461571078406   T   T   T
  0.3270133229307959  0.2722944302355046  0.1618014965031449   T   T   T
  0.3610465956286788  0.3176201865240955  0.1600028190950269   T   T   T
  0.3726454194324091  0.3446617184789034  0.1288491066229724   T   T   T
  0.3869860710948743  0.4122598349365987  0.1270511859041932   T   T   T
  0.3881223840243777  0.4451455114625915  0.0958919887302017   T   T   T
  0.3784828623667806  0.5149056487174519  0.0940677326769972   T   T   T
  0.3640217731928033  0.5537246696102329  0.5170418740190854   T   T   T
  0.3498136964845600  0.5773979978361794  0.4860754629522290   T   T   T
  0.3127433900716596  0.6154512761669295  0.4842088805968672   T   T   T
  0.2932951942116730  0.6253370013171988  0.4530319646849748   T   T   T
  0.2493946036414059  0.6261819007680600  0.4512136272632219   T   T   T
  0.2298614199492235  0.6175705833435288  0.4200311535746337   T   T   T
  0.1924127461999490  0.5799911646321618  0.4182107317032759   T   T   T
  0.1787713545653560  0.5556750182260828  0.3870662411561057   T   T   T
  0.1589876596145459  0.4917840754186784  0.3852570200127730   T   T   T
  0.1550930133196360  0.4594727269207368  0.3540929688011047   T   T   T
  0.1586850443164280  0.3882274908716568  0.3522771543928513   T   T   T
  0.1657249194328898  0.3573714646310790  0.3211161634439605   T   T   T
  0.1917450564711558  0.2996915431122034  0.3192725188534240   T   T   T
  0.2077764873572008  0.2795275585552943  0.2881303150414638   T   T   T
  0.2485527159010843  0.2526301659421577  0.2863247395762087   T   T   T
  0.2687485097227693  0.2491444577893134  0.2551700923285267   T   T   T
  0.3121288280549948  0.2611357821747333  0.2533696950711715   T   T   T
  0.3304588947939635  0.2754247657555666  0.2222372436833169   T   T   T
  0.3635005398594160  0.3226541110430645  0.2204486190836406   T   T   T
  0.3745351037811986  0.3503682192895212  0.1892961507237629   T   T   T
  0.3874275193214203  0.4187271870327081  0.1874985057590379   T   T   T
  0.3878930599622734  0.4516689083972594  0.1563406129842377   T   T   T
  0.3767723324843359  0.5208512579029758  0.1545171815563933   T   T   T
  0.3615768406517645  0.5594254113028043  0.5775418201278271   T   T   T
  0.3471592136544572  0.5821598957393661  0.5462917435020032   T   T   T
  0.3090201551393719  0.6179275955303751  0.5445364740022782   T   T   T
  0.2893800909873008  0.6263385437013937  0.5134932655836622   T   T   T
  0.2453414695675846  0.6248815233349561  0.5116765166269914   T   T   T
  0.2260607975082678  0.6149575068373707  0.4805385466180994   T   T   T
  0.1894198558455997  0.5754318236471718  0.4786909663670613   T   T   T
  0.1763395175748315  0.5503666997757506  0.4475087155030550   T   T   T
  0.1580104876548276  0.4854200582741299  0.4456960610520468   T   T   T
  0.1547960844454010  0.4529215702898952  0.4145403822105322   T   T   T
  0.1598826929288890  0.3818777923108456  0.4127200745749349   T   T   T
  0.1675426835259799  0.3514545703942105  0.3815644571100947   T   T   T
  0.1946450316499195  0.2951115062617546  0.3797171896722205   T   T   T
  0.2110867337449704  0.2758612912358700  0.3485493161401294   T   T   T
  0.2523665668278383  0.2511500132712641  0.3467306228417399   T   T   T
  0.2726490662519012  0.2488243152471767  0.3156096168157774   T   T   T
  0.3157987378656273  0.2631875459263711  0.3138201727335428   T   T   T
  0.3338046573684252  0.2786336935490468  0.2826697218119136   T   T   T
  0.3657623115152759  0.3277470197842547  0.2808794649204813   T   T   T
  0.3762398569312353  0.3561191710349476  0.2497440346234754   T   T   T
  0.3876479350115716  0.4251889139047051  0.2479393157505783   T   T   T
  0.3874603791516051  0.4581532543198037  0.2167907220159293   T   T   T
  0.3748803039995394  0.5266780700784111  0.2149679022113204   T   T   T
  0.3588810374255402  0.5645136292178137  0.6379707879897794   T   T   T
  0.3442751266148605  0.5872003604045375  0.6067630567676616   T   T   T
  0.3053338505014480  0.6206828144674574  0.6049925019249685   T   T   T
  0.2854740010645358  0.6273719040131382  0.5738712303392148   T   T   T
  0.2415638865086294  0.6230934173743279  0.5720936954702580   T   T   T
  0.2223801444368476  0.6122780125178551  0.5409579066207826   T   T   T
  0.1865665208060250  0.5706923775208423  0.5391198486687756   T   T   T
  0.1739552402393798  0.5450078776324432  0.5079808120394205   T   T   T
  0.1569831600730680  0.4789439403351992  0.5061509945313887   T   T   T
  0.1546029810457270  0.4463122552668821  0.4750068707131945   T   T   T
  0.1611591232982121  0.3755874734602287  0.4731771602066672   T   T   T
  0.1694826937721601  0.3455899522264616  0.4420023524657921   T   T   T
  0.1976152837778216  0.2906429621439131  0.4401654501617074   T   T   T
  0.2143642964229358  0.2721382011943945  0.4089922251357905   T   T   T
  0.2561408473302933  0.2494926281691718  0.4071620553885609   T   T   T
  0.2765119036562069  0.2485711791090708  0.3760611236632201   T   T   T
  0.3193139891814525  0.2654441896509923  0.3742856164031068   T   T   T
  0.3370415618303255  0.2818123257878398  0.3431037600908695   T   T   T
  0.3679104899575449  0.3328299719751087  0.3413101793502591   T   T   T
  0.3777102293400745  0.3619057920616768  0.3101961096121713   T   T   T
  0.3875461296779434  0.4316019772318214  0.3083616433862844   T   T   T
  0.3867422591196643  0.4645863484744908  0.2772170159736618   T   T   T
  0.3727697199540714  0.5323685549009980  0.2754000039006712   T   T   T
  0.3562128612988076  0.5693705107058022  0.6984046831400690   T   T   T
  0.3410948634917759  0.5913486872104343  0.6672549927002862   T   T   T
  0.3015333198013934  0.6226691864919758  0.6654635769839956   T   T   T
  0.2815718061973413  0.6283804049645454  0.6342932378095014   T   T   T
  0.2377679095274701  0.6212561857961560  0.6325213603160336   T   T   T
  0.2188686962436321  0.6092377841368091  0.6014029532372831   T   T   T
  0.1839035633196318  0.5657593479189202  0.5995788494375773   T   T   T
  0.1718196302826200  0.5393400060655793  0.5684238410878919   T   T   T
  0.1562138241550741  0.4725110866388604  0.5665994748867575   T   T   T
  0.1544416980118513  0.4397226857952035  0.5354315658120612   T   T   T
  0.1625086061871883  0.3694179784809322  0.5335993030801234   T   T   T
  0.1713957756759399  0.3398459728529133  0.5024652397552529   T   T   T
  0.2006981101859537  0.2863372457423239  0.5006473519274266   T   T   T
  0.2177869380676896  0.2687225940767277  0.4694940079131982   T   T   T
  0.2599886137087850  0.2482804368123936  0.4676754050370420   T   T   T
  0.2802938380669175  0.2483421177497078  0.4364844814760005   T   T   T
  0.3225667047102050  0.2680731693170273  0.4346693801425943   T   T   T
  0.3400567609436749  0.2852662281911265  0.4035968101186427   T   T   T
  0.3699358007537867  0.3381832185362583  0.4018395543822422   T   T   T
  0.3790001937741323  0.3677427683667176  0.3705812235144563   T   T   T
  0.3871092110430183  0.4378737099982573  0.3686816146196108   T   T   T
  0.3857344538041119  0.4708987824305595  0.3375978871651455   T   T   T
  0.3534770314099873  0.5740873534755835  0.7588579840271379   T   T   T
  0.3378671710451400  0.5951442927615034  0.7277087167762915   T   T   T
  0.2976691036814501  0.6242084892480477  0.7259184683024742   T   T   T
  0.2775940243232142  0.6288953479460773  0.6947538819255854   T   T   T
  0.2339713797110576  0.6192678412786208  0.6929704130373793   T   T   T
  0.2153786313997870  0.6060904070175681  0.6618289307737797   T   T   T
  0.1813780836201886  0.5607153305079109  0.6600197495676525   T   T   T
  0.1697870533311985  0.5337000774536449  0.6288597558777695   T   T   T
  0.1555135110154353  0.4660468784424197  0.6270440491607516   T   T   T
  0.1544301753584136  0.4331811428354442  0.5958990056611029   T   T   T
  0.1640066990453946  0.3633657219465292  0.5940777298505040   T   T   T
  0.1736143328988859  0.3343544929178819  0.5629300605467407   T   T   T
  0.2040833798666384  0.2828338645372668  0.5611318687953997   T   T   T
  0.2214506271469219  0.2659597189398042  0.5299527350332625   T   T   T
  0.2640716162990699  0.2481966666828868  0.5281146248407254   T   T   T
  0.2841730020783118  0.2487401406477900  0.4969743969622087   T   T   T
  0.3260359720894073  0.2714137169333810  0.4951257150123567   T   T   T
  0.3425971074124377  0.2898910740844158  0.4640353351844979   T   T   T
  0.3709459506894319  0.3445841802036398  0.4622875751885118   T   T   T
  0.3803095225203279  0.3736652201888830  0.4308745828355214   T   T   T
  0.3871063059338908  0.4444207439526551  0.4289175599242583   T   T   T
  0.3844374281471303  0.4771014976525265  0.3978919182745528   T   T   T
  0.3506066120098978  0.5786325617841541  0.8193075808998671   T   T   T
  0.3345689971253876  0.5987916765242645  0.7881520896382881   T   T   T
  0.2937652098874395  0.6255463517539397  0.7863637335951807   T   T   T
  0.2735965841096331  0.6290830598947252  0.7552124185821825   T   T   T
  0.2302252442686950  0.6170257301140722  0.7534143718643946   T   T   T
  0.2119262806329090  0.6028472313672637  0.7222588081305759   T   T   T
  0.1788974068802176  0.5555854569307215  0.7204595429122236   T   T   T
  0.1678903736266406  0.5279326187763473  0.6893106906269821   T   T   T
  0.1550006807823436  0.4595507381621857  0.6874996272926950   T   T   T
  0.1545977051979222  0.4266347353207536  0.6563457265120221   T   T   T
  0.1656904449137997  0.3574636075778912  0.6545255496497191   T   T   T
  0.1758886370801278  0.3290144647055158  0.6233726697958346   T   T   T
  0.2075994734859563  0.2794309331800520  0.6215705802787213   T   T   T
  0.2253534130635231  0.2637322226649914  0.5904330600249850   T   T   T
  0.2683977208130131  0.2487358092086538  0.5885858206623524   T   T   T
  0.2884710370722132  0.2508434317859596  0.5574040759325953   T   T   T
  0.3296836667053213  0.2755579490538480  0.5554998899651693   T   T   T
  0.3457671350205729  0.2948699450236916  0.5242615013852543   T   T   T
  0.3731662880700384  0.3507980490883895  0.5221714584134034   T   T   T
  0.3812341874848002  0.3796321068060493  0.4912719575121471   T   T   T
  0.3938325988629288  0.4506692312478862  0.4892790553006279   T   T   T
  0.3841273073635350  0.4834509695327824  0.4579218407051471   T   T   T
  0.3476293007682756  0.5830195960149993  0.8797580528033180   T   T   T
  0.3311847879237746  0.6022720570516782  0.8486015873601218   T   T   T
  0.2898303975734038  0.6266970104595515  0.8468087319454298   T   T   T
  0.2696033276490937  0.6290687685941876  0.8156585863703398   T   T   T
  0.2265157154227921  0.6145863044051865  0.8138515034032778   T   T   T
  0.2085235869705429  0.5993916830750905  0.7827000905106232   T   T   T
  0.1765065438630842  0.5503249226048297  0.7809048149148410   T   T   T
  0.1661080112652300  0.5220601523889030  0.7497508429194966   T   T   T
  0.1546770520308272  0.4530227719751210  0.7479383990643811   T   T   T
  0.1549280285472108  0.4201086760970369  0.7167824907228635   T   T   T
  0.1675156039371188  0.3515874412504019  0.7149631419883278   T   T   T
  0.1783536860261847  0.3237934548964674  0.6838178799068189   T   T   T
  0.2111763978978658  0.2761445252151020  0.6820060379960253   T   T   T
  0.2293457640936580  0.2616860983514471  0.6508521926566146   T   T   T
  0.2726495646531504  0.2491600031347332  0.6489824605292398   T   T   T
  0.2927140576679648  0.2524044507881413  0.6177854261334943   T   T   T
  0.3335961710395523  0.2789560087332319  0.6158537604926622   T   T   T
  0.3494910388387851  0.2990569653380817  0.5846942045966230   T   T   T
  0.3760598267324653  0.3563479678237442  0.5827769240106591   T   T   T
  0.3834470767163793  0.3873149108390592  0.5517737446719124   T   T   T
  0.3883968451209441  0.4583862199247051  0.5501353307250909   T   T   T
  0.3863342091522242  0.4918160538678649  0.5189861913583940   T   T   T
  0.3445423800616609  0.5872068030488151  0.9402082571835493   T   T   T
  0.3277018946389418  0.6055347816248968  0.9090494092868653   T   T   T
  0.2858556497712570  0.6276341914102588  0.9072498898086963   T   T   T
  0.2655984662044233  0.6288662181739468  0.8760976093466795   T   T   T
  0.2228450423050461  0.6119627268827657  0.8742865942335811   T   T   T
  0.2051929307456959  0.5957549750142519  0.8431367689950875   T   T   T
  0.1742398425689018  0.5449350776297806  0.8413415740871386   T   T   T
  0.1644309897885350  0.5161109386045126  0.8101864967947350   T   T   T
  0.1544796164495139  0.4464576513620031  0.8083715267857770   T   T   T
  0.1554377896252817  0.4135770631488569  0.7772217165046769   T   T   T
  0.1694710566778639  0.3458014392569169  0.7754079556924722   T   T   T
  0.1809186693736962  0.3186620879793765  0.7442496677942998   T   T   T
  0.2147372476432992  0.2729372628630102  0.7424293232589747   T   T   T
  0.2332269658873116  0.2595497071268795  0.7112711818188515   T   T   T
  0.2767875243417777  0.2494397153326631  0.7094097420972503   T   T   T
  0.2968160999662501  0.2537948465188364  0.6782528114820749   T   T   T
  0.3371749051176423  0.2823730670314646  0.6763832780020991   T   T   T
  0.3527214813266610  0.3033308229251048  0.6452187538922303   T   T   T
  0.3778532967292492  0.3619844065811719  0.6433922714061566   T   T   T
  0.3843786276254804  0.3931784951383364  0.6122268716809103   T   T   T
  0.3868124599463201  0.4644660713377249  0.6105170474319692   T   T   T
  0.3827368066464274  0.4967630347907743  0.5793985222597158   T   T   T
  0.3413578827624875  0.5911992372686470  0.0006548853497250   T   T   T
  0.3241474701596374  0.6085907258297709  0.9694974736296942   T   T   T
  0.2818577583499007  0.6283378434424307  0.9676872023595422   T   T   T
  0.2615884398710548  0.6284457299397772  0.9365365836577055   T   T   T
  0.2192209745612956  0.6091470891412243  0.9347214617060047   T   T   T
  0.2019302572206882  0.5919531596898722  0.9035712498556023   T   T   T
  0.1720798072310856  0.5394197483953747  0.9017718612227483   T   T   T
  0.1628969000727523  0.5100605699002969  0.8706218880233649   T   T   T
  0.1544269123352180  0.4398941570524073  0.8688045814411112   T   T   T
  0.1560885644976437  0.4070773006383135  0.8376529441243648   T   T   T
  0.1715484360044925  0.3401435719889605  0.8358432768505679   T   T   T
  0.1835541355422237  0.3136425835261250  0.8046823150477280   T   T   T
  0.2183419498370682  0.2698544406794454  0.8028593085545950   T   T   T
  0.2371127578662140  0.2575506788264690  0.7717072392704267   T   T   T
  0.2808687832691987  0.2499004016098141  0.7698672968846623   T   T   T
  0.3008150947637986  0.2554503888805399  0.7387048533090734   T   T   T
  0.3405190548079986  0.2862223417256615  0.7368709890048777   T   T   T
  0.3556945200379431  0.3079553208625754  0.7056869966556150   T   T   T
  0.3795204499743363  0.3680295864115948  0.7038622443480307   T   T   T
  0.3853917721813289  0.3994926121455933  0.6726975297844078   T   T   T
  0.3862409628364176  0.4709727740192946  0.6709326106593636   T   T   T
  0.3810587084398804  0.5028255312438503  0.6398083899100016   T   T   T
  0.2575818666769720  0.6277719803529678  0.9969719869685747   T   T   T
  0.2156492749580607  0.6061164706514504  0.9951551414054833   T   T   T
  0.1987378996617792  0.5879714225129788  0.9640042773446993   T   T   T
  0.1700180979370955  0.5337970182172711  0.9621983721360081   T   T   T
  0.1614736063311994  0.5039322867780385  0.9310529471480464   T   T   T
  0.1545032883344248  0.4333377841897885  0.9292320625841128   T   T   T
  0.1568662132466159  0.4006355945791213  0.8980810264661798   T   T   T
  0.1737389716429121  0.3346020816072510  0.8962751439593006   T   T   T
  0.1863063734856922  0.3087922440560575  0.8651202934925522   T   T   T
  0.2219971474095104  0.2669681414334377  0.8632970168564214   T   T   T
  0.2410350314605481  0.2557499079450309  0.8321405907760706   T   T   T
  0.2849135516199510  0.2505656816743098  0.8303162582269721   T   T   T
  0.3047409571083364  0.2572298452692507  0.7991476290834925   T   T   T
  0.3437659237272612  0.2902324227839088  0.7973240973360021   T   T   T
  0.3584887773044869  0.3127983031498616  0.7661569131955659   T   T   T
  0.3810451987748635  0.3741913780474064  0.7643303861022659   T   T   T
  0.3862450606533372  0.4059764659786254  0.7331648091457978   T   T   T
  0.3856327604914895  0.4774657682267787  0.7313780655867959   T   T   T
  0.3797664382927124  0.5089881555206262  0.7002204895899595   T   T   T
  0.1601628403824265  0.4977376485296361  0.9914776195060213   T   T   T
  0.1546970962134040  0.4267905132312109  0.9896572339900018   T   T   T
  0.1577633158679248  0.3942346027797754  0.9585107439590601   T   T   T
  0.1760266043775260  0.3291807945158141  0.9567056614223901   T   T   T
  0.1891449731073038  0.3040871526837847  0.9255541911970795   T   T   T
  0.2256967219412900  0.2642868170689354  0.9237310600266824   T   T   T
  0.2449654386004383  0.2541270550669310  0.8925740131370432   T   T   T
  0.2889316685350707  0.2514249727181976  0.8907591697742987   T   T   T
  0.3086108579200157  0.2592009321393149  0.8595975313479016   T   T   T
  0.3469164879698994  0.2943920992799747  0.8577765387530150   T   T   T
  0.3611476507306506  0.3178052267234150  0.8266148614535922   T   T   T
  0.3823951517125366  0.3804119647397854  0.8247913887384257   T   T   T
  0.3869507569455166  0.4124769251652580  0.7936210239039028   T   T   T
  0.3848317792650491  0.4838941717149865  0.7918244742293368   T   T   T
  0.3783498925451241  0.5150947579606679  0.7606669025922699   T   T   T
  0.1920656822997344  0.2995637489350074  0.9859861381907606   T   T   T
  0.2294412856992096  0.2618321311094078  0.9841636660542150   T   T   T
  0.2489160968414339  0.2527419607984740  0.9530120166782723   T   T   T
  0.2929189089261612  0.2525106497402234  0.9512054908725815   T   T   T
  0.3124232451078512  0.2614078433642817  0.9200450689482977   T   T   T
  0.3499509386957840  0.2987316952817238  0.9182249686785084   T   T   T
  0.3636879454800308  0.3229223051259495  0.8870624917609931   T   T   T
  0.3835888493092909  0.3866882463912091  0.8852461723549681   T   T   T
  0.3874775716672758  0.4189940446616873  0.8540809796422693   T   T   T
  0.3838371603778938  0.4902536487894835  0.8522776724306027   T   T   T
  0.3767087846736530  0.5210682917996436  0.8211195084184979   T   T   T
  0.3161843174204222  0.2638034248423509  0.9804895878369138   T   T   T
  0.3528977403488796  0.3032168831246551  0.9786677883539241   T   T   T
  0.3661119667542465  0.3281706294296072  0.9475105935519181   T   T   T
  0.3846556233992899  0.3930118973017542  0.9457000655189844   T   T   T
  0.3878491140020230  0.4255258106298783  0.9145367692127238   T   T   T
  0.3827073629495317  0.4965368656087961  0.9127282048444343   T   T   T
  0.3749335895324108  0.5269480554736532  0.8815688272062943   T   T   T
  0.3880899003610025  0.4320619928796248  0.9749897246931098   T   T   T
  0.3814366436630365  0.5027407948397951  0.9731730709944699   T   T   T
  0.3730266125530690  0.5327035906470385  0.9420186250418396   T   T   T
  0.4534249432233878  0.4758555312442725  0.5003259479940816   T   T   T
  0.4718801759112819  0.5141183733906182  0.4722944017813152   T   T   T
 
  0.00000000E+00  0.00000000E+00  0.00000000E+00
  0.00000000E+00  0.00000000E+00  0.00000000E+00
  0.00000000E+00  0.00000000E+00  0.00000000E+00
  0.00000000E+00  0.00000000E+00  0.00000000E+00
  0.00000000E+00  0.00000000E+00  0.00000000E+00
  0.00000000E+00  0.00000000E+00  0.00000000E+00
  0.00000000E+00  0.00000000E+00  0.00000000E+00
  0.00000000E+00  0.00000000E+00  0.00000000E+00
  0.00000000E+00  0.00000000E+00  0.00000000E+00
  0.00000000E+00  0.00000000E+00  0.00000000E+00
  0.00000000E+00  0.00000000E+00  0.00000000E+00
  0.00000000E+00  0.00000000E+00  0.00000000E+00
  0.00000000E+00  0.00000000E+00  0.00000000E+00
  0.00000000E+00  0.00000000E+00  0.00000000E+00
  0.00000000E+00  0.00000000E+00  0.00000000E+00
  0.00000000E+00  0.00000000E+00  0.00000000E+00
  0.00000000E+00  0.00000000E+00  0.00000000E+00
  0.00000000E+00  0.00000000E+00  0.00000000E+00
  0.00000000E+00  0.00000000E+00  0.00000000E+00
  0.00000000E+00  0.00000000E+00  0.00000000E+00
  0.00000000E+00  0.00000000E+00  0.00000000E+00
  0.00000000E+00  0.00000000E+00  0.00000000E+00
  0.00000000E+00  0.00000000E+00  0.00000000E+00
  0.00000000E+00  0.00000000E+00  0.00000000E+00
  0.00000000E+00  0.00000000E+00  0.00000000E+00
  0.00000000E+00  0.00000000E+00  0.00000000E+00
  0.00000000E+00  0.00000000E+00  0.00000000E+00
  0.00000000E+00  0.00000000E+00  0.00000000E+00
  0.00000000E+00  0.00000000E+00  0.00000000E+00
  0.00000000E+00  0.00000000E+00  0.00000000E+00
  0.00000000E+00  0.00000000E+00  0.00000000E+00
  0.00000000E+00  0.00000000E+00  0.00000000E+00
  0.00000000E+00  0.00000000E+00  0.00000000E+00
  0.00000000E+00  0.00000000E+00  0.00000000E+00
  0.00000000E+00  0.00000000E+00  0.00000000E+00
  0.00000000E+00  0.00000000E+00  0.00000000E+00
  0.00000000E+00  0.00000000E+00  0.00000000E+00
  0.00000000E+00  0.00000000E+00  0.00000000E+00
  0.00000000E+00  0.00000000E+00  0.00000000E+00
  0.00000000E+00  0.00000000E+00  0.00000000E+00
  0.00000000E+00  0.00000000E+00  0.00000000E+00
  0.00000000E+00  0.00000000E+00  0.00000000E+00
  0.00000000E+00  0.00000000E+00  0.00000000E+00
  0.00000000E+00  0.00000000E+00  0.00000000E+00
  0.00000000E+00  0.00000000E+00  0.00000000E+00
  0.00000000E+00  0.00000000E+00  0.00000000E+00
  0.00000000E+00  0.00000000E+00  0.00000000E+00
  0.00000000E+00  0.00000000E+00  0.00000000E+00
  0.00000000E+00  0.00000000E+00  0.00000000E+00
  0.00000000E+00  0.00000000E+00  0.00000000E+00
  0.00000000E+00  0.00000000E+00  0.00000000E+00
  0.00000000E+00  0.00000000E+00  0.00000000E+00
  0.00000000E+00  0.00000000E+00  0.00000000E+00
  0.00000000E+00  0.00000000E+00  0.00000000E+00
  0.00000000E+00  0.00000000E+00  0.00000000E+00
  0.00000000E+00  0.00000000E+00  0.00000000E+00
  0.00000000E+00  0.00000000E+00  0.00000000E+00
  0.00000000E+00  0.00000000E+00  0.00000000E+00
  0.00000000E+00  0.00000000E+00  0.00000000E+00
  0.00000000E+00  0.00000000E+00  0.00000000E+00