 C  S  O                                
    1.000000000000000     
    32.3722991942999982    0.0000000000000000    0.0000000000000000
     0.0000000000000000   19.9214134216000005    0.0000000000000000
     0.0000000000000000    0.0000000000000000   40.4480476378999967
   C    S    O 
   364     1     1
Selective dynamics
Direct
  0.3709091127649700  0.5381364317441424  0.0024340682600510   T   T   T
  0.3687168009399144  0.5436288399545717  0.0628699126386110   T   T   T
  0.3380428879260720  0.5948976266347969  0.0610627188294544   T   T   T
  0.3205043360158868  0.6113609538127633  0.0299026245664820   T   T   T
  0.2778390097880390  0.6288302897474694  0.0280803292382430   T   T   T
  0.3663917710669722  0.5489787773159236  0.1233007674499689   T   T   T
  0.3346656395244167  0.5985273379522553  0.1215009564524152   T   T   T
  0.3167914395987523  0.6140107217514128  0.0903426347977145   T   T   T
  0.2737828243446288  0.6290872986917293  0.0885190340595372   T   T   T
  0.2535744845783725  0.6269723272658752  0.0573589657629867   T   T   T
  0.2121085998696302  0.6030584467221942  0.0555423124003696   T   T   T
  0.1956018890938722  0.5839851937053950  0.0243802041859169   T   T   T
  0.1680277820689042  0.5282635044797672  0.0225671758433279   T   T   T
  0.3639408825321269  0.5541738627385158  0.1837207364346156   T   T   T
  0.3312082078126366  0.6019459240158298  0.1819323410509384   T   T   T
  0.3130258330233815  0.6164528503089244  0.1507798636123496   T   T   T
  0.2697236749836591  0.6291429271565647  0.1489615096074957   T   T   T
  0.2495730979552064  0.6258885283166293  0.1178025682159856   T   T   T
  0.2086418658152596  0.5996611000467666  0.1159906777193314   T   T   T
  0.1925492585723845  0.5796726343046288  0.0848260501804106   T   T   T
  0.1661822754297049  0.5224367850342517  0.0830059382627510   T   T   T
  0.1589192268888411  0.4916986956736267  0.0518509880036220   T   T   T
  0.1549277300017877  0.4204881188531573  0.0500336818472462   T   T   T
  0.1586661562224734  0.3881140326890957  0.0188797348309322   T   T   T
  0.1782426597620201  0.3240792306297351  0.0170747846784849   T   T   T
  0.3614347448318895  0.5592310012323480  0.2441308797840662   T   T   T
  0.3277158417579642  0.6051744699322725  0.2423616715792036   T   T   T
  0.3092173040635444  0.6186688042468731  0.2112215258516770   T   T   T
  0.2656760757296084  0.6289478274022144  0.2094147645718820   T   T   T
  0.2455992968294112  0.6245838312718703  0.1782491038496588   T   T   T
  0.2052551057381820  0.5960679737970551  0.1764404729920699   T   T   T
  0.1895891350181955  0.5752022492490312  0.1452762609127092   T   T   T
  0.1644596208813098  0.5165046319610624  0.1434477280607211   T   T   T
  0.1578635280666632  0.4853742478951375  0.1122920576113202   T   T   T
  0.1553849737436863  0.4139843283174187  0.1104739696446444   T   T   T
  0.1598007996812072  0.3818421886752716  0.0793146819566743   T   T   T
  0.1807087484404803  0.3189301763846188  0.0775026125130509   T   T   T
  0.1948476562920334  0.2953202008585905  0.0463547060670848   T   T   T
  0.2329622975999257  0.2595926159961550  0.0445358565676770   T   T   T
  0.2526349604131113  0.2515633542563762  0.0133913538408805   T   T   T
  0.2966136467397575  0.2537032334172622  0.0115911694899964   T   T   T
  0.3709564527645881  0.5375141083453485  0.3356357088554844   T   T   T
  0.3588977591489382  0.5641471494283152  0.3045417717564405   T   T   T
  0.3242145461307615  0.6081420579008210  0.3028035978116463   T   T   T
  0.3054009102793458  0.6206068089368415  0.2716614099322214   T   T   T
  0.2616776156410054  0.6284149664754466  0.2698733733526666   T   T   T
  0.2416807404175145  0.6230118451520212  0.2387095557204191   T   T   T
  0.2019562099851129  0.5922491755726114  0.2368969830109222   T   T   T
  0.1867440197982830  0.5705308697733216  0.2057335551756623   T   T   T
  0.1628835617697462  0.5104516139512327  0.2038928756633283   T   T   T
  0.1569524071770800  0.4789800211188577  0.1727309512089619   T   T   T
  0.1559885846746667  0.4075000052273694  0.1709107707206101   T   T   T
  0.1610665236988709  0.3756280079130150  0.1397532417014489   T   T   T
  0.1832833951922623  0.3139015328487318  0.1379345477598974   T   T   T
  0.1979132621562982  0.2911067582313436  0.1067825358477492   T   T   T
  0.2367532332112887  0.2575151880963276  0.1049646462685843   T   T   T
  0.2565860530462203  0.2505996041600724  0.0738160155966625   T   T   T
  0.3004954958249613  0.2551974382138695  0.0720139229616734   T   T   T
  0.3196139268338030  0.2662447984101419  0.0408737489106628   T   T   T
  0.3554909759898095  0.3076407786906827  0.0390594585254718   T   T   T
  0.3682068297078303  0.3333286425404012  0.0079159109732316   T   T   T
  0.3854009984326652  0.3991425590084248  0.0061167686863897   T   T   T
  0.3689895651231296  0.5427604640228481  0.3960353177769704   T   T   T
  0.3563227709520405  0.5688305328157028  0.3649261153525103   T   T   T
  0.3207136996133428  0.6106504579579735  0.3632377137378597   T   T   T
  0.3016181069015218  0.6222253187966587  0.3321203606677372   T   T   T
  0.2577331064135180  0.6275112784486154  0.3303434009099746   T   T   T
  0.2378465903166074  0.6210673609879862  0.2991936313299135   T   T   T
  0.1987865074277266  0.5881203054227129  0.2973638896092794   T   T   T
  0.1840183772105348  0.5656390648599441  0.2661874006757685   T   T   T
  0.1614304331606746  0.5042889450730001  0.2643340569211858   T   T   T
  0.1561590053210224  0.4725287149319186  0.2331683475530397   T   T   T
  0.1567040087480578  0.4010273989978899  0.2313444273335037   T   T   T
  0.1624734679757864  0.3694725436789170  0.2001916324466677   T   T   T
  0.1859670917595508  0.3090112025461664  0.1983693257970529   T   T   T
  0.2010575685001683  0.2870387299320711  0.1672120497563583   T   T   T
  0.2405743315446074  0.2555969400250362  0.1654009621987953   T   T   T
  0.2605430743284103  0.2498061076788005  0.1342490218007981   T   T   T
  0.3043299379319464  0.2568533883450002  0.1324416792863445   T   T   T
  0.3232111814934200  0.2689857247287293  0.1013004689497805   T   T   T
  0.3581848957316680  0.3123688882311271  0.0994856973865765   T   T   T
  0.3703572050627528  0.3387759868118394  0.0683454153709846   T   T   T
  0.3861446552717709  0.4055170791061045  0.0665498793805739   T   T   T
  0.3880097116833028  0.4383444085282235  0.0354041564420626   T   T   T
  0.3799103150287166  0.5086257250842436  0.0335876153748487   T   T   T
  0.3672467962025650  0.5469656502742311  0.4564273252517026   T   T   T
  0.3537532923770641  0.5727063431327792  0.4254125240720796   T   T   T
  0.3171682540800660  0.6123594639836156  0.4237087772518038   T   T   T
  0.2978568494856617  0.6231514476522335  0.3926499182899192   T   T   T
  0.2538651748573102  0.6259960058354466  0.3908361612438682   T   T   T
  0.2341009620191841  0.6186521114408805  0.3596653460040500   T   T   T
  0.1957393954459761  0.5836736168079071  0.3578129701471866   T   T   T
  0.1814109699224744  0.5604998554325178  0.3266317510065235   T   T   T
  0.1600591530569559  0.4979736119297300  0.3247714159405817   T   T   T
  0.1554706259970331  0.4659813977811922  0.2936049090090975   T   T   T
  0.1574932365985475  0.3945489506281064  0.2917758612390458   T   T   T
  0.1639644228026711  0.3633587373534297  0.2606184176726458   T   T   T
  0.1887240434644539  0.3042575953245574  0.2587961044355964   T   T   T
  0.2042806211947479  0.2831292496811457  0.2276498465531844   T   T   T
  0.2444430126570936  0.2538746839878101  0.2258523222582198   T   T   T
  0.2645149941561300  0.2492049811223396  0.1946890602510649   T   T   T
  0.3081221537109400  0.2586931608022525  0.1928751768598005   T   T   T
  0.3267330768779075  0.2718869546559333  0.1617293049300130   T   T   T
  0.3607629325682069  0.3172174527463909  0.1599115084262053   T   T   T
  0.3723709901725627  0.3443099236440830  0.1287748801302016   T   T   T
  0.3867161379789437  0.4119053599806648  0.1269753752632994   T   T   T
  0.3878986098489605  0.4448355513179081  0.0958356205498205   T   T   T
  0.3783236457446151  0.5146207815444654  0.0940199292423358   T   T   T
  0.3656258632574421  0.5547950410439739  0.5170911545800934   T   T   T
  0.3512478264605718  0.5768304277268967  0.4862056504724848   T   T   T
  0.3134336106133873  0.6136403015755363  0.4842264104612894   T   T   T
  0.2939322277845449  0.6230848453293376  0.4530934121276289   T   T   T
  0.2500324599627461  0.6239215578906609  0.4512515647788646   T   T   T
  0.2303986134195739  0.6158291011890853  0.4200875127695980   T   T   T
  0.1926699999965606  0.5790412622444592  0.4182322008782222   T   T   T
  0.1788495724292432  0.5551491385245271  0.3870729073893742   T   T   T
  0.1587269072241284  0.4915487880890979  0.3852147352212896   T   T   T
  0.1548455558792128  0.4593391922385166  0.3540330248067818   T   T   T
  0.1583404760197951  0.3880817132527596  0.3522004506020266   T   T   T
  0.1654876734841650  0.3572845151530117  0.3210470073552258   T   T   T
  0.1915251582857564  0.2996195892766664  0.3192299867885993   T   T   T
  0.2075680257704917  0.2794270499767677  0.2880947633401405   T   T   T
  0.2483334559777930  0.2524745492330780  0.2863122533184921   T   T   T
  0.2684910411260688  0.2488494771636596  0.2551404846127525   T   T   T
  0.3118795810457584  0.2607678515262322  0.2533220474382460   T   T   T
  0.3301928284240176  0.2749729732712467  0.2221689980791410   T   T   T
  0.3632304474722901  0.3222068505783113  0.2203413667466592   T   T   T
  0.3742470105024793  0.3499411301644315  0.1891971391023901   T   T   T
  0.3871360078763075  0.4182959111224136  0.1873852174274475   T   T   T
  0.3876238610810674  0.4512884747753603  0.1562546253187662   T   T   T
  0.3765865072666656  0.5205031800963411  0.1544439685417132   T   T   T
  0.3625913211659295  0.5595659515288176  0.5777070183669792   T   T   T
  0.3480157485300523  0.5815831530057807  0.5462567352296475   T   T   T
  0.3094944940931086  0.6161544225003794  0.5444771037573659   T   T   T
  0.2899557451135948  0.6241392274374178  0.5133978339432943   T   T   T
  0.2458536496437631  0.6228372415212604  0.5115908480608198   T   T   T
  0.2265698624771844  0.6130925287502080  0.4805151257006983   T   T   T
  0.1895676864389344  0.5744155353178613  0.4786594253522409   T   T   T
  0.1763195886063613  0.5496608997587131  0.4474862172129193   T   T   T
  0.1575299607261940  0.4850811683777820  0.4456458260774241   T   T   T
  0.1542752435247010  0.4526704238508330  0.4144697417167009   T   T   T
  0.1592615101829296  0.3816094412536941  0.4126402028267009   T   T   T
  0.1670881451970700  0.3512577127652179  0.3814920083472089   T   T   T
  0.1943602916455873  0.2951216230950635  0.3796778656706010   T   T   T
  0.2108898087505295  0.2759218608141580  0.3485321219860253   T   T   T
  0.2522287468634090  0.2514413228482155  0.3467534743126706   T   T   T
  0.2724627459362381  0.2488587926456063  0.3156118045474088   T   T   T
  0.3156128212636560  0.2631695569909809  0.3138029295958304   T   T   T
  0.3335896012220658  0.2783358301302101  0.2826103511303160   T   T   T
  0.3655959677275433  0.3273617839166292  0.2807612364285390   T   T   T
  0.3760223271788874  0.3556699307507714  0.2496108944389022   T   T   T
  0.3874699725993551  0.4247078756813778  0.2477769989103038   T   T   T
  0.3872296781633366  0.4577077987691069  0.2166580707638133   T   T   T
  0.3747452828213511  0.5262703464124314  0.2148582388564648   T   T   T
  0.3593795414462022  0.5642709244655251  0.6380718127413090   T   T   T
  0.3449495994917484  0.5869360476263665  0.6067465010650963   T   T   T
  0.3057238737468069  0.6198155943440469  0.6049043173839337   T   T   T
  0.2858787511800926  0.6257612318956873  0.5737778454535345   T   T   T
  0.2419799114289702  0.6215325438640420  0.5719805032533642   T   T   T
  0.2228149678884748  0.6106517912610130  0.5408479926065581   T   T   T
  0.1866947557256395  0.5698079049143203  0.5390407284564063   T   T   T
  0.1738441063900282  0.5443549475731544  0.5079218530829337   T   T   T
  0.1564095292931071  0.4786024558918314  0.5061020955175195   T   T   T
  0.1538868919187664  0.4460052181627319  0.4749534631479690   T   T   T
  0.1603755753406375  0.3752628901255619  0.4731189142939272   T   T   T
  0.1688258550964576  0.3453470172828901  0.4419418511743771   T   T   T
  0.1972715291694698  0.2908207125140407  0.4401222699925853   T   T   T
  0.2141798411411031  0.2725253662602256  0.4089811881746286   T   T   T
  0.2561012580695632  0.2506022048282404  0.4071919581129322   T   T   T
  0.2764266709358836  0.2493684120938511  0.3760846000602740   T   T   T
  0.3192335054484587  0.2661345873802716  0.3742883679606805   T   T   T
  0.3369434746341966  0.2819505623686780  0.3430529349420155   T   T   T
  0.3679963253637766  0.3326373934016686  0.3411864332277901   T   T   T
  0.3777360287007951  0.3615092284347696  0.3100255255905893   T   T   T
  0.3877327629772438  0.4311324517553459  0.3081508542179563   T   T   T
  0.3867570466347914  0.4641147150701883  0.2770303939301471   T   T   T
  0.3728497112019795  0.5319265888990259  0.2752523212317541   T   T   T
  0.3564337663764903  0.5691135899101170  0.6984537914204196   T   T   T
  0.3414193231365132  0.5910643831610187  0.6672740334489617   T   T   T
  0.3017945924645744  0.6222150945283786  0.6653918620212309   T   T   T
  0.2818916912627927  0.6275190663159549  0.6341534963592963   T   T   T
  0.2380888527716820  0.6203391572261694  0.6323704204028289   T   T   T
  0.2191821049500291  0.6082171284365572  0.6012704583860398   T   T   T
  0.1839972909705310  0.5651749579750316  0.5994806645645809   T   T   T
  0.1717280081282766  0.5388305635065436  0.5683642895341379   T   T   T
  0.1557507977964292  0.4722350632133328  0.5665688794266686   T   T   T
  0.1537769929845396  0.4394303799420385  0.5354016484857809   T   T   T
  0.1618012292950439  0.3691196123155152  0.5335708600910465   T   T   T
  0.1707100468039044  0.3396112778824900  0.5024192319578376   T   T   T
  0.2003779111319517  0.2866661305764353  0.5005946713638565   T   T   T
  0.2176192569179136  0.2694197192283880  0.4694565931903796   T   T   T
  0.2599968261966552  0.2500680172186307  0.4676488689631171   T   T   T
  0.2803105881181480  0.2501569163967261  0.4365021772269344   T   T   T
  0.3225973615090396  0.2697922863664530  0.4346803110820403   T   T   T
  0.3401366609787431  0.2861359266633272  0.4035443530705294   T   T   T
  0.3704690383228950  0.3382575144251518  0.4017112765585154   T   T   T
  0.3795102801070058  0.3674680786716564  0.3704012720383432   T   T   T
  0.3879614700166840  0.4375078737827778  0.3684575299355188   T   T   T
  0.3862690583820267  0.4704713302159220  0.3373748117431532   T   T   T
  0.3535490073151664  0.5738670012122213  0.7588749769634973   T   T   T
  0.3380013340989905  0.5949178782627769  0.7277059174928198   T   T   T
  0.2978228436416330  0.6239976006079218  0.7258411011998689   T   T   T
  0.2778070252109615  0.6285538046448025  0.6946304825954144   T   T   T
  0.2341698940964321  0.6188875698865317  0.6928272225631460   T   T   T
  0.2156206958810003  0.6055327253164364  0.6616935037712608   T   T   T
  0.1814975206390130  0.5603888001375736  0.6599156466517471   T   T   T
  0.1697716146160531  0.5333731301214328  0.6287855661684034   T   T   T
  0.1552491646136360  0.4658629699427621  0.6270091194915821   T   T   T
  0.1539552828082762  0.4329476941917108  0.5958793819935977   T   T   T
  0.1635101127694796  0.3631303348447688  0.5940622127336823   T   T   T
  0.1730869368778798  0.3341578862417265  0.5628993629581061   T   T   T
  0.2038433629199332  0.2831161205962118  0.5610775918775701   T   T   T
  0.2213206978496345  0.2667193120299558  0.5298833307942061   T   T   T
  0.2640771957872587  0.2499940851232907  0.5280259816750998   T   T   T
  0.2842112937524135  0.2510076059028776  0.4969176774047526   T   T   T
  0.3260470751404370  0.2736543260533466  0.4950675810274632   T   T   T
  0.3428606154666340  0.2916144706768691  0.4639931518503033   T   T   T
  0.3721541040394882  0.3450271601186259  0.4622154323589385   T   T   T
  0.3815230906702709  0.3735423178046915  0.4307434492216657   T   T   T
  0.3887054502308231  0.4441904144904072  0.4287385367364465   T   T   T
  0.3857455945192285  0.4768089337582566  0.3976853677749759   T   T   T
  0.3506191122140692  0.5784510715999218  0.8192966677560918   T   T   T
  0.3346287265501431  0.5986492980038562  0.7881307756563984   T   T   T
  0.2938477224140357  0.6254968544884463  0.7862918585803058   T   T   T
  0.2737170923751435  0.6289890827947744  0.7551184075269788   T   T   T
  0.2303382632709372  0.6169494996486833  0.7532972309185269   T   T   T
  0.2120809472862177  0.6026556820158504  0.7221274617424527   T   T   T
  0.1790067908081809  0.5554743432310190  0.7203518243414919   T   T   T
  0.1679328402672766  0.5277921665026497  0.6892266067690684   T   T   T
  0.1549076623596193  0.4594723536303036  0.6874516311942642   T   T   T
  0.1543595011887078  0.4264925917799047  0.6563202877098675   T   T   T
  0.1654151436369489  0.3573050986740114  0.6545041022169826   T   T   T
  0.1755653395531240  0.3288576986565062  0.6233396599151888   T   T   T
  0.2074296679794401  0.2795333334435171  0.6215115551277464   T   T   T
  0.2252604516472232  0.2642193699978250  0.5903469074404342   T   T   T
  0.2683556473077999  0.2497735794166971  0.5884878596772651   T   T   T
  0.2884619445705567  0.2525742016998791  0.5573005150353367   T   T   T
  0.3296589966849623  0.2771293407730653  0.5554294928347971   T   T   T
  0.3459949517737755  0.2965337006627138  0.5242330316749175   T   T   T
  0.3741757322997188  0.3514035892011336  0.5221911350419290   T   T   T
  0.3833234571057318  0.3797996770128833  0.4913071657215227   T   T   T
  0.3950888658646718  0.4509091167034427  0.4891168044666472   T   T   T
  0.3860556610287773  0.4834390258629213  0.4577486307783261   T   T   T
  0.3476260890510474  0.5828756505248336  0.8797306158535392   T   T   T
  0.3312083318390151  0.6021687239200801  0.8485709079767148   T   T   T
  0.2898791709317123  0.6267023601136685  0.8467467211153448   T   T   T
  0.2696710535793159  0.6290859866460181  0.8155795059246884   T   T   T
  0.2265805521417050  0.6146441125961601  0.8137520180436937   T   T   T
  0.2086100936600843  0.5994198587629427  0.7825873029780652   T   T   T
  0.1765797928323138  0.5503592850007024  0.7808036955040549   T   T   T
  0.1661732026064513  0.5220561872398690  0.7496632857207004   T   T   T
  0.1546742026123979  0.4530429584949971  0.7478784736747883   T   T   T
  0.1548507354664963  0.4200706746751521  0.7167400260243966   T   T   T
  0.1673811955362225  0.3515246828946559  0.7149285732924895   T   T   T
  0.1781707711273768  0.3236830255246090  0.6837799338810271   T   T   T
  0.2110266660239688  0.2761095211736304  0.6819525797781694   T   T   T
  0.2292218861804614  0.2618166429370206  0.6507763919378675   T   T   T
  0.2725374218687975  0.2494234316417590  0.6489125315509767   T   T   T
  0.2926270756460525  0.2529867586173822  0.6177205394961121   T   T   T
  0.3335677096079763  0.2792824718722997  0.6158801531705649   T   T   T
  0.3495414130779295  0.2996952514376616  0.5847784226303929   T   T   T
  0.3762116207211719  0.3565672274607508  0.5830502792625722   T   T   T
  0.3837344104040099  0.3879744935893967  0.5520078634182823   T   T   T
  0.3890565625302003  0.4580552724667584  0.5507049761967124   T   T   T
  0.3907777818181657  0.4936823133765955  0.5192978972463393   T   T   T
  0.3445334930697612  0.5870824933506569  0.9401746494934642   T   T   T
  0.3277136163235710  0.6054526900953618  0.9090125308764669   T   T   T
  0.2858895943310102  0.6276482840797541  0.9071934662115098   T   T   T
  0.2656417665099937  0.6289221466939097  0.8760304795450367   T   T   T
  0.2228813648076553  0.6120668702230461  0.8742031550053255   T   T   T
  0.2052411245141172  0.5958583997109343  0.8430448637600136   T   T   T
  0.1742798238304033  0.5450455196099284  0.8412513253246416   T   T   T
  0.1644805764269464  0.5161981078985747  0.8100979016572580   T   T   T
  0.1544919462942431  0.4465573120660764  0.8083008684272386   T   T   T
  0.1554148635432782  0.4136315183390238  0.7771649604603326   T   T   T
  0.1693831689394472  0.3458214153664727  0.7753608557567162   T   T   T
  0.1807940897111635  0.3186133112393890  0.7442083558575874   T   T   T
  0.2145812208414881  0.2728288486354415  0.7423856160014779   T   T   T
  0.2330725015554478  0.2594644219285414  0.7112176075832863   T   T   T
  0.2766316383405183  0.2493249107083741  0.7093734822716513   T   T   T
  0.2966811094012769  0.2538161675103652  0.6782179735390201   T   T   T
  0.3370506785188141  0.2822790828037824  0.6764306831723488   T   T   T
  0.3527054626281725  0.3033010422869324  0.6452881384208595   T   T   T
  0.3779631186349235  0.3617198775048109  0.6435837208493140   T   T   T
  0.3846949285502248  0.3929733631497854  0.6124457813228688   T   T   T
  0.3873324386163048  0.4642223998976434  0.6108001285457405   T   T   T
  0.3836554663577658  0.4965920720428940  0.5797244626568698   T   T   T
  0.3413371595756800  0.5910797183467125  0.0006202279961798   T   T   T
  0.3241516621118166  0.6085195070349059  0.9694569574644873   T   T   T
  0.2818787447799167  0.6283594261960488  0.9676371726803836   T   T   T
  0.2616175781811947  0.6285034584621769  0.9364782063102695   T   T   T
  0.2192409947274925  0.6092628560629478  0.9346523102358191   T   T   T
  0.2019551028257069  0.5920814885933865  0.9034918751379735   T   T   T
  0.1720924647866937  0.5395698502536561  0.9016915487836314   T   T   T
  0.1629133893187387  0.5102071808957902  0.8705382343193904   T   T   T
  0.1544125924842987  0.4400473335243476  0.8687305727964301   T   T   T
  0.1560604202912046  0.4072019154926565  0.8375890112434590   T   T   T
  0.1714522913019891  0.3402235112663519  0.8357892287746083   T   T   T
  0.1834343635110116  0.3136534954844095  0.8046377051153613   T   T   T
  0.2181687837032342  0.2697545074461871  0.8028213886460236   T   T   T
  0.2369360008922712  0.2573914068651746  0.7716696683652557   T   T   T
  0.2806810171333112  0.2496674339273923  0.7698469669547663   T   T   T
  0.3006411622744025  0.2552267683320579  0.7386840897023674   T   T   T
  0.3403478376107572  0.2859670073793197  0.7369000805750687   T   T   T
  0.3555798110986856  0.3076999885121481  0.7057400539247425   T   T   T
  0.3794984696092243  0.3677022375216126  0.7039837122041988   T   T   T
  0.3855356622438109  0.3991680245495814  0.6728668281877503   T   T   T
  0.3865271188578063  0.4706710768280118  0.6711304275638881   T   T   T
  0.3815108431017009  0.5026197198859421  0.6400279603532226   T   T   T
  0.2575965839016234  0.6278434275349341  0.9969194097081413   T   T   T
  0.2156540376071447  0.6062477590507882  0.9950974000635213   T   T   T
  0.1987453085653144  0.5881180169790028  0.9639359123742182   T   T   T
  0.1700066768924557  0.5339713429386208  0.9621297027502820   T   T   T
  0.1614611995951520  0.5041111523839419  0.9309776304950148   T   T   T
  0.1544534090318166  0.4335250503718271  0.9291627253114356   T   T   T
  0.1568075516762164  0.4008047693025816  0.8980144483982855   T   T   T
  0.1736165581155333  0.3347281620857316  0.8962175353005790   T   T   T
  0.1861637459092478  0.3088535573643654  0.8650715611015585   T   T   T
  0.2218051005520465  0.2669227198605668  0.8632578012118586   T   T   T
  0.2408374527109274  0.2556150060933433  0.8321081805657542   T   T   T
  0.2847107038226824  0.2503454739961910  0.8302978222979220   T   T   T
  0.3045479481180848  0.2569571661355425  0.7991343634626631   T   T   T
  0.3435847670510412  0.2899352299533646  0.7973409192729548   T   T   T
  0.3583250133770548  0.3124943925838721  0.7661924574743395   T   T   T
  0.3809132948868950  0.3738606139005540  0.7644053843623837   T   T   T
  0.3861980974755426  0.4056472435073317  0.7332694424112134   T   T   T
  0.3856699871843077  0.4771239026064720  0.7314929718244869   T   T   T
  0.3799571217646616  0.5087013363839290  0.7003469878185271   T   T   T
  0.1601286841485177  0.4979377322710263  0.9914131135501307   T   T   T
  0.1546213751683183  0.4270003562682660  0.9895952058745294   T   T   T
  0.1576699610130987  0.3944319259926274  0.9584450918256238   T   T   T
  0.1758754113308285  0.3293360765161140  0.9566465595580667   T   T   T
  0.1889770175330909  0.3041901421371094  0.9255010597248372   T   T   T
  0.2254874336116472  0.2642897229809478  0.9236857453549234   T   T   T
  0.2447532811237423  0.2540513727357805  0.8925382649905131   T   T   T
  0.2887179497435000  0.2512571235644714  0.8907344244816002   T   T   T
  0.3084082053884103  0.2589753464194189  0.8595809003784964   T   T   T
  0.3467242743668493  0.2941310692024572  0.8577783282244908   T   T   T
  0.3609691676808140  0.3175162542042358  0.8266267472372348   T   T   T
  0.3822272599175776  0.3801090535116884  0.8248244801773055   T   T   T
  0.3868193308615204  0.4121603430905694  0.7936735661565137   T   T   T
  0.3847590054340699  0.4835825797429294  0.7918775010928485   T   T   T
  0.3783527444722878  0.5148041216226957  0.7607366329642105   T   T   T
  0.1918731091815857  0.2996841394822525  0.9859281281327341   T   T   T
  0.2292093818522858  0.2618519373914907  0.9841102597767630   T   T   T
  0.2486871804286963  0.2527025361239623  0.9529666867877395   T   T   T
  0.2926882051486501  0.2523798324412354  0.9511671830299306   T   T   T
  0.3122095279633115  0.2612287736489520  0.9200173924016894   T   T   T
  0.3497512275223329  0.2985121809589160  0.9182075695460128   T   T   T
  0.3635053901513743  0.3226742716926054  0.8870555138331895   T   T   T
  0.3834278804896130  0.3864242268212195  0.8852491158898346   T   T   T
  0.3873287699683061  0.4187171791167685  0.8540964851937574   T   T   T
  0.3837399715525791  0.4899819198857358  0.8522908229087065   T   T   T
  0.3766469395735470  0.5208112545739851  0.8211405386447623   T   T   T
  0.3159532647198802  0.2636399834242553  0.9804466312348836   T   T   T
  0.3526847737571828  0.3030094287798448  0.9786332745350563   T   T   T
  0.3659200935673965  0.3279536418975582  0.9474864458562990   T   T   T
  0.3844932049728413  0.3927720315561984  0.9456826486240573   T   T   T
  0.3877091210680845  0.4252819188681727  0.9145268473795625   T   T   T
  0.3826174324307132  0.4963013896704567  0.9127156008437183   T   T   T
  0.3748703228546688  0.5267272961734193  0.8815615031905537   T   T   T
  0.3879450783615894  0.4318258515516504  0.9749633370659865   T   T   T
  0.3813451811257806  0.5025207681073809  0.9731489495484382   T   T   T
  0.3729657455391475  0.5325070945109687  0.9419961552720011   T   T   T
  0.4504442503114988  0.4931666015454787  0.5042475725965123   T   T   T
  0.4602105644385671  0.5503369695773147  0.4819377722100149   T   T   T
 
  0.00000000E+00  0.00000000E+00  0.00000000E+00
  0.00000000E+00  0.00000000E+00  0.00000000E+00
  0.00000000E+00  0.00000000E+00  0.00000000E+00
  0.00000000E+00  0.00000000E+00  0.00000000E+00
  0.00000000E+00  0.00000000E+00  0.00000000E+00
  0.00000000E+00  0.00000000E+00  0.00000000E+00
  0.00000000E+00  0.00000000E+00  0.00000000E+00
  0.00000000E+00  0.00000000E+00  0.00000000E+00
  0.00000000E+00  0.00000000E+00  0.00000000E+00
  0.00000000E+00  0.00000000E+00  0.00000000E+00
  0.00000000E+00  0.00000000E+00  0.00000000E+00
  0.00000000E+00  0.00000000E+00  0.00000000E+00
  0.00000000E+00  0.00000000E+00  0.00000000E+00
  0.00000000E+00  0.00000000E+00  0.00000000E+00
  0.00000000E+00  0.00000000E+00  0.00000000E+00
  0.00000000E+00  0.00000000E+00  0.00000000E+00
  0.00000000E+00  0.00000000E+00  0.00000000E+00
  0.00000000E+00  0.00000000E+00  0.00000000E+00
  0.00000000E+00  0.00000000E+00  0.00000000E+00
  0.00000000E+00  0.00000000E+00  0.00000000E+00
  0.00000000E+00  0.00000000E+00  0.00000000E+00
  0.00000000E+00  0.00000000E+00  0.00000000E+00
  0.00000000E+00  0.00000000E+00  0.00000000E+00
  0.00000000E+00  0.00000000E+00  0.00000000E+00
  0.00000000E+00  0.00000000E+00  0.00000000E+00
  0.00000000E+00  0.00000000E+00  0.00000000E+00
  0.00000000E+00  0.00000000E+00  0.00000000E+00
  0.00000000E+00  0.00000000E+00  0.00000000E+00
  0.00000000E+00  0.00000000E+00  0.00000000E+00
  0.00000000E+00  0.00000000E+00  0.00000000E+00
  0.00000000E+00  0.00000000E+00  0.00000000E+00
  0.00000000E+00  0.00000000E+00  0.00000000E+00
  0.00000000E+00  0.00000000E+00  0.00000000E+00
  0.00000000E+00  0.00000000E+00  0.00000000E+00
  0.00000000E+00  0.00000000E+00  0.00000000E+00
  0.00000000E+00  0.00000000E+00  0.00000000E+00
  0.00000000E+00  0.00000000E+00  0.00000000E+00
  0.00000000E+00  0.00000000E+00  0.00000000E+00
  0.00000000E+00  0.00000000E+00  0.00000000E+00
  0.00000000E+00  0.00000000E+00  0.00000000E+00
  0.00000000E+00  0.00000000E+00  0.00000000E+00
  0.00000000E+00  0.00000000E+00  0.00000000E+00
  0.00000000E+00  0.00000000E+00  0.00000000E+00
  0.00000000E+00  0.00000000E+00  0.00000000E+00
  0.00000000E+00  0.00000000E+00  0.00000000E+00
  0.00000000E+00  0.00000000E+00  0.00000000E+00
  0.00000000E+00  0.00000000E+00  0.00000000E+00
  0.00000000E+00  0.00000000E+00  0.00000000E+00
  0.00000000E+00  0.00000000E+00  0.00000000E+00
  0.00000000E+00  0.00000000E+00  0.00000000E+00
  0.00000000E+00  0.00000000E+00  0.00000000E+00
  0.00000000E+00  0.00000000E+00  0.00000000E+00
  0.00000000E+00  0.00000000E+00  0.00000000E+00
  0.00000000E+00  0.00000000E+00  0.00000000E+00
  0.00000000E+00  0.00000000E+00  0.00000000E+00
  0.00000000E+00  0.00000000E+00  0.00000000E+00
  0.00000000E+00  0.00000000E+00  0.00000000E+00
  0.00000000E+00  0.00000000E+00  0.00000000E+00
  0.00000000E+00  0.00000000E+00  0.00000000E+00
  0.00000000E+00  0.00000000E+00  0.00000000E+00