 C  S  O 
 1.0000000000000000
    32.3722991942999982    0.0000000000000000    0.0000000000000000
     0.0000000000000000   19.9214134216000005    0.0000000000000000
     0.0000000000000000    0.0000000000000000   40.4480476378999967
 C   S   O  
 364   1   1
Cartesian
 12.0098276140000007 10.7247667310000008  0.0995669290000000
 11.9398155209999999 10.8347072600000001  2.5425672530000001
 10.9447250369999995 11.8541440960000006  2.4697980880000001
 10.3757257460000005 12.1811828609999999  1.2103658909999999
  8.9939451219999995 12.5272293090000009  1.1372314690000001
 11.8658246989999991 10.9421663280000008  4.9857716559999998
 10.8361520769999995 11.9266414639999994  4.9129514690000002
 10.2562465669999998 12.2337827679999993  3.6535184379999999
  8.8632841110000005 12.5316791530000007  3.5800795559999998
  8.2084274290000003 12.4890041350000001  2.3207421300000002
  6.8664174080000002 12.0115337370000006  2.2476720810000002
  6.3315153119999996 11.6314277649999998  0.9882078770000000
  5.4393949509999997 10.5208587649999998  0.9150903220000000
 11.7876520159999991 11.0469436650000006  7.4294586180000000
 10.7246942520000008 11.9952554700000000  7.3565526009999997
 10.1349182130000006 12.2821636200000004  6.0968780520000001
  8.7325172420000001 12.5318279270000001  6.0233030320000003
  8.0797052380000007 12.4664487840000007  4.7638192180000001
  6.7549920080000003 11.9429483409999992  4.6908459660000004
  6.2334856990000000 11.5447750090000003  3.4312741760000001
  5.3802256579999996 10.4041881560000000  3.3580124379999998
  5.1451444630000003  9.7916040419999995  2.0985765459999999
  5.0172963140000002  8.3728313449999998  2.0252628330000002
  5.1389403339999999  7.7279410359999998  0.7658818960000000
  5.7747173309999997  6.4531455040000001  0.6928764580000000
 11.7059812549999993 11.1490306849999996  9.8737316130000004
 10.6109771730000002 12.0600242610000006  9.8006839750000001
 10.0116653440000007 12.3264284130000004  8.5407056810000004
  8.6016206739999994 12.5277042390000002  8.4670820239999998
  7.9516129490000003 12.4398059839999995  7.2072410580000001
  6.6457552910000004 11.8708648680000000  7.1343541149999998
  6.1383872029999997 11.4549589160000007  5.8746404649999997
  5.3249764439999998 10.2855939870000004  5.8012032509999996
  5.1114196779999999  9.6652107239999996  4.5416178699999996
  5.0325574870000001  8.2429113390000008  4.4684600830000001
  5.1763925549999996  7.6026792529999998  3.2088427540000000
  5.8555827139999996  6.3505578040000001  3.1357326510000001
  6.3139109610000004  5.8808889390000001  1.8764095310000000
  7.5491080280000000  5.1712975500000002  1.8028492930000000
  8.1858053210000001  5.0120172500000004  0.5435839890000000
  9.6096134190000004  5.0563149449999996  0.4706465900000000
 12.0096940990000007 10.7204618450000009 13.5793933869999996
 11.6209096909999996 11.2484083179999992 12.3187055589999996
 10.4952526089999996 12.1212282180000006 12.2454318999999998
  9.8871297840000008 12.3665199280000007 10.9851255420000005
  8.4709672929999993 12.5191087719999992 10.9115743639999998
  7.8244633669999999 12.4088602070000000  9.6513547899999992
  6.5389599799999996 11.7953176499999994  9.5784339900000006
  6.0465631479999997 11.3619003299999992  8.3184776310000004
  5.2742891309999997 10.1650552750000003  8.2448921199999994
  5.0822539329999996  9.5377330780000005  6.9851188659999996
  5.0525455470000002  8.1136131290000009  6.9120755200000001
  5.2180352210000001  7.4788017269999996  5.6522641179999997
  5.9400486949999998  6.2508854869999997  5.5789289469999996
  6.4143919939999998  5.7974734310000002  4.3194093699999998
  7.6733598709999997  5.1311192510000003  4.2459683420000003
  8.3150930400000007  4.9938507080000001  2.9865300659999998
  9.7365188600000003  5.0873665810000004  2.9135537149999999
 10.3547515870000009  5.3073372839999999  1.6542292830000001
 11.5157041549999999  6.1327295299999998  1.5806641580000000
 11.9267454149999992  6.6444101330000001  0.3213770390000000
 12.4824466709999999  7.9559755330000002  0.2485513840000000
 11.9396028520000002 10.8307342529999993 16.0252609250000013
 11.5325889589999999 11.3447666169999994 14.7643699650000002
 10.3776254649999995 12.1783342359999995 14.6908521650000008
  9.7615327839999999 12.4025669099999991 13.4302425379999999
  8.3409662250000007 12.5061349869999994 13.3568620679999999
  7.6987276079999996 12.3734931950000000 12.0962619779999994
  6.4352025990000001 11.7159767150000000 12.0232076639999992
  5.9578804969999997 11.2661142349999999 10.7629585270000003
  5.2275319099999997 10.0431804660000008 10.6893205640000009
  5.0574293140000002  9.4095973970000006  9.4292545319999999
  5.0771412849999997  7.9853405950000003  9.3562669750000005
  5.2644615170000000  7.3566484450000003  8.0962572099999992
  6.0283255579999997  6.1543889050000002  8.0227088930000008
  6.5176692010000004  5.7175827029999997  6.7628808019999997
  7.7987694740000002  5.0949993129999998  6.6896147729999997
  8.4448232650000001  4.9800934789999998  5.4298672679999997
  9.8620815279999992  5.1226210590000001  5.3567562100000004
 10.4725065229999998  5.3636612890000004  4.0973286629999999
 11.6043968199999998  6.2285003659999996  4.0237789150000003
 11.9975023269999994  6.7539887429999999  2.7643752099999999
 12.5078287120000002  8.0839090349999996  2.6916203500000000
 12.5668020249999994  8.7376031879999996  1.4321932790000000
 12.3027381899999995 10.1374206539999996  1.3588768240000000
 11.8657340999999992 10.9386157990000008 18.4714679719999992
 11.4416065220000007 11.4384965899999997 17.2104377749999990
 10.2585248950000008 12.2317152020000002 17.1367607120000010
  9.6348772050000004 12.4343957899999999 15.8759431840000005
  8.2115783689999997 12.4886741640000007 15.8027286530000008
  7.5742344859999999 12.3340587619999997 14.5418577189999993
  6.3342914580000000 11.6330699919999994 14.4685878750000008
  5.8730630870000002 11.1668663020000007 13.2080173490000004
  5.1854186059999998  9.9194955829999998 13.1344709399999999
  5.0371403690000003  9.2806625369999995 11.8739700320000008
  5.1060590740000000  7.8579468730000004 11.8009920120000000
  5.3149294850000004  7.2361574170000003 10.5407094959999998
  6.1198134419999999  6.0609579089999999 10.4670400620000006
  6.6239571570000004  5.6412887569999999  9.2069425579999997
  7.9256596569999997  5.0630307200000004  9.1338224409999995
  8.5750474929999996  4.9705276490000001  7.8736991879999998
  9.9864902499999992  5.1619563099999999  7.8004660609999998
 10.5879907610000004  5.4241137500000001  6.5407595629999999
 11.6894216540000002  6.3274283410000001  6.4673533440000002
 12.0643558500000001  6.8660025600000001  5.2077035900000004
 12.5283536909999995  8.2127475739999998  5.1348457339999998
 12.5649805069999996  8.8679971690000006  3.8753786090000002
 12.2528295519999997 10.2578773499999993  3.8019077779999999
 11.7882213589999996 11.0437555310000004 20.9177532200000016
 11.3469362260000004 11.5286359790000006 19.6567478179999995
 10.1373481749999996 12.2806444169999995 19.5830154420000007
  9.5072422030000006 12.4617204669999992 18.3220329279999987
  8.0828895569999997 12.4667167659999993 18.2490081790000005
  7.4515070919999999 12.2900142670000001 16.9879779820000003
  6.2366514210000004 11.5465030669999997 16.9144744869999997
  5.7917733189999998 11.0648221969999998 15.6536693570000001
  5.1473002430000001  9.7946376799999992 15.5802650450000009
  5.0211977960000000  9.1510953900000001 14.3194246290000002
  5.1390786170000000  7.7316069599999997 14.2463331219999993
  5.3694982529999997  7.1175994869999997 12.9857702259999996
  6.2143893239999999  5.9708447460000000 12.9120807650000007
  6.7325348849999997  5.5687637329999999 11.6516256330000001
  8.0533981319999999  5.0356569289999999 11.5786218640000005
  8.7055854799999999  4.9655327800000002 10.3182573319999999
 10.1095514299999998  5.2057852750000002 10.2448244089999996
 10.7014942170000005  5.4883923530000001  8.9847364429999992
 11.7710380550000000  6.4292297359999999  8.9115409850000002
 12.1270132060000009  6.9803533550000001  7.6515278819999999
 12.5441970830000002  8.3423185350000004  7.5785222049999996
 12.5581130979999998  8.9983043669999994  6.3188567160000000
 12.1980304719999992 10.3764982220000004  6.2453579899999996
 11.7074480059999999 11.1462955469999994 23.3639698029999998
 11.2497901920000007 11.6157932279999994 22.1030693050000018
 10.0148925779999995 12.3255758289999999 22.0294456479999994
  9.3787488939999992 12.4846315380000004 20.7684173580000007
  7.9551420210000003 12.4402914050000000 20.6954040530000007
  7.3301138879999996 12.2419672009999996 19.4343700410000011
  6.1415524479999997 11.4570083619999998 19.3607082370000008
  5.7137908939999997 10.9601507189999996 18.0997428890000016
  5.1135754589999998  9.6685171130000001 18.0265159610000012
  5.0098414419999999  9.0210475920000004 16.7654495240000010
  5.1768293380000001  7.6065382960000001 16.6921539310000000
  5.4279570579999996  7.0008144379999999 15.4313583370000007
  6.3120017050000001  5.8840155599999999 15.3577632899999994
  6.8436260219999996  5.5001826290000002 14.0969753269999991
  8.1819953919999993  5.0129585270000003 14.0239715579999995
  8.8361082080000006  4.9653110500000004 12.7633666990000005
 10.2309007639999994  5.2538504599999998 12.6897764209999995
 10.8127012249999996  5.5567002299999997 11.4294061659999997
 11.8491020200000001  6.5339360240000000 11.3563909530000000
 12.1857023239999993  7.0968708989999998 10.0959939960000007
 12.5554981229999996  8.4724082949999993 10.0228214260000001
 12.5467643740000003  9.1283187869999995  8.7627887730000005
 12.1392869950000009 10.4932155609999995  8.6893825529999997
 11.6230401990000001 11.2460136409999993 25.8098983759999996
 11.1492490770000003 11.6992139819999998 24.5491657259999982
  9.8905334469999993 12.3657522199999992 24.4757614140000008
  9.2494688029999992 12.5029668810000008 23.2147483829999999
  7.8282556530000003 12.4094333649999999 23.1416969299999984
  7.2106518749999999 12.1895380020000008 21.8807411189999996
  6.0498909950000002 11.3640995030000003 21.8070182800000012
  5.6393537519999999 10.8528451920000002 20.5460338590000013
  5.0840606690000003  9.5412874219999999 20.4729461669999999
  5.0027313229999999  8.8906860349999999 19.2118263240000005
  5.2182726859999997  7.4827780720000003 19.1383152010000011
  5.4905409809999997  6.8862757680000000 17.8774032590000012
  6.4124884609999997  5.8005828859999999 17.8039665219999996
  6.9570336340000001  5.4353570939999996 16.5429191590000002
  8.3114061360000004  4.9946050639999999 16.4697952269999988
  8.9666309359999996  4.9695997240000001 15.2089967730000009
 10.3505926129999999  5.3061456680000001 15.1353635789999998
 10.9214067460000006  5.6288685799999998 13.8746767040000005
 11.9232759480000006  6.6413440699999997 13.8017587660000007
 12.2403154369999996  7.2154459949999996 12.5411262509999997
 12.5622501369999995  8.6029396059999996 12.4677190780000000
 12.5308198930000003  9.2580175400000009 11.2073402400000006
 12.0765256880000003 10.6079559329999995 11.1340856549999998
 11.5354232789999998 11.3428611759999995 28.2553615570000005
 11.0460186000000000 11.7793083190000001 26.9948921199999994
  9.7650337220000001 12.4021072389999993 26.9217376709999989
  9.1195306780000003 12.5168781280000001 25.6609039310000000
  7.7023534769999999 12.3743677139999999 25.5877037049999991
  7.0926542279999998 12.1333398819999996 24.3269176479999985
  5.9608640670000002 11.2685470579999993 24.2532958980000011
  5.5685000420000001 10.7432756420000004 22.9923343660000015
  5.0586533549999997  9.4133968350000004 22.9193305969999983
  5.0000224109999998  8.7602825160000002 21.6583404540000011
  5.2640123369999996  7.3606786729999998 21.5846729279999998
  5.5565133089999996  6.7737965579999999 20.3237113950000001
  6.5155272479999997  5.7207021710000001 20.2504863740000012
  7.0723166470000001  5.3743591310000003 18.9893360139999992
  8.4410896300000005  4.9805779460000004 18.9160461429999991
  9.0968027110000005  4.9781928060000000 17.6550998690000007
 10.4683618549999995  5.3622093199999998 17.5814990999999985
 11.0276718139999996  5.7046022420000000 16.3205718990000008
 11.9938650130000006  6.7511138920000002 16.2476387019999997
 12.2906618119999997  7.3358340259999997 14.9868221280000000
 12.5644512180000003  8.7335538859999993 14.9132099149999995
 12.5103750229999999  9.3870716089999995 13.6525545120000000
 11.4447383879999993 11.4369049070000006 30.7002105709999995
 10.9402685169999998 11.8561000819999993 29.4400348660000013
  9.6385202410000002 12.4343147280000004 29.3671035770000017
  8.9891471860000003 12.5267028810000003 28.1065979000000006
  7.5777053829999996 12.3354930879999998 28.0332660679999996
  6.9765882489999997 12.0732660289999991 26.7727165219999996
  5.8754205700000002 11.1698417659999993 26.6993370060000004
  5.5011286740000003 10.6314239500000003 25.4384803770000012
  5.0374650960000000  9.2847108840000008 25.3654155729999999
  5.0015044209999999  8.6298742290000003 24.1046218870000004
  5.3137893680000001  7.2402477259999998 24.0309123990000018
  5.6265592580000003  6.6638293270000002 22.7700328829999989
  6.6212573050000003  5.6443281169999997 22.6969852450000005
  7.1897878649999996  5.3176488879999999 21.4359035489999989
  8.5712423320000006  4.9711465840000004 21.3624229429999986
  9.2266397480000002  4.9913492200000000 20.1014156339999985
 10.5840864180000001  5.4223771100000002 20.0279769899999991
 11.1312608720000004  5.7837133410000003 18.7668533330000002
 12.0607061390000005  6.8630566599999998 18.6938095090000012
 12.3370113369999999  7.4577841759999997 17.4329280850000004
 12.5623369220000001  8.8641529079999994 17.3592472079999993
 12.4857311249999992  9.5152883530000008 16.0983390809999989
 11.3506355289999998 11.5275297160000001 33.1444053649999972
 10.8319282529999992 11.9292335509999994 31.8845481870000000
  9.5109653470000008 12.4620971679999997 31.8117256160000004
  8.8586177829999997 12.5319766999999995 30.5516586299999986
  7.4545822140000002 12.2921075819999999 30.4782581330000006
  6.8627672200000003 12.0094213490000001 29.2180042270000015
  5.7934880260000003 11.0683784480000007 29.1448822020000016
  5.4378666879999997 10.5172681810000004 27.8842983249999996
  5.0208220480000003  9.1553487780000005 27.8110923770000014
  5.0074706080000002  8.4996147160000000 26.5505046839999999
  5.3676824569999999  7.1216211319999996 26.4768486020000005
  5.7001609799999997  6.5562663079999997 25.2161216740000000
  6.7292971609999999  5.5715160370000003 25.1431579589999998
  7.3088550569999997  5.2645063399999996 23.8823184970000000
  8.7015409469999998  4.9660897249999998 23.8086853030000007
  9.3559179310000005  5.0089373589999999 22.5478000640000005
 10.6977319719999997  5.4865641590000003 22.4745674129999990
 11.2321271899999999  5.8664031029999997 21.2133941650000004
 12.1235885620000001  6.9772500989999999 21.1401119229999992
 12.3790998460000008  7.5811839100000000 19.8791790010000007
 12.5556058880000005  8.9945087430000008 19.8055477139999994
 12.4567308430000008  9.6427192690000005 18.5445213319999986
 11.2537670139999992 11.6149454120000009 35.5881843570000029
 10.7214622500000001 11.9985971449999997 34.3285675050000023
  9.3827733989999995 12.4854602809999999 34.2557373049999967
  8.7282447810000008 12.5327091220000000 32.9960670469999968
  7.3333349229999998 12.2442836760000002 32.9225654600000013
  6.7512903209999999 11.9412946699999996 31.6627235409999983
  5.7150311470000004 10.9639368059999995 31.5897674560000006
  5.3787698749999997 10.4008293149999993 30.3294906620000013
  5.0088729860000001  9.0253229140000002 30.2561359410000001
  5.0179405209999999  8.3695220950000007 28.9958305359999997
  5.4253072739999997  7.0046539310000000 28.9223651890000006
  5.7773566250000004  6.4512119290000003 27.6618309019999984
  6.8399395939999996  5.5026655199999999 27.5888175959999984
  7.4297389980000004  5.2157506939999996 26.3282718660000015
  8.8319282529999992  4.9656901360000001 26.2546367650000008
  9.4844121930000007  5.0311007500000002 24.9939250950000016
 10.8088741299999995  5.5549440380000004 24.9208526610000014
 11.3299264910000002  5.9529790880000002 23.6598834989999993
 12.1827554700000000  7.0937876700000002 23.5863647460000010
 12.4170913699999996  7.7059884070000004 22.3254165650000012
 12.5447835919999999  9.1245546340000008 22.2519626620000004
 12.4232883449999996  9.7688980099999991 20.9908809659999989
 11.1537342069999994 11.6984462740000001 38.0316085819999969
 10.6084213260000002 12.0637645720000002 36.7721137999999996
  9.2537336349999997 12.5042085650000008 36.6992301940000019
  8.5978984829999998 12.5288925169999992 35.4397735599999990
  7.2138423920000001 12.1922502519999991 35.3662757869999993
  6.6425585749999998 11.8692655560000002 34.1067314149999987
  5.6404714580000004 10.8568344119999995 34.0338478090000010
  5.3234024050000004 10.2823648450000000 32.7740249630000022
  5.0012974740000002  8.8948383329999992 32.7004928590000006
  5.0329580309999997  8.2395963670000008 31.4405231480000005
  5.4870691300000001  6.8895359039999997 31.3672866819999996
  5.8578991890000003  6.3485260009999998 30.1069965360000005
  6.9526195529999999  5.4371995929999999 30.0338211060000013
  7.5522603989999997  5.1710767750000004 28.7736186979999999
  8.9623098369999994  4.9698457720000002 28.7000007629999985
  9.6123361589999998  5.0577878949999997 27.4395732879999983
 10.9179601670000004  5.6270542140000002 27.3665542600000009
 11.4249143600000007  6.0428485869999999 26.1058712009999994
 12.2381334299999995  7.2122483250000000 26.0322132109999984
 12.4513721470000007  7.8322758669999999 24.7714805600000005
 12.5299673079999998  9.2544536589999993 24.6982307429999999
 12.3862323760000006  9.8941335680000009 23.4372158050000010
 11.0506696699999996 11.7780914310000000  0.0267581060000000
 10.4932813639999996 12.1247072219999996 39.2153282169999997
  9.1241827010000005 12.5182151790000002 39.1423492429999982
  8.4677896500000003 12.5204639429999993 37.8830070500000033
  7.0961155890000001 12.1362237929999992 37.8096199040000016
  6.5362834930000000 11.7936515810000007 36.5502128600000020
  5.5698513980000000 10.7471256260000008 36.4773254389999977
  5.2727742199999996 10.1620283130000004 35.2178497310000012
  4.9986591340000004  8.7642593380000005 35.1442108150000010
  5.0526881220000002  8.1103143689999992 33.8845977779999998
  5.5530490879999999  6.7767009739999997 33.8115348819999966
  5.9422001839999998  6.2485861780000000 32.5515861510000022
  7.0679998399999997  5.3758816720000002 32.4782333369999989
  7.6763210300000004  5.1306486130000000 31.2183055879999998
  9.0925416949999995  4.9784359929999997 31.1448268890000008
  9.7390804289999995  5.0889744759999997 29.8846454620000017
 11.0243310930000007  5.7028570179999996 29.8115444180000004
 11.5167675020000004  6.1360492710000001 28.5512847900000004
 12.2892379760000008  7.3327574730000000 28.4775886540000016
 12.4810791020000007  7.9597215649999997 27.2170982360000018
 12.5106801989999994  9.3837785720000007 27.1440391540000014
 12.3448753359999994 10.0181074139999993 25.8833007809999991
  8.3379974370000003 12.5070838930000008 40.3259162900000021
  6.9804224970000002 12.0758247379999997 40.2527160639999977
  6.4326715470000000 11.7143020629999999 38.9933166499999970
  5.5028762819999999 10.6351003649999996 38.9203414919999986
  5.2261824609999996 10.0400152210000009 37.6610679630000007
  5.0004916189999999  8.6335582730000002 37.5874404910000024
  5.0771989819999996  7.9819307329999996 36.3280601499999989
  5.6233048439999997  6.6663393969999998 36.2551231380000019
  6.0304369930000004  6.1519536969999997 34.9954566959999980
  7.1856298450000002  5.3185968399999997 34.9219551090000024
  7.8021841050000003  5.0945911410000004 33.6623001099999968
  9.2228021620000007  4.9912357329999999 33.5890388489999978
  9.8651275629999997  5.1240863799999996 32.3290672299999997
 11.1285934449999999  5.7817230220000004 32.2559089659999998
 11.6056022639999998  6.2319450380000001 30.9959812160000006
 12.3362874980000008  7.4546704290000001 30.9223766329999989
 12.5063772199999992  8.0881099699999996 29.6622200010000014
 12.4870491030000004  9.5123634339999992 29.5892925260000013
 12.2993164060000009 10.1406478880000002 28.3288860319999998
  5.1836504940000001  9.9164609909999992 40.1038703919999975
  5.0066733360000004  8.5029888150000001 40.0303497310000012
  5.1059236529999996  7.8542861940000002 38.7710647580000014
  5.6971664430000004  6.5582933429999999 38.6981468199999981
  6.1218585970000001  6.0581626890000004 37.4387245180000008
  7.3051686289999997  5.2650623320000003 37.3651466370000023
  7.9291524889999998  5.0624699590000004 36.1056861880000000
  9.3525648120000007  5.0083122250000001 36.0326576229999986
  9.9900131230000007  5.1632518770000004 34.7729110719999994
 11.2301101679999995  5.8641600609999998 34.6996612550000023
 11.6913194659999995  6.3307385439999999 33.4400138849999990
 12.3792037960000005  7.5780754090000002 33.3665695190000022
 12.5273189540000001  8.2171726229999997 32.1066894530000013
 12.4589214320000004  9.6399612430000001 32.0337409970000024
 12.2498235700000002 10.2617797849999999 30.7737846369999986
  6.2165284160000001  5.9678964609999996 39.8816680910000017
  7.4264717100000004  5.2160124779999997 39.8080558779999976
  8.0570602420000004  5.0348086360000002 38.5487403870000023
  9.4815797810000007  5.0299091340000004 38.4758644099999998
 10.1133403780000002  5.2070016859999999 37.2163085939999974
 11.3283634190000004  5.9504451749999996 37.1429290769999980
 11.7733802799999996  6.4325785639999999 35.8834724430000023
 12.4177293780000007  7.7029337880000002 35.8102340699999999
 12.5436611179999993  8.3468818660000004 34.5505866999999967
 12.4259767530000005  9.7664937970000008 34.4775581359999990
 12.1955680849999997 10.3806800839999998 33.2179183960000017
 10.2352371219999991  5.2547421459999999 39.6593551639999973
 11.4239282610000004  6.0397696500000002 39.5858497620000023
 11.8519592290000002  6.5371799470000003 38.3265342709999999
 12.4523992539999995  7.8288521769999999 38.2535285949999988
 12.5559062959999999  8.4769754410000004 36.9940147399999972
 12.3894100189999996  9.8916988369999999 36.9208831790000005
 12.1376962660000007 10.4978208540000004 35.6615295410000002
 12.5637893680000001  8.6072454450000002 39.4371185299999993
 12.3483572010000007 10.0153751369999995 39.3639564510000000
 12.0758857729999995 10.6125640870000009 38.1046791079999991
 14.2642707820000005  8.9945182799999994 19.8053874970000017
 14.2642707820000005  9.6427612299999996 18.5446205139999982
