Ge Se                                   
    1.000000000000000     
    12.4620674215603096    0.0000048209246086   -0.0000015876109563
     0.0000048293139022   12.4837551413705281    0.0000022468041101
    -0.0000018107157078    0.0000025580928044   11.0414651710252887
   Ge   Se
    36    36
Direct
  0.0850708730815484  0.0130718487272787  0.1264747955450147
  0.2656967648027475  0.8509357775339552  0.3755097388824211
  0.5770117353108475  0.1937021215198911  0.3715357415543181
  0.5898902877507552  0.5115465725006203  0.3717464141763145
  0.5717339267699444  0.8926038274259724  0.3748427600581863
  0.9263086701042695  0.1808833725215280  0.3641007857074072
  0.9078562689040055  0.5318021340571875  0.3592236955677208
  0.9080102581528351  0.8454907416557376  0.3704979767691938
  0.0863430643629073  0.1752645277807900  0.6415502053176780
  0.1006946650922842  0.5021715604653991  0.6168658938258034
  0.0606541045516309  0.8157670489536741  0.6285663233602534
  0.3959791995093980  0.1342737800043778  0.6223280748508699
  0.4169997314315594  0.4927623267056092  0.6345283460347062
  0.4253003348343327  0.8304151817129082  0.6171078063615312
  0.7371995631856763  0.1712724126841678  0.6281915697692142
  0.7276018189959217  0.4705251847482401  0.6476250158835057
  0.2445624552586736  0.5219434703789361  0.3425339121085358
  0.2414364242839255  0.2040786705566049  0.3759711296013322
  0.7472898393701755  0.8366480597416697  0.6212795951345882
  0.8962021031343710  0.6459987666824460  0.8698180103968625
  0.8901181077275169  0.9939356861014872  0.8674367872003970
  0.0608167394794847  0.3668320909850422  0.1346535676889857
  0.0771543230574991  0.6896756979554013  0.1143715684247937
  0.3920186766005784  0.0573369434026176  0.1223680196228685
  0.4243523019059126  0.3703818229859976  0.1176754541717742
  0.7671432712912747  0.0259369011120469  0.1139347897186624
  0.7520945581940452  0.3399583379185955  0.1307690583070382
  0.4345107949516560  0.7064381037128555  0.1270422533799120
  0.2396857058201078  0.3071065749075856  0.8856989989248092
  0.2473048486681435  0.6782454471312249  0.8919608040266880
  0.2370414463932420  0.9798372660349486  0.8716658507209942
  0.5455201943184207  0.3101671378522539  0.8747116339945435
  0.5682514704051158  0.6474444281945182  0.8625594043040721
  0.5975093197543728  0.0004893546872466  0.8880166708082982
  0.9189231617268874  0.3264653249467315  0.8587965178458532
  0.7315117082906326  0.7112965215859930  0.1307670547018205
  0.9032411041451383  0.0213208782196048  0.6416814050275121
  0.2380138014480124  0.3494052506566874  0.6526010440571213
  0.2206609922013811  0.6742607497474182  0.6301311332945616
  0.5559669646571095  0.0175369918303474  0.6619098074259426
  0.5563180743621814  0.3510342908087836  0.6566575079806825
  0.5806511547787991  0.6911116629279235  0.6452242285214638
  0.8879574319633718  0.3188726351462847  0.6365361566444321
  0.7099612880856370  0.0370056830460683  0.3404720573532458
  0.0580400106807630  0.0103730336526340  0.3552542022643337
  0.0718927198273747  0.3403957198904735  0.3600913369083756
  0.0400726743018254  0.6938889807011890  0.3521171262810583
  0.4012154696918842  0.0017239597510468  0.3420692614565368
  0.3682279636177554  0.3527110151380839  0.3612040611337406
  0.3985379805880314  0.6833286282364810  0.3525349741195924
  0.2159099198411738  0.0119641899255996  0.6434238198087883
  0.8864520853270292  0.6860695425097418  0.6427624846665481
  0.8845676486619709  0.8510357691205357  0.1456200572154316
  0.2321553685359561  0.1696689396679574  0.1518172550037846
  0.9093674850178886  0.1743198457089221  0.1357203096147757
  0.7135402456338440  0.3428516792296108  0.3586046728378918
  0.0739138337390912  0.1831498670914229  0.8710341502157348
  0.0517990656226033  0.5105208524146718  0.8418678943828084
  0.0567258276956366  0.8736633256059392  0.8561992192811871
  0.3898733340662943  0.1727762234048669  0.8482929524409926
  0.3892872458731063  0.5158843754659870  0.8530077034047636
  0.3999939311810365  0.8388727988636404  0.8464616104760765
  0.7185908201102222  0.1821729073245635  0.8683587432112745
  0.7178307033546503  0.4990369748851506  0.8670669660129491
  0.7338457979161959  0.8610362915114678  0.8390073877347675
  0.1924505194271688  0.5161030967647946  0.1150417940429591
  0.2213052984153094  0.8420934217720983  0.1467507908844254
  0.5400216398622604  0.1995872228511502  0.1419810754861928
  0.5565791956188022  0.5202234234070957  0.1407351450359613
  0.5737462906204627  0.8441528885382041  0.1447404419455935
  0.8923762651261811  0.5004869003974477  0.1275225801616315
  0.7339493256373828  0.6620541539046627  0.3569559005098739
 
  0.00000000E+00  0.00000000E+00  0.00000000E+00
  0.00000000E+00  0.00000000E+00  0.00000000E+00
  0.00000000E+00  0.00000000E+00  0.00000000E+00
  0.00000000E+00  0.00000000E+00  0.00000000E+00
  0.00000000E+00  0.00000000E+00  0.00000000E+00
  0.00000000E+00  0.00000000E+00  0.00000000E+00
  0.00000000E+00  0.00000000E+00  0.00000000E+00
  0.00000000E+00  0.00000000E+00  0.00000000E+00
  0.00000000E+00  0.00000000E+00  0.00000000E+00
  0.00000000E+00  0.00000000E+00  0.00000000E+00
  0.00000000E+00  0.00000000E+00  0.00000000E+00
  0.00000000E+00  0.00000000E+00  0.00000000E+00
  0.00000000E+00  0.00000000E+00  0.00000000E+00
  0.00000000E+00  0.00000000E+00  0.00000000E+00
  0.00000000E+00  0.00000000E+00  0.00000000E+00
  0.00000000E+00  0.00000000E+00  0.00000000E+00
  0.00000000E+00  0.00000000E+00  0.00000000E+00
  0.00000000E+00  0.00000000E+00  0.00000000E+00
  0.00000000E+00  0.00000000E+00  0.00000000E+00
  0.00000000E+00  0.00000000E+00  0.00000000E+00
  0.00000000E+00  0.00000000E+00  0.00000000E+00
  0.00000000E+00  0.00000000E+00  0.00000000E+00
  0.00000000E+00  0.00000000E+00  0.00000000E+00
  0.00000000E+00  0.00000000E+00  0.00000000E+00
  0.00000000E+00  0.00000000E+00  0.00000000E+00
  0.00000000E+00  0.00000000E+00  0.00000000E+00
  0.00000000E+00  0.00000000E+00  0.00000000E+00
  0.00000000E+00  0.00000000E+00  0.00000000E+00
  0.00000000E+00  0.00000000E+00  0.00000000E+00
  0.00000000E+00  0.00000000E+00  0.00000000E+00
  0.00000000E+00  0.00000000E+00  0.00000000E+00
  0.00000000E+00  0.00000000E+00  0.00000000E+00
  0.00000000E+00  0.00000000E+00  0.00000000E+00
  0.00000000E+00  0.00000000E+00  0.00000000E+00
  0.00000000E+00  0.00000000E+00  0.00000000E+00
  0.00000000E+00  0.00000000E+00  0.00000000E+00
  0.00000000E+00  0.00000000E+00  0.00000000E+00
  0.00000000E+00  0.00000000E+00  0.00000000E+00
  0.00000000E+00  0.00000000E+00  0.00000000E+00
  0.00000000E+00  0.00000000E+00  0.00000000E+00
  0.00000000E+00  0.00000000E+00  0.00000000E+00
  0.00000000E+00  0.00000000E+00  0.00000000E+00
  0.00000000E+00  0.00000000E+00  0.00000000E+00
  0.00000000E+00  0.00000000E+00  0.00000000E+00
  0.00000000E+00  0.00000000E+00  0.00000000E+00
  0.00000000E+00  0.00000000E+00  0.00000000E+00
  0.00000000E+00  0.00000000E+00  0.00000000E+00
  0.00000000E+00  0.00000000E+00  0.00000000E+00
  0.00000000E+00  0.00000000E+00  0.00000000E+00
  0.00000000E+00  0.00000000E+00  0.00000000E+00
  0.00000000E+00  0.00000000E+00  0.00000000E+00
  0.00000000E+00  0.00000000E+00  0.00000000E+00
  0.00000000E+00  0.00000000E+00  0.00000000E+00
  0.00000000E+00  0.00000000E+00  0.00000000E+00
  0.00000000E+00  0.00000000E+00  0.00000000E+00
  0.00000000E+00  0.00000000E+00  0.00000000E+00
  0.00000000E+00  0.00000000E+00  0.00000000E+00
  0.00000000E+00  0.00000000E+00  0.00000000E+00
  0.00000000E+00  0.00000000E+00  0.00000000E+00
  0.00000000E+00  0.00000000E+00  0.00000000E+00
  0.00000000E+00  0.00000000E+00  0.00000000E+00
  0.00000000E+00  0.00000000E+00  0.00000000E+00
  0.00000000E+00  0.00000000E+00  0.00000000E+00
  0.00000000E+00  0.00000000E+00  0.00000000E+00
  0.00000000E+00  0.00000000E+00  0.00000000E+00
  0.00000000E+00  0.00000000E+00  0.00000000E+00
  0.00000000E+00  0.00000000E+00  0.00000000E+00
  0.00000000E+00  0.00000000E+00  0.00000000E+00
  0.00000000E+00  0.00000000E+00  0.00000000E+00
  0.00000000E+00  0.00000000E+00  0.00000000E+00
  0.00000000E+00  0.00000000E+00  0.00000000E+00
  0.00000000E+00  0.00000000E+00  0.00000000E+00
