Ge Se                                   
    1.000000000000000     
     4.2999999999999998    0.0000000000000000    0.0000000000000000
     0.0000000000000000    4.5999999999999988    0.0000000000000000
     0.0000000000000000    0.0000000000000000   11.1422209999999993
   Ge   Se
     4     4
Selective dynamics
Direct
  0.2500000000000000  0.2528248868881846  0.1461613315526478   T   T   T
  0.7500000000000000  0.7528248868881846  0.3538386684473522   T   T   T
  0.7500000000000000  0.7471751131118154  0.8538386684473522   T   T   T
  0.2500000000000000  0.2471751131118154  0.6461613315526478   T   T   T
  0.2500000000000000  0.2532115650879732  0.3689494039826542   T   T   T
  0.7500000000000000  0.7532115650879732  0.1310505960173458   T   T   T
  0.7500000000000000  0.7467884349120268  0.6310505960173458   T   T   T
  0.2500000000000000  0.2467884349120268  0.8689494039826542   T   T   T
 
  0.00000000E+00  0.00000000E+00  0.00000000E+00
  0.00000000E+00  0.00000000E+00  0.00000000E+00
  0.00000000E+00  0.00000000E+00  0.00000000E+00
  0.00000000E+00  0.00000000E+00  0.00000000E+00
  0.00000000E+00  0.00000000E+00  0.00000000E+00
  0.00000000E+00  0.00000000E+00  0.00000000E+00
  0.00000000E+00  0.00000000E+00  0.00000000E+00
  0.00000000E+00  0.00000000E+00  0.00000000E+00
