Ge Se
 1.0000000000000000
     4.6499999999999986    0.0000000000000000    0.0000000000000000
     0.0000000000000000    4.4999999999999991    0.0000000000000000
     0.0000000000000000    0.0000000000000000   11.1422209999999975
 Ge  Se 
   4   4
Selective dynamics
Cartesian
  0.4942717697592042  1.1250000000000000  1.4985342072520378   T   T   T
  2.8192717697592031  3.3749999999999991  4.0725762927479616   T   T   T
  4.1557282302407925  3.3749999999999991  9.6436867927479550   T   T   T
  1.8307282302407943  1.1250000000000000  7.0696447072520359   T   T   T
 -0.2333083137263174  1.1250000000000000  3.9225277761605621   T   T   T
  2.0916916862736818  3.3749999999999991  1.6485827238394375   T   T   T
  4.8833083137263147  3.3749999999999991  7.2196932238394353   T   T   T
  2.5583083137263150  1.1250000000000000  9.4936382761605618   T   T   T
