 C  H                                   
    1.000000000000000     
    32.3722991942999982    0.0000000000000000    0.0000000000000000
     0.0000000000000000   19.9214134216000005    0.0000000000000000
     0.0000000000000000    0.0000000000000000   40.4480476378999967
   C    H 
   364     1
Direct
  0.3709853330931542  0.5383204174464712  0.0024738991801268
  0.3688245139027463  0.5438171241071414  0.0629149988033051
  0.3381054584534798  0.5950108752581212  0.0611137495150620
  0.3205395377606950  0.6114415510973678  0.0299564642617279
  0.2778612411872021  0.6288328580997927  0.0281390288418207
  0.3665366199450579  0.5491724817193945  0.1233543151289254
  0.3347524269910456  0.5986334557631812  0.1215573297095814
  0.3168541388597880  0.6140724961594999  0.0904034607951482
  0.2738272856697073  0.6290568196542727  0.0885812715285919
  0.2536093598123246  0.6269246446045795  0.0574254641519005
  0.2121505594624526  0.6029824303612775  0.0556095152515221
  0.1956334802363373  0.5839204327251455  0.0244477969291282
  0.1680641789497667  0.5281947263861843  0.0226313310436895
  0.3640870260102749  0.5543753084850256  0.1837954677736673
  0.3313007556012782  0.6020798957780926  0.1820051072600440
  0.3130988077151814  0.6164965036952490  0.1508463408286822
  0.2697902826618560  0.6290787510320230  0.1490242436229530
  0.2496321141936194  0.6258007559474383  0.1178655196248606
  0.2087079421745994  0.5995445655970273  0.1160513119379568
  0.1926020513292940  0.5795820991751560  0.0848927176709752
  0.1662280216507406  0.5223426964693592  0.0830665808851769
  0.1589629759081523  0.4916164707328775  0.0519135170095712
  0.1549874108152100  0.4204047846521203  0.0500895454086220
  0.1587383993649988  0.3880403565553111  0.0189367081808996
  0.1783519829087410  0.3240377126328242  0.0171262001425607
  0.3615068240531968  0.5594540101807490  0.2442176221494944
  0.3277933021703249  0.6053619181423004  0.2424472803953109
  0.3092975629400194  0.6187733140686534  0.2112923446338963
  0.2657384025373949  0.6289224314282367  0.2094673434599484
  0.2456734285228369  0.6245029140434248  0.1783151363406784
  0.2053266676685868  0.5959247097592179  0.1764940521115317
  0.1896627975372479  0.5750637956307373  0.1453392141558854
  0.1645194026361647  0.5163802055673414  0.1435054883708266
  0.1579154817677116  0.4852657721019896  0.1123478874872757
  0.1554447385473935  0.4138808508796715  0.1105244325368200
  0.1598762862758445  0.3817532352409051  0.0793654152491649
  0.1808274651040392  0.3188811620619618  0.0775455980591693
  0.1949823520911004  0.2953015343339072  0.0464014479659044
  0.2331266846731531  0.2596549811354347  0.0445777308132738
  0.2527990105313396  0.2516565427479829  0.0134361063589084
  0.2967781666012734  0.2538589508106222  0.0116321780670507
  0.3711168503067084  0.5379610287495863  0.3357236954828245
  0.3590160826148843  0.5645175633192313  0.3046538446471735
  0.3242514317548047  0.6084560728653174  0.3028894825834379
  0.3054825911637035  0.6208315999677972  0.2717826647323381
  0.2616860926546215  0.6284548675122948  0.2699354363563952
  0.2417420632618280  0.6229242702836699  0.2387777638768899
  0.2020357073270525  0.5920906002694987  0.2369405358841294
  0.1868320473182333  0.5703539680641907  0.2057768629103315
  0.1629605003563419  0.5102985988614083  0.2039392868337138
  0.1570075987495774  0.4788458379064981  0.1727805432383288
  0.1560470968644994  0.4073578027380599  0.1709600011821900
  0.1611385393009226  0.3755129662042797  0.1398014053352190
  0.1834070340544668  0.3138403646948114  0.1379714878978813
  0.1980597822280112  0.2910918482834093  0.1068238817160960
  0.2369332052307297  0.2576095251623896  0.1049987731955187
  0.2567679623124039  0.2507271509942687  0.0738534616263751
  0.3006728422769889  0.2553977185467524  0.0720481830147414
  0.3197826780458958  0.2664363502550655  0.0409098249602119
  0.3556546660459924  0.3078488767024297  0.0390930798045961
  0.3683592255301840  0.3335285707293227  0.0079506803785446
  0.3855418249212093  0.3993534277471475  0.0061497569999208
  0.3698708743922685  0.5438029021920295  0.3960987212041729
  0.3566971954880597  0.5692393254470670  0.3652740446488887
  0.3205500590563604  0.6106196346433439  0.3634126516076979
  0.3015759996724932  0.6221325433556510  0.3323031432618495
  0.2576644788030242  0.6274178986790352  0.3304189605211542
  0.2378461764020380  0.6209771795663310  0.2992226666842328
  0.1987898864652721  0.5880563513340588  0.2973695712012799
  0.1840638594974799  0.5655193384527936  0.2662079900678593
  0.1614823121351678  0.5041299245057551  0.2643677704507197
  0.1562314529085116  0.4723635464006820  0.2332173201448349
  0.1568021848159854  0.4008597472467433  0.2314000696849032
  0.1625681471079214  0.3693302283692954  0.2002393997460053
  0.1861176729170603  0.3089418601301351  0.1984051197066025
  0.2012212126098835  0.2870268646137072  0.1672454621983131
  0.2407720786279767  0.2557196803812319  0.1654207200766255
  0.2607382929773682  0.2499684490877581  0.1342749335274443
  0.3045216692205927  0.2570882175293360  0.1324642194506985
  0.3233938730844351  0.2692225802728807  0.1013308204303402
  0.3583704526675265  0.3126043671343413  0.0995187839690889
  0.3705306670794772  0.3390001009510803  0.0683769817236861
  0.3863169799827787  0.4057389217976600  0.0665838135452008
  0.3881558485851055  0.4385595730618410  0.0354369215364344
  0.3800216110359658  0.5088314250482597  0.0336235801278031
  0.3669073586918214  0.5491235027786260  0.4566761637731791
  0.3532769076276758  0.5722702931776359  0.4258362814031696
  0.3163787182786680  0.6114079872906178  0.4238450562754945
  0.2974004277328612  0.6225730216188670  0.3926703145035800
  0.2534772230529926  0.6262309119787474  0.3908132888561096
  0.2338475058432338  0.6189120841422561  0.3596368878907569
  0.1954222183512905  0.5839740481112652  0.3577835058823989
  0.1812991859108549  0.5605335589625255  0.3266329393961619
  0.1600877634844736  0.4978797326290980  0.3247994625727808
  0.1555803725990342  0.4658164900974310  0.2936439247584254
  0.1577105165325061  0.3944134077705417  0.2918328633124309
  0.1641357597078139  0.3632163361327347  0.2606719813457071
  0.1889432257386205  0.3041667413108112  0.2588360937426470
  0.2044837753377008  0.2830947025471552  0.2276782896448125
  0.2446642048220314  0.2539471878046810  0.2258536450452381
  0.2647305049982110  0.2493564017814959  0.1947033813348241
  0.3083319002952855  0.2588968791670590  0.1928852001554545
  0.3269300442412874  0.2721439173023008  0.1617474325650257
  0.3609595933223627  0.3174628178916750  0.1599378390506457
  0.3725722990263715  0.3445444489019334  0.1288051603042537
  0.3869304376947725  0.4121415462534337  0.1270130756051160
  0.3880904075413038  0.4450616242411992  0.0958752194756395
  0.3784794919911787  0.5148430109252388  0.0940654292286695
  0.3649771425794140  0.5543255585308218  0.5172699271864292
  0.3502520671870934  0.5764360179136073  0.4857372918593390
  0.3126071242549333  0.6137288526982385  0.4840612013568552
  0.2932754556144455  0.6234002408183513  0.4530226559742737
  0.2491954517439997  0.6253400512943451  0.4512030496958930
  0.2297723744078705  0.6167773018165073  0.4200710234850409
  0.1921222758618343  0.5797652269878690  0.4182255220935129
  0.1785441964050514  0.5554755621465176  0.3870509213139868
  0.1587920124265200  0.4916085860319166  0.3852330745383122
  0.1550088184094945  0.4592827516264883  0.3540762115485626
  0.1587151390797737  0.3880252116751268  0.3522635539773691
  0.1658232423867951  0.3572070288834059  0.3211171773019181
  0.1918507865936046  0.2995392565634502  0.3192812508875845
  0.2078365318652143  0.2793395574097775  0.2881221570063784
  0.2485859091278071  0.2523869651098543  0.2863056517352695
  0.2687402098063029  0.2488964439050230  0.2551386732967291
  0.3121106109399986  0.2608533474398730  0.2533100046517773
  0.3304144539379463  0.2751326125625380  0.2221737957006434
  0.3634464004581108  0.3224007459804409  0.2203594454054550
  0.3744585320972177  0.3501668536399310  0.1892362713071944
  0.3873533029345912  0.4185365174831001  0.1874374193725615
  0.3878327289113115  0.4515274079064664  0.1563051121741941
  0.3767567411613871  0.5207239763999313  0.1545036698823487
  0.3617373688887812  0.5593473508000955  0.5776511175319571
  0.3478132229171035  0.5825857503886843  0.5462392268243954
  0.3092679121012186  0.6177622999824184  0.5444656796685985
  0.2894397610968643  0.6250332293714723  0.5133804653555034
  0.2454581970994748  0.6239280090415780  0.5116100846291878
  0.2259626778624312  0.6144276692244350  0.4804756350820505
  0.1891306387683455  0.5752793867804173  0.4786606723527172
  0.1759370461067267  0.5503547587427871  0.4475078919642188
  0.1576287621433213  0.4852652400292250  0.4456903823622472
  0.1545777783490446  0.4527449304777059  0.4145393361692954
  0.1598346571562643  0.3817423634561708  0.4127179576625725
  0.1676167279647022  0.3513205579231778  0.3815620411963919
  0.1948136386986964  0.2951336528639221  0.3797322060929666
  0.2112373894233266  0.2757882001324810  0.3485680822925217
  0.2525410154452170  0.2511494896040577  0.3467577292375809
  0.2727512548409870  0.2486875426049196  0.3156006592056500
  0.3158563489605158  0.2631279151315891  0.3137647263879160
  0.3338345879006328  0.2783695666028063  0.2826228690089957
  0.3658015713008470  0.3275027486608147  0.2807877360470679
  0.3761962183370275  0.3558811944991377  0.2496497177269524
  0.3875834017599654  0.4249325663294860  0.2478291973780021
  0.3874005342884141  0.4579356779784555  0.2167184939576344
  0.3748781872566812  0.5265054357000966  0.2149328004468330
  0.3589491388384847  0.5643425259243607  0.6380285535813874
  0.3444219967170932  0.5871889772839067  0.6068415161116109
  0.3055057300621875  0.6206712635529761  0.6049843807981551
  0.2857114885740681  0.6270616109452495  0.5737379342604777
  0.2417565386628557  0.6225937060928015  0.5720047626187781
  0.2224878854945593  0.6117516266928257  0.5409204668716410
  0.1865111091789649  0.5704953517896905  0.5391175910179582
  0.1737556974527363  0.5448207344090038  0.5079789341785637
  0.1568145028789506  0.4788520553486020  0.5061668919876563
  0.1543761017060836  0.4461742599136506  0.4749903307144523
  0.1611346704138301  0.3755412558776746  0.4731707844656958
  0.1694883280968381  0.3455656784908531  0.4420073761295163
  0.1978572438294074  0.2909049301838077  0.4401784350806570
  0.2146626117822362  0.2724784240933806  0.4090387339148215
  0.2565278600404190  0.2504125401786597  0.4072268798626628
  0.2767790028630008  0.2491124781015601  0.3760874504327395
  0.3194580692034599  0.2663718622641064  0.3742672953667796
  0.3371226727029673  0.2822202563822224  0.3430632757803923
  0.3679945864416162  0.3330195598895679  0.3411790721051687
  0.3778472392894137  0.3617270174134985  0.3100524088315910
  0.3877190855141133  0.4314436230635083  0.3081821209390668
  0.3867933253079989  0.4643649253201756  0.2771027843547261
  0.3729129936269600  0.5322163928293439  0.2753566290618328
  0.3562749064625041  0.5692667549141393  0.6984580428130654
  0.3411537210474034  0.5912056957378015  0.6672975978695603
  0.3016376703998006  0.6226005857179545  0.6654493496873465
  0.2817173181229770  0.6283613400021261  0.6342396857143794
  0.2378941508214138  0.6211441024675681  0.6324690257761945
  0.2190417605513618  0.6089403205928434  0.6013384057012812
  0.1840389289827613  0.5655976714922505  0.5995506566579282
  0.1717986250104301  0.5392371164142061  0.5684115979619555
  0.1561499061540701  0.4724113944512923  0.5666091207440270
  0.1543444944495135  0.4396137476553428  0.5354572629005186
  0.1625645265323331  0.3693656169813171  0.5336390856971435
  0.1715756992822163  0.3398979592809951  0.5024843368487895
  0.2010851578653681  0.2869277713519721  0.5006840241414472
  0.2182647885464451  0.2695295493529849  0.4694970067820965
  0.2605148877076207  0.2501328809092764  0.4676791477939231
  0.2808046866015814  0.2502695706326623  0.4365262738780133
  0.3229074854047659  0.2705859770228297  0.4346962686654890
  0.3401178454766192  0.2873498854679603  0.4035391613104913
  0.3697981114388636  0.3400003913028706  0.4016458864865194
  0.3792828282078652  0.3682341539783747  0.3704402544673879
  0.3880351835282257  0.4380886197613574  0.3684772361945763
  0.3862107007219786  0.4709201944614408  0.3373865095551067
  0.3535223243573871  0.5740408482722491  0.7588911097704482
  0.3379360698750816  0.5950986371071125  0.7277296836768268
  0.2977415265619764  0.6241974545493976  0.7259052426788172
  0.2776805295359692  0.6288813022056872  0.6947384223581682
  0.2340710615847067  0.6192495323838066  0.6929353672984095
  0.2155075693397283  0.6060293275358797  0.6617690206838067
  0.1814995593013017  0.5606429283409646  0.6599812350209104
  0.1698874293097236  0.5336050653146873  0.6288422859232434
  0.1555770886402368  0.4659755125516610  0.6270453411492436
  0.1544727247739540  0.4330657202747366  0.5959018531940904
  0.1641423696297263  0.3633290032246174  0.5940837776898771
  0.1737813567351322  0.3343602030394255  0.5629259429139037
  0.2044353924167545  0.2830716013454429  0.5611260995114807
  0.2219432714350546  0.2665994694473843  0.5299580204153751
  0.2646440760084128  0.2493366510283269  0.5281322357366456
  0.2848771366279311  0.2510051062425719  0.4969619385416905
  0.3265129064058337  0.2736003566707231  0.4951440137994179
  0.3433083084014799  0.2928638926897891  0.4639763134360131
  0.3721304245225600  0.3462944344380642  0.4621710321189135
  0.3807943087307146  0.3762511038443557  0.4308157328509518
  0.3906434608578038  0.4449175260009238  0.4285393991338126
  0.3871479835072809  0.4774222355412501  0.3977398813588150
  0.3506369979596891  0.5786293336791625  0.8193279122490313
  0.3346181385551623  0.5987983995280006  0.7881701976223560
  0.2938165387820699  0.6255705055735334  0.7863586607789996
  0.2736604172946157  0.6290865740406465  0.7551981355984259
  0.2302914926724770  0.6170415358515705  0.7533837839518820
  0.2120068452964565  0.6028593174885327  0.7222203668754642
  0.1789768503744539  0.5555861435419075  0.7204264303069683
  0.1679910243562732  0.5278920153938651  0.6892795037470827
  0.1550930727062417  0.4595319988014257  0.6874806379978072
  0.1546725334074666  0.4265788709496788  0.6563320807286913
  0.1657888488012420  0.3573983987863356  0.6545182930994081
  0.1760595781232146  0.3289730181258422  0.6233728399611596
  0.2078033874166389  0.2794470158111265  0.6215793706489492
  0.2256962682692930  0.2639466443668746  0.5904236075392227
  0.2686958831985859  0.2488532354211491  0.5886023744909941
  0.2889029112903481  0.2511929201561225  0.5574125404527922
  0.3302684260480256  0.2754954233420460  0.5556028433937272
  0.3465250388222195  0.2954469092432456  0.5244577454286743
  0.3739567260018744  0.3512307328812055  0.5227500874719881
  0.3823182398525365  0.3823949848124142  0.4916814205867912
  0.3906150765350084  0.4516829420266761  0.4903910471107780
  0.3959794967289240  0.4887866190895929  0.4584446489201602
  0.3476470022122544  0.5830294158171146  0.8797732139505932
  0.3312109746183421  0.6022892262506148  0.8486128872766006
  0.2898643843608999  0.6267393513737106  0.8468056830200813
  0.2696483095593849  0.6291150003265931  0.8156466144293846
  0.2265568130826981  0.6146383047558520  0.8138280383678961
  0.2085753138931185  0.5994332371892463  0.7826742758650419
  0.1765596251528952  0.5503733016355046  0.7808765558351922
  0.1661703612425587  0.5220946799824507  0.7497181229260245
  0.1547217401827929  0.4530536446034193  0.7479169033441847
  0.1549842351207162  0.4201059666073601  0.7167707347966926
  0.1675386465072151  0.3515697482655735  0.7149649721886981
  0.1784182087545347  0.3237445200838794  0.6838183093119071
  0.2112056727189651  0.2760719591706613  0.6820283116355937
  0.2294211876157991  0.2615634864322882  0.6508774988543334
  0.2727181631429680  0.2488684307983696  0.6490675697465224
  0.2928835514549148  0.2520496935171588  0.6179073888766876
  0.3337993865542507  0.2783487498325671  0.6161247400989656
  0.3498400439233830  0.2985567705962798  0.5849662200737850
  0.3761339424980457  0.3557636760237390  0.5832557275215021
  0.3833555536257842  0.3867944085963105  0.5521345419759123
  0.3875784660419172  0.4577727304466572  0.5504499566552983
  0.3852771929215558  0.4903377321491328  0.5192892615013832
  0.3445548556142687  0.5872198604170245  0.9402188420212848
  0.3277217058634976  0.6055631565302998  0.9090585574952210
  0.2858798507602812  0.6276860530416377  0.9072506156086207
  0.2656279887245939  0.6289282361994158  0.8760931509399542
  0.2228736920508745  0.6120358747110659  0.8742736605164759
  0.2052285580410284  0.5958247561971204  0.8431180278964003
  0.1742668040153829  0.5450178856646812  0.8413197552724057
  0.1644609021974326  0.5161884870519576  0.8101638401476953
  0.1544864625814233  0.4465398353984271  0.8083568656482247
  0.1554476122763472  0.4136341587800011  0.7772097399068624
  0.1694423753219935  0.3458461563927034  0.7754111877561356
  0.1808821820858326  0.3186477116487150  0.7442587846216608
  0.2146776048425164  0.2728622243359431  0.7424661328437336
  0.2331922077118458  0.2594211296115346  0.7113238829314754
  0.2767415279133044  0.2492399468910093  0.7095195606855685
  0.2968296966207810  0.2535342369228578  0.6783678120601923
  0.3371581445769306  0.2820725258675885  0.6765799704149373
  0.3528212242437432  0.3028839310536638  0.6454102346606440
  0.3778765386514649  0.3616491121241710  0.6436311188601577
  0.3844585754923315  0.3927806566664312  0.6125067460029638
  0.3868117743931414  0.4642011294745394  0.6107357729193392
  0.3824598102855543  0.4964346260257847  0.5796421763767285
  0.3413736290395757  0.5912106431446698  0.0006671585235954
  0.3241655443013156  0.6086164853839829  0.9695079747418045
  0.2818809616484962  0.6283863574215944  0.9676954782524797
  0.2616131743993118  0.6285064213049084  0.9365385048664978
  0.2192432598945030  0.6092299953716835  0.9347187864128849
  0.2019528086711266  0.5920462676101687  0.9035612316554300
  0.1720915340513517  0.5395274901243975  0.9017599598050123
  0.1629062402528047  0.5101691627070818  0.8706084108422609
  0.1544150359631229  0.4400125641202298  0.8687945944515615
  0.1560646207873016  0.4071825367671560  0.8376452353644858
  0.1714928744310504  0.3402238084277484  0.8358492242590927
  0.1834901349389532  0.3136833695572604  0.8046986999444443
  0.2182529496582040  0.2698465925635908  0.8028998005845585
  0.2370315266394953  0.2574909339986420  0.7717555667276718
  0.2807722272923887  0.2498194335023018  0.7699510511294565
  0.3007416740671442  0.2552809735035274  0.7387988746776678
  0.3404435845390025  0.2860754524888426  0.7369989180239213
  0.3556563863442482  0.3077294630319946  0.7058456082665633
  0.3794869656671548  0.3678395889362704  0.7040315197727713
  0.3853627664090083  0.3992821892856869  0.6728841651346483
  0.3862608981696188  0.4707545269468849  0.6710809829272044
  0.3811155312396219  0.5025983361254749  0.6399349328762240
  0.2576093859586328  0.6278367740474887  0.9969826741908153
  0.2156704143673391  0.6062043896753969  0.9951643314838208
  0.1987568936627216  0.5880730311435711  0.9640055358550982
  0.1700254206848478  0.5339177878808186  0.9621976123637046
  0.1614739479204534  0.5040597594292827  0.9310457826548028
  0.1544806424718421  0.4334720434301492  0.9292273376685478
  0.1568313172069388  0.4007626289276333  0.8980776982326452
  0.1736775483041451  0.3347097401928004  0.8962802450580990
  0.1862336755139102  0.3088713753727144  0.8651321096256079
  0.2219058697574905  0.2670169038140092  0.8633234222022697
  0.2409366712926700  0.2557434063701755  0.8321768666586612
  0.2848165796353908  0.2505428531333294  0.8303716251027260
  0.3046485325818495  0.2571662523387797  0.7992216875574820
  0.3436792715478802  0.2901667924810059  0.7974136892638481
  0.3584072153907554  0.3127151418714642  0.7662635332098864
  0.3809798936654511  0.3740836303045179  0.7644390321676821
  0.3862118248728287  0.4058370944508066  0.7332806272777925
  0.3856337972562885  0.4773333198374600  0.7314679777174029
  0.3798125543790525  0.5088445021700475  0.7003184797366510
  0.1601589286951675  0.4978744201199873  0.9914786843775304
  0.1546703802845571  0.4269311415972498  0.9896562765531254
  0.1577229741486502  0.3943715140133889  0.9585076525828325
  0.1759642397206549  0.3293036619359618  0.9567051351757400
  0.1890704314495412  0.3041885152440145  0.9255581621943106
  0.2256114248326007  0.2643572595342265  0.9237415993209024
  0.2448752635416797  0.2541670689631025  0.8925959454659920
  0.2888425876170721  0.2514357834352308  0.8907917086491699
  0.3085240817553975  0.2591932896902153  0.8596419340849655
  0.3468332290134272  0.2943644336686299  0.8578295092205315
  0.3610746726352123  0.3177554015047265  0.8266795226827433
  0.3823385774130720  0.3803513509624754  0.8248558625857719
  0.3869118541443001  0.4123988273462165  0.7937005589926536
  0.3848251096739575  0.4838242475348010  0.7918865907560858
  0.3783551626392287  0.5150151042486113  0.7607318100290527
  0.1919925041178991  0.2996702793982871  0.9859804185529980
  0.2293560694119452  0.2619069544125410  0.9841592924249504
  0.2488312023960220  0.2527963388721962  0.9530161209115368
  0.2928338523223164  0.2525332033494149  0.9512135039228454
  0.3123442017360740  0.2614097741859837  0.9200653063629308
  0.3498806496318533  0.2987151091059759  0.9182490811141294
  0.3636244343691915  0.3228977189394466  0.8870998058821843
  0.3835417762558719  0.3866525294577714  0.8852840540966068
  0.3874360155307083  0.4189566353891463  0.8541281896481159
  0.3838249889632523  0.4902164259231101  0.8523153154163267
  0.3767158968862498  0.5210363852955427  0.8211582228549336
  0.3161068908870026  0.2638107100972900  0.9804881501621597
  0.3528304633320432  0.3032013948029023  0.9786705987118173
  0.3660548126884846  0.3281548615724306  0.9475238230561139
  0.3846148304694548  0.3929833107032796  0.9457158653502775
  0.3878195398139032  0.4255009247470576  0.9145611611154117
  0.3826974529648563  0.4965177843675936  0.9127483356893655
  0.3749347257507111  0.5269375003994221  0.8815945804747446
  0.3880621995346455  0.4320374391297113  0.9749974562160745
  0.3814278577740631  0.5027208559420840  0.9731844949531788
  0.3730241674232410  0.5326968582994227  0.9420326728641203
  0.4282693663804383  0.5084667136995989  0.4579587061456188
 
  0.00000000E+00  0.00000000E+00  0.00000000E+00
  0.00000000E+00  0.00000000E+00  0.00000000E+00
  0.00000000E+00  0.00000000E+00  0.00000000E+00
  0.00000000E+00  0.00000000E+00  0.00000000E+00
  0.00000000E+00  0.00000000E+00  0.00000000E+00
  0.00000000E+00  0.00000000E+00  0.00000000E+00
  0.00000000E+00  0.00000000E+00  0.00000000E+00
  0.00000000E+00  0.00000000E+00  0.00000000E+00
  0.00000000E+00  0.00000000E+00  0.00000000E+00
  0.00000000E+00  0.00000000E+00  0.00000000E+00
  0.00000000E+00  0.00000000E+00  0.00000000E+00
  0.00000000E+00  0.00000000E+00  0.00000000E+00
  0.00000000E+00  0.00000000E+00  0.00000000E+00
  0.00000000E+00  0.00000000E+00  0.00000000E+00
  0.00000000E+00  0.00000000E+00  0.00000000E+00
  0.00000000E+00  0.00000000E+00  0.00000000E+00
  0.00000000E+00  0.00000000E+00  0.00000000E+00
  0.00000000E+00  0.00000000E+00  0.00000000E+00
  0.00000000E+00  0.00000000E+00  0.00000000E+00
  0.00000000E+00  0.00000000E+00  0.00000000E+00
  0.00000000E+00  0.00000000E+00  0.00000000E+00
  0.00000000E+00  0.00000000E+00  0.00000000E+00
  0.00000000E+00  0.00000000E+00  0.00000000E+00
  0.00000000E+00  0.00000000E+00  0.00000000E+00
  0.00000000E+00  0.00000000E+00  0.00000000E+00
  0.00000000E+00  0.00000000E+00  0.00000000E+00
  0.00000000E+00  0.00000000E+00  0.00000000E+00
  0.00000000E+00  0.00000000E+00  0.00000000E+00
  0.00000000E+00  0.00000000E+00  0.00000000E+00
  0.00000000E+00  0.00000000E+00  0.00000000E+00
  0.00000000E+00  0.00000000E+00  0.00000000E+00
  0.00000000E+00  0.00000000E+00  0.00000000E+00
  0.00000000E+00  0.00000000E+00  0.00000000E+00
  0.00000000E+00  0.00000000E+00  0.00000000E+00
  0.00000000E+00  0.00000000E+00  0.00000000E+00
  0.00000000E+00  0.00000000E+00  0.00000000E+00
  0.00000000E+00  0.00000000E+00  0.00000000E+00
  0.00000000E+00  0.00000000E+00  0.00000000E+00
  0.00000000E+00  0.00000000E+00  0.00000000E+00
  0.00000000E+00  0.00000000E+00  0.00000000E+00
  0.00000000E+00  0.00000000E+00  0.00000000E+00
  0.00000000E+00  0.00000000E+00  0.00000000E+00
  0.00000000E+00  0.00000000E+00  0.00000000E+00
  0.00000000E+00  0.00000000E+00  0.00000000E+00
  0.00000000E+00  0.00000000E+00  0.00000000E+00
  0.00000000E+00  0.00000000E+00  0.00000000E+00
  0.00000000E+00  0.00000000E+00  0.00000000E+00
  0.00000000E+00  0.00000000E+00  0.00000000E+00
  0.00000000E+00  0.00000000E+00  0.00000000E+00
  0.00000000E+00  0.00000000E+00  0.00000000E+00
  0.00000000E+00  0.00000000E+00  0.00000000E+00
  0.00000000E+00  0.00000000E+00  0.00000000E+00
  0.00000000E+00  0.00000000E+00  0.00000000E+00
  0.00000000E+00  0.00000000E+00  0.00000000E+00
  0.00000000E+00  0.00000000E+00  0.00000000E+00
  0.00000000E+00  0.00000000E+00  0.00000000E+00
  0.00000000E+00  0.00000000E+00  0.00000000E+00
  0.00000000E+00  0.00000000E+00  0.00000000E+00
  0.00000000E+00  0.00000000E+00  0.00000000E+00
  0.00000000E+00  0.00000000E+00  0.00000000E+00
  0.00000000E+00  0.00000000E+00  0.00000000E+00
  0.00000000E+00  0.00000000E+00  0.00000000E+00
  0.00000000E+00  0.00000000E+00  0.00000000E+00
  0.00000000E+00  0.00000000E+00  0.00000000E+00
  0.00000000E+00  0.00000000E+00  0.00000000E+00
  0.00000000E+00  0.00000000E+00  0.00000000E+00
  0.00000000E+00  0.00000000E+00  0.00000000E+00
  0.00000000E+00  0.00000000E+00  0.00000000E+00
  0.00000000E+00  0.00000000E+00  0.00000000E+00
  0.00000000E+00  0.00000000E+00  0.00000000E+00
  0.00000000E+00  0.00000000E+00  0.00000000E+00
  0.00000000E+00  0.00000000E+00  0.00000000E+00
  0.00000000E+00  0.00000000E+00  0.00000000E+00
  0.00000000E+00  0.00000000E+00  0.00000000E+00
  0.00000000E+00  0.00000000E+00  0.00000000E+00
  0.00000000E+00  0.00000000E+00  0.00000000E+00
  0.00000000E+00  0.00000000E+00  0.00000000E+00
  0.00000000E+00  0.00000000E+00  0.00000000E+00
  0.00000000E+00  0.00000000E+00  0.00000000E+00
  0.00000000E+00  0.00000000E+00  0.00000000E+00
  0.00000000E+00  0.00000000E+00  0.00000000E+00
  0.00000000E+00  0.00000000E+00  0.00000000E+00
  0.00000000E+00  0.00000000E+00  0.00000000E+00
  0.00000000E+00  0.00000000E+00  0.00000000E+00
  0.00000000E+00  0.00000000E+00  0.00000000E+00
  0.00000000E+00  0.00000000E+00  0.00000000E+00
  0.00000000E+00  0.00000000E+00  0.00000000E+00
  0.00000000E+00  0.00000000E+00  0.00000000E+00
  0.00000000E+00  0.00000000E+00  0.00000000E+00
  0.00000000E+00  0.00000000E+00  0.00000000E+00
  0.00000000E+00  0.00000000E+00  0.00000000E+00
  0.00000000E+00  0.00000000E+00  0.00000000E+00
  0.00000000E+00  0.00000000E+00  0.00000000E+00
  0.00000000E+00  0.00000000E+00  0.00000000E+00
  0.00000000E+00  0.00000000E+00  0.00000000E+00
  0.00000000E+00  0.00000000E+00  0.00000000E+00
  0.00000000E+00  0.00000000E+00  0.00000000E+00
  0.00000000E+00  0.00000000E+00  0.00000000E+00
  0.00000000E+00  0.00000000E+00  0.00000000E+00
  0.00000000E+00  0.00000000E+00  0.00000000E+00
  0.00000000E+00  0.00000000E+00  0.00000000E+00
  0.00000000E+00  0.00000000E+00  0.00000000E+00
  0.00000000E+00  0.00000000E+00  0.00000000E+00
  0.00000000E+00  0.00000000E+00  0.00000000E+00
  0.00000000E+00  0.00000000E+00  0.00000000E+00
  0.00000000E+00  0.00000000E+00  0.00000000E+00
  0.00000000E+00  0.00000000E+00  0.00000000E+00
  0.00000000E+00  0.00000000E+00  0.00000000E+00
  0.00000000E+00  0.00000000E+00  0.00000000E+00
  0.00000000E+00  0.00000000E+00  0.00000000E+00
  0.00000000E+00  0.00000000E+00  0.00000000E+00
  0.00000000E+00  0.00000000E+00  0.00000000E+00
  0.00000000E+00  0.00000000E+00  0.00000000E+00
  0.00000000E+00  0.00000000E+00  0.00000000E+00
  0.00000000E+00  0.00000000E+00  0.00000000E+00
  0.00000000E+00  0.00000000E+00  0.00000000E+00
  0.00000000E+00  0.00000000E+00  0.00000000E+00
  0.00000000E+00  0.00000000E+00  0.00000000E+00
  0.00000000E+00  0.00000000E+00  0.00000000E+00
  0.00000000E+00  0.00000000E+00  0.00000000E+00
  0.00000000E+00  0.00000000E+00  0.00000000E+00
  0.00000000E+00  0.00000000E+00  0.00000000E+00
  0.00000000E+00  0.00000000E+00  0.00000000E+00
  0.00000000E+00  0.00000000E+00  0.00000000E+00
  0.00000000E+00  0.00000000E+00  0.00000000E+00
  0.00000000E+00  0.00000000E+00  0.00000000E+00
  0.00000000E+00  0.00000000E+00  0.00000000E+00
  0.00000000E+00  0.00000000E+00  0.00000000E+00
  0.00000000E+00  0.00000000E+00  0.00000000E+00
  0.00000000E+00  0.00000000E+00  0.00000000E+00
  0.00000000E+00  0.00000000E+00  0.00000000E+00
  0.00000000E+00  0.00000000E+00  0.00000000E+00
  0.00000000E+00  0.00000000E+00  0.00000000E+00
  0.00000000E+00  0.00000000E+00  0.00000000E+00
  0.00000000E+00  0.00000000E+00  0.00000000E+00
  0.00000000E+00  0.00000000E+00  0.00000000E+00
  0.00000000E+00  0.00000000E+00  0.00000000E+00
  0.00000000E+00  0.00000000E+00  0.00000000E+00
  0.00000000E+00  0.00000000E+00  0.00000000E+00
  0.00000000E+00  0.00000000E+00  0.00000000E+00
  0.00000000E+00  0.00000000E+00  0.00000000E+00
  0.00000000E+00  0.00000000E+00  0.00000000E+00
  0.00000000E+00  0.00000000E+00  0.00000000E+00
  0.00000000E+00  0.00000000E+00  0.00000000E+00
  0.00000000E+00  0.00000000E+00  0.00000000E+00
  0.00000000E+00  0.00000000E+00  0.00000000E+00
  0.00000000E+00  0.00000000E+00  0.00000000E+00
  0.00000000E+00  0.00000000E+00  0.00000000E+00
  0.00000000E+00  0.00000000E+00  0.00000000E+00
  0.00000000E+00  0.00000000E+00  0.00000000E+00
  0.00000000E+00  0.00000000E+00  0.00000000E+00