 C  H                                   
    1.000000000000000     
    32.3722991942999982    0.0000000000000000    0.0000000000000000
     0.0000000000000000   19.9214134216000005    0.0000000000000000
     0.0000000000000000    0.0000000000000000   40.4480476378999967
   C    H 
   364     1
Direct
  0.3709779750456117  0.5383399814321832  0.0024684111020367
  0.3688194371898007  0.5438513691969766  0.0628996612885661
  0.3380897523923325  0.5950280267231410  0.0610984839976781
  0.3205179310585739  0.6114445754977260  0.0299466550903368
  0.2778370995691168  0.6288186626071360  0.0281310953953394
  0.3665470633291136  0.5492281778954752  0.1233325422492958
  0.3347461767447827  0.5986578590217083  0.1215355404048557
  0.3168375596631651  0.6140836322288221  0.0903861942992392
  0.2738073947780529  0.6290481610950297  0.0885638453028941
  0.2535855180534977  0.6269053415656038  0.0574139031764055
  0.2121293512176105  0.6029488221617804  0.0555992510461130
  0.1956117160287597  0.5838746647784666  0.0244428151296500
  0.1680503960936742  0.5281373448738875  0.0226286720093935
  0.3641304725299659  0.5544401225731092  0.1837786414650430
  0.3313102764881177  0.6020849623757646  0.1819815030452176
  0.3130936206274654  0.6164963521467531  0.1508242862386384
  0.2697816249645695  0.6290601591612458  0.1490020154900917
  0.2496162915098215  0.6257850471638066  0.1178468715033907
  0.2086919783639802  0.5995235346773720  0.1160330461086714
  0.1925843666253832  0.5795474877375436  0.0848800976931406
  0.1662184658522859  0.5222971409981619  0.0830554541945161
  0.1589569847809196  0.4915560741212273  0.0519076643001329
  0.1549970621074153  0.4203410292323682  0.0500858088123625
  0.1587531485691853  0.3879714212915321  0.0189368260082402
  0.1783807741983752  0.3239789273900483  0.0171274553337801
  0.3615611463914287  0.5594982842747533  0.2442143210331998
  0.3278119671155228  0.6053469338254385  0.2424220562045680
  0.3093053908204598  0.6187413044686206  0.2112670383365415
  0.2657437474866134  0.6288846883781650  0.2094374489982940
  0.2456691075506647  0.6244780291692398  0.1782885096379896
  0.2053169896567979  0.5959175997307393  0.1764714189509502
  0.1896489354298904  0.5750489424354037  0.1453192913014300
  0.1645111204738019  0.5163568606675217  0.1434872704893749
  0.1579136596673072  0.4852238190645434  0.1123355432155679
  0.1554604879643721  0.4138361357248358  0.1105135305002069
  0.1598988799442907  0.3816970398615984  0.0793597771411437
  0.1808648905691334  0.3188362867314039  0.0775422909966670
  0.1950214182785353  0.2952536153246597  0.0464009171847816
  0.2331723649646217  0.2596220491403894  0.0445777753631733
  0.2528424810419003  0.2516260942948382  0.0134371335655012
  0.2968221118438835  0.2538430644963100  0.0116325912941390
  0.3709455856553812  0.5379004982027936  0.3357567953472108
  0.3589899200053940  0.5645345829471432  0.3046583570760507
  0.3242602953887307  0.6085497587533427  0.3028606998392233
  0.3054946561237884  0.6208493720869068  0.2717458358338061
  0.2616979015452159  0.6284705242598218  0.2698924517296203
  0.2417480670062762  0.6229061501366004  0.2387434232763363
  0.2020330353848659  0.5920961236234814  0.2369137300314402
  0.1868205501598973  0.5703584011010804  0.2057524624004549
  0.1629478171834170  0.5103049104238608  0.2039187935117568
  0.1570027804690388  0.4788330951994190  0.1727625030367452
  0.1560583622148984  0.4073451412590778  0.1709419109430113
  0.1611636061933663  0.3754844192660161  0.1397894922681688
  0.1834471635289950  0.3138256189885222  0.1379607609335686
  0.1981073033189036  0.2910666814367905  0.1068180020422498
  0.2369874198797627  0.2576014982457250  0.1049941383377698
  0.2568210924819531  0.2507112158446893  0.0738507895918004
  0.3007265347901610  0.2553969607292689  0.0720445597081653
  0.3198304346379867  0.2664335264351496  0.0409066226429490
  0.3556960475724708  0.3078622114771373  0.0390885081510694
  0.3683935463518052  0.3335419353305714  0.0079476853639892
  0.3855633631771834  0.3993755942129248  0.0061459065590249
  0.3694577901347397  0.5437154282420786  0.3961250924889305
  0.3565221972288462  0.5693072859143058  0.3652729439548578
  0.3205422556356227  0.6110575049050549  0.3633798870096557
  0.3015856947302141  0.6224271431325454  0.3322525421473317
  0.2576722098303527  0.6276469600603022  0.3303680824394802
  0.2378581303739710  0.6210485471989540  0.2991812934477878
  0.1988151226173506  0.5880836937837757  0.2973417739394103
  0.1840698430001387  0.5655384881557595  0.2661859377694508
  0.1614758204573803  0.5041612366465047  0.2643509009304643
  0.1562181040050740  0.4723831717945117  0.2331982500817378
  0.1567947070708255  0.4008824233611379  0.2313802706969144
  0.1625784712993260  0.3693389409683021  0.2002228464423393
  0.1861457634450646  0.3089673503840322  0.1983864646205386
  0.2012661216497073  0.2870418352116207  0.1672344603129559
  0.2408274034141443  0.2557675222796947  0.1654083482184775
  0.2607989657020962  0.2499957070910709  0.1342673543048427
  0.3045826040121018  0.2571382516357540  0.1324559802004681
  0.3234516290678988  0.2692503992589687  0.1013229277801652
  0.3584213580115732  0.3126490691213743  0.0995083615972053
  0.3705718216925752  0.3390343930276138  0.0683668374905594
  0.3863432359127229  0.4057813991951058  0.0665713653725952
  0.3881712679180854  0.4385942173454628  0.0354272993943054
  0.3800217454253565  0.5088606021837055  0.0336131294901306
  0.3665661509070952  0.5492243688422557  0.4566731329412521
  0.3530773385930839  0.5725872039792128  0.4258367099452720
  0.3163871424341869  0.6122567316836097  0.4238289593650678
  0.2974187279832109  0.6232935718393101  0.3926328491879889
  0.2534892247529651  0.6267407546240249  0.3907753538884162
  0.2338754714998894  0.6191538159952886  0.3595997185670141
  0.1955168456185649  0.5840233189775316  0.3577619728823737
  0.1813654709113428  0.5605584788607930  0.3266201228727345
  0.1601288601056946  0.4979226867837642  0.3247900760382055
  0.1555784432811549  0.4658642899037876  0.2936322439841286
  0.1576935257766575  0.3944583411326268  0.2918188020545732
  0.1641246311178626  0.3632564353857456  0.2606545282020816
  0.1889558115454955  0.3042369615697850  0.2588138925165466
  0.2045132814955784  0.2831644903949338  0.2276604455542866
  0.2447089536465054  0.2540822919642142  0.2258277845059640
  0.2647872463983441  0.2494711968713987  0.1946864181525076
  0.3083850429918875  0.2590459518025502  0.1928654523323446
  0.3269903243700171  0.2722474831160274  0.1617309730002396
  0.3610218058944679  0.3175629721454901  0.1599225955194609
  0.3726273646876068  0.3446179689001735  0.1287867986707062
  0.3869786340556991  0.4122174333905574  0.1269955134422658
  0.3881168004692500  0.4451220196888829  0.0958562512680918
  0.3784887318645862  0.5148945815479247  0.0940463586999181
  0.3646032794045623  0.5542842767193579  0.5172443028599619
  0.3500716097743634  0.5768048077723678  0.4857308875175196
  0.3126183143237371  0.6146289621023844  0.4840632268587524
  0.2933043204290391  0.6243977470605534  0.4530150268435192
  0.2492114235576688  0.6259965229848212  0.4511928890717609
  0.2298227816579388  0.6171666286996085  0.4200521701379545
  0.1922947633767267  0.5798259035913745  0.4182147201025302
  0.1787058795359351  0.5554936011419003  0.3870458216739538
  0.1589140255022698  0.4916556520694367  0.3852297917214586
  0.1550589413806563  0.4593433302515606  0.3540731192983706
  0.1587304978083538  0.3880779300577510  0.3522572792680215
  0.1658224120056403  0.3572628875400287  0.3211040675887270
  0.1918823881187270  0.2996433352201081  0.3192615154595371
  0.2078637371789224  0.2794564981329464  0.2880977921076474
  0.2486198865936044  0.2525593383251332  0.2862644386291768
  0.2687826194410188  0.2490876581291875  0.2551048874259667
  0.3121466516393166  0.2610496047502671  0.2532673207185434
  0.3304652386164232  0.2753219788212042  0.2221435856968179
  0.3635231925230110  0.3225387938910344  0.2203365191250309
  0.3745397823975868  0.3502828534052063  0.1892133007235968
  0.3874541986425393  0.4186437592215438  0.1874208469336123
  0.3878991409987403  0.4516191384064733  0.1562832989389708
  0.3767985708416399  0.5208030593072844  0.1544822434128013
  0.3615960034308422  0.5593187572098242  0.5776253842574947
  0.3476762619009455  0.5827466055031990  0.5462451297290875
  0.3092663177781623  0.6183107245592475  0.5444951559487317
  0.2894562567085062  0.6258177057491894  0.5134058285145291
  0.2454766110884198  0.6244376265440821  0.5116302632348239
  0.2260253205604110  0.6148042425141673  0.4804774863184902
  0.1893246164312308  0.5753338061230033  0.4786583694631991
  0.1761595478985469  0.5503677580798123  0.4475032568225112
  0.1578006334689701  0.4853157930371749  0.4456863703282839
  0.1546886084470886  0.4528081151524921  0.4145376572774466
  0.1599088661368458  0.3817950667793243  0.4127138267002303
  0.1676750586985596  0.3513823809966351  0.3815544431982194
  0.1949089567192818  0.2952488809533548  0.3797181428773028
  0.2112999264282924  0.2759108623662687  0.3485406451499964
  0.2525768690124591  0.2511838779793837  0.3467083971528936
  0.2727810121021531  0.2487722951455448  0.3155449832200066
  0.3158946717305500  0.2630856552219796  0.3136943485986407
  0.3338826004030694  0.2784681581719677  0.2825725381465018
  0.3658825334732073  0.3275427170090635  0.2807562927336439
  0.3762993759298993  0.3559784588993010  0.2496314084679611
  0.3877174469771508  0.4250254788469463  0.2478294707807521
  0.3875242921391254  0.4580396314625361  0.2167112208131268
  0.3749592086560811  0.5265937426193602  0.2149210912164584
  0.3589806163317490  0.5643705057725356  0.6380229353659180
  0.3444125536085278  0.5872446927633505  0.6068500375693032
  0.3055242010300690  0.6208269433377744  0.6050195987535766
  0.2857211131467561  0.6274302586539727  0.5737855123898149
  0.2417732332157025  0.6228368031864771  0.5720424509302121
  0.2225406067760698  0.6119827773582729  0.5409401559239403
  0.1866507249286834  0.5705350508686285  0.5391232210735030
  0.1739527597248525  0.5448399529411160  0.5079728915961372
  0.1569589476554989  0.4789066949353578  0.5061599978457533
  0.1544993333280164  0.4462390244841009  0.4749840463689677
  0.1612282333402171  0.3755951247212170  0.4731643056991826
  0.1696037247465937  0.3456314542805325  0.4420011044028301
  0.1980045902342591  0.2910186904235736  0.4401699827721241
  0.2147790405415757  0.2725619470427454  0.4090168100985023
  0.2565784982411115  0.2501723155275536  0.4071900977320027
  0.2768121738369853  0.2488261378280497  0.3760279182968945
  0.3195422499985314  0.2657473036538944  0.3741924048258771
  0.3371968582759776  0.2818794499169222  0.3430035774652629
  0.3680217701772629  0.3327632199409092  0.3411446594954808
  0.3778917839595067  0.3616712925710856  0.3100518749587714
  0.3877031756562107  0.4314259851053235  0.3082112739123264
  0.3868722616509104  0.4644119743324647  0.2771273603253405
  0.3729503167607827  0.5322558765029939  0.2753692865395950
  0.3563310322768563  0.5693117552581205  0.6984730862952030
  0.3411981009922070  0.5912221885095152  0.6673100014404303
  0.3016646999391656  0.6225746269550855  0.6654813799854046
  0.2817389255897994  0.6284035185558594  0.6342807214186268
  0.2379173309830235  0.6211782103687330  0.6325051622250586
  0.2190747214404171  0.6090162651286330  0.6013656636846935
  0.1840965993487878  0.5656277793238756  0.5995638650197800
  0.1719048038170186  0.5392683585188998  0.5684101373571048
  0.1562107121582204  0.4724682699796458  0.5666061068048280
  0.1544143247297223  0.4396804763095584  0.5354501759030114
  0.1626134397699366  0.3694216993393166  0.5336336712591205
  0.1716758782915970  0.3399669973103291  0.5024796252117164
  0.2012121347273606  0.2870388046571571  0.5006829202773967
  0.2183932653195213  0.2695793240373124  0.4694934296586699
  0.2605698333542715  0.2497336587561851  0.4676785228472511
  0.2808523580435570  0.2496067451343608  0.4365017327360988
  0.3230490583343041  0.2694473815732786  0.4346642061649327
  0.3402367564979322  0.2863924887733669  0.4034977155920428
  0.3697003612516611  0.3393641862974477  0.4016187387400940
  0.3791075083631950  0.3679211176763576  0.3704561045792285
  0.3875598273246939  0.4378739801390053  0.3685201430263115
  0.3859687348841047  0.4708088378449350  0.3374394264428932
  0.3535450802489016  0.5740768297233303  0.7589143703370985
  0.3379644465474499  0.5951129258450871  0.7277492291681779
  0.2977558297429084  0.6241660885543522  0.7259327129457289
  0.2777009942674475  0.6288348072575568  0.6947681629834670
  0.2340886461043752  0.6192268116877229  0.6929641187799639
  0.2155269786815894  0.6060305969227376  0.6617965826261227
  0.1815066740948175  0.5606703949252223  0.6599998169526277
  0.1699112598935696  0.5336439509681192  0.6288518364957145
  0.1555736181082909  0.4660288496304975  0.6270529438268976
  0.1544752468852894  0.4331309485768129  0.5959039998496022
  0.1641335676146690  0.3633871347297548  0.5940881437814295
  0.1738114490537312  0.3344302844903188  0.5629295800768377
  0.2044890584215278  0.2831849581875649  0.5611385489808485
  0.2220215004155726  0.2666674422511363  0.5299762907353434
  0.2646710278943291  0.2490758716454954  0.5281700771410861
  0.2849176410461762  0.2503426773922346  0.4969900051724141
  0.3266472990203225  0.2725099038456615  0.4951785900405945
  0.3434381411671488  0.2916582451474558  0.4639776611401308
  0.3719442045319701  0.3455113791741826  0.4621707473547306
  0.3803710234047272  0.3756998294694253  0.4308226886898419
  0.3896990597467226  0.4445102091445649  0.4285594418463089
  0.3863753293247995  0.4771179273695609  0.3977917207659681
  0.3506337955528231  0.5786488505426026  0.8193507352496872
  0.3346192654959647  0.5988132774419386  0.7881934407564187
  0.2938130025124174  0.6255657049135076  0.7863834693150270
  0.2736651279009751  0.6290659322483649  0.7552239462405650
  0.2302943502708935  0.6170331628249979  0.7534084531009428
  0.2120124873271519  0.6028576580189134  0.7222469339053449
  0.1789700047415241  0.5556081684684775  0.7204487700367921
  0.1679827926257268  0.5279265316215563  0.6892995525130240
  0.1550779308471215  0.4595737615544043  0.6874991773858775
  0.1546515920873540  0.4266322394844410  0.6563466403122478
  0.1657673460888625  0.3574540680668194  0.6545355435554800
  0.1760437411758799  0.3290424280475885  0.6233877428140447
  0.2078079159166688  0.2795610897353722  0.6216031563971007
  0.2257154456887192  0.2640601203473333  0.5904529679316322
  0.2686955742881743  0.2488633620462306  0.5886555781036374
  0.2889157007150271  0.2508969544019222  0.5574729165771047
  0.3303373135629832  0.2749341118181099  0.5556734593683658
  0.3466161088088029  0.2945768501106295  0.5244976862171931
  0.3737967778084284  0.3506701323561968  0.5227680785277476
  0.3818545093385755  0.3818583498706979  0.4916694383126525
  0.3896553018348616  0.4512491056280281  0.4903665817507891
  0.3951134142185430  0.4882736855500872  0.4584490330713221
  0.3476343185453022  0.5830364996468087  0.8797898073845063
  0.3311979733902886  0.6022953575147489  0.8486322878427917
  0.2898492226798324  0.6267351559113195  0.8468272729687285
  0.2696378980107091  0.6291097259687785  0.8156686901560890
  0.2265460555800390  0.6146313128903496  0.8138517358744188
  0.2085693666458631  0.5994328232443826  0.7826985343386926
  0.1765516517426977  0.5503753758990173  0.7809003182175679
  0.1661620440383233  0.5221107130871558  0.7497412911846799
  0.1547197262656969  0.4530687540776703  0.7479398551701082
  0.1549778979997080  0.4201374581863759  0.7167911773687289
  0.1675410777196641  0.3516089540979380  0.7149880501769009
  0.1784100018837382  0.3238045088871327  0.6838384615208700
  0.2112128698143031  0.2761647459178889  0.6820539807676544
  0.2294254204928367  0.2616922858169663  0.6509051354375593
  0.2727199003526238  0.2490306663805529  0.6491108890270519
  0.2928833662254930  0.2521186093597301  0.6179608255988831
  0.3338158134374416  0.2783155552383229  0.6161844212816679
  0.3498810996707665  0.2982797331367540  0.5850118224863530
  0.3760994703415219  0.3555727261731360  0.5832668498979112
  0.3831021572059661  0.3865165673327893  0.5521029308017017
  0.3870640004253207  0.4575215819711146  0.5503970373532435
  0.3845056584151153  0.4899908615312854  0.5192345769709455
  0.3445396315539659  0.5872211575625618  0.9402255503818482
  0.3277031804462084  0.6055610074906256  0.9090706931815766
  0.2858592319787437  0.6276717985431183  0.9072634326191814
  0.2656084647067359  0.6289143179001704  0.8761100352935778
  0.2228555487645868  0.6120140854459946  0.8742917311220496
  0.2052140995882404  0.5958079950827678  0.8431374146541988
  0.1742567699301862  0.5449943398788732  0.8413399651191987
  0.1644554939475945  0.5161753101530164  0.8101842570075275
  0.1544926982659613  0.4465225855305330  0.8083768333992326
  0.1554580317857548  0.4136341776136903  0.7772288997151995
  0.1694662712197623  0.3458557911536609  0.7754309399326846
  0.1809024027107094  0.3186806569853570  0.7442768066095680
  0.2147068956557285  0.2729152092521709  0.7424861128054435
  0.2332151258326329  0.2595152479791295  0.7113438549162315
  0.2767662249857296  0.2493817161167754  0.7095455397692423
  0.2968436615333381  0.2537141073885249  0.6783999564327926
  0.3371727554809392  0.2822317432075848  0.6766135340345132
  0.3528461149876839  0.3029678179072337  0.6454445212830640
  0.3779352240425087  0.3616899157704168  0.6436393531754580
  0.3844539530654498  0.3927383442266550  0.6124853614297319
  0.3867591279848708  0.4641713983136930  0.6106931057231549
  0.3822060999555029  0.4962969363199772  0.5795870503101718
  0.3413565917235023  0.5912158379379377  0.0006626601923002
  0.3241442996296327  0.6086128468515531  0.9695089767854709
  0.2818572072735496  0.6283680406225121  0.9676983363283036
  0.2615885997909147  0.6284830502170886  0.9365467034901077
  0.2192205537466399  0.6091957221729017  0.9347278968307206
  0.2019327162568443  0.5920107761490259  0.9035745304887072
  0.1720778140748854  0.5394823049537226  0.9017732317881016
  0.1628985929653895  0.5101278476436495  0.8706236245568320
  0.1544204684173599  0.4399674119692864  0.8688089964560193
  0.1560789772675372  0.4071500913644800  0.8376601421226851
  0.1715217151264696  0.3401998690820689  0.8358624781605511
  0.1835247050093145  0.3136811784936211  0.8047127129559826
  0.2182942666286051  0.2698587753828287  0.8029125986589736
  0.2370732300585197  0.2575324326233940  0.7717686643623296
  0.2808160402188734  0.2498826757517599  0.7699648057702635
  0.3007790369588702  0.2553968145699945  0.7388168333025908
  0.3404800442828259  0.2861952076407781  0.7370163452249663
  0.3556925471540279  0.3078714596267014  0.7058684875766873
  0.3795604800459650  0.3679415609321563  0.7040430185746945
  0.3854539113243438  0.3993590727614613  0.6728852829413554
  0.3863699394715434  0.4708377016527677  0.6710710792914346
  0.3811714245708560  0.5026309840679030  0.6399069741562602
  0.2575830029405040  0.6278117934263134  0.9969800111053176
  0.2156466593193969  0.6061658106186170  0.9951638377680114
  0.1987339812539024  0.5880273582760939  0.9640098540151508
  0.1700102091685738  0.5338610241202225  0.9622029351026935
  0.1614639095005838  0.5040007888296885  0.9310545318971181
  0.1544837115861151  0.4334087823345165  0.9292355169031772
  0.1568430187632975  0.4007063507103768  0.8980875552489519
  0.1737026472846296  0.3346620038964053  0.8962889259637212
  0.1862670745583212  0.3088395053303348  0.8651416723634131
  0.2219464198563201  0.2669983426755243  0.8633311615368522
  0.2409816211225647  0.2557440032638807  0.8321860770357972
  0.2848630178887082  0.2505520893728616  0.8303810856268729
  0.3046966517032698  0.2572037503312114  0.7992328205787164
  0.3437268034323608  0.2902125436531597  0.7974266412595247
  0.3584547042734048  0.3127945096496081  0.7662814059571397
  0.3810347759442961  0.3741565371558607  0.7644548037501121
  0.3862876292158330  0.4059223082980999  0.7332979542671092
  0.3857158319550084  0.4774199189709467  0.7314817088084640
  0.3799101983915868  0.5089262647411742  0.7003217901072900
  0.1601492788662338  0.4978088476623174  0.9914801286177489
  0.1546744971819136  0.4268612809429844  0.9896591502711550
  0.1577336786877125  0.3943034404395799  0.9585127950951549
  0.1759884622468581  0.3292438441235263  0.9567102135059364
  0.1891001943343766  0.3041387281740039  0.9255641473846357
  0.2256479916386294  0.2643219548306970  0.9237471632130939
  0.2449155843539190  0.2541444977903227  0.8926027223122114
  0.2888843541751380  0.2514234095087862  0.8907981391950396
  0.3085690819823371  0.2591930020131574  0.8596509903923091
  0.3468762458198031  0.2943738552658231  0.8578401140829116
  0.3611195626172401  0.3177839559021096  0.8266936274702751
  0.3823746244925739  0.3803888985496744  0.8248724080898512
  0.3869537492942638  0.4124544063195691  0.7937215437412982
  0.3848557397437090  0.4838777538534202  0.7919070003411333
  0.3784005610777046  0.5150784118633314  0.7607524710480631
  0.1920240671728926  0.2996157463609567  0.9859834267268782
  0.2293943211886397  0.2618672335455179  0.9841623546924927
  0.2488698530251946  0.2527644605981005  0.9530200252527407
  0.2928730116426534  0.2525147664371519  0.9512175205561175
  0.3123839663712329  0.2613987782076833  0.9200712638598408
  0.3499168601601790  0.2987152859421447  0.9182558183636492
  0.3636610248377650  0.3229075371155343  0.8871102416994835
  0.3835673611630936  0.3866716135941042  0.8852962657271425
  0.3874593651919947  0.4189880008290249  0.8541446683105045
  0.3838328020023687  0.4902446090001078  0.8523334911557906
  0.3767238862526219  0.5210721240624877  0.8211799245048784
  0.3161473493166435  0.2637994625223422  0.9804897402777444
  0.3528662701432286  0.3032026064029045  0.9786719846825160
  0.3660871615748869  0.3281608222670996  0.9475280751716166
  0.3846368950947486  0.3929982815109349  0.9457206870467717
  0.3878364457231741  0.4255209250568274  0.9145701668037488
  0.3826997905463122  0.4965352336678212  0.9127587882203649
  0.3749317786140158  0.5269562195095933  0.8816093876183891
  0.3880771273795626  0.4320585049345753  0.9749976676480251
  0.3814283743618372  0.5027387417103247  0.9731848093659029
  0.3730182597229245  0.5327117797375953  0.9420381038273908
  0.4276182173807940  0.5069606223712413  0.4580003735291405
 
  0.00000000E+00  0.00000000E+00  0.00000000E+00
  0.00000000E+00  0.00000000E+00  0.00000000E+00
  0.00000000E+00  0.00000000E+00  0.00000000E+00
  0.00000000E+00  0.00000000E+00  0.00000000E+00
  0.00000000E+00  0.00000000E+00  0.00000000E+00
  0.00000000E+00  0.00000000E+00  0.00000000E+00
  0.00000000E+00  0.00000000E+00  0.00000000E+00
  0.00000000E+00  0.00000000E+00  0.00000000E+00
  0.00000000E+00  0.00000000E+00  0.00000000E+00
  0.00000000E+00  0.00000000E+00  0.00000000E+00
  0.00000000E+00  0.00000000E+00  0.00000000E+00
  0.00000000E+00  0.00000000E+00  0.00000000E+00
  0.00000000E+00  0.00000000E+00  0.00000000E+00
  0.00000000E+00  0.00000000E+00  0.00000000E+00
  0.00000000E+00  0.00000000E+00  0.00000000E+00
  0.00000000E+00  0.00000000E+00  0.00000000E+00
  0.00000000E+00  0.00000000E+00  0.00000000E+00
  0.00000000E+00  0.00000000E+00  0.00000000E+00
  0.00000000E+00  0.00000000E+00  0.00000000E+00
  0.00000000E+00  0.00000000E+00  0.00000000E+00
  0.00000000E+00  0.00000000E+00  0.00000000E+00
  0.00000000E+00  0.00000000E+00  0.00000000E+00
  0.00000000E+00  0.00000000E+00  0.00000000E+00
  0.00000000E+00  0.00000000E+00  0.00000000E+00
  0.00000000E+00  0.00000000E+00  0.00000000E+00
  0.00000000E+00  0.00000000E+00  0.00000000E+00
  0.00000000E+00  0.00000000E+00  0.00000000E+00
  0.00000000E+00  0.00000000E+00  0.00000000E+00
  0.00000000E+00  0.00000000E+00  0.00000000E+00
  0.00000000E+00  0.00000000E+00  0.00000000E+00
  0.00000000E+00  0.00000000E+00  0.00000000E+00
  0.00000000E+00  0.00000000E+00  0.00000000E+00
  0.00000000E+00  0.00000000E+00  0.00000000E+00
  0.00000000E+00  0.00000000E+00  0.00000000E+00
  0.00000000E+00  0.00000000E+00  0.00000000E+00
  0.00000000E+00  0.00000000E+00  0.00000000E+00
  0.00000000E+00  0.00000000E+00  0.00000000E+00
  0.00000000E+00  0.00000000E+00  0.00000000E+00
  0.00000000E+00  0.00000000E+00  0.00000000E+00
  0.00000000E+00  0.00000000E+00  0.00000000E+00
  0.00000000E+00  0.00000000E+00  0.00000000E+00
  0.00000000E+00  0.00000000E+00  0.00000000E+00
  0.00000000E+00  0.00000000E+00  0.00000000E+00
  0.00000000E+00  0.00000000E+00  0.00000000E+00
  0.00000000E+00  0.00000000E+00  0.00000000E+00
  0.00000000E+00  0.00000000E+00  0.00000000E+00
  0.00000000E+00  0.00000000E+00  0.00000000E+00
  0.00000000E+00  0.00000000E+00  0.00000000E+00
  0.00000000E+00  0.00000000E+00  0.00000000E+00
  0.00000000E+00  0.00000000E+00  0.00000000E+00
  0.00000000E+00  0.00000000E+00  0.00000000E+00
  0.00000000E+00  0.00000000E+00  0.00000000E+00
  0.00000000E+00  0.00000000E+00  0.00000000E+00
  0.00000000E+00  0.00000000E+00  0.00000000E+00
  0.00000000E+00  0.00000000E+00  0.00000000E+00
  0.00000000E+00  0.00000000E+00  0.00000000E+00
  0.00000000E+00  0.00000000E+00  0.00000000E+00
  0.00000000E+00  0.00000000E+00  0.00000000E+00
  0.00000000E+00  0.00000000E+00  0.00000000E+00
  0.00000000E+00  0.00000000E+00  0.00000000E+00
  0.00000000E+00  0.00000000E+00  0.00000000E+00
  0.00000000E+00  0.00000000E+00  0.00000000E+00
  0.00000000E+00  0.00000000E+00  0.00000000E+00
  0.00000000E+00  0.00000000E+00  0.00000000E+00
  0.00000000E+00  0.00000000E+00  0.00000000E+00
  0.00000000E+00  0.00000000E+00  0.00000000E+00
  0.00000000E+00  0.00000000E+00  0.00000000E+00
  0.00000000E+00  0.00000000E+00  0.00000000E+00
  0.00000000E+00  0.00000000E+00  0.00000000E+00
  0.00000000E+00  0.00000000E+00  0.00000000E+00
  0.00000000E+00  0.00000000E+00  0.00000000E+00
  0.00000000E+00  0.00000000E+00  0.00000000E+00
  0.00000000E+00  0.00000000E+00  0.00000000E+00
  0.00000000E+00  0.00000000E+00  0.00000000E+00
  0.00000000E+00  0.00000000E+00  0.00000000E+00
  0.00000000E+00  0.00000000E+00  0.00000000E+00
  0.00000000E+00  0.00000000E+00  0.00000000E+00
  0.00000000E+00  0.00000000E+00  0.00000000E+00
  0.00000000E+00  0.00000000E+00  0.00000000E+00
  0.00000000E+00  0.00000000E+00  0.00000000E+00
  0.00000000E+00  0.00000000E+00  0.00000000E+00
  0.00000000E+00  0.00000000E+00  0.00000000E+00
  0.00000000E+00  0.00000000E+00  0.00000000E+00
  0.00000000E+00  0.00000000E+00  0.00000000E+00
  0.00000000E+00  0.00000000E+00  0.00000000E+00
  0.00000000E+00  0.00000000E+00  0.00000000E+00
  0.00000000E+00  0.00000000E+00  0.00000000E+00
  0.00000000E+00  0.00000000E+00  0.00000000E+00
  0.00000000E+00  0.00000000E+00  0.00000000E+00
  0.00000000E+00  0.00000000E+00  0.00000000E+00
  0.00000000E+00  0.00000000E+00  0.00000000E+00
  0.00000000E+00  0.00000000E+00  0.00000000E+00
  0.00000000E+00  0.00000000E+00  0.00000000E+00
  0.00000000E+00  0.00000000E+00  0.00000000E+00
  0.00000000E+00  0.00000000E+00  0.00000000E+00
  0.00000000E+00  0.00000000E+00  0.00000000E+00
  0.00000000E+00  0.00000000E+00  0.00000000E+00
  0.00000000E+00  0.00000000E+00  0.00000000E+00
  0.00000000E+00  0.00000000E+00  0.00000000E+00
  0.00000000E+00  0.00000000E+00  0.00000000E+00
  0.00000000E+00  0.00000000E+00  0.00000000E+00
  0.00000000E+00  0.00000000E+00  0.00000000E+00
  0.00000000E+00  0.00000000E+00  0.00000000E+00
  0.00000000E+00  0.00000000E+00  0.00000000E+00
  0.00000000E+00  0.00000000E+00  0.00000000E+00
  0.00000000E+00  0.00000000E+00  0.00000000E+00
  0.00000000E+00  0.00000000E+00  0.00000000E+00
  0.00000000E+00  0.00000000E+00  0.00000000E+00
  0.00000000E+00  0.00000000E+00  0.00000000E+00
  0.00000000E+00  0.00000000E+00  0.00000000E+00
  0.00000000E+00  0.00000000E+00  0.00000000E+00
  0.00000000E+00  0.00000000E+00  0.00000000E+00
  0.00000000E+00  0.00000000E+00  0.00000000E+00
  0.00000000E+00  0.00000000E+00  0.00000000E+00
  0.00000000E+00  0.00000000E+00  0.00000000E+00
  0.00000000E+00  0.00000000E+00  0.00000000E+00
  0.00000000E+00  0.00000000E+00  0.00000000E+00
  0.00000000E+00  0.00000000E+00  0.00000000E+00
  0.00000000E+00  0.00000000E+00  0.00000000E+00
  0.00000000E+00  0.00000000E+00  0.00000000E+00
  0.00000000E+00  0.00000000E+00  0.00000000E+00
  0.00000000E+00  0.00000000E+00  0.00000000E+00
  0.00000000E+00  0.00000000E+00  0.00000000E+00
  0.00000000E+00  0.00000000E+00  0.00000000E+00
  0.00000000E+00  0.00000000E+00  0.00000000E+00
  0.00000000E+00  0.00000000E+00  0.00000000E+00
  0.00000000E+00  0.00000000E+00  0.00000000E+00
  0.00000000E+00  0.00000000E+00  0.00000000E+00
  0.00000000E+00  0.00000000E+00  0.00000000E+00
  0.00000000E+00  0.00000000E+00  0.00000000E+00
  0.00000000E+00  0.00000000E+00  0.00000000E+00
  0.00000000E+00  0.00000000E+00  0.00000000E+00
  0.00000000E+00  0.00000000E+00  0.00000000E+00
  0.00000000E+00  0.00000000E+00  0.00000000E+00
  0.00000000E+00  0.00000000E+00  0.00000000E+00
  0.00000000E+00  0.00000000E+00  0.00000000E+00
  0.00000000E+00  0.00000000E+00  0.00000000E+00
  0.00000000E+00  0.00000000E+00  0.00000000E+00
  0.00000000E+00  0.00000000E+00  0.00000000E+00
  0.00000000E+00  0.00000000E+00  0.00000000E+00
  0.00000000E+00  0.00000000E+00  0.00000000E+00
  0.00000000E+00  0.00000000E+00  0.00000000E+00
  0.00000000E+00  0.00000000E+00  0.00000000E+00
  0.00000000E+00  0.00000000E+00  0.00000000E+00
  0.00000000E+00  0.00000000E+00  0.00000000E+00
  0.00000000E+00  0.00000000E+00  0.00000000E+00
  0.00000000E+00  0.00000000E+00  0.00000000E+00
  0.00000000E+00  0.00000000E+00  0.00000000E+00
  0.00000000E+00  0.00000000E+00  0.00000000E+00
  0.00000000E+00  0.00000000E+00  0.00000000E+00
  0.00000000E+00  0.00000000E+00  0.00000000E+00