 S                                      
    1.000000000000000     
    32.3722991942999982    0.0000000000000000    0.0000000000000000
     0.0000000000000000   19.9214134216000005    0.0000000000000000
     0.0000000000000000    0.0000000000000000   40.4480476378999967
   S 
     1
Direct
  0.4346319921100132  0.4665129917399966  0.4726280137953438
 
  0.00000000E+00  0.00000000E+00  0.00000000E+00
