
     Program PWSCF v.7.2 starts on  4Jun2024 at 21:41:39 

     This program is part of the open-source Quantum ESPRESSO suite
     for quantum simulation of materials; please cite
         "P. Giannozzi et al., J. Phys.:Condens. Matter 21 395502 (2009);
         "P. Giannozzi et al., J. Phys.:Condens. Matter 29 465901 (2017);
         "P. Giannozzi et al., J. Chem. Phys. 152 154105 (2020);
          URL http://www.quantum-espresso.org", 
     in publications or presentations arising from this work. More details at
     http://www.quantum-espresso.org/quote

     Parallel version (MPI & OpenMP), running on    6144 processor cores
     Number of MPI processes:              1536
     Threads/MPI process:                     4

     MPI processes distributed on    24 nodes
     483194 MiB available memory on the printing compute node when the environment starts

     Reading input from espresso.pwi
Warning: card &IONS ignored
Warning: card / ignored
Warning: card &CELL ignored
Warning: card / ignored

     Current dimensions of program PWSCF are:
     Max number of different atomic species (ntypx) = 10
     Max number of k-points (npk) =  40000
     Max angular momentum in pseudopotentials (lmaxx) =  4

     Atomic positions and unit cell read from directory:
     ./CNT_PBE.save/
     Atomic positions from file used, from input discarded


     K-points division:     npool     =       4
     R & G space division:  proc/nbgrp/npool/nimage =     384
     Subspace diagonalization in iterative solution of the eigenvalue problem:
     one sub-group per band group will be used
     custom distributed-memory algorithm (size of sub-group:  8*  8 procs)


     Parallelization info
     --------------------
     sticks:   dense  smooth     PW     G-vecs:    dense   smooth      PW
     Min         114     114     29                28776    28776    3693
     Max         115     115     30                28795    28795    3705
     Sum       43977   43977  11205             11053081 11053081 1420575

     Using Slab Decomposition



     bravais-lattice index     =            0
     lattice parameter (alat)  =      61.1748  a.u.
     unit-cell volume          =  176044.1909 (a.u.)^3
     number of atoms/cell      =          365
     number of atomic types    =            2
     number of electrons       =      1462.00
     number of Kohn-Sham states=          800
     kinetic-energy cutoff     =      60.0000  Ry
     charge density cutoff     =     240.0000  Ry
     Exchange-correlation= PBE
                           (   1   4   3   4   0   0   0)

     celldm(1)=  61.174780  celldm(2)=   0.000000  celldm(3)=   0.000000
     celldm(4)=   0.000000  celldm(5)=   0.000000  celldm(6)=   0.000000

     crystal axes: (cart. coord. in units of alat)
               a(1) = (   1.000000   0.000000   0.000000 )  
               a(2) = (   0.000000   0.615409   0.000000 )  
               a(3) = (   0.000000   0.000000   1.249513 )  

     reciprocal axes: (cart. coord. in units 2 pi/alat)
               b(1) = (  1.000000  0.000000  0.000000 )  
               b(2) = (  0.000000  1.624937  0.000000 )  
               b(3) = (  0.000000  0.000000  0.800312 )  


     PseudoPot. # 1 for C  read from file:
     ./C_ONCV_PBE-1.2.upf
     MD5 check sum: 1a5f83a7b1f58d24996abe00ed223ac6
     Pseudo is Norm-conserving, Zval =  4.0
     Generated using ONCVPSP code by D. R. Hamann
     Using radial grid of  602 points,  4 beta functions with: 
                l(1) =   0
                l(2) =   0
                l(3) =   1
                l(4) =   1

     PseudoPot. # 2 for Se read from file:
     ./Se_ONCV_PBE-1.2.upf
     MD5 check sum: e78e48a4f5d8ce1f8dc76ec1271f249c
     Pseudo is Norm-conserving, Zval =  6.0
     Generated using ONCVPSP code by D. R. Hamann
     Using radial grid of  602 points,  6 beta functions with: 
                l(1) =   0
                l(2) =   0
                l(3) =   1
                l(4) =   1
                l(5) =   2
                l(6) =   2

     atomic species   valence    mass     pseudopotential
        C              4.00    12.01100     C ( 1.00)
        Se             6.00    78.96000     Se( 1.00)

     No symmetry found


                                    s                        frac. trans.

      isym =  1     identity                                     

 cryst.   s( 1) = (     1          0          0      )
                  (     0          1          0      )
                  (     0          0          1      )

 cart.    s( 1) = (  1.0000000  0.0000000  0.0000000 )
                  (  0.0000000  1.0000000  0.0000000 )
                  (  0.0000000  0.0000000  1.0000000 )


   Cartesian axes

     site n.     atom                  positions (alat units)
         1           C   tau(   1) = (   0.3709674   0.3312861   0.0030677  )
         2           C   tau(   2) = (   0.3687916   0.3346859   0.0785815  )
         3           C   tau(   3) = (   0.3380511   0.3661709   0.0763205  )
         4           C   tau(   4) = (   0.3204902   0.3762662   0.0373925  )
         5           C   tau(   5) = (   0.2778085   0.3869502   0.0351224  )
         6           C   tau(   6) = (   0.3664736   0.3380178   0.1540889  )
         7           C   tau(   7) = (   0.3346638   0.3684191   0.1518235  )
         8           C   tau(   8) = (   0.3167735   0.3778963   0.1128952  )
         9           C   tau(   9) = (   0.2737464   0.3870941   0.1106151  )
        10           C   tau(  10) = (   0.2535408   0.3857706   0.0716953  )
        11           C   tau(  11) = (   0.2120893   0.3710174   0.0694330  )
        12           C   tau(  12) = (   0.1955852   0.3592753   0.0305108  )
        13           C   tau(  13) = (   0.1680334   0.3249688   0.0282515  )
        14           C   tau(  14) = (   0.3640036   0.3412890   0.2295879  )
        15           C   tau(  15) = (   0.3311740   0.3705826   0.2273190  )
        16           C   tau(  16) = (   0.3129824   0.3794154   0.1883908  )
        17           C   tau(  17) = (   0.2696637   0.3871204   0.1861073  )
        18           C   tau(  18) = (   0.2495270   0.3850840   0.1471845  )
        19           C   tau(  19) = (   0.2086129   0.3689094   0.1449275  )
        20           C   tau(  20) = (   0.1925298   0.3566063   0.1060044  )
        21           C   tau(  21) = (   0.1661789   0.3213721   0.1037407  )
        22           C   tau(  22) = (   0.1589380   0.3024500   0.0648275  )
        23           C   tau(  23) = (   0.1549926   0.2586275   0.0625644  )
        24           C   tau(  24) = (   0.1587592   0.2387095   0.0236496  )
        25           C   tau(  25) = (   0.1783988   0.1993356   0.0213978  )
        26           C   tau(  26) = (   0.3614212   0.3445216   0.3050823  )
        27           C   tau(  27) = (   0.3276129   0.3726919   0.3028167  )
        28           C   tau(  28) = (   0.3091226   0.3808525   0.2638813  )
        29           C   tau(  29) = (   0.2655697   0.3870478   0.2616009  )
        30           C   tau(  30) = (   0.2455204   0.3842918   0.2226731  )
        31           C   tau(  31) = (   0.2051923   0.3667063   0.2204249  )
        32           C   tau(  32) = (   0.1895496   0.3538457   0.1815031  )
        33           C   tau(  33) = (   0.1644317   0.3177209   0.1792376  )
        34           C   tau(  34) = (   0.1578626   0.2985545   0.1403192  )
        35           C   tau(  35) = (   0.1554338   0.2546238   0.1380612  )
        36           C   tau(  36) = (   0.1598936   0.2348474   0.0991439  )
        37           C   tau(  37) = (   0.1808775   0.1961727   0.0968890  )
        38           C   tau(  38) = (   0.1950459   0.1816676   0.0579786  )
        39           C   tau(  39) = (   0.2332014   0.1597544   0.0557112  )
        40           C   tau(  40) = (   0.2528698   0.1548355   0.0167936  )
        41           C   tau(  41) = (   0.2968492   0.1562102   0.0145415  )
        42           C   tau(  42) = (   0.3706924   0.3313775   0.4194920  )
        43           C   tau(  43) = (   0.3587352   0.3476926   0.3805739  )
        44           C   tau(  44) = (   0.3240039   0.3747017   0.3783302  )
        45           C   tau(  45) = (   0.3052348   0.3822225   0.3393778  )
        46           C   tau(  46) = (   0.2614910   0.3868911   0.3371069  )
        47           C   tau(  47) = (   0.2415439   0.3834063   0.2981779  )
        48           C   tau(  48) = (   0.2018572   0.3644093   0.2959334  )
        49           C   tau(  49) = (   0.1866744   0.3509915   0.2570102  )
        50           C   tau(  50) = (   0.1628376   0.3140122   0.2547443  )
        51           C   tau(  51) = (   0.1569212   0.2946309   0.2158224  )
        52           C   tau(  52) = (   0.1560129   0.2506406   0.2135685  )
        53           C   tau(  53) = (   0.1611460   0.2310310   0.1746482  )
        54           C   tau(  54) = (   0.1834534   0.1931049   0.1723850  )
        55           C   tau(  55) = (   0.1981230   0.1790992   0.1334731  )
        56           C   tau(  56) = (   0.2370144   0.1585213   0.1312118  )
        57           C   tau(  57) = (   0.2568474   0.1542805   0.0922973  )
        58           C   tau(  58) = (   0.3007556   0.1571738   0.0900500  )
        59           C   tau(  59) = (   0.3198522   0.1639668   0.0511295  )
        60           C   tau(  60) = (   0.3557115   0.1894656   0.0488582  )
        61           C   tau(  61) = (   0.3684036   0.2052632   0.0099307  )
        62           C   tau(  62) = (   0.3855665   0.2457784   0.0076751  )
        63           C   tau(  63) = (   0.3683361   0.3344310   0.4949707  )
        64           C   tau(  64) = (   0.3559081   0.3505770   0.4560626  )
        65           C   tau(  65) = (   0.3203157   0.3764007   0.4538623  )
        66           C   tau(  66) = (   0.3013282   0.3834380   0.4149142  )
        67           C   tau(  67) = (   0.2574370   0.3866060   0.4126498  )
        68           C   tau(  68) = (   0.2376235   0.3824088   0.3737037  )
        69           C   tau(  69) = (   0.1986505   0.3619971   0.3714518  )
        70           C   tau(  70) = (   0.1839264   0.3480554   0.3325278  )
        71           C   tau(  71) = (   0.1614064   0.3102550   0.3302633  )
        72           C   tau(  72) = (   0.1561455   0.2906809   0.2913407  )
        73           C   tau(  73) = (   0.1567569   0.2466853   0.2890870  )
        74           C   tau(  74) = (   0.1625484   0.2272654   0.2501587  )
        75           C   tau(  75) = (   0.1861377   0.1901280   0.2478842  )
        76           C   tau(  76) = (   0.2012700   0.1766343   0.2089716  )
        77           C   tau(  77) = (   0.2408451   0.1573995   0.2067162  )
        78           C   tau(  78) = (   0.2608236   0.1538607   0.1678026  )
        79           C   tau(  79) = (   0.3046025   0.1582646   0.1655547  )
        80           C   tau(  80) = (   0.3234713   0.1657097   0.1266401  )
        81           C   tau(  81) = (   0.3584362   0.1924243   0.1243758  )
        82           C   tau(  82) = (   0.3705829   0.2086496   0.0854503  )
        83           C   tau(  83) = (   0.3863435   0.2497324   0.0831996  )
        84           C   tau(  84) = (   0.3881661   0.2699141   0.0442687  )
        85           C   tau(  85) = (   0.3800070   0.3131507   0.0419941  )
        86           C   tau(  86) = (   0.3660946   0.3367459   0.5704571  )
        87           C   tau(  87) = (   0.3528034   0.3526340   0.5316271  )
        88           C   tau(  88) = (   0.3165015   0.3774372   0.5294336  )
        89           C   tau(  89) = (   0.2973601   0.3841970   0.4904885  )
        90           C   tau(  90) = (   0.2534147   0.3860293   0.4882136  )
        91           C   tau(  91) = (   0.2337402   0.3812674   0.4492403  )
        92           C   tau(  92) = (   0.1955155   0.3594775   0.4469757  )
        93           C   tau(  93) = (   0.1813192   0.3450075   0.4080527  )
        94           C   tau(  94) = (   0.1601561   0.3064308   0.4057892  )
        95           C   tau(  95) = (   0.1555629   0.2866914   0.3668579  )
        96           C   tau(  96) = (   0.1576665   0.2427481   0.3646010  )
        97           C   tau(  97) = (   0.1640884   0.2235365   0.3256708  )
        98           C   tau(  98) = (   0.1889121   0.1872070   0.3233898  )
        99           C   tau(  99) = (   0.2045030   0.1742541   0.2844740  )
       100           C   tau( 100) = (   0.2446993   0.1563643   0.2822214  )
       101           C   tau( 101) = (   0.2647932   0.1535365   0.2433037  )
       102           C   tau( 102) = (   0.3083929   0.1594545   0.2410530  )
       103           C   tau( 103) = (   0.3270004   0.1675697   0.2021498  )
       104           C   tau( 104) = (   0.3610246   0.1954814   0.1998939  )
       105           C   tau( 105) = (   0.3726241   0.2121153   0.1609708  )
       106           C   tau( 106) = (   0.3869521   0.2537186   0.1587190  )
       107           C   tau( 107) = (   0.3880967   0.2739485   0.1197892  )
       108           C   tau( 108) = (   0.3784479   0.3168789   0.1175086  )
       109           C   tau( 109) = (   0.3636219   0.3398082   0.6463095  )
       110           C   tau( 110) = (   0.3499454   0.3548395   0.6072282  )
       111           C   tau( 111) = (   0.3128670   0.3781781   0.6049560  )
       112           C   tau( 112) = (   0.2933890   0.3844291   0.5660214  )
       113           C   tau( 113) = (   0.2494463   0.3851148   0.5637553  )
       114           C   tau( 114) = (   0.2299099   0.3798624   0.5247983  )
       115           C   tau( 115) = (   0.1924279   0.3568140   0.5225177  )
       116           C   tau( 116) = (   0.1787861   0.3418604   0.4835705  )
       117           C   tau( 117) = (   0.1590029   0.3025743   0.4813082  )
       118           C   tau( 118) = (   0.1551086   0.2826824   0.4423752  )
       119           C   tau( 119) = (   0.1586802   0.2388289   0.4401152  )
       120           C   tau( 120) = (   0.1657620   0.2198462   0.4011911  )
       121           C   tau( 121) = (   0.1917679   0.1843543   0.3989122  )
       122           C   tau( 122) = (   0.2077934   0.1719421   0.3599803  )
       123           C   tau( 123) = (   0.2485641   0.1554172   0.3577287  )
       124           C   tau( 124) = (   0.2687486   0.1532849   0.3188195  )
       125           C   tau( 125) = (   0.3121267   0.1607348   0.3165601  )
       126           C   tau( 126) = (   0.3304391   0.1695307   0.2776573  )
       127           C   tau( 127) = (   0.3634472   0.1986311   0.2754029  )
       128           C   tau( 128) = (   0.3744915   0.2156582   0.2364867  )
       129           C   tau( 129) = (   0.3873672   0.2577383   0.2342297  )
       130           C   tau( 130) = (   0.3878425   0.2779878   0.1953055  )
       131           C   tau( 131) = (   0.3767126   0.3205613   0.1930232  )
       132           C   tau( 132) = (   0.3611377   0.3440826   0.7217329  )
       133           C   tau( 133) = (   0.3468325   0.3579269   0.6827852  )
       134           C   tau( 134) = (   0.3089584   0.3802284   0.6804532  )
       135           C   tau( 135) = (   0.2893909   0.3850656   0.6415441  )
       136           C   tau( 136) = (   0.2454897   0.3842600   0.6392855  )
       137           C   tau( 137) = (   0.2261180   0.3782095   0.6003343  )
       138           C   tau( 138) = (   0.1894794   0.3540081   0.5980555  )
       139           C   tau( 139) = (   0.1763118   0.3386274   0.5590933  )
       140           C   tau( 140) = (   0.1579116   0.2986799   0.5568390  )
       141           C   tau( 141) = (   0.1547330   0.2786642   0.5179073  )
       142           C   tau( 142) = (   0.1597802   0.2349604   0.5156429  )
       143           C   tau( 143) = (   0.1675210   0.2162095   0.4767084  )
       144           C   tau( 144) = (   0.1946983   0.1816205   0.4744354  )
       145           C   tau( 145) = (   0.2111370   0.1697316   0.4355114  )
       146           C   tau( 146) = (   0.2524809   0.1546536   0.4332649  )
       147           C   tau( 147) = (   0.2727167   0.1531929   0.3943550  )
       148           C   tau( 148) = (   0.3157967   0.1621603   0.3920754  )
       149           C   tau( 149) = (   0.3337855   0.1715856   0.3531548  )
       150           C   tau( 150) = (   0.3657098   0.2018755   0.3508833  )
       151           C   tau( 151) = (   0.3761653   0.2192791   0.3119922  )
       152           C   tau( 152) = (   0.3875651   0.2617926   0.3097245  )
       153           C   tau( 153) = (   0.3873790   0.2820362   0.2708040  )
       154           C   tau( 154) = (   0.3748170   0.3242050   0.2685277  )
       155           C   tau( 155) = (   0.3587512   0.3476308   0.7972257  )
       156           C   tau( 156) = (   0.3440455   0.3614933   0.7583138  )
       157           C   tau( 157) = (   0.3052416   0.3821537   0.7560041  )
       158           C   tau( 158) = (   0.2854245   0.3862786   0.7170530  )
       159           C   tau( 159) = (   0.2415176   0.3835840   0.7148125  )
       160           C   tau( 160) = (   0.2224173   0.3767474   0.6759057  )
       161           C   tau( 161) = (   0.1866190   0.3511693   0.6736284  )
       162           C   tau( 162) = (   0.1740131   0.3352792   0.6346946  )
       163           C   tau( 163) = (   0.1570211   0.2947534   0.6324301  )
       164           C   tau( 164) = (   0.1545134   0.2746397   0.5934529  )
       165           C   tau( 165) = (   0.1610308   0.2311810   0.5911773  )
       166           C   tau( 166) = (   0.1693547   0.2126813   0.5522475  )
       167           C   tau( 167) = (   0.1977761   0.1790973   0.5499828  )
       168           C   tau( 168) = (   0.2146083   0.1677712   0.5110737  )
       169           C   tau( 169) = (   0.2565039   0.1543649   0.5088327  )
       170           C   tau( 170) = (   0.2767278   0.1534824   0.4698876  )
       171           C   tau( 171) = (   0.3194153   0.1639860   0.4675718  )
       172           C   tau( 172) = (   0.3370744   0.1738003   0.4286591  )
       173           C   tau( 173) = (   0.3679198   0.2052295   0.4263468  )
       174           C   tau( 174) = (   0.3776706   0.2229983   0.3874469  )
       175           C   tau( 175) = (   0.3875894   0.2658538   0.3851643  )
       176           C   tau( 176) = (   0.3867316   0.2860919   0.3462636  )
       177           C   tau( 177) = (   0.3728009   0.3278303   0.3440118  )
       178           C   tau( 178) = (   0.3561183   0.3505654   0.8727292  )
       179           C   tau( 179) = (   0.3409872   0.3641276   0.8338118  )
       180           C   tau( 180) = (   0.3014283   0.3834023   0.8315448  )
       181           C   tau( 181) = (   0.2814553   0.3869675   0.7926299  )
       182           C   tau( 182) = (   0.2376719   0.3825184   0.7903749  )
       183           C   tau( 183) = (   0.2188160   0.3750423   0.7514507  )
       184           C   tau( 184) = (   0.1839712   0.3481922   0.7491730  )
       185           C   tau( 185) = (   0.1718633   0.3319226   0.7102329  )
       186           C   tau( 186) = (   0.1562342   0.2908002   0.7079750  )
       187           C   tau( 187) = (   0.1544023   0.2706195   0.6690453  )
       188           C   tau( 188) = (   0.1624326   0.2273770   0.6667776  )
       189           C   tau( 189) = (   0.1714272   0.2092339   0.6278183  )
       190           C   tau( 190) = (   0.2010091   0.1767860   0.6255555  )
       191           C   tau( 191) = (   0.2182949   0.1661527   0.5866033  )
       192           C   tau( 192) = (   0.2606476   0.1545765   0.5843379  )
       193           C   tau( 193) = (   0.2808005   0.1544549   0.5454309  )
       194           C   tau( 194) = (   0.3229863   0.1667749   0.5431007  )
       195           C   tau( 195) = (   0.3402564   0.1766763   0.5041522  )
       196           C   tau( 196) = (   0.3702074   0.2088257   0.5017792  )
       197           C   tau( 197) = (   0.3792645   0.2267545   0.4627890  )
       198           C   tau( 198) = (   0.3877122   0.2698719   0.4604948  )
       199           C   tau( 199) = (   0.3860340   0.2901065   0.4216989  )
       200           C   tau( 200) = (   0.3533948   0.3533731   0.9482250  )
       201           C   tau( 201) = (   0.3377911   0.3663965   0.9093255  )
       202           C   tau( 202) = (   0.2975710   0.3842724   0.9070810  )
       203           C   tau( 203) = (   0.2774745   0.3871720   0.8681723  )
       204           C   tau( 204) = (   0.2338929   0.3811873   0.8659067  )
       205           C   tau( 205) = (   0.2153040   0.3731016   0.8269742  )
       206           C   tau( 206) = (   0.1813744   0.3450903   0.8246992  )
       207           C   tau( 207) = (   0.1698473   0.3284353   0.7857667  )
       208           C   tau( 208) = (   0.1556049   0.2868077   0.7835044  )
       209           C   tau( 209) = (   0.1544980   0.2665722   0.7445732  )
       210           C   tau( 210) = (   0.1640341   0.2236337   0.7422994  )
       211           C   tau( 211) = (   0.1735935   0.2057919   0.7033525  )
       212           C   tau( 212) = (   0.2042772   0.1742528   0.7010871  )
       213           C   tau( 213) = (   0.2219275   0.1643648   0.6621326  )
       214           C   tau( 214) = (   0.2646824   0.1542126   0.6598545  )
       215           C   tau( 215) = (   0.2851002   0.1554813   0.6209227  )
       216           C   tau( 216) = (   0.3267704   0.1690005   0.6186618  )
       217           C   tau( 217) = (   0.3437114   0.1802152   0.5795765  )
       218           C   tau( 218) = (   0.3741633   0.2114420   0.5768545  )
       219           C   tau( 219) = (   0.3820194   0.2300914   0.5382424  )
       220           C   tau( 220) = (   0.3889906   0.2739529   0.5359354  )
       221           C   tau( 221) = (   0.3853467   0.2939135   0.4971185  )
       222           C   tau( 222) = (   0.3505543   0.3561169   1.0237305  )
       223           C   tau( 223) = (   0.3344985   0.3685514   0.9848284  )
       224           C   tau( 224) = (   0.2936898   0.3850007   0.9825895  )
       225           C   tau( 225) = (   0.2735053   0.3871958   0.9436787  )
       226           C   tau( 226) = (   0.2301434   0.3797437   0.9414127  )
       227           C   tau( 227) = (   0.2118430   0.3710278   0.9024974  )
       228           C   tau( 228) = (   0.1788525   0.3419138   0.9002260  )
       229           C   tau( 229) = (   0.1678980   0.3248791   0.8612889  )
       230           C   tau( 230) = (   0.1550553   0.2828029   0.8590198  )
       231           C   tau( 231) = (   0.1546599   0.2625430   0.8200885  )
       232           C   tau( 232) = (   0.1657196   0.2199562   0.8178177  )
       233           C   tau( 233) = (   0.1759373   0.2024507   0.7788925  )
       234           C   tau( 234) = (   0.2076408   0.1719408   0.7766371  )
       235           C   tau( 235) = (   0.2255418   0.1624908   0.7376697  )
       236           C   tau( 236) = (   0.2685850   0.1534476   0.7353823  )
       237           C   tau( 237) = (   0.2888035   0.1552999   0.6964403  )
       238           C   tau( 238) = (   0.3300829   0.1704282   0.6942612  )
       239           C   tau( 239) = (   0.3468726   0.1825731   0.6554316  )
       240           C   tau( 240) = (   0.3761252   0.2150155   0.6537131  )
       241           C   tau( 241) = (   0.3899921   0.2312240   0.6140930  )
       242           C   tau( 242) = (   0.3959520   0.2789930   0.6117933  )
       243           C   tau( 243) = (   0.3864841   0.2981121   0.5721705  )
       244           C   tau( 244) = (   0.3476004   0.3587908   1.0992435  )
       245           C   tau( 245) = (   0.3311373   0.3706460   1.0603269  )
       246           C   tau( 246) = (   0.2897822   0.3856714   1.0580861  )
       247           C   tau( 247) = (   0.2695385   0.3871435   1.0191801  )
       248           C   tau( 248) = (   0.2264504   0.3782177   1.0169129  )
       249           C   tau( 249) = (   0.2084510   0.3688613   0.9780045  )
       250           C   tau( 250) = (   0.1764553   0.3386629   0.9757420  )
       251           C   tau( 251) = (   0.1660616   0.3212722   0.9368091  )
       252           C   tau( 252) = (   0.1546477   0.2787794   0.9345379  )
       253           C   tau( 253) = (   0.1549396   0.2585216   0.8956118  )
       254           C   tau( 254) = (   0.1674983   0.2163533   0.8933463  )
       255           C   tau( 255) = (   0.1783507   0.1992288   0.8544171  )
       256           C   tau( 256) = (   0.2111123   0.1698644   0.8521660  )
       257           C   tau( 257) = (   0.2292897   0.1609301   0.8132263  )
       258           C   tau( 258) = (   0.2726085   0.1531909   0.8109542  )
       259           C   tau( 259) = (   0.2927512   0.1553445   0.7720089  )
       260           C   tau( 260) = (   0.3335950   0.1716326   0.7698245  )
       261           C   tau( 261) = (   0.3496112   0.1842433   0.7309203  )
       262           C   tau( 262) = (   0.3760433   0.2193505   0.7287619  )
       263           C   tau( 263) = (   0.3844855   0.2378132   0.6899498  )
       264           C   tau( 264) = (   0.3885073   0.2820462   0.6876531  )
       265           C   tau( 265) = (   0.3854774   0.3020589   0.6490368  )
       266           C   tau( 266) = (   0.3445254   0.3613616   1.1747572  )
       267           C   tau( 267) = (   0.3276780   0.3726454   1.1358344  )
       268           C   tau( 268) = (   0.2858291   0.3862417   1.1335861  )
       269           C   tau( 269) = (   0.2655578   0.3870011   1.0946764  )
       270           C   tau( 270) = (   0.2228078   0.3765944   1.0924091  )
       271           C   tau( 271) = (   0.2051430   0.3666188   1.0534987  )
       272           C   tau( 272) = (   0.1741922   0.3353443   1.0512457  )
       273           C   tau( 273) = (   0.1643775   0.3176043   1.0123282  )
       274           C   tau( 274) = (   0.1544273   0.2747445   1.0100540  )
       275           C   tau( 275) = (   0.1553958   0.2545082   0.9711284  )
       276           C   tau( 276) = (   0.1694188   0.2128063   0.9688688  )
       277           C   tau( 277) = (   0.1808515   0.1960828   0.9299380  )
       278           C   tau( 278) = (   0.2146478   0.1679085   0.9276853  )
       279           C   tau( 279) = (   0.2331365   0.1596327   0.8887614  )
       280           C   tau( 280) = (   0.2766834   0.1533873   0.8864903  )
       281           C   tau( 281) = (   0.2967357   0.1560706   0.8475399  )
       282           C   tau( 282) = (   0.3370349   0.1737249   0.8453090  )
       283           C   tau( 283) = (   0.3526390   0.1866094   0.8063967  )
       284           C   tau( 284) = (   0.3776366   0.2228574   0.8041793  )
       285           C   tau( 285) = (   0.3842289   0.2420718   0.7653873  )
       286           C   tau( 286) = (   0.3866333   0.2859440   0.7631076  )
       287           C   tau( 287) = (   0.3822701   0.3055587   0.7241166  )
       288           C   tau( 288) = (   0.3413408   0.3638195   0.0008083  )
       289           C   tau( 289) = (   0.3241300   0.3745229   1.2113469  )
       290           C   tau( 290) = (   0.2818393   0.3866722   1.2090874  )
       291           C   tau( 291) = (   0.2615647   0.3867382   1.1701721  )
       292           C   tau( 292) = (   0.2191981   0.3748625   1.1679048  )
       293           C   tau( 293) = (   0.2018982   0.3642813   1.1289928  )
       294           C   tau( 294) = (   0.1720476   0.3319536   1.1267431  )
       295           C   tau( 295) = (   0.1628568   0.3138829   1.0878317  )
       296           C   tau( 296) = (   0.1543874   0.2707102   1.0855569  )
       297           C   tau( 297) = (   0.1560339   0.2505148   1.0466369  )
       298           C   tau( 298) = (   0.1714917   0.2093222   1.0443811  )
       299           C   tau( 299) = (   0.1834913   0.1930111   1.0054543  )
       300           C   tau( 300) = (   0.2182657   0.1660559   1.0031926  )
       301           C   tau( 301) = (   0.2370282   0.1584613   0.9642662  )
       302           C   tau( 302) = (   0.2807694   0.1537518   0.9619922  )
       303           C   tau( 303) = (   0.3007087   0.1571199   0.9230559  )
       304           C   tau( 304) = (   0.3403964   0.1761301   0.9207954  )
       305           C   tau( 305) = (   0.3555373   0.1895235   0.8818737  )
       306           C   tau( 306) = (   0.3792971   0.2265627   0.8796131  )
       307           C   tau( 307) = (   0.3851038   0.2459780   0.8407152  )
       308           C   tau( 308) = (   0.3860247   0.2899583   0.8384488  )
       309           C   tau( 309) = (   0.3809296   0.3095873   0.7995518  )
       310           C   tau( 310) = (   0.2575602   0.3863262   1.2456676  )
       311           C   tau( 311) = (   0.2156271   0.3729990   1.2434016  )
       312           C   tau( 312) = (   0.1987151   0.3618316   1.2044849  )
       313           C   tau( 313) = (   0.1699979   0.3284944   1.2022320  )
       314           C   tau( 314) = (   0.1614472   0.3101158   1.1633219  )
       315           C   tau( 315) = (   0.1544756   0.2666742   1.1610496  )
       316           C   tau( 316) = (   0.1568301   0.2465493   1.1221355  )
       317           C   tau( 317) = (   0.1736995   0.2059142   1.1198826  )
       318           C   tau( 318) = (   0.1862586   0.1900312   1.0809583  )
       319           C   tau( 319) = (   0.2219444   0.1642972   1.0786864  )
       320           C   tau( 320) = (   0.2409660   0.1573777   1.0397618  )
       321           C   tau( 321) = (   0.2848490   0.1541924   1.0374899  )
       322           C   tau( 322) = (   0.3046624   0.1582847   0.9985584  )
       323           C   tau( 323) = (   0.3436828   0.1786143   0.9962870  )
       324           C   tau( 324) = (   0.3583681   0.1925253   0.9573533  )
       325           C   tau( 325) = (   0.3809057   0.2303173   0.9550741  )
       326           C   tau( 326) = (   0.3860706   0.2499020   0.9161561  )
       327           C   tau( 327) = (   0.3854830   0.2939151   0.9139016  )
       328           C   tau( 328) = (   0.3796237   0.3133633   0.8750151  )
       329           C   tau( 329) = (   0.1601410   0.3063025   1.2388062  )
       330           C   tau( 330) = (   0.1546760   0.2626432   1.2365376  )
       331           C   tau( 331) = (   0.1577404   0.2426084   1.1976251  )
       332           C   tau( 332) = (   0.1760027   0.2025795   1.1953742  )
       333           C   tau( 333) = (   0.1891111   0.1871348   1.1564549  )
       334           C   tau( 334) = (   0.2256654   0.1626430   1.1541793  )
       335           C   tau( 335) = (   0.2449249   0.1563915   1.1152573  )
       336           C   tau( 336) = (   0.2888928   0.1547280   1.1129916  )
       337           C   tau( 337) = (   0.3085628   0.1595175   1.0740597  )
       338           C   tau( 338) = (   0.3468675   0.1811704   1.0717847  )
       339           C   tau( 339) = (   0.3610899   0.1955802   1.0328544  )
       340           C   tau( 340) = (   0.3823391   0.2341164   1.0305757  )
       341           C   tau( 341) = (   0.3868668   0.2538659   0.9916511  )
       342           C   tau( 342) = (   0.3847536   0.2978223   0.9893997  )
       343           C   tau( 343) = (   0.3782395   0.3170538   0.9504913  )
       344           C   tau( 344) = (   0.1920457   0.1843492   1.2319502  )
       345           C   tau( 345) = (   0.2294215   0.1611293   1.2296771  )
       346           C   tau( 346) = (   0.2488933   0.1555375   1.1907566  )
       347           C   tau( 347) = (   0.2928945   0.1553934   1.1884994  )
       348           C   tau( 348) = (   0.3123954   0.1608655   1.1495697  )
       349           C   tau( 349) = (   0.3499263   0.1838339   1.1472937  )
       350           C   tau( 350) = (   0.3636590   0.1987233   1.1083656  )
       351           C   tau( 351) = (   0.3835640   0.2379650   1.1060948  )
       352           C   tau( 352) = (   0.3874400   0.2578561   1.0671626  )
       353           C   tau( 353) = (   0.3838032   0.3017088   1.0649093  )
       354           C   tau( 354) = (   0.3766629   0.3206908   1.0259915  )
       355           C   tau( 355) = (   0.3161669   0.1623386   1.2250828  )
       356           C   tau( 356) = (   0.3528824   0.1865930   1.2228077  )
       357           C   tau( 357) = (   0.3660944   0.2019517   1.1838793  )
       358           C   tau( 358) = (   0.3846402   0.2418520   1.1816171  )
       359           C   tau( 359) = (   0.3878360   0.2618641   1.1426842  )
       360           C   tau( 360) = (   0.3826926   0.3055662   1.1404243  )
       361           C   tau( 361) = (   0.3749114   0.3242887   1.1015040  )
       362           C   tau( 362) = (   0.3880788   0.2658850   1.2182085  )
       363           C   tau( 363) = (   0.3814238   0.3093806   1.2159411  )
       364           C   tau( 364) = (   0.3730108   0.3278223   1.1770175  )
       365           Se  tau( 365) = (   0.4513413   0.2478162   0.6129330  )

   Crystallographic axes

     site n.     atom                  positions (cryst. coord.)
         1           C   tau(   1) = (  0.3709674  0.5383191  0.0024551  )
         2           C   tau(   2) = (  0.3687916  0.5438434  0.0628897  )
         3           C   tau(   3) = (  0.3380511  0.5950046  0.0610801  )
         4           C   tau(   4) = (  0.3204902  0.6114088  0.0299257  )
         5           C   tau(   5) = (  0.2778085  0.6287696  0.0281089  )
         6           C   tau(   6) = (  0.3664736  0.5492576  0.1233191  )
         7           C   tau(   7) = (  0.3346638  0.5986578  0.1215061  )
         8           C   tau(   8) = (  0.3167735  0.6140576  0.0903513  )
         9           C   tau(   9) = (  0.2737464  0.6290035  0.0885266  )
        10           C   tau(  10) = (  0.2535408  0.6268528  0.0573785  )
        11           C   tau(  11) = (  0.2120893  0.6028798  0.0555680  )
        12           C   tau(  12) = (  0.1955852  0.5837997  0.0244182  )
        13           C   tau(  13) = (  0.1680334  0.5280537  0.0226100  )
        14           C   tau(  14) = (  0.3640036  0.5545731  0.1837419  )
        15           C   tau(  15) = (  0.3311740  0.6021732  0.1819260  )
        16           C   tau(  16) = (  0.3129824  0.6165261  0.1507714  )
        17           C   tau(  17) = (  0.2696637  0.6290461  0.1489438  )
        18           C   tau(  18) = (  0.2495270  0.6257372  0.1177934  )
        19           C   tau(  19) = (  0.2086129  0.5994544  0.1159872  )
        20           C   tau(  20) = (  0.1925298  0.5794627  0.0848365  )
        21           C   tau(  21) = (  0.1661789  0.5222094  0.0830249  )
        22           C   tau(  22) = (  0.1589380  0.4914622  0.0518822  )
        23           C   tau(  23) = (  0.1549926  0.4202533  0.0500710  )
        24           C   tau(  24) = (  0.1587592  0.3878878  0.0189270  )
        25           C   tau(  25) = (  0.1783988  0.3239078  0.0171249  )
        26           C   tau(  26) = (  0.3614212  0.5598258  0.2441609  )
        27           C   tau(  27) = (  0.3276129  0.6056008  0.2423477  )
        28           C   tau(  28) = (  0.3091226  0.6188613  0.2111873  )
        29           C   tau(  29) = (  0.2655697  0.6289282  0.2093622  )
        30           C   tau(  30) = (  0.2455204  0.6244499  0.1782079  )
        31           C   tau(  31) = (  0.2051923  0.5958745  0.1764086  )
        32           C   tau(  32) = (  0.1895496  0.5749769  0.1452590  )
        33           C   tau(  33) = (  0.1644317  0.5162764  0.1434459  )
        34           C   tau(  34) = (  0.1578626  0.4851322  0.1122990  )
        35           C   tau(  35) = (  0.1554338  0.4137475  0.1104920  )
        36           C   tau(  36) = (  0.1598936  0.3816122  0.0793460  )
        37           C   tau(  37) = (  0.1808775  0.3187682  0.0775414  )
        38           C   tau(  38) = (  0.1950459  0.2951984  0.0464009  )
        39           C   tau(  39) = (  0.2332014  0.2595907  0.0445863  )
        40           C   tau(  40) = (  0.2528698  0.2515980  0.0134401  )
        41           C   tau(  41) = (  0.2968492  0.2538316  0.0116377  )
        42           C   tau(  42) = (  0.3706924  0.5384675  0.3357242  )
        43           C   tau(  43) = (  0.3587352  0.5649785  0.3045776  )
        44           C   tau(  44) = (  0.3240039  0.6088666  0.3027820  )
        45           C   tau(  45) = (  0.3052348  0.6210874  0.2716080  )
        46           C   tau(  46) = (  0.2614910  0.6286736  0.2697906  )
        47           C   tau(  47) = (  0.2415439  0.6230110  0.2386352  )
        48           C   tau(  48) = (  0.2018572  0.5921422  0.2368389  )
        49           C   tau(  49) = (  0.1866744  0.5703390  0.2056882  )
        50           C   tau(  50) = (  0.1628376  0.5102501  0.2038748  )
        51           C   tau(  51) = (  0.1569212  0.4787565  0.1727251  )
        52           C   tau(  52) = (  0.1560129  0.4072752  0.1709213  )
        53           C   tau(  53) = (  0.1611460  0.3754107  0.1397729  )
        54           C   tau(  54) = (  0.1834534  0.3137833  0.1379617  )
        55           C   tau(  55) = (  0.1981230  0.2910248  0.1068201  )
        56           C   tau(  56) = (  0.2370144  0.2575872  0.1050103  )
        57           C   tau(  57) = (  0.2568474  0.2506960  0.0738666  )
        58           C   tau(  58) = (  0.3007556  0.2553975  0.0720681  )
        59           C   tau(  59) = (  0.3198522  0.2664357  0.0409195  )
        60           C   tau(  60) = (  0.3557115  0.3078697  0.0391018  )
        61           C   tau(  61) = (  0.3684036  0.3335397  0.0079476  )
        62           C   tau(  62) = (  0.3855665  0.3993744  0.0061425  )
        63           C   tau(  63) = (  0.3683361  0.5434292  0.3961307  )
        64           C   tau(  64) = (  0.3559081  0.5696655  0.3649921  )
        65           C   tau(  65) = (  0.3203157  0.6116273  0.3632312  )
        66           C   tau(  66) = (  0.3013282  0.6230625  0.3320606  )
        67           C   tau(  67) = (  0.2574370  0.6282104  0.3302484  )
        68           C   tau(  68) = (  0.2376235  0.6213902  0.2990794  )
        69           C   tau(  69) = (  0.1986505  0.5882224  0.2972771  )
        70           C   tau(  70) = (  0.1839264  0.5655681  0.2661259  )
        71           C   tau(  71) = (  0.1614064  0.5041448  0.2643135  )
        72           C   tau(  72) = (  0.1561455  0.4723382  0.2331633  )
        73           C   tau(  73) = (  0.1567569  0.4008480  0.2313597  )
        74           C   tau(  74) = (  0.1625484  0.3692920  0.2002049  )
        75           C   tau(  75) = (  0.1861377  0.3089460  0.1983846  )
        76           C   tau(  76) = (  0.2012700  0.2870195  0.1672424  )
        77           C   tau(  77) = (  0.2408451  0.2557642  0.1654374  )
        78           C   tau(  78) = (  0.2608236  0.2500139  0.1342944  )
        79           C   tau(  79) = (  0.3046025  0.2571699  0.1324953  )
        80           C   tau(  80) = (  0.3234713  0.2692679  0.1013516  )
        81           C   tau(  81) = (  0.3584362  0.3126773  0.0995394  )
        82           C   tau(  82) = (  0.3705829  0.3390424  0.0683868  )
        83           C   tau(  83) = (  0.3863435  0.4057994  0.0665856  )
        84           C   tau(  84) = (  0.3881661  0.4385934  0.0354288  )
        85           C   tau(  85) = (  0.3800070  0.5088502  0.0336083  )
        86           C   tau(  86) = (  0.3660946  0.5471909  0.4565434  )
        87           C   tau(  87) = (  0.3528034  0.5730080  0.4254673  )
        88           C   tau(  88) = (  0.3165015  0.6133116  0.4237118  )
        89           C   tau(  89) = (  0.2973601  0.6242958  0.3925436  )
        90           C   tau(  90) = (  0.2534147  0.6272731  0.3907229  )
        91           C   tau(  91) = (  0.2337402  0.6195354  0.3595322  )
        92           C   tau(  92) = (  0.1955155  0.5841282  0.3577198  )
        93           C   tau(  93) = (  0.1813192  0.5606154  0.3265693  )
        94           C   tau(  94) = (  0.1601561  0.4979306  0.3247578  )
        95           C   tau(  95) = (  0.1555629  0.4658555  0.2936006  )
        96           C   tau(  96) = (  0.1576665  0.3944503  0.2917944  )
        97           C   tau(  97) = (  0.1640884  0.3632327  0.2606381  )
        98           C   tau(  98) = (  0.1889121  0.3041995  0.2588126  )
        99           C   tau(  99) = (  0.2045030  0.2831519  0.2276678  )
       100           C   tau( 100) = (  0.2446993  0.2540821  0.2258651  )
       101           C   tau( 101) = (  0.2647932  0.2494871  0.1947187  )
       102           C   tau( 102) = (  0.3083929  0.2591035  0.1929175  )
       103           C   tau( 103) = (  0.3270004  0.2722901  0.1617828  )
       104           C   tau( 104) = (  0.3610246  0.3176449  0.1599774  )
       105           C   tau( 105) = (  0.3726241  0.3446740  0.1288268  )
       106           C   tau( 106) = (  0.3869521  0.4122767  0.1270246  )
       107           C   tau( 107) = (  0.3880967  0.4451490  0.0958686  )
       108           C   tau( 108) = (  0.3784479  0.5149082  0.0940435  )
       109           C   tau( 109) = (  0.3636219  0.5521668  0.5172489  )
       110           C   tau( 110) = (  0.3499454  0.5765918  0.4859717  )
       111           C   tau( 111) = (  0.3128670  0.6145154  0.4841533  )
       112           C   tau( 112) = (  0.2933890  0.6246730  0.4529935  )
       113           C   tau( 113) = (  0.2494463  0.6257871  0.4511799  )
       114           C   tau( 114) = (  0.2299099  0.6172524  0.4200021  )
       115           C   tau( 115) = (  0.1924279  0.5798002  0.4181769  )
       116           C   tau( 116) = (  0.1787861  0.5555016  0.3870070  )
       117           C   tau( 117) = (  0.1590029  0.4916641  0.3851965  )
       118           C   tau( 118) = (  0.1551086  0.4593411  0.3540380  )
       119           C   tau( 119) = (  0.1586802  0.3880818  0.3522292  )
       120           C   tau( 120) = (  0.1657620  0.3572362  0.3210779  )
       121           C   tau( 121) = (  0.1917679  0.2995641  0.3192541  )
       122           C   tau( 122) = (  0.2077934  0.2793950  0.2880964  )
       123           C   tau( 123) = (  0.2485641  0.2525431  0.2862944  )
       124           C   tau( 124) = (  0.2687486  0.2490782  0.2551550  )
       125           C   tau( 125) = (  0.3121267  0.2611838  0.2533467  )
       126           C   tau( 126) = (  0.3304391  0.2754767  0.2222123  )
       127           C   tau( 127) = (  0.3634472  0.3227630  0.2204081  )
       128           C   tau( 128) = (  0.3744915  0.3504309  0.1892630  )
       129           C   tau( 129) = (  0.3873672  0.4188085  0.1874568  )
       130           C   tau( 130) = (  0.3878425  0.4517126  0.1563052  )
       131           C   tau( 131) = (  0.3767126  0.5208919  0.1544787  )
       132           C   tau( 132) = (  0.3611377  0.5591124  0.5776112  )
       133           C   tau( 133) = (  0.3468325  0.5816085  0.5464409  )
       134           C   tau( 134) = (  0.3089584  0.6178471  0.5445746  )
       135           C   tau( 135) = (  0.2893909  0.6257073  0.5134351  )
       136           C   tau( 136) = (  0.2454897  0.6243982  0.5116275  )
       137           C   tau( 137) = (  0.2261180  0.6145665  0.4804544  )
       138           C   tau( 138) = (  0.1894794  0.5752408  0.4786307  )
       139           C   tau( 139) = (  0.1763118  0.5502480  0.4474488  )
       140           C   tau( 140) = (  0.1579116  0.4853359  0.4456447  )
       141           C   tau( 141) = (  0.1547330  0.4528117  0.4144872  )
       142           C   tau( 142) = (  0.1597802  0.3817959  0.4126749  )
       143           C   tau( 143) = (  0.1675210  0.3513268  0.3815152  )
       144           C   tau( 144) = (  0.1946983  0.2951218  0.3796962  )
       145           C   tau( 145) = (  0.2111370  0.2758032  0.3485448  )
       146           C   tau( 146) = (  0.2524809  0.2513023  0.3467469  )
       147           C   tau( 147) = (  0.2727167  0.2489288  0.3156068  )
       148           C   tau( 148) = (  0.3157967  0.2635002  0.3137825  )
       149           C   tau( 149) = (  0.3337855  0.2788157  0.2826339  )
       150           C   tau( 150) = (  0.3657098  0.3280350  0.2808159  )
       151           C   tau( 151) = (  0.3761653  0.3563146  0.2496910  )
       152           C   tau( 152) = (  0.3875651  0.4253964  0.2478761  )
       153           C   tau( 153) = (  0.3873790  0.4582910  0.2167276  )
       154           C   tau( 154) = (  0.3748170  0.5268127  0.2149058  )
       155           C   tau( 155) = (  0.3587512  0.5648781  0.6380289  )
       156           C   tau( 156) = (  0.3440455  0.5874037  0.6068873  )
       157           C   tau( 157) = (  0.3052416  0.6209757  0.6050388  )
       158           C   tau( 158) = (  0.2854245  0.6276783  0.5738658  )
       159           C   tau( 159) = (  0.2415176  0.6232997  0.5720727  )
       160           C   tau( 160) = (  0.2224173  0.6121907  0.5409351  )
       161           C   tau( 161) = (  0.1866190  0.5706279  0.5391125  )
       162           C   tau( 162) = (  0.1740131  0.5448075  0.5079534  )
       163           C   tau( 163) = (  0.1570211  0.4789557  0.5061411  )
       164           C   tau( 164) = (  0.1545134  0.4462722  0.4749472  )
       165           C   tau( 165) = (  0.1610308  0.3756546  0.4731260  )
       166           C   tau( 166) = (  0.1693547  0.3455937  0.4419700  )
       167           C   tau( 167) = (  0.1977761  0.2910218  0.4401576  )
       168           C   tau( 168) = (  0.2146083  0.2726176  0.4090182  )
       169           C   tau( 169) = (  0.2565039  0.2508332  0.4072246  )
       170           C   tau( 170) = (  0.2767278  0.2493992  0.3760564  )
       171           C   tau( 171) = (  0.3194153  0.2664668  0.3742031  )
       172           C   tau( 172) = (  0.3370744  0.2824146  0.3430608  )
       173           C   tau( 173) = (  0.3679198  0.3334849  0.3412102  )
       174           C   tau( 174) = (  0.3776706  0.3623582  0.3100782  )
       175           C   tau( 175) = (  0.3875894  0.4319956  0.3082514  )
       176           C   tau( 176) = (  0.3867316  0.4648813  0.2771187  )
       177           C   tau( 177) = (  0.3728009  0.5327035  0.2753166  )
       178           C   tau( 178) = (  0.3561183  0.5696466  0.6984552  )
       179           C   tau( 179) = (  0.3409872  0.5916844  0.6673092  )
       180           C   tau( 180) = (  0.3014283  0.6230045  0.6654949  )
       181           C   tau( 181) = (  0.2814553  0.6287978  0.6343508  )
       182           C   tau( 182) = (  0.2376719  0.6215682  0.6325462  )
       183           C   tau( 183) = (  0.2188160  0.6094200  0.6013946  )
       184           C   tau( 184) = (  0.1839712  0.5657904  0.5995718  )
       185           C   tau( 185) = (  0.1718633  0.5393532  0.5684076  )
       186           C   tau( 186) = (  0.1562342  0.4725320  0.5666005  )
       187           C   tau( 187) = (  0.1544023  0.4397396  0.5354446  )
       188           C   tau( 188) = (  0.1624326  0.3694733  0.5336298  )
       189           C   tau( 189) = (  0.1714272  0.3399919  0.5024502  )
       190           C   tau( 190) = (  0.2010091  0.2872661  0.5006392  )
       191           C   tau( 191) = (  0.2182949  0.2699876  0.4694654  )
       192           C   tau( 192) = (  0.2606476  0.2511770  0.4676523  )
       193           C   tau( 193) = (  0.2808005  0.2509795  0.4365146  )
       194           C   tau( 194) = (  0.3229863  0.2709987  0.4346498  )
       195           C   tau( 195) = (  0.3402564  0.2870879  0.4034788  )
       196           C   tau( 196) = (  0.3702074  0.3393286  0.4015797  )
       197           C   tau( 197) = (  0.3792645  0.3684617  0.3703754  )
       198           C   tau( 198) = (  0.3877122  0.4385248  0.3685393  )
       199           C   tau( 199) = (  0.3860340  0.4714047  0.3374905  )
       200           C   tau( 200) = (  0.3533948  0.5742089  0.7588754  )
       201           C   tau( 201) = (  0.3377911  0.5953711  0.7277436  )
       202           C   tau( 202) = (  0.2975710  0.6244184  0.7259474  )
       203           C   tau( 203) = (  0.2774745  0.6291301  0.6948083  )
       204           C   tau( 204) = (  0.2338929  0.6194052  0.6929951  )
       205           C   tau( 205) = (  0.2153040  0.6062665  0.6618370  )
       206           C   tau( 206) = (  0.1813744  0.5607499  0.6600163  )
       207           C   tau( 207) = (  0.1698473  0.5336866  0.6288581  )
       208           C   tau( 208) = (  0.1556049  0.4660444  0.6270476  )
       209           C   tau( 209) = (  0.1544980  0.4331630  0.5958905  )
       210           C   tau( 210) = (  0.1640341  0.3633907  0.5940707  )
       211           C   tau( 211) = (  0.1735935  0.3343989  0.5629011  )
       212           C   tau( 212) = (  0.2042772  0.2831498  0.5610881  )
       213           C   tau( 213) = (  0.2219275  0.2670824  0.5299123  )
       214           C   tau( 214) = (  0.2646824  0.2505858  0.5280892  )
       215           C   tau( 215) = (  0.2851002  0.2526472  0.4969316  )
       216           C   tau( 216) = (  0.3267704  0.2746152  0.4951221  )
       217           C   tau( 217) = (  0.3437114  0.2928383  0.4638417  )
       218           C   tau( 218) = (  0.3741633  0.3435799  0.4616633  )
       219           C   tau( 219) = (  0.3820194  0.3738839  0.4307616  )
       220           C   tau( 220) = (  0.3889906  0.4451561  0.4289153  )
       221           C   tau( 221) = (  0.3853467  0.4775908  0.3978497  )
       222           C   tau( 222) = (  0.3505543  0.5786675  0.8193033  )
       223           C   tau( 223) = (  0.3344985  0.5988728  0.7881695  )
       224           C   tau( 224) = (  0.2936898  0.6256018  0.7863777  )
       225           C   tau( 225) = (  0.2735053  0.6291687  0.7552369  )
       226           C   tau( 226) = (  0.2301434  0.6170595  0.7534234  )
       227           C   tau( 227) = (  0.2118430  0.6028967  0.7222791  )
       228           C   tau( 228) = (  0.1788525  0.5555884  0.7204613  )
       229           C   tau( 229) = (  0.1678980  0.5279081  0.6892994  )
       230           C   tau( 230) = (  0.1550553  0.4595369  0.6874835  )
       231           C   tau( 231) = (  0.1546599  0.4266158  0.6563263  )
       232           C   tau( 232) = (  0.1657196  0.3574149  0.6545089  )
       233           C   tau( 233) = (  0.1759373  0.3289697  0.6233566  )
       234           C   tau( 234) = (  0.2076408  0.2793929  0.6215516  )
       235           C   tau( 235) = (  0.2255418  0.2640373  0.5903655  )
       236           C   tau( 236) = (  0.2685850  0.2493427  0.5885349  )
       237           C   tau( 237) = (  0.2888035  0.2523525  0.5573692  )
       238           C   tau( 238) = (  0.3300829  0.2769351  0.5556253  )
       239           C   tau( 239) = (  0.3468726  0.2966698  0.5245494  )
       240           C   tau( 240) = (  0.3761252  0.3493866  0.5231741  )
       241           C   tau( 241) = (  0.3899921  0.3757243  0.4914657  )
       242           C   tau( 242) = (  0.3959520  0.4533460  0.4896252  )
       243           C   tau( 243) = (  0.3864841  0.4844133  0.4579146  )
       244           C   tau( 244) = (  0.3476004  0.5830124  0.8797372  )
       245           C   tau( 245) = (  0.3311373  0.6022763  0.8485918  )
       246           C   tau( 246) = (  0.2897822  0.6266916  0.8467985  )
       247           C   tau( 247) = (  0.2695385  0.6290837  0.8156616  )
       248           C   tau( 248) = (  0.2264504  0.6145799  0.8138471  )
       249           C   tau( 249) = (  0.2084510  0.5993763  0.7827083  )
       250           C   tau( 250) = (  0.1764553  0.5503058  0.7808975  )
       251           C   tau( 251) = (  0.1660616  0.5220471  0.7497391  )
       252           C   tau( 252) = (  0.1546477  0.4529990  0.7479214  )
       253           C   tau( 253) = (  0.1549396  0.4200813  0.7167684  )
       254           C   tau( 254) = (  0.1674983  0.3515604  0.7149553  )
       255           C   tau( 255) = (  0.1783507  0.3237342  0.6837999  )
       256           C   tau( 256) = (  0.2111123  0.2760189  0.6819983  )
       257           C   tau( 257) = (  0.2292897  0.2615012  0.6508344  )
       258           C   tau( 258) = (  0.2726085  0.2489256  0.6490160  )
       259           C   tau( 259) = (  0.2927512  0.2524251  0.6178476  )
       260           C   tau( 260) = (  0.3335950  0.2788922  0.6160994  )
       261           C   tau( 261) = (  0.3496112  0.2993837  0.5849639  )
       262           C   tau( 262) = (  0.3760433  0.3564307  0.5832365  )
       263           C   tau( 263) = (  0.3844855  0.3864314  0.5521748  )
       264           C   tau( 264) = (  0.3885073  0.4583072  0.5503367  )
       265           C   tau( 265) = (  0.3854774  0.4908267  0.5194316  )
       266           C   tau( 266) = (  0.3445254  0.5871898  0.9401717  )
       267           C   tau( 267) = (  0.3276780  0.6055253  0.9090213  )
       268           C   tau( 268) = (  0.2858291  0.6276184  0.9072220  )
       269           C   tau( 269) = (  0.2655578  0.6288523  0.8760821  )
       270           C   tau( 270) = (  0.2228078  0.6119421  0.8742676  )
       271           C   tau( 271) = (  0.2051430  0.5957323  0.8431271  )
       272           C   tau( 272) = (  0.1741922  0.5449133  0.8413240  )
       273           C   tau( 273) = (  0.1643775  0.5160870  0.8101779  )
       274           C   tau( 274) = (  0.1544273  0.4464425  0.8083579  )
       275           C   tau( 275) = (  0.1553958  0.4135597  0.7772052  )
       276           C   tau( 276) = (  0.1694188  0.3457967  0.7753968  )
       277           C   tau( 277) = (  0.1808515  0.3186222  0.7442401  )
       278           C   tau( 278) = (  0.2146478  0.2728408  0.7424372  )
       279           C   tau( 279) = (  0.2331365  0.2593931  0.7112860  )
       280           C   tau( 280) = (  0.2766834  0.2492447  0.7094684  )
       281           C   tau( 281) = (  0.2967357  0.2536048  0.6782959  )
       282           C   tau( 282) = (  0.3370349  0.2822920  0.6765105  )
       283           C   tau( 283) = (  0.3526390  0.3032285  0.6453685  )
       284           C   tau( 284) = (  0.3776366  0.3621292  0.6435939  )
       285           C   tau( 285) = (  0.3842289  0.3933515  0.6125483  )
       286           C   tau( 286) = (  0.3866333  0.4646409  0.6107238  )
       287           C   tau( 287) = (  0.3822701  0.4965135  0.5795189  )
       288           C   tau( 288) = (  0.3413408  0.5911836  0.0006469  )
       289           C   tau( 289) = (  0.3241300  0.6085761  0.9694549  )
       290           C   tau( 290) = (  0.2818393  0.6283179  0.9676466  )
       291           C   tau( 291) = (  0.2615647  0.6284252  0.9365022  )
       292           C   tau( 292) = (  0.2191981  0.6091279  0.9346876  )
       293           C   tau( 293) = (  0.2018982  0.5919341  0.9035459  )
       294           C   tau( 294) = (  0.1720476  0.5394037  0.9017455  )
       295           C   tau( 295) = (  0.1628568  0.5100399  0.8706042  )
       296           C   tau( 296) = (  0.1543874  0.4398870  0.8687837  )
       297           C   tau( 297) = (  0.1560339  0.4070708  0.8376355  )
       298           C   tau( 298) = (  0.1714917  0.3401354  0.8358303  )
       299           C   tau( 299) = (  0.1834913  0.3136309  0.8046767  )
       300           C   tau( 300) = (  0.2182657  0.2698303  0.8028666  )
       301           C   tau( 301) = (  0.2370282  0.2574897  0.7717134  )
       302           C   tau( 302) = (  0.2807694  0.2498369  0.7698934  )
       303           C   tau( 303) = (  0.3007087  0.2553100  0.7387323  )
       304           C   tau( 304) = (  0.3403964  0.2862003  0.7369231  )
       305           C   tau( 305) = (  0.3555373  0.3079637  0.7057737  )
       306           C   tau( 306) = (  0.3792971  0.3681501  0.7039645  )
       307           C   tau( 307) = (  0.3851038  0.3996986  0.6728341  )
       308           C   tau( 308) = (  0.3860247  0.4711639  0.6710202  )
       309           C   tau( 309) = (  0.3809296  0.5030599  0.6398905  )
       310           C   tau( 310) = (  0.2575602  0.6277557  0.9969221  )
       311           C   tau( 311) = (  0.2156271  0.6060998  0.9951086  )
       312           C   tau( 312) = (  0.1987151  0.5879535  0.9639631  )
       313           C   tau( 313) = (  0.1699979  0.5337826  0.9621601  )
       314           C   tau( 314) = (  0.1614472  0.5039185  0.9310199  )
       315           C   tau( 315) = (  0.1544756  0.4333287  0.9292013  )
       316           C   tau( 316) = (  0.1568301  0.4006271  0.8980579  )
       317           C   tau( 317) = (  0.1736995  0.3345976  0.8962549  )
       318           C   tau( 318) = (  0.1862586  0.3087886  0.8651034  )
       319           C   tau( 319) = (  0.2219444  0.2669726  0.8632852  )
       320           C   tau( 320) = (  0.2409660  0.2557288  0.8321333  )
       321           C   tau( 321) = (  0.2848490  0.2505530  0.8303151  )
       322           C   tau( 322) = (  0.3046624  0.2572026  0.7991578  )
       323           C   tau( 323) = (  0.3436828  0.2902370  0.7973400  )
       324           C   tau( 324) = (  0.3583681  0.3128414  0.7661808  )
       325           C   tau( 325) = (  0.3809057  0.3742511  0.7643568  )
       326           C   tau( 326) = (  0.3860706  0.4060749  0.7332103  )
       327           C   tau( 327) = (  0.3854830  0.4775934  0.7314060  )
       328           C   tau( 328) = (  0.3796237  0.5091955  0.7002846  )
       329           C   tau( 329) = (  0.1601410  0.4977222  0.9914309  )
       330           C   tau( 330) = (  0.1546760  0.4267786  0.9896153  )
       331           C   tau( 331) = (  0.1577404  0.3942233  0.9584732  )
       332           C   tau( 332) = (  0.1760027  0.3291789  0.9566717  )
       333           C   tau( 333) = (  0.1891111  0.3040822  0.9255242  )
       334           C   tau( 334) = (  0.2256654  0.2642846  0.9237030  )
       335           C   tau( 335) = (  0.2449249  0.2541263  0.8925532  )
       336           C   tau( 336) = (  0.2888928  0.2514232  0.8907400  )
       337           C   tau( 337) = (  0.3085628  0.2592059  0.8595823  )
       338           C   tau( 338) = (  0.3468675  0.2943905  0.8577616  )
       339           C   tau( 339) = (  0.3610899  0.3178054  0.8266053  )
       340           C   tau( 340) = (  0.3823391  0.3804244  0.8247816  )
       341           C   tau( 341) = (  0.3868668  0.4125161  0.7936298  )
       342           C   tau( 342) = (  0.3847536  0.4839424  0.7918280  )
       343           C   tau( 343) = (  0.3782395  0.5151925  0.7606891  )
       344           C   tau( 344) = (  0.1920457  0.2995558  0.9859439  )
       345           C   tau( 345) = (  0.2294215  0.2618249  0.9841247  )
       346           C   tau( 346) = (  0.2488933  0.2527386  0.9529762  )
       347           C   tau( 347) = (  0.2928945  0.2525045  0.9511697  )
       348           C   tau( 348) = (  0.3123954  0.2613962  0.9200138  )
       349           C   tau( 349) = (  0.3499263  0.2987185  0.9181923  )
       350           C   tau( 350) = (  0.3636590  0.3229127  0.8870378  )
       351           C   tau( 351) = (  0.3835640  0.3866781  0.8852204  )
       352           C   tau( 352) = (  0.3874400  0.4189999  0.8540625  )
       353           C   tau( 353) = (  0.3838032  0.4902578  0.8522592  )
       354           C   tau( 354) = (  0.3766629  0.5211023  0.8211128  )
       355           C   tau( 355) = (  0.3161669  0.2637900  0.9804479  )
       356           C   tau( 356) = (  0.3528824  0.3032019  0.9786270  )
       357           C   tau( 357) = (  0.3660944  0.3281587  0.9474723  )
       358           C   tau( 358) = (  0.3846402  0.3929941  0.9456618  )
       359           C   tau( 359) = (  0.3878360  0.4255127  0.9145033  )
       360           C   tau( 360) = (  0.3826926  0.4965258  0.9126947  )
       361           C   tau( 361) = (  0.3749114  0.5269487  0.8815463  )
       362           C   tau( 362) = (  0.3880788  0.4320463  0.9749462  )
       363           C   tau( 363) = (  0.3814238  0.5027240  0.9731317  )
       364           C   tau( 364) = (  0.3730108  0.5326905  0.9419806  )
       365           Se  tau( 365) = (  0.4513413  0.4026857  0.4905373  )

     number of k points=     8
                       cart. coord. in units 2pi/alat
        k(    1) = (   0.0000000   0.0000000   0.0000000), wk =   0.2500000
        k(    2) = (   0.0000000   0.0000000   0.1000389), wk =   0.2500000
        k(    3) = (   0.0000000   0.0000000   0.2000779), wk =   0.2500000
        k(    4) = (   0.0000000   0.0000000   0.3001168), wk =   0.2500000
        k(    5) = (   0.0000000   0.0000000   0.4001558), wk =   0.2500000
        k(    6) = (   0.0000000   0.0000000   0.5001947), wk =   0.2500000
        k(    7) = (   0.0000000   0.0000000   0.6002336), wk =   0.2500000
        k(    8) = (   0.0000000   0.0000000   0.7002726), wk =   0.2500000

                       cryst. coord.
        k(    1) = (   0.0000000   0.0000000   0.0000000), wk =   0.2500000
        k(    2) = (   0.0000000   0.0000000   0.1250000), wk =   0.2500000
        k(    3) = (   0.0000000   0.0000000   0.2500000), wk =   0.2500000
        k(    4) = (   0.0000000   0.0000000   0.3750000), wk =   0.2500000
        k(    5) = (   0.0000000   0.0000000   0.5000000), wk =   0.2500000
        k(    6) = (   0.0000000   0.0000000   0.6250000), wk =   0.2500000
        k(    7) = (   0.0000000   0.0000000   0.7500000), wk =   0.2500000
        k(    8) = (   0.0000000   0.0000000   0.8750000), wk =   0.2500000

     Dense  grid: 11053081 G-vectors     FFT dimensions: ( 320, 192, 384)

     Dynamical RAM for                 wfc:      43.92 MB

     Dynamical RAM for     wfc (w. buffer):      43.92 MB

     Dynamical RAM for           str. fact:       0.88 MB

     Dynamical RAM for           local pot:       0.00 MB

     Dynamical RAM for          nlocal pot:     160.86 MB

     Dynamical RAM for                qrad:       2.49 MB

     Dynamical RAM for          rho,v,vnew:       2.72 MB

     Dynamical RAM for           G-vectors:       1.87 MB

     Dynamical RAM for          h,s,v(r/c):       1.83 MB

     Dynamical RAM for          <psi|beta>:      35.77 MB

     Dynamical RAM for                 psi:      87.84 MB

     Dynamical RAM for                hpsi:      87.84 MB

     Dynamical RAM for      wfcinit/wfcrot:     102.50 MB

     Estimated static dynamical RAM per process >     216.40 MB

     Estimated max dynamical RAM per process >     429.68 MB

     Estimated total dynamical RAM >     644.52 GB

     The potential is recalculated from file :
     ./CNT_PBE.save/charge-density

     Starting wfcs are random

     Band Structure Calculation
     Davidson diagonalization with overlap

     Computing kpt #:     1  of     2 on this pool
     c_bands:  2 eigenvalues not converged
     total cpu time spent up to now is     3952.3 secs

     Computing kpt #:     2  of     2 on this pool
     total cpu time spent up to now is     7859.9 secs

     ethr =  5.03E-12,  avg # of iterations =116.9

     total cpu time spent up to now is     7859.9 secs

     End of band structure calculation

          k = 0.0000 0.0000 0.0000 (****** PWs)   bands (ev):

   -22.6786 -22.6154 -22.6062 -22.4732 -22.4608 -22.4205 -22.4098 -22.4014
   -22.3953 -22.3940 -22.3933 -22.2112 -22.1978 -22.1978 -22.1969 -22.0856
   -22.0813 -21.8909 -21.8707 -21.8703 -21.8681 -21.8396 -21.8326 -21.7808
   -21.7680 -21.7662 -21.7661 -21.6292 -21.6229 -21.5850 -21.5724 -21.5720
   -21.5707 -21.4252 -21.4136 -21.4133 -21.4108 -21.2628 -21.2487 -21.2473
   -21.2448 -21.0434 -21.0372 -20.8716 -20.8300 -20.8299 -20.8269 -20.8192
   -20.8180 -20.8021 -20.7966 -20.7948 -20.7917 -20.7608 -20.7568 -20.7516
   -20.7514 -20.5768 -20.5630 -20.5617 -20.5595 -20.3381 -20.3271 -20.2699
   -20.2458 -20.2424 -20.2393 -20.2232 -20.2184 -20.2178 -20.2140 -20.1324
   -20.1225 -20.1223 -20.1208 -19.8215 -19.8027 -19.7977 -19.7946 -19.5659
   -19.5206 -19.5200 -19.5169 -19.5042 -19.4992 -19.4652 -19.4631 -19.4135
   -19.4032 -19.3950 -19.3943 -19.3177 -19.2991 -19.2987 -19.2975 -19.2519
   -19.2390 -19.2328 -19.2291 -19.2151 -19.2144 -19.2101 -19.2082 -18.9256
   -18.9058 -18.9041 -18.8993 -18.7381 -18.7121 -18.7113 -18.7081 -18.5998
   -18.5644 -18.5613 -18.5592 -18.5545 -18.5507 -18.4895 -18.4771 -18.4768
   -18.4707 -18.3879 -18.3726 -18.3716 -18.3691 -18.0038 -17.9403 -17.9372
   -17.9311 -17.8891 -17.8750 -17.8518 -17.8271 -17.8246 -17.8217 -17.8153
   -17.8121 -17.8057 -17.8047 -17.7982 -17.7962 -17.7908 -17.7895 -17.6543
   -17.6515 -17.6301 -17.6254 -17.5554 -17.5418 -17.4358 -17.3860 -17.3782
   -17.3693 -17.3635 -17.3626 -17.3426 -17.3312 -17.3218 -17.3159 -17.3122
   -17.3024 -17.2491 -17.2197 -17.2083 -17.0653 -17.0382 -16.9784 -16.9755
   -16.9357 -16.9271 -16.7997 -16.7712 -16.5592 -16.4889 -16.4810 -16.4796
   -16.4699 -16.4543 -16.4325 -16.4227 -16.2484 -16.2130 -16.2111 -16.0619
   -16.0189 -16.0153 -15.9580 -15.8919 -15.7835 -15.7780 -15.6101 -15.6055
   -15.5962 -15.5928 -15.5741 -15.5509 -15.5238 -15.5140 -15.5135 -15.4589
   -15.4555 -15.4506 -15.4198 -15.4182 -15.4150 -15.4096 -15.4032 -15.3989
   -15.3762 -15.3718 -15.3662 -15.3601 -15.3593 -15.3251 -15.3221 -15.2300
   -15.1424 -15.1256 -15.1126 -15.0658 -15.0647 -15.0536 -15.0372 -15.0181
   -14.9876 -14.9116 -14.8729 -14.8566 -14.8438 -14.8361 -14.8027 -14.7227
   -14.6003 -14.5696 -14.5417 -14.5393 -14.5360 -14.5061 -14.4684 -14.4555
   -14.4128 -14.3945 -14.3368 -14.3235 -14.2789 -14.2743 -14.2616 -14.2516
   -14.0032 -13.9964 -13.8672 -13.8553 -13.5596 -13.5196 -13.5134 -13.5000
   -13.4766 -13.4570 -13.4392 -13.4264 -13.4129 -13.4080 -13.4065 -13.4028
   -13.4005 -13.3958 -13.3876 -13.3824 -13.3743 -13.3701 -13.3585 -13.3563
   -13.3462 -13.3384 -13.3348 -13.3321 -13.3293 -13.3033 -13.1414 -13.1278
   -13.0760 -13.0728 -13.0693 -13.0663 -13.0534 -13.0494 -13.0445 -13.0381
   -13.0200 -13.0099 -12.9938 -12.9776 -12.8677 -12.8643 -12.5714 -12.5644
   -12.3812 -12.3805 -12.3665 -12.3570 -12.2520 -12.2486 -12.2451 -12.2423
   -12.1882 -12.1842 -12.1472 -12.1449 -12.1324 -12.1281 -12.0614 -12.0605
   -12.0208 -12.0148 -11.9962 -11.9948 -11.9723 -11.9714 -11.9005 -11.8994
   -11.8813 -11.8762 -11.6938 -11.6919 -11.6467 -11.6453 -11.5858 -11.5793
   -11.5504 -11.5475 -11.5086 -11.4909 -11.4677 -11.4669 -11.4069 -11.3821
   -11.3633 -11.3617 -11.3469 -11.3415 -11.3118 -11.3113 -11.2867 -11.2776
   -11.2139 -11.2134 -11.1934 -11.1833 -11.1219 -11.1168 -11.1043 -11.1021
   -11.0488 -11.0468 -11.0274 -11.0256 -11.0193 -11.0154 -11.0095 -11.0080
   -10.9436 -10.9407 -10.9339 -10.9334 -10.8835 -10.8833 -10.8028 -10.8019
   -10.7972 -10.7327 -10.7298 -10.7265 -10.7189 -10.6347 -10.6329 -10.5652
   -10.5558 -10.5043 -10.5018 -10.4985 -10.4959 -10.4913 -10.4885 -10.4859
   -10.4733 -10.4640 -10.4614 -10.4251 -10.4234 -10.4110 -10.4095 -10.3024
   -10.2982 -10.2946 -10.2942 -10.2775 -10.2691 -10.2641 -10.2555 -10.2490
   -10.2415 -10.1958 -10.1910 -10.1303 -10.1172 -10.0907 -10.0757 -10.0639
   -10.0623 -10.0507 -10.0481 -10.0395 -10.0389 -10.0261 -10.0193 -10.0160
   -10.0098  -9.9865  -9.9813  -9.9745  -9.9706  -9.9683  -9.9666  -9.9655
    -9.9609  -9.9476  -9.9360  -9.9321  -9.9294  -9.9279  -9.9195  -9.9036
    -9.8869  -9.8783  -9.8731  -9.8705  -9.8694  -9.8670  -9.8642  -9.8542
    -9.8534  -9.8238  -9.8216  -9.8117  -9.8038  -9.7872  -9.7868  -9.7769
    -9.7761  -9.6895  -9.6761  -9.6696  -9.6628  -9.6403  -9.6293  -9.5757
    -9.5623  -9.5562  -9.5344  -9.5142  -9.5108  -9.5050  -9.5018  -9.4855
    -9.3996  -9.3939  -9.3806  -9.3776  -9.3709  -9.3510  -9.3478  -9.3431
    -9.3364  -9.3287  -9.3225  -9.3184  -9.2443  -9.2367  -9.2151  -9.2143
    -9.2040  -9.1944  -9.1856  -9.1847  -9.1589  -9.1512  -9.1425  -9.1279
    -9.1105  -9.1058  -9.0870  -9.0851  -9.0362  -9.0331  -9.0200  -9.0149
    -9.0128  -9.0076  -8.9935  -8.9896  -8.9844  -8.9833  -8.9805  -8.9759
    -8.9316  -8.9306  -8.9293  -8.9240  -8.8818  -8.8813  -8.7992  -8.7677
    -8.6978  -8.6586  -8.6207  -8.5895  -8.5891  -8.5790  -8.5738  -8.5629
    -8.5394  -8.5266  -8.5253  -8.5188  -8.5079  -8.5076  -8.4796  -8.4655
    -8.3590  -8.3560  -8.3357  -8.3227  -8.3049  -8.2961  -8.2569  -8.2328
    -8.2093  -8.2067  -8.2048  -8.2040  -8.1757  -8.1663  -8.1609  -8.1512
    -8.1374  -8.1304  -8.0952  -8.0844  -8.0409  -8.0311  -8.0146  -8.0101
    -8.0069  -8.0037  -7.9920  -7.9913  -7.9725  -7.9615  -7.9536  -7.9441
    -7.9339  -7.9219  -7.9081  -7.9044  -7.8567  -7.8338  -7.8261  -7.8190
    -7.7355  -7.7087  -7.6980  -7.6972  -7.6878  -7.6815  -7.6720  -7.6690
    -7.6680  -7.6669  -7.6558  -7.6534  -7.6195  -7.6142  -7.5887  -7.5787
    -7.5186  -7.5134  -7.4282  -7.4218  -7.4024  -7.3800  -7.3431  -7.3239
    -7.2609  -7.2467  -7.2333  -7.2300  -7.2202  -7.2131  -7.1989  -7.1944
    -7.1128  -7.0875  -7.0642  -7.0582  -7.0481  -7.0452  -7.0255  -7.0210
    -7.0107  -7.0089  -6.9768  -6.9723  -6.9536  -6.9371  -6.9199  -6.9168
    -6.9135  -6.9135  -6.8930  -6.8640  -6.8514  -6.8430  -6.8395  -6.8240
    -6.7943  -6.7631  -6.7511  -6.7499  -6.6807  -6.6571  -6.6521  -6.6457
    -6.6309  -6.6291  -6.5855  -6.5608  -6.5529  -6.5440  -6.5414  -6.5408
    -6.5320  -6.5291  -6.3370  -6.3346  -6.3255  -6.3155  -6.2882  -6.2669
    -6.2445  -6.2428  -6.2367  -6.2112  -6.2091  -6.2033  -6.1954  -6.1874
    -6.1731  -6.0783  -6.0678  -6.0444  -6.0344  -6.0008  -5.9895  -5.9361
    -5.9291  -5.9279  -5.9043  -5.8844  -5.8784  -5.7748  -5.7570  -5.7459
    -5.6421  -5.5670  -5.5331  -5.4975  -5.4711  -5.4672  -5.4603  -5.4110
    -5.3921  -5.3137  -5.2958  -5.2951  -5.2758  -5.2681  -5.2379  -5.2328
    -5.2101  -5.2055  -5.2037  -5.1735  -5.1673  -5.1263  -5.0856  -5.0698
    -5.0590  -5.0282  -5.0215  -5.0096  -4.9702  -4.9492  -4.9305  -4.9139
    -4.9081  -4.9029  -4.9009  -4.8341  -4.7496  -4.7124  -4.7092  -4.6490
    -4.5967  -4.5645  -4.5516  -4.4226  -4.2837  -4.2267  -4.1619  -4.0994
    -4.0850  -4.0468  -4.0236  -4.0024  -3.9911  -3.8238  -3.7770  -3.7164
    -3.6029  -3.3633  -3.3147  -2.4604  -2.4031  -2.2227  -2.0195  -1.9735
    -1.9430  -1.8479  -1.8373  -1.8316  -1.7931  -1.7874  -1.6774  -1.6705
    -1.6590  -1.6521  -1.5625  -1.5563  -1.5370  -1.4982  -1.4555  -1.4473
    -1.4440  -1.3552  -1.3507  -1.3277  -1.3224  -1.2996  -1.2967  -1.2822
    -1.2765  -1.2722  -1.2716  -1.2430  -1.2262  -1.1988  -1.1784  -1.1689
    -1.1606  -1.1028  -1.0893  -1.0872  -1.0786  -1.0357  -1.0245  -1.0171
    -1.0149  -1.0058  -0.9989  -0.9903  -0.9736  -0.9639  -0.9155  -0.9076
    -0.6970  -0.6740  -0.6631  -0.6604  -0.5810  -0.5739  -0.5083  -0.4909
    -0.4460  -0.4392  -0.4146  -0.4071  -0.2575  -0.2452  -0.1989  -0.1745

          k = 0.0000 0.0000 0.1000 (****** PWs)   bands (ev):

   -22.6776 -22.6266 -22.5929 -22.4731 -22.4598 -22.4439 -22.4166 -22.4101
   -22.3848 -22.3772 -22.3747 -22.2366 -22.2292 -22.1705 -22.1635 -22.1313
   -22.0336 -21.9273 -21.9175 -21.8490 -21.8316 -21.8227 -21.8192 -21.7890
   -21.7824 -21.7552 -21.7498 -21.6890 -21.6120 -21.6032 -21.5601 -21.5438
   -21.5381 -21.4824 -21.4763 -21.3545 -21.3461 -21.3020 -21.2945 -21.2055
   -21.1972 -21.1195 -20.9607 -20.9212 -20.9081 -20.8691 -20.8579 -20.8269
   -20.8182 -20.7803 -20.7693 -20.7540 -20.7466 -20.7384 -20.7372 -20.7306
   -20.7283 -20.5995 -20.5932 -20.5349 -20.5293 -20.4256 -20.3162 -20.2964
   -20.2906 -20.2893 -20.2358 -20.2225 -20.2165 -20.1974 -20.1946 -20.1430
   -20.1357 -20.0325 -20.0249 -19.8706 -19.8618 -19.7456 -19.7354 -19.6318
   -19.6125 -19.6093 -19.4926 -19.4623 -19.4393 -19.4240 -19.4168 -19.4138
   -19.4076 -19.4057 -19.3909 -19.3821 -19.3805 -19.3174 -19.3114 -19.2499
   -19.2430 -19.2004 -19.1881 -19.1815 -19.1793 -19.1581 -19.1542 -18.9582
   -18.9499 -18.8685 -18.8578 -18.8242 -18.8164 -18.6967 -18.6595 -18.6470
   -18.6134 -18.6025 -18.5467 -18.5365 -18.5025 -18.4922 -18.4716 -18.4647
   -18.4435 -18.4175 -18.4141 -18.2616 -18.2492 -18.0399 -18.0110 -17.9640
   -17.9348 -17.9102 -17.8922 -17.8777 -17.8726 -17.8613 -17.8592 -17.8311
   -17.8238 -17.8026 -17.7923 -17.7351 -17.7120 -17.6997 -17.6983 -17.6788
   -17.6740 -17.6553 -17.6201 -17.5984 -17.5207 -17.4979 -17.4329 -17.4080
   -17.4034 -17.3888 -17.3747 -17.3279 -17.3041 -17.2765 -17.2633 -17.2483
   -17.2417 -17.2346 -17.2239 -17.2175 -17.1098 -17.0320 -17.0180 -16.9840
   -16.9209 -16.8772 -16.8173 -16.7789 -16.6348 -16.5592 -16.5386 -16.5138
   -16.4273 -16.4100 -16.3771 -16.3544 -16.2330 -16.2138 -16.1767 -16.0685
   -16.0228 -15.9877 -15.9748 -15.8797 -15.8216 -15.7262 -15.7120 -15.7082
   -15.5742 -15.5547 -15.5489 -15.5397 -15.5317 -15.5138 -15.5057 -15.5024
   -15.4872 -15.4826 -15.4778 -15.4747 -15.4377 -15.4076 -15.3885 -15.3775
   -15.3577 -15.3377 -15.3018 -15.2929 -15.2826 -15.2709 -15.2607 -15.2182
   -15.1633 -15.1489 -15.1358 -15.1244 -15.0899 -15.0353 -15.0040 -14.9924
   -14.9749 -14.9539 -14.9389 -14.8875 -14.8110 -14.7502 -14.7420 -14.7123
   -14.6805 -14.6623 -14.6071 -14.5923 -14.5591 -14.5219 -14.4653 -14.4084
   -14.3987 -14.3835 -14.3785 -14.3345 -14.2759 -14.1957 -14.1681 -14.1124
   -14.1089 -13.9687 -13.8862 -13.7632 -13.5635 -13.5372 -13.5315 -13.5191
   -13.5156 -13.5085 -13.4972 -13.4914 -13.4806 -13.4704 -13.4516 -13.4472
   -13.4426 -13.4224 -13.4204 -13.4097 -13.3957 -13.3786 -13.3450 -13.3020
   -13.2630 -13.2527 -13.2506 -13.2391 -13.2133 -13.2057 -13.1909 -13.1691
   -13.1677 -13.1563 -13.1089 -13.0845 -13.0764 -13.0117 -12.9979 -12.9879
   -12.9698 -12.9465 -12.9409 -12.9222 -12.9137 -12.7724 -12.6437 -12.5093
   -12.4897 -12.4513 -12.3943 -12.3835 -12.3317 -12.2846 -12.2694 -12.2510
   -12.2016 -12.1508 -12.1353 -12.1287 -12.1259 -12.1140 -12.0969 -12.0406
   -12.0371 -12.0131 -11.9784 -11.9703 -11.9289 -11.9189 -11.9149 -11.8591
   -11.7857 -11.7614 -11.7517 -11.6917 -11.6843 -11.6819 -11.6088 -11.5351
   -11.5314 -11.5154 -11.4877 -11.4772 -11.4737 -11.4498 -11.4410 -11.4193
   -11.3998 -11.3810 -11.3546 -11.3391 -11.3168 -11.3003 -11.2877 -11.2711
   -11.2081 -11.2002 -11.1946 -11.1774 -11.1730 -11.1670 -11.1231 -11.1184
   -11.1032 -11.0845 -11.0825 -11.0749 -11.0702 -11.0240 -11.0031 -10.9535
   -10.9393 -10.9333 -10.8984 -10.8852 -10.8395 -10.8075 -10.7999 -10.7972
   -10.7658 -10.7425 -10.7405 -10.7027 -10.6707 -10.6219 -10.5676 -10.5629
   -10.5557 -10.5324 -10.5087 -10.5042 -10.4991 -10.4936 -10.4738 -10.4714
   -10.4623 -10.4604 -10.4462 -10.4436 -10.4332 -10.3952 -10.3872 -10.3740
   -10.3375 -10.3339 -10.3232 -10.3061 -10.2917 -10.2720 -10.2358 -10.2182
   -10.1928 -10.1778 -10.1454 -10.1317 -10.1239 -10.0985 -10.0780 -10.0696
   -10.0649 -10.0624 -10.0495 -10.0412 -10.0404 -10.0373 -10.0338 -10.0295
   -10.0203 -10.0151 -10.0065 -10.0024  -9.9861  -9.9826  -9.9702  -9.9700
    -9.9585  -9.9533  -9.9413  -9.9384  -9.9359  -9.9228  -9.9203  -9.9149
    -9.9059  -9.8972  -9.8898  -9.8679  -9.8654  -9.8493  -9.8482  -9.8419
    -9.8402  -9.8303  -9.8034  -9.7819  -9.7799  -9.7714  -9.7590  -9.7501
    -9.7086  -9.7055  -9.6984  -9.6809  -9.6609  -9.6058  -9.5983  -9.5815
    -9.5669  -9.5597  -9.5501  -9.5398  -9.5278  -9.4883  -9.4842  -9.4536
    -9.4313  -9.4241  -9.4217  -9.3864  -9.3828  -9.3488  -9.3404  -9.3358
    -9.3179  -9.3106  -9.2812  -9.2707  -9.2569  -9.2369  -9.2284  -9.2176
    -9.2149  -9.1850  -9.1816  -9.1742  -9.1566  -9.1476  -9.1429  -9.1230
    -9.1137  -9.1012  -9.0978  -9.0939  -9.0858  -9.0855  -9.0814  -9.0310
    -9.0242  -9.0148  -9.0077  -8.9855  -8.9629  -8.9587  -8.9480  -8.9387
    -8.9181  -8.9134  -8.9031  -8.8897  -8.8754  -8.8718  -8.8434  -8.7461
    -8.7094  -8.6969  -8.6681  -8.6670  -8.6431  -8.5968  -8.5641  -8.5376
    -8.5250  -8.5188  -8.5083  -8.5063  -8.4728  -8.4521  -8.4507  -8.4077
    -8.4021  -8.3365  -8.3244  -8.3156  -8.3026  -8.2922  -8.2525  -8.2332
    -8.2122  -8.2026  -8.1969  -8.1896  -8.1777  -8.1764  -8.1574  -8.1539
    -8.1427  -8.1074  -8.0876  -8.0806  -8.0655  -8.0596  -8.0550  -8.0430
    -8.0353  -8.0322  -8.0171  -7.9995  -7.9871  -7.9835  -7.9720  -7.9237
    -7.9187  -7.9095  -7.8862  -7.8564  -7.8352  -7.8039  -7.7912  -7.7760
    -7.7725  -7.7669  -7.7494  -7.7407  -7.7272  -7.7138  -7.7129  -7.6824
    -7.6375  -7.6299  -7.6078  -7.6005  -7.5956  -7.5885  -7.5734  -7.5195
    -7.4950  -7.4811  -7.4593  -7.4406  -7.3947  -7.3749  -7.3409  -7.3167
    -7.2898  -7.2774  -7.2693  -7.2393  -7.2250  -7.1968  -7.1681  -7.1652
    -7.1339  -7.1192  -7.1131  -7.0947  -7.0861  -7.0417  -7.0368  -7.0312
    -7.0123  -6.9812  -6.9745  -6.9600  -6.9518  -6.9458  -6.9306  -6.9244
    -6.9183  -6.9117  -6.8918  -6.8734  -6.8289  -6.8092  -6.7966  -6.7794
    -6.7508  -6.7475  -6.7353  -6.7276  -6.7213  -6.7118  -6.7013  -6.6213
    -6.6089  -6.6007  -6.5883  -6.5821  -6.5642  -6.5490  -6.5231  -6.5101
    -6.5035  -6.4884  -6.3705  -6.3568  -6.3333  -6.3309  -6.3236  -6.3090
    -6.2744  -6.2686  -6.2588  -6.2035  -6.1916  -6.1813  -6.1641  -6.1488
    -6.1414  -6.1358  -6.1041  -6.0743  -6.0443  -6.0052  -5.9725  -5.9542
    -5.9379  -5.9301  -5.8829  -5.8309  -5.8123  -5.7615  -5.7558  -5.7040
    -5.6310  -5.6155  -5.5694  -5.5324  -5.4801  -5.4552  -5.4209  -5.3909
    -5.3502  -5.3386  -5.3104  -5.2954  -5.2776  -5.2687  -5.2421  -5.2390
    -5.2171  -5.1963  -5.1905  -5.1716  -5.1588  -5.1520  -5.1505  -5.1265
    -5.0727  -5.0308  -5.0183  -4.9916  -4.9697  -4.9515  -4.9389  -4.9061
    -4.8920  -4.8821  -4.8441  -4.7923  -4.7649  -4.7398  -4.6712  -4.6557
    -4.5865  -4.5796  -4.5383  -4.4294  -4.3011  -4.2188  -4.1834  -4.1400
    -4.1353  -4.0364  -4.0236  -3.9840  -3.9034  -3.8302  -3.7901  -3.7268
    -3.5786  -3.3841  -3.3170  -2.4548  -2.3878  -2.2289  -2.0411  -1.9680
    -1.9408  -1.9180  -1.8584  -1.8245  -1.7336  -1.7224  -1.6730  -1.6631
    -1.6529  -1.6470  -1.6064  -1.5612  -1.5030  -1.4935  -1.4601  -1.4446
    -1.4267  -1.4199  -1.3914  -1.3753  -1.3526  -1.3314  -1.2740  -1.2631
    -1.2513  -1.2469  -1.2294  -1.2183  -1.2121  -1.1970  -1.1924  -1.1801
    -1.1493  -1.1070  -1.0976  -1.0902  -1.0752  -1.0386  -1.0335  -1.0262
    -1.0117  -0.9964  -0.9888  -0.9810  -0.9736  -0.9647  -0.9298  -0.7890
    -0.7638  -0.7508  -0.6860  -0.6120  -0.6006  -0.5796  -0.5517  -0.5236
    -0.4658  -0.3900  -0.3475  -0.3240  -0.3112  -0.2860  -0.2234  -0.1284

          k = 0.0000 0.0000 0.2001 (****** PWs)   bands (ev):

   -22.6749 -22.6392 -22.5739 -22.4798 -22.4636 -22.4567 -22.4285 -22.4234
   -22.3651 -22.3577 -22.3410 -22.2656 -22.2590 -22.1780 -22.1346 -22.1276
   -21.9835 -21.9699 -21.9636 -21.8442 -21.8286 -21.8034 -21.7956 -21.7734
   -21.7671 -21.7513 -21.7351 -21.7304 -21.6403 -21.6327 -21.5465 -21.5385
   -21.5102 -21.5025 -21.4887 -21.3491 -21.3401 -21.2851 -21.2780 -21.1982
   -21.1537 -21.1456 -20.9969 -20.9860 -20.9295 -20.9193 -20.8753 -20.8258
   -20.8154 -20.7871 -20.7820 -20.7265 -20.7182 -20.6779 -20.6631 -20.6617
   -20.6603 -20.6253 -20.6221 -20.5206 -20.4988 -20.4944 -20.3841 -20.3726
   -20.3414 -20.3349 -20.3133 -20.3094 -20.1553 -20.1441 -20.1314 -20.0625
   -20.0531 -19.9426 -19.9267 -19.9224 -19.9211 -19.7315 -19.7110 -19.7043
   -19.6749 -19.6692 -19.5333 -19.5147 -19.4709 -19.4597 -19.4317 -19.4260
   -19.3951 -19.3867 -19.3668 -19.3641 -19.3330 -19.3262 -19.2826 -19.2710
   -19.2695 -19.1561 -19.1476 -19.0929 -19.0767 -19.0746 -19.0717 -18.9981
   -18.9931 -18.9314 -18.9217 -18.8237 -18.8088 -18.8052 -18.7434 -18.7354
   -18.6283 -18.6120 -18.5966 -18.5941 -18.5054 -18.4933 -18.3907 -18.3726
   -18.3543 -18.3503 -18.3191 -18.1523 -18.1264 -18.0942 -18.0825 -18.0571
   -18.0460 -17.9994 -17.9888 -17.8838 -17.8734 -17.8443 -17.8380 -17.8128
   -17.7942 -17.7894 -17.7818 -17.7714 -17.7060 -17.6894 -17.6519 -17.6277
   -17.6152 -17.6085 -17.6036 -17.5927 -17.5870 -17.5635 -17.4841 -17.4733
   -17.4473 -17.4185 -17.3277 -17.2913 -17.2772 -17.2765 -17.2641 -17.2430
   -17.1972 -17.1733 -17.1598 -17.1423 -17.1144 -17.0832 -17.0432 -17.0047
   -16.8742 -16.8565 -16.8211 -16.8064 -16.7552 -16.6415 -16.6137 -16.5799
   -16.3860 -16.3486 -16.3148 -16.2597 -16.1889 -16.1824 -16.1147 -16.0932
   -16.0078 -15.9949 -15.9303 -15.8790 -15.8380 -15.8278 -15.8153 -15.6773
   -15.6561 -15.6191 -15.5969 -15.5846 -15.5711 -15.5516 -15.5412 -15.5115
   -15.4895 -15.4785 -15.4469 -15.4124 -15.4071 -15.3696 -15.3566 -15.3446
   -15.3385 -15.3107 -15.2607 -15.2319 -15.2238 -15.1928 -15.1880 -15.1864
   -15.1619 -15.1513 -15.1438 -15.1380 -15.1112 -15.0637 -15.0306 -15.0205
   -15.0036 -14.9295 -14.8820 -14.8629 -14.8318 -14.8193 -14.7868 -14.7205
   -14.6962 -14.6603 -14.6445 -14.6236 -14.6135 -14.6048 -14.5688 -14.5157
   -14.4838 -14.2561 -14.2451 -14.2216 -14.2066 -14.1464 -14.0854 -14.0636
   -14.0553 -13.9609 -13.7712 -13.6836 -13.6781 -13.6699 -13.6585 -13.6137
   -13.6045 -13.5655 -13.5478 -13.5173 -13.5170 -13.4904 -13.4869 -13.4576
   -13.4469 -13.4348 -13.4152 -13.4060 -13.3928 -13.3651 -13.3620 -13.3455
   -13.2915 -13.2799 -13.2465 -13.1849 -13.1750 -13.1479 -13.1338 -13.1159
   -13.0981 -13.0957 -13.0815 -13.0549 -13.0472 -13.0118 -13.0080 -12.9973
   -12.9632 -12.8680 -12.8560 -12.7895 -12.7781 -12.7159 -12.6674 -12.6365
   -12.5409 -12.5392 -12.5228 -12.4767 -12.4384 -12.4074 -12.3402 -12.2653
   -12.2461 -12.1763 -12.1721 -12.1453 -12.1195 -12.1020 -12.0627 -12.0494
   -11.9854 -11.9489 -11.8947 -11.8813 -11.8475 -11.8269 -11.8222 -11.7856
   -11.7764 -11.7225 -11.6923 -11.6782 -11.6688 -11.6562 -11.6219 -11.5880
   -11.5688 -11.5570 -11.5326 -11.4547 -11.4248 -11.4127 -11.4118 -11.4048
   -11.3800 -11.3741 -11.3654 -11.3577 -11.3480 -11.3340 -11.3121 -11.3034
   -11.3002 -11.2620 -11.2405 -11.2265 -11.2117 -11.2091 -11.1701 -11.1618
   -11.1515 -11.1376 -11.1283 -11.1224 -11.0684 -11.0356 -10.9871 -10.9478
   -10.9040 -10.8975 -10.8880 -10.8663 -10.7954 -10.7572 -10.7508 -10.7461
   -10.6836 -10.6724 -10.6678 -10.6320 -10.6017 -10.5694 -10.5677 -10.5598
   -10.5511 -10.5436 -10.5233 -10.5147 -10.5131 -10.4977 -10.4945 -10.4842
   -10.4732 -10.4712 -10.4487 -10.4369 -10.4336 -10.4139 -10.3728 -10.3681
   -10.3522 -10.3402 -10.3376 -10.3250 -10.2617 -10.2428 -10.2394 -10.2312
   -10.2197 -10.1962 -10.1827 -10.1797 -10.1743 -10.1296 -10.1097 -10.0941
   -10.0808 -10.0767 -10.0665 -10.0569 -10.0518 -10.0406 -10.0386 -10.0321
   -10.0283 -10.0258 -10.0178 -10.0105 -10.0051 -10.0020  -9.9984  -9.9927
    -9.9884  -9.9727  -9.9475  -9.9428  -9.9333  -9.9246  -9.9180  -9.9080
    -9.8867  -9.8754  -9.8730  -9.8605  -9.8566  -9.8539  -9.8447  -9.8232
    -9.7985  -9.7926  -9.7856  -9.7722  -9.7587  -9.7497  -9.7292  -9.6979
    -9.6951  -9.6619  -9.6440  -9.6415  -9.6380  -9.6315  -9.6221  -9.6168
    -9.5798  -9.5679  -9.5375  -9.5276  -9.5184  -9.5125  -9.4900  -9.4783
    -9.4648  -9.4280  -9.4092  -9.4027  -9.3385  -9.3378  -9.3207  -9.3146
    -9.3132  -9.3103  -9.2972  -9.2682  -9.2579  -9.2371  -9.2337  -9.2238
    -9.2169  -9.2009  -9.1833  -9.1720  -9.1475  -9.1423  -9.1371  -9.1273
    -9.1251  -9.1221  -9.0973  -9.0865  -9.0832  -9.0683  -9.0637  -9.0564
    -9.0455  -9.0387  -9.0338  -8.9968  -8.9630  -8.9515  -8.9430  -8.9396
    -8.9153  -8.9109  -8.9025  -8.8962  -8.8842  -8.8478  -8.7964  -8.7867
    -8.7513  -8.7378  -8.7277  -8.6783  -8.6404  -8.5941  -8.5671  -8.5383
    -8.5311  -8.5080  -8.5039  -8.4737  -8.4560  -8.4413  -8.4129  -8.3451
    -8.3270  -8.3182  -8.3022  -8.2976  -8.2811  -8.2718  -8.2416  -8.2343
    -8.2092  -8.1987  -8.1962  -8.1836  -8.1742  -8.1723  -8.1623  -8.1557
    -8.1438  -8.1316  -8.1235  -8.1187  -8.1080  -8.0905  -8.0822  -8.0792
    -8.0699  -8.0516  -8.0399  -8.0205  -7.9776  -7.9577  -7.9513  -7.9396
    -7.9337  -7.8919  -7.8802  -7.8674  -7.8441  -7.8352  -7.8200  -7.7926
    -7.7815  -7.7739  -7.7643  -7.7596  -7.7381  -7.7131  -7.7035  -7.6501
    -7.6369  -7.5800  -7.5764  -7.5474  -7.5344  -7.5183  -7.5057  -7.5002
    -7.4885  -7.4529  -7.4277  -7.4135  -7.4051  -7.3948  -7.3500  -7.3415
    -7.3248  -7.3030  -7.2817  -7.2582  -7.2345  -7.2258  -7.2018  -7.1969
    -7.1532  -7.1476  -7.1432  -7.1047  -7.0985  -7.0772  -7.0699  -7.0661
    -7.0605  -7.0223  -7.0054  -6.9933  -6.9546  -6.9344  -6.9074  -6.8703
    -6.8559  -6.8319  -6.8223  -6.8191  -6.8168  -6.8009  -6.7972  -6.7821
    -6.7801  -6.7733  -6.7365  -6.7170  -6.7033  -6.6489  -6.6466  -6.6383
    -6.6273  -6.6122  -6.6054  -6.5524  -6.5185  -6.4980  -6.4760  -6.4683
    -6.4613  -6.4548  -6.4418  -6.4334  -6.3717  -6.3579  -6.3429  -6.3382
    -6.3318  -6.3262  -6.3039  -6.2494  -6.1973  -6.1895  -6.1696  -6.1554
    -6.1352  -6.1242  -6.1082  -6.0833  -6.0605  -6.0432  -5.9670  -5.9486
    -5.8970  -5.8699  -5.8363  -5.8088  -5.7659  -5.7160  -5.6952  -5.6633
    -5.6436  -5.6287  -5.5946  -5.5802  -5.5248  -5.4249  -5.3935  -5.3673
    -5.3450  -5.3184  -5.3052  -5.2956  -5.2945  -5.2860  -5.2677  -5.2610
    -5.2404  -5.2380  -5.2111  -5.1966  -5.1742  -5.1638  -5.1483  -5.1451
    -5.0951  -5.0573  -5.0354  -5.0212  -4.9793  -4.9356  -4.8930  -4.8761
    -4.8636  -4.8580  -4.8180  -4.7676  -4.7473  -4.6793  -4.6693  -4.6290
    -4.6128  -4.5604  -4.5222  -4.4451  -4.3328  -4.2737  -4.2501  -4.2111
    -4.1158  -4.0283  -3.9933  -3.9413  -3.8638  -3.8184  -3.7881  -3.7416
    -3.5297  -3.4353  -3.3316  -2.4375  -2.3466  -2.2474  -2.0684  -2.0354
    -1.9666  -1.9017  -1.8740  -1.8066  -1.6663  -1.6585  -1.6539  -1.6429
    -1.6367  -1.6290  -1.6128  -1.5881  -1.4921  -1.4790  -1.4669  -1.4636
    -1.4520  -1.4441  -1.4318  -1.4019  -1.3900  -1.3729  -1.3087  -1.2959
    -1.2887  -1.2545  -1.1892  -1.1847  -1.1691  -1.1640  -1.1551  -1.1522
    -1.1321  -1.1212  -1.1080  -1.0883  -1.0708  -1.0452  -1.0323  -1.0149
    -1.0096  -0.9943  -0.9837  -0.9736  -0.9660  -0.8720  -0.8464  -0.8429
    -0.8343  -0.7912  -0.7190  -0.6674  -0.6616  -0.6282  -0.5254  -0.4946
    -0.4520  -0.4091  -0.3527  -0.2842  -0.2676  -0.2046  -0.1829  -0.1633

          k = 0.0000 0.0000 0.3001 (****** PWs)   bands (ev):

   -22.6708 -22.6493 -22.5529 -22.5035 -22.4639 -22.4517 -22.4375 -22.4346
   -22.3444 -22.3361 -22.3043 -22.2917 -22.2867 -22.2217 -22.0977 -22.0896
   -22.0152 -22.0076 -21.9275 -21.8424 -21.8237 -21.8129 -21.8074 -21.8066
   -21.7276 -21.7130 -21.7096 -21.7091 -21.6664 -21.6601 -21.6043 -21.5986
   -21.4741 -21.4649 -21.4202 -21.3906 -21.3837 -21.2740 -21.2161 -21.2079
   -21.1034 -21.0921 -21.0686 -21.0618 -20.9872 -20.9788 -20.8297 -20.8109
   -20.7960 -20.7925 -20.7844 -20.7066 -20.6973 -20.6567 -20.6491 -20.6114
   -20.5999 -20.5921 -20.5802 -20.5774 -20.4721 -20.4578 -20.4496 -20.4472
   -20.4069 -20.4007 -20.3798 -20.3776 -20.1027 -20.0915 -20.0349 -19.9939
   -19.9809 -19.9713 -19.9680 -19.8419 -19.8262 -19.8236 -19.8013 -19.7940
   -19.6378 -19.6203 -19.6058 -19.6015 -19.4858 -19.4617 -19.4548 -19.4515
   -19.4361 -19.4353 -19.3518 -19.3441 -19.3024 -19.2970 -19.2368 -19.2276
   -19.1664 -19.1207 -19.1119 -19.0526 -19.0353 -19.0271 -19.0238 -18.9979
   -18.9921 -18.9667 -18.9619 -18.9297 -18.8328 -18.8229 -18.7660 -18.7579
   -18.7345 -18.7299 -18.6553 -18.6506 -18.4045 -18.3833 -18.3140 -18.2888
   -18.2782 -18.2745 -18.2023 -18.1764 -18.1614 -18.1522 -18.1484 -18.0947
   -18.0853 -18.0162 -18.0019 -17.9416 -17.8757 -17.8705 -17.8486 -17.8448
   -17.7862 -17.7653 -17.7547 -17.7464 -17.7259 -17.7173 -17.7091 -17.7042
   -17.5883 -17.5546 -17.5534 -17.5336 -17.5192 -17.5136 -17.5076 -17.4860
   -17.4830 -17.4552 -17.3713 -17.3496 -17.3322 -17.2811 -17.2344 -17.1986
   -17.1574 -17.1345 -17.1205 -17.0949 -17.0713 -17.0472 -17.0230 -16.9894
   -16.9243 -16.8875 -16.8669 -16.8017 -16.7659 -16.7424 -16.6789 -16.6398
   -16.3586 -16.2952 -16.2752 -16.1835 -16.1335 -16.1228 -16.1197 -16.0385
   -16.0098 -15.9487 -15.9419 -15.9389 -15.8853 -15.8492 -15.8029 -15.7950
   -15.7622 -15.6850 -15.6757 -15.5688 -15.5524 -15.5490 -15.5165 -15.5054
   -15.4728 -15.4505 -15.4458 -15.4323 -15.4025 -15.3631 -15.3148 -15.3041
   -15.2837 -15.2765 -15.2683 -15.2509 -15.2261 -15.2233 -15.2150 -15.1612
   -15.1161 -15.1090 -15.0741 -15.0477 -15.0303 -15.0298 -15.0221 -15.0049
   -14.9968 -14.9641 -14.9539 -14.9353 -14.8562 -14.8267 -14.7864 -14.7863
   -14.7624 -14.7391 -14.7063 -14.6747 -14.6516 -14.5882 -14.5740 -14.5317
   -14.4554 -14.3296 -14.2060 -14.1126 -14.1006 -14.0761 -14.0149 -13.9495
   -13.9288 -13.8251 -13.8150 -13.8087 -13.8043 -13.7466 -13.7229 -13.6777
   -13.6530 -13.6030 -13.5543 -13.5199 -13.5156 -13.5102 -13.4942 -13.4875
   -13.4833 -13.4577 -13.4244 -13.4149 -13.4023 -13.3959 -13.3948 -13.3731
   -13.3117 -13.3086 -13.2580 -13.2136 -13.2006 -13.1111 -13.1001 -13.0619
   -13.0572 -13.0291 -13.0172 -13.0104 -12.9735 -12.9506 -12.9118 -12.9068
   -12.8983 -12.7931 -12.7826 -12.7624 -12.7353 -12.6859 -12.6657 -12.6585
   -12.6384 -12.6249 -12.6209 -12.5917 -12.5530 -12.4760 -12.3979 -12.3720
   -12.3239 -12.3038 -12.1518 -12.1309 -12.0848 -12.0790 -12.0587 -11.9881
   -11.9317 -11.8856 -11.8617 -11.8315 -11.7998 -11.7515 -11.7438 -11.7254
   -11.7176 -11.6739 -11.6597 -11.6353 -11.6336 -11.6188 -11.6147 -11.5960
   -11.5938 -11.5840 -11.5002 -11.4937 -11.4823 -11.4590 -11.4399 -11.4127
   -11.4005 -11.3792 -11.3716 -11.3615 -11.3549 -11.3494 -11.3287 -11.3114
   -11.3100 -11.3049 -11.2873 -11.2686 -11.2509 -11.2275 -11.2209 -11.2051
   -11.1994 -11.1925 -11.1557 -11.1395 -11.1306 -11.0553 -11.0289 -10.8970
   -10.8675 -10.8270 -10.7996 -10.7926 -10.7892 -10.7696 -10.6977 -10.6565
   -10.6440 -10.6231 -10.6169 -10.6120 -10.6029 -10.5994 -10.5953 -10.5556
   -10.5508 -10.5448 -10.5402 -10.5350 -10.5230 -10.4886 -10.4830 -10.4600
   -10.4271 -10.4226 -10.4164 -10.4108 -10.4015 -10.3760 -10.3749 -10.3674
   -10.3590 -10.3478 -10.3255 -10.3140 -10.3031 -10.2976 -10.2841 -10.2745
   -10.2466 -10.2186 -10.1907 -10.1863 -10.1797 -10.1768 -10.1718 -10.1559
   -10.1551 -10.1385 -10.1340 -10.0721 -10.0689 -10.0598 -10.0467 -10.0452
   -10.0336 -10.0260 -10.0215 -10.0085 -10.0001  -9.9981  -9.9866  -9.9835
    -9.9703  -9.9624  -9.9492  -9.9466  -9.9421  -9.9205  -9.9159  -9.9058
    -9.8969  -9.8748  -9.8318  -9.8279  -9.8134  -9.8093  -9.7930  -9.7908
    -9.7898  -9.7859  -9.7710  -9.7703  -9.7490  -9.7355  -9.7189  -9.6898
    -9.6816  -9.6765  -9.6572  -9.6477  -9.6220  -9.6177  -9.6164  -9.5835
    -9.5676  -9.5519  -9.5493  -9.5394  -9.5314  -9.5116  -9.4928  -9.4865
    -9.4824  -9.4339  -9.4036  -9.3889  -9.3757  -9.3541  -9.3356  -9.3138
    -9.2965  -9.2952  -9.2885  -9.2818  -9.2621  -9.2549  -9.2529  -9.2267
    -9.2161  -9.1768  -9.1604  -9.1583  -9.1353  -9.1272  -9.1161  -9.1128
    -9.0993  -9.0922  -9.0885  -9.0859  -9.0795  -9.0746  -9.0624  -9.0612
    -9.0416  -9.0333  -9.0294  -9.0011  -8.9922  -8.9816  -8.9760  -8.9713
    -8.9287  -8.9255  -8.9152  -8.9126  -8.9048  -8.8984  -8.8519  -8.8391
    -8.7648  -8.7027  -8.6633  -8.6191  -8.5969  -8.5897  -8.5739  -8.5438
    -8.5408  -8.5335  -8.5075  -8.5024  -8.4121  -8.3957  -8.3619  -8.3400
    -8.3244  -8.3117  -8.3005  -8.2871  -8.2656  -8.2459  -8.2375  -8.2265
    -8.2233  -8.2071  -8.1950  -8.1883  -8.1809  -8.1744  -8.1570  -8.1562
    -8.1457  -8.1405  -8.1215  -8.1075  -8.1028  -8.0908  -8.0810  -8.0766
    -8.0703  -8.0591  -8.0416  -8.0301  -7.9992  -7.9869  -7.9700  -7.9568
    -7.9496  -7.9229  -7.9108  -7.9085  -7.8960  -7.8716  -7.8351  -7.8243
    -7.8157  -7.8103  -7.7627  -7.7051  -7.6861  -7.6517  -7.6410  -7.6324
    -7.6151  -7.5539  -7.5344  -7.5237  -7.5100  -7.5054  -7.4861  -7.4510
    -7.4426  -7.4188  -7.4081  -7.4048  -7.3968  -7.3929  -7.3598  -7.3436
    -7.3304  -7.3036  -7.2878  -7.2834  -7.2764  -7.2609  -7.2402  -7.2340
    -7.2138  -7.2007  -7.1830  -7.1756  -7.1633  -7.1286  -7.0742  -7.0558
    -7.0271  -6.9894  -6.9808  -6.9711  -6.9458  -6.9394  -6.9130  -6.8754
    -6.8469  -6.8414  -6.8217  -6.8112  -6.8019  -6.7982  -6.7846  -6.7448
    -6.7396  -6.7160  -6.7055  -6.6991  -6.6919  -6.6865  -6.6545  -6.6414
    -6.6074  -6.5585  -6.5409  -6.5203  -6.5017  -6.4873  -6.4825  -6.4570
    -6.4405  -6.4343  -6.4203  -6.4133  -6.4089  -6.4044  -6.3920  -6.3734
    -6.3585  -6.3517  -6.3463  -6.2850  -6.2637  -6.2476  -6.2327  -6.2211
    -6.1879  -6.1253  -6.0587  -6.0407  -5.9847  -5.9769  -5.9668  -5.9446
    -5.9361  -5.8280  -5.8048  -5.7848  -5.7488  -5.7281  -5.6842  -5.6605
    -5.6047  -5.5900  -5.5743  -5.5258  -5.5134  -5.4659  -5.4211  -5.4019
    -5.3726  -5.3471  -5.3240  -5.3071  -5.2938  -5.2849  -5.2680  -5.2580
    -5.2510  -5.2401  -5.2357  -5.2277  -5.1963  -5.1854  -5.1471  -5.1175
    -5.1002  -5.0858  -5.0329  -5.0135  -4.9912  -4.9337  -4.8824  -4.8671
    -4.8597  -4.8439  -4.8069  -4.7738  -4.6828  -4.6521  -4.6379  -4.5834
    -4.5665  -4.5521  -4.5163  -4.4511  -4.3903  -4.3576  -4.3552  -4.2132
    -4.0845  -4.0193  -3.9692  -3.9144  -3.8861  -3.8418  -3.7558  -3.6883
    -3.5060  -3.4785  -3.3593  -2.4132  -2.2872  -2.2727  -2.1275  -2.0820
    -1.9653  -1.9339  -1.8241  -1.7818  -1.7154  -1.6381  -1.6305  -1.6098
    -1.6030  -1.5886  -1.5713  -1.5474  -1.5204  -1.5067  -1.5064  -1.4906
    -1.4616  -1.4474  -1.4164  -1.4069  -1.3911  -1.3813  -1.3620  -1.3423
    -1.3240  -1.2770  -1.2736  -1.2341  -1.1670  -1.1336  -1.0983  -1.0960
    -1.0874  -1.0795  -1.0669  -1.0576  -1.0353  -1.0278  -1.0125  -0.9950
    -0.9888  -0.9782  -0.9736  -0.9689  -0.9268  -0.9250  -0.9182  -0.8949
    -0.8261  -0.7776  -0.7573  -0.7466  -0.7295  -0.5588  -0.5360  -0.5232
    -0.4583  -0.4090  -0.3098  -0.2863  -0.2465  -0.2290  -0.1560  -0.1278

          k = 0.0000 0.0000 0.4002 (****** PWs)   bands (ev):

   -22.6680 -22.6542 -22.5347 -22.5234 -22.4625 -22.4465 -22.4418 -22.4412
   -22.3280 -22.3137 -22.3112 -22.3111 -22.2659 -22.2610 -22.0653 -22.0498
   -22.0497 -22.0493 -21.8778 -21.8674 -21.8350 -21.8188 -21.8137 -21.8135
   -21.7073 -21.6869 -21.6844 -21.6843 -21.6637 -21.6574 -21.6570 -21.6561
   -21.4432 -21.4258 -21.4253 -21.4243 -21.3498 -21.3451 -21.1539 -21.1368
   -21.1365 -21.1350 -21.0527 -21.0377 -21.0362 -21.0348 -20.8270 -20.8072
   -20.7982 -20.7980 -20.7117 -20.6970 -20.6825 -20.6769 -20.6715 -20.6705
   -20.5450 -20.5227 -20.5212 -20.5189 -20.4979 -20.4909 -20.4907 -20.4890
   -20.4286 -20.4192 -20.4181 -20.4144 -20.0618 -20.0387 -20.0359 -20.0319
   -19.9387 -19.9268 -19.8978 -19.8839 -19.8832 -19.8803 -19.7436 -19.7247
   -19.7239 -19.7232 -19.5587 -19.5347 -19.5303 -19.5265 -19.4628 -19.4530
   -19.4399 -19.4397 -19.3397 -19.3259 -19.3172 -19.3157 -19.1597 -19.1286
   -19.1283 -19.1258 -19.0881 -19.0768 -19.0714 -19.0681 -19.0480 -19.0439
   -18.9307 -18.9120 -18.9069 -18.9030 -18.8600 -18.8475 -18.8467 -18.8450
   -18.7197 -18.7067 -18.7044 -18.6989 -18.3332 -18.2743 -18.2737 -18.2686
   -18.2379 -18.2215 -18.2205 -18.2133 -18.1924 -18.1832 -18.1798 -18.1760
   -18.0743 -18.0617 -17.9256 -17.8808 -17.8781 -17.8734 -17.8682 -17.8560
   -17.8496 -17.8487 -17.7567 -17.7516 -17.7330 -17.7291 -17.6594 -17.6341
   -17.6291 -17.6257 -17.5350 -17.5243 -17.5028 -17.4916 -17.4604 -17.4334
   -17.4276 -17.4198 -17.4133 -17.4106 -17.3821 -17.3724 -17.1928 -17.1858
   -17.1553 -17.1411 -17.0855 -17.0525 -17.0313 -17.0113 -16.9972 -16.9837
   -16.9532 -16.9421 -16.8748 -16.8591 -16.7442 -16.7399 -16.7047 -16.6926
   -16.3489 -16.2818 -16.2268 -16.2065 -16.1196 -16.0435 -16.0392 -16.0350
   -16.0344 -16.0325 -15.9376 -15.9178 -15.8868 -15.8642 -15.8464 -15.7777
   -15.7664 -15.7514 -15.7449 -15.5670 -15.5525 -15.5524 -15.5106 -15.4590
   -15.4485 -15.4475 -15.3987 -15.3980 -15.3943 -15.3907 -15.3640 -15.3632
   -15.3470 -15.2594 -15.2494 -15.2466 -15.2030 -15.2011 -15.1637 -15.0951
   -15.0907 -15.0847 -15.0816 -15.0767 -15.0539 -15.0364 -14.9963 -14.9643
   -14.9560 -14.9557 -14.9203 -14.9123 -14.8932 -14.8865 -14.8639 -14.8528
   -14.7970 -14.7179 -14.6926 -14.6888 -14.6839 -14.6618 -14.5733 -14.4408
   -14.4285 -14.3395 -14.3224 -13.9711 -13.9669 -13.9606 -13.9531 -13.9460
   -13.9382 -13.8861 -13.8763 -13.8390 -13.8357 -13.8032 -13.7966 -13.6640
   -13.6595 -13.5687 -13.5352 -13.5347 -13.5327 -13.5323 -13.5189 -13.5121
   -13.4951 -13.4793 -13.4626 -13.4166 -13.4023 -13.3980 -13.3832 -13.3643
   -13.3544 -13.2666 -13.2584 -13.2420 -13.2210 -13.0904 -13.0848 -13.0678
   -13.0558 -13.0442 -13.0328 -12.8886 -12.8877 -12.8543 -12.8472 -12.8320
   -12.8282 -12.8086 -12.8053 -12.7680 -12.7624 -12.7480 -12.7433 -12.7139
   -12.7019 -12.6089 -12.6072 -12.5307 -12.5281 -12.5045 -12.5011 -12.4322
   -12.4303 -12.2416 -12.2358 -12.1116 -12.1084 -12.0037 -12.0017 -11.9872
   -11.9800 -11.8557 -11.8552 -11.7812 -11.7779 -11.7458 -11.7422 -11.6819
   -11.6712 -11.6503 -11.6478 -11.6307 -11.6296 -11.6039 -11.6011 -11.5637
   -11.5623 -11.5255 -11.5207 -11.4991 -11.4964 -11.4911 -11.4910 -11.4497
   -11.4450 -11.4312 -11.4147 -11.3761 -11.3624 -11.3439 -11.3427 -11.3250
   -11.3142 -11.2905 -11.2891 -11.2568 -11.2549 -11.2412 -11.2324 -11.1700
   -11.1653 -11.1636 -11.1602 -11.1594 -11.1581 -11.1415 -11.1367 -10.7836
   -10.7790 -10.7692 -10.7650 -10.7541 -10.7516 -10.7457 -10.7434 -10.7190
   -10.7166 -10.6991 -10.6978 -10.6316 -10.6256 -10.5502 -10.5436 -10.5427
   -10.5312 -10.4907 -10.4903 -10.4792 -10.4772 -10.4632 -10.4557 -10.4350
   -10.4292 -10.4194 -10.4165 -10.4007 -10.3984 -10.3951 -10.3923 -10.3908
   -10.3781 -10.3335 -10.3245 -10.3177 -10.3136 -10.3012 -10.2987 -10.2937
   -10.2920 -10.2430 -10.2337 -10.2172 -10.2163 -10.1897 -10.1839 -10.1309
   -10.1223 -10.1151 -10.1093 -10.1021 -10.1004 -10.0910 -10.0828 -10.0677
   -10.0660 -10.0472 -10.0353 -10.0216 -10.0131  -9.9803  -9.9747  -9.9660
    -9.9640  -9.9444  -9.9356  -9.9328  -9.9240  -9.9034  -9.8966  -9.8951
    -9.8919  -9.8875  -9.8771  -9.8108  -9.7997  -9.7964  -9.7883  -9.7818
    -9.7813  -9.7724  -9.7690  -9.7377  -9.7297  -9.7093  -9.7091  -9.6946
    -9.6933  -9.6804  -9.6784  -9.6459  -9.6426  -9.6126  -9.6095  -9.6071
    -9.5947  -9.5480  -9.5431  -9.5090  -9.4961  -9.4944  -9.4783  -9.4696
    -9.4685  -9.4575  -9.4503  -9.4212  -9.4201  -9.3336  -9.3225  -9.3116
    -9.2980  -9.2909  -9.2904  -9.2857  -9.2847  -9.2807  -9.2648  -9.1858
    -9.1840  -9.1573  -9.1412  -9.1280  -9.1279  -9.1136  -9.1046  -9.0997
    -9.0976  -9.0909  -9.0893  -9.0864  -9.0830  -9.0755  -9.0711  -9.0459
    -9.0444  -9.0414  -9.0285  -9.0276  -9.0117  -9.0065  -8.9992  -8.9517
    -8.9499  -8.9340  -8.9299  -8.9188  -8.9171  -8.9062  -8.9059  -8.8169
    -8.7957  -8.6594  -8.6192  -8.6189  -8.6027  -8.5898  -8.5831  -8.5459
    -8.5341  -8.5073  -8.5018  -8.4586  -8.4561  -8.3871  -8.3669  -8.3543
    -8.3080  -8.3002  -8.2984  -8.2879  -8.2718  -8.2604  -8.2559  -8.2382
    -8.2302  -8.2238  -8.2226  -8.1789  -8.1737  -8.1626  -8.1489  -8.1290
    -8.1259  -8.1124  -8.0865  -8.0784  -8.0754  -8.0716  -8.0669  -8.0599
    -8.0554  -8.0486  -8.0410  -8.0388  -8.0309  -8.0283  -8.0261  -8.0174
    -8.0101  -7.9410  -7.9322  -7.8886  -7.8802  -7.8684  -7.8626  -7.8522
    -7.8519  -7.7639  -7.7602  -7.6911  -7.6859  -7.6496  -7.5963  -7.5858
    -7.5679  -7.5660  -7.5611  -7.5295  -7.5242  -7.4830  -7.4703  -7.4539
    -7.4474  -7.3967  -7.3874  -7.3870  -7.3651  -7.3614  -7.3552  -7.3211
    -7.3199  -7.3144  -7.2945  -7.2899  -7.2894  -7.2722  -7.2680  -7.2615
    -7.2577  -7.2566  -7.2445  -7.1834  -7.1747  -7.1215  -7.1090  -7.0478
    -7.0067  -6.9521  -6.9462  -6.9364  -6.9332  -6.9296  -6.9263  -6.9203
    -6.9078  -6.8742  -6.8205  -6.8034  -6.8032  -6.7632  -6.7515  -6.7475
    -6.7328  -6.7223  -6.6908  -6.6626  -6.6611  -6.6432  -6.6372  -6.6324
    -6.6314  -6.5821  -6.5758  -6.5197  -6.5100  -6.4762  -6.4759  -6.4411
    -6.4202  -6.4120  -6.4005  -6.3878  -6.3874  -6.3866  -6.3818  -6.3765
    -6.3718  -6.3670  -6.3614  -6.3368  -6.3344  -6.3087  -6.3027  -6.2147
    -6.1949  -6.1160  -6.0164  -6.0152  -5.9957  -5.9911  -5.9767  -5.8908
    -5.8774  -5.8494  -5.8479  -5.8077  -5.7463  -5.7132  -5.6806  -5.6500
    -5.5709  -5.5466  -5.5282  -5.5098  -5.4935  -5.4731  -5.4712  -5.4448
    -5.3982  -5.3863  -5.3237  -5.3033  -5.2929  -5.2832  -5.2817  -5.2789
    -5.2743  -5.2353  -5.2268  -5.2098  -5.1922  -5.1644  -5.1521  -5.1420
    -5.1007  -5.0709  -5.0658  -5.0083  -4.9493  -4.9333  -4.9305  -4.8666
    -4.8566  -4.8302  -4.7923  -4.7460  -4.7308  -4.6466  -4.5745  -4.5461
    -4.5310  -4.5120  -4.5045  -4.4635  -4.4548  -4.4416  -4.3766  -4.2143
    -4.0716  -4.0094  -3.9543  -3.9367  -3.8631  -3.8624  -3.7626  -3.6081
    -3.5762  -3.4492  -3.3809  -2.3995  -2.2881  -2.2230  -2.2005  -2.0867
    -1.9592  -1.9513  -1.7799  -1.7747  -1.7541  -1.6473  -1.5993  -1.5930
    -1.5723  -1.5689  -1.5644  -1.5639  -1.5439  -1.5375  -1.4869  -1.4828
    -1.4448  -1.4402  -1.4161  -1.4095  -1.3917  -1.3900  -1.3665  -1.3637
    -1.3584  -1.2963  -1.2897  -1.2880  -1.1584  -1.1385  -1.0830  -1.0740
    -1.0631  -1.0406  -1.0145  -1.0090  -1.0076  -1.0072  -1.0019  -0.9949
    -0.9938  -0.9913  -0.9742  -0.9737  -0.9711  -0.9336  -0.9232  -0.8849
    -0.8843  -0.8297  -0.8241  -0.6589  -0.6514  -0.6433  -0.6379  -0.4255
    -0.4203  -0.4002  -0.3365  -0.3216  -0.3190  -0.1517  -0.1340  -0.0845

          k = 0.0000 0.0000 0.5002 (****** PWs)   bands (ev):

   -22.6708 -22.6493 -22.5529 -22.5035 -22.4639 -22.4517 -22.4375 -22.4346
   -22.3444 -22.3361 -22.3043 -22.2917 -22.2867 -22.2217 -22.0977 -22.0896
   -22.0152 -22.0076 -21.9275 -21.8424 -21.8237 -21.8129 -21.8074 -21.8066
   -21.7276 -21.7130 -21.7096 -21.7091 -21.6664 -21.6601 -21.6043 -21.5986
   -21.4741 -21.4649 -21.4202 -21.3906 -21.3837 -21.2740 -21.2161 -21.2079
   -21.1034 -21.0921 -21.0686 -21.0618 -20.9872 -20.9788 -20.8297 -20.8109
   -20.7960 -20.7925 -20.7844 -20.7066 -20.6973 -20.6567 -20.6491 -20.6114
   -20.5999 -20.5921 -20.5802 -20.5774 -20.4721 -20.4578 -20.4496 -20.4472
   -20.4069 -20.4007 -20.3798 -20.3776 -20.1027 -20.0915 -20.0349 -19.9939
   -19.9809 -19.9713 -19.9680 -19.8419 -19.8262 -19.8236 -19.8013 -19.7940
   -19.6378 -19.6203 -19.6058 -19.6015 -19.4858 -19.4617 -19.4548 -19.4515
   -19.4361 -19.4353 -19.3518 -19.3441 -19.3024 -19.2970 -19.2368 -19.2276
   -19.1664 -19.1207 -19.1119 -19.0526 -19.0353 -19.0271 -19.0238 -18.9979
   -18.9921 -18.9667 -18.9619 -18.9297 -18.8328 -18.8229 -18.7660 -18.7579
   -18.7345 -18.7299 -18.6553 -18.6506 -18.4045 -18.3833 -18.3140 -18.2888
   -18.2782 -18.2745 -18.2023 -18.1764 -18.1614 -18.1522 -18.1484 -18.0947
   -18.0853 -18.0162 -18.0019 -17.9416 -17.8757 -17.8705 -17.8486 -17.8448
   -17.7862 -17.7653 -17.7547 -17.7464 -17.7259 -17.7173 -17.7091 -17.7042
   -17.5883 -17.5546 -17.5534 -17.5336 -17.5192 -17.5136 -17.5076 -17.4860
   -17.4830 -17.4552 -17.3713 -17.3496 -17.3322 -17.2811 -17.2344 -17.1986
   -17.1574 -17.1345 -17.1205 -17.0949 -17.0713 -17.0472 -17.0230 -16.9894
   -16.9243 -16.8875 -16.8669 -16.8017 -16.7659 -16.7424 -16.6789 -16.6398
   -16.3586 -16.2952 -16.2752 -16.1835 -16.1335 -16.1228 -16.1197 -16.0385
   -16.0098 -15.9487 -15.9419 -15.9389 -15.8853 -15.8492 -15.8029 -15.7950
   -15.7622 -15.6850 -15.6757 -15.5688 -15.5524 -15.5490 -15.5165 -15.5054
   -15.4728 -15.4505 -15.4458 -15.4323 -15.4025 -15.3631 -15.3148 -15.3041
   -15.2837 -15.2765 -15.2683 -15.2509 -15.2261 -15.2233 -15.2150 -15.1612
   -15.1161 -15.1090 -15.0741 -15.0477 -15.0303 -15.0298 -15.0221 -15.0049
   -14.9968 -14.9641 -14.9539 -14.9353 -14.8562 -14.8267 -14.7864 -14.7863
   -14.7624 -14.7391 -14.7063 -14.6747 -14.6516 -14.5882 -14.5740 -14.5317
   -14.4554 -14.3296 -14.2060 -14.1126 -14.1006 -14.0761 -14.0149 -13.9495
   -13.9288 -13.8251 -13.8150 -13.8087 -13.8043 -13.7466 -13.7229 -13.6777
   -13.6530 -13.6030 -13.5543 -13.5199 -13.5156 -13.5102 -13.4942 -13.4875
   -13.4833 -13.4577 -13.4244 -13.4149 -13.4023 -13.3959 -13.3948 -13.3731
   -13.3117 -13.3086 -13.2580 -13.2136 -13.2006 -13.1111 -13.1001 -13.0619
   -13.0572 -13.0291 -13.0172 -13.0104 -12.9735 -12.9506 -12.9118 -12.9068
   -12.8983 -12.7931 -12.7826 -12.7624 -12.7353 -12.6859 -12.6657 -12.6585
   -12.6384 -12.6249 -12.6209 -12.5917 -12.5530 -12.4760 -12.3979 -12.3720
   -12.3239 -12.3038 -12.1518 -12.1309 -12.0848 -12.0790 -12.0587 -11.9881
   -11.9317 -11.8856 -11.8617 -11.8315 -11.7998 -11.7515 -11.7438 -11.7254
   -11.7176 -11.6739 -11.6597 -11.6353 -11.6336 -11.6188 -11.6147 -11.5960
   -11.5938 -11.5840 -11.5002 -11.4937 -11.4823 -11.4590 -11.4399 -11.4127
   -11.4005 -11.3792 -11.3716 -11.3615 -11.3549 -11.3494 -11.3287 -11.3114
   -11.3100 -11.3049 -11.2873 -11.2686 -11.2509 -11.2275 -11.2209 -11.2051
   -11.1994 -11.1925 -11.1557 -11.1395 -11.1306 -11.0553 -11.0289 -10.8970
   -10.8675 -10.8270 -10.7996 -10.7926 -10.7892 -10.7696 -10.6977 -10.6565
   -10.6440 -10.6231 -10.6169 -10.6120 -10.6029 -10.5994 -10.5953 -10.5556
   -10.5508 -10.5448 -10.5402 -10.5350 -10.5230 -10.4886 -10.4830 -10.4600
   -10.4271 -10.4226 -10.4164 -10.4108 -10.4015 -10.3760 -10.3749 -10.3674
   -10.3590 -10.3478 -10.3255 -10.3140 -10.3031 -10.2976 -10.2841 -10.2745
   -10.2466 -10.2186 -10.1907 -10.1863 -10.1797 -10.1768 -10.1718 -10.1559
   -10.1551 -10.1385 -10.1340 -10.0721 -10.0689 -10.0598 -10.0467 -10.0452
   -10.0336 -10.0260 -10.0215 -10.0085 -10.0001  -9.9981  -9.9866  -9.9835
    -9.9703  -9.9624  -9.9492  -9.9466  -9.9421  -9.9205  -9.9159  -9.9058
    -9.8969  -9.8748  -9.8318  -9.8279  -9.8134  -9.8093  -9.7930  -9.7908
    -9.7898  -9.7859  -9.7710  -9.7703  -9.7490  -9.7355  -9.7189  -9.6898
    -9.6816  -9.6765  -9.6572  -9.6477  -9.6220  -9.6177  -9.6164  -9.5835
    -9.5676  -9.5519  -9.5493  -9.5394  -9.5314  -9.5116  -9.4928  -9.4865
    -9.4824  -9.4339  -9.4036  -9.3889  -9.3757  -9.3541  -9.3356  -9.3138
    -9.2965  -9.2952  -9.2885  -9.2818  -9.2621  -9.2549  -9.2529  -9.2267
    -9.2161  -9.1768  -9.1604  -9.1583  -9.1353  -9.1272  -9.1161  -9.1128
    -9.0993  -9.0922  -9.0885  -9.0859  -9.0795  -9.0746  -9.0624  -9.0612
    -9.0416  -9.0333  -9.0294  -9.0011  -8.9922  -8.9816  -8.9760  -8.9713
    -8.9287  -8.9255  -8.9152  -8.9126  -8.9048  -8.8984  -8.8519  -8.8391
    -8.7648  -8.7027  -8.6633  -8.6191  -8.5969  -8.5897  -8.5739  -8.5438
    -8.5408  -8.5335  -8.5075  -8.5024  -8.4121  -8.3957  -8.3619  -8.3400
    -8.3244  -8.3117  -8.3005  -8.2871  -8.2656  -8.2459  -8.2375  -8.2265
    -8.2233  -8.2071  -8.1950  -8.1883  -8.1809  -8.1744  -8.1570  -8.1562
    -8.1457  -8.1405  -8.1215  -8.1075  -8.1028  -8.0908  -8.0810  -8.0766
    -8.0703  -8.0591  -8.0416  -8.0301  -7.9992  -7.9869  -7.9700  -7.9568
    -7.9496  -7.9229  -7.9108  -7.9085  -7.8960  -7.8716  -7.8351  -7.8243
    -7.8157  -7.8103  -7.7627  -7.7051  -7.6861  -7.6517  -7.6410  -7.6324
    -7.6151  -7.5539  -7.5344  -7.5237  -7.5100  -7.5054  -7.4861  -7.4510
    -7.4426  -7.4188  -7.4081  -7.4048  -7.3968  -7.3929  -7.3598  -7.3436
    -7.3304  -7.3036  -7.2878  -7.2834  -7.2764  -7.2609  -7.2402  -7.2340
    -7.2138  -7.2007  -7.1830  -7.1756  -7.1633  -7.1286  -7.0742  -7.0558
    -7.0271  -6.9894  -6.9808  -6.9711  -6.9458  -6.9394  -6.9130  -6.8754
    -6.8469  -6.8414  -6.8217  -6.8112  -6.8019  -6.7982  -6.7846  -6.7448
    -6.7396  -6.7160  -6.7055  -6.6991  -6.6919  -6.6865  -6.6545  -6.6414
    -6.6074  -6.5585  -6.5409  -6.5203  -6.5017  -6.4873  -6.4825  -6.4570
    -6.4405  -6.4343  -6.4203  -6.4133  -6.4089  -6.4044  -6.3920  -6.3734
    -6.3585  -6.3517  -6.3463  -6.2850  -6.2637  -6.2476  -6.2327  -6.2211
    -6.1879  -6.1253  -6.0587  -6.0407  -5.9847  -5.9769  -5.9668  -5.9446
    -5.9361  -5.8280  -5.8048  -5.7848  -5.7488  -5.7281  -5.6842  -5.6605
    -5.6047  -5.5900  -5.5743  -5.5258  -5.5134  -5.4659  -5.4211  -5.4019
    -5.3726  -5.3471  -5.3240  -5.3071  -5.2938  -5.2849  -5.2680  -5.2580
    -5.2510  -5.2401  -5.2357  -5.2277  -5.1963  -5.1854  -5.1471  -5.1175
    -5.1002  -5.0858  -5.0329  -5.0135  -4.9912  -4.9337  -4.8824  -4.8671
    -4.8597  -4.8439  -4.8069  -4.7738  -4.6828  -4.6521  -4.6379  -4.5834
    -4.5665  -4.5521  -4.5163  -4.4511  -4.3903  -4.3576  -4.3552  -4.2132
    -4.0845  -4.0193  -3.9692  -3.9144  -3.8861  -3.8418  -3.7558  -3.6883
    -3.5060  -3.4785  -3.3593  -2.4132  -2.2872  -2.2727  -2.1275  -2.0820
    -1.9653  -1.9339  -1.8241  -1.7818  -1.7154  -1.6381  -1.6305  -1.6098
    -1.6030  -1.5886  -1.5713  -1.5474  -1.5204  -1.5067  -1.5064  -1.4906
    -1.4616  -1.4474  -1.4164  -1.4069  -1.3911  -1.3813  -1.3620  -1.3423
    -1.3240  -1.2770  -1.2736  -1.2341  -1.1670  -1.1336  -1.0983  -1.0960
    -1.0874  -1.0795  -1.0669  -1.0576  -1.0353  -1.0278  -1.0125  -0.9950
    -0.9888  -0.9782  -0.9736  -0.9689  -0.9268  -0.9250  -0.9182  -0.8949
    -0.8261  -0.7776  -0.7573  -0.7466  -0.7295  -0.5588  -0.5360  -0.5232
    -0.4583  -0.4090  -0.3098  -0.2863  -0.2465  -0.2290  -0.1560  -0.1278

          k = 0.0000 0.0000 0.6002 (****** PWs)   bands (ev):

   -22.6749 -22.6392 -22.5739 -22.4798 -22.4636 -22.4567 -22.4285 -22.4234
   -22.3651 -22.3577 -22.3410 -22.2656 -22.2590 -22.1780 -22.1346 -22.1276
   -21.9835 -21.9699 -21.9636 -21.8442 -21.8286 -21.8034 -21.7956 -21.7734
   -21.7671 -21.7513 -21.7351 -21.7304 -21.6403 -21.6327 -21.5465 -21.5385
   -21.5102 -21.5025 -21.4887 -21.3491 -21.3401 -21.2851 -21.2780 -21.1982
   -21.1537 -21.1456 -20.9969 -20.9860 -20.9295 -20.9193 -20.8753 -20.8258
   -20.8154 -20.7871 -20.7820 -20.7265 -20.7182 -20.6779 -20.6631 -20.6617
   -20.6603 -20.6253 -20.6221 -20.5206 -20.4988 -20.4944 -20.3841 -20.3726
   -20.3414 -20.3349 -20.3133 -20.3094 -20.1553 -20.1441 -20.1314 -20.0625
   -20.0531 -19.9426 -19.9267 -19.9224 -19.9211 -19.7315 -19.7110 -19.7043
   -19.6749 -19.6692 -19.5333 -19.5147 -19.4709 -19.4597 -19.4317 -19.4260
   -19.3951 -19.3867 -19.3668 -19.3641 -19.3330 -19.3262 -19.2826 -19.2710
   -19.2695 -19.1561 -19.1476 -19.0929 -19.0767 -19.0746 -19.0717 -18.9981
   -18.9931 -18.9314 -18.9217 -18.8237 -18.8088 -18.8052 -18.7434 -18.7354
   -18.6283 -18.6120 -18.5966 -18.5941 -18.5054 -18.4933 -18.3907 -18.3726
   -18.3543 -18.3503 -18.3191 -18.1523 -18.1264 -18.0942 -18.0825 -18.0571
   -18.0460 -17.9994 -17.9888 -17.8838 -17.8734 -17.8443 -17.8380 -17.8128
   -17.7942 -17.7894 -17.7818 -17.7714 -17.7060 -17.6894 -17.6519 -17.6277
   -17.6152 -17.6085 -17.6036 -17.5927 -17.5870 -17.5635 -17.4841 -17.4733
   -17.4473 -17.4185 -17.3277 -17.2913 -17.2772 -17.2765 -17.2641 -17.2430
   -17.1972 -17.1733 -17.1598 -17.1423 -17.1144 -17.0832 -17.0432 -17.0047
   -16.8742 -16.8565 -16.8211 -16.8064 -16.7552 -16.6415 -16.6137 -16.5799
   -16.3860 -16.3486 -16.3148 -16.2597 -16.1889 -16.1824 -16.1147 -16.0932
   -16.0078 -15.9949 -15.9303 -15.8790 -15.8380 -15.8278 -15.8153 -15.6773
   -15.6561 -15.6191 -15.5969 -15.5846 -15.5711 -15.5516 -15.5412 -15.5115
   -15.4895 -15.4785 -15.4469 -15.4124 -15.4071 -15.3696 -15.3566 -15.3446
   -15.3385 -15.3107 -15.2607 -15.2319 -15.2238 -15.1928 -15.1880 -15.1864
   -15.1619 -15.1513 -15.1438 -15.1380 -15.1112 -15.0637 -15.0306 -15.0205
   -15.0036 -14.9295 -14.8820 -14.8629 -14.8318 -14.8193 -14.7868 -14.7205
   -14.6962 -14.6603 -14.6445 -14.6236 -14.6135 -14.6048 -14.5688 -14.5157
   -14.4838 -14.2561 -14.2451 -14.2216 -14.2066 -14.1464 -14.0854 -14.0636
   -14.0553 -13.9609 -13.7712 -13.6836 -13.6781 -13.6699 -13.6585 -13.6137
   -13.6045 -13.5655 -13.5478 -13.5173 -13.5170 -13.4904 -13.4869 -13.4576
   -13.4469 -13.4348 -13.4152 -13.4060 -13.3928 -13.3651 -13.3620 -13.3455
   -13.2915 -13.2799 -13.2465 -13.1849 -13.1750 -13.1479 -13.1338 -13.1159
   -13.0981 -13.0957 -13.0815 -13.0549 -13.0472 -13.0118 -13.0080 -12.9973
   -12.9632 -12.8680 -12.8560 -12.7895 -12.7781 -12.7159 -12.6674 -12.6365
   -12.5409 -12.5392 -12.5228 -12.4767 -12.4384 -12.4074 -12.3402 -12.2653
   -12.2461 -12.1763 -12.1721 -12.1453 -12.1195 -12.1020 -12.0627 -12.0494
   -11.9854 -11.9489 -11.8947 -11.8813 -11.8475 -11.8269 -11.8222 -11.7856
   -11.7764 -11.7225 -11.6923 -11.6782 -11.6688 -11.6562 -11.6219 -11.5880
   -11.5688 -11.5570 -11.5326 -11.4547 -11.4248 -11.4127 -11.4118 -11.4048
   -11.3800 -11.3741 -11.3654 -11.3577 -11.3480 -11.3340 -11.3121 -11.3034
   -11.3002 -11.2620 -11.2405 -11.2265 -11.2117 -11.2091 -11.1701 -11.1618
   -11.1515 -11.1376 -11.1283 -11.1224 -11.0684 -11.0356 -10.9871 -10.9478
   -10.9040 -10.8975 -10.8880 -10.8663 -10.7954 -10.7572 -10.7508 -10.7461
   -10.6836 -10.6724 -10.6678 -10.6320 -10.6017 -10.5694 -10.5677 -10.5598
   -10.5511 -10.5436 -10.5233 -10.5147 -10.5131 -10.4977 -10.4945 -10.4842
   -10.4732 -10.4712 -10.4487 -10.4369 -10.4336 -10.4139 -10.3728 -10.3681
   -10.3522 -10.3402 -10.3376 -10.3250 -10.2617 -10.2428 -10.2394 -10.2312
   -10.2197 -10.1962 -10.1827 -10.1797 -10.1743 -10.1296 -10.1097 -10.0941
   -10.0808 -10.0767 -10.0665 -10.0569 -10.0518 -10.0406 -10.0386 -10.0321
   -10.0283 -10.0258 -10.0178 -10.0105 -10.0051 -10.0020  -9.9984  -9.9927
    -9.9884  -9.9727  -9.9475  -9.9428  -9.9333  -9.9246  -9.9180  -9.9080
    -9.8867  -9.8754  -9.8730  -9.8605  -9.8566  -9.8539  -9.8447  -9.8232
    -9.7985  -9.7926  -9.7856  -9.7722  -9.7587  -9.7497  -9.7292  -9.6979
    -9.6951  -9.6619  -9.6440  -9.6415  -9.6380  -9.6315  -9.6221  -9.6168
    -9.5798  -9.5679  -9.5375  -9.5276  -9.5184  -9.5125  -9.4900  -9.4783
    -9.4648  -9.4280  -9.4092  -9.4027  -9.3385  -9.3378  -9.3207  -9.3146
    -9.3132  -9.3103  -9.2972  -9.2682  -9.2579  -9.2371  -9.2337  -9.2238
    -9.2169  -9.2009  -9.1833  -9.1720  -9.1475  -9.1423  -9.1371  -9.1273
    -9.1251  -9.1221  -9.0973  -9.0865  -9.0832  -9.0683  -9.0637  -9.0564
    -9.0455  -9.0387  -9.0338  -8.9968  -8.9630  -8.9515  -8.9430  -8.9396
    -8.9153  -8.9109  -8.9025  -8.8962  -8.8842  -8.8478  -8.7964  -8.7867
    -8.7513  -8.7378  -8.7277  -8.6783  -8.6404  -8.5941  -8.5671  -8.5383
    -8.5311  -8.5080  -8.5039  -8.4737  -8.4560  -8.4413  -8.4129  -8.3451
    -8.3270  -8.3182  -8.3022  -8.2976  -8.2811  -8.2718  -8.2416  -8.2343
    -8.2092  -8.1987  -8.1962  -8.1836  -8.1742  -8.1723  -8.1623  -8.1557
    -8.1438  -8.1316  -8.1235  -8.1187  -8.1080  -8.0905  -8.0822  -8.0792
    -8.0699  -8.0516  -8.0399  -8.0205  -7.9776  -7.9577  -7.9513  -7.9396
    -7.9337  -7.8919  -7.8802  -7.8674  -7.8441  -7.8352  -7.8200  -7.7926
    -7.7815  -7.7739  -7.7643  -7.7596  -7.7381  -7.7131  -7.7035  -7.6501
    -7.6369  -7.5800  -7.5764  -7.5474  -7.5344  -7.5183  -7.5057  -7.5002
    -7.4885  -7.4529  -7.4277  -7.4135  -7.4051  -7.3948  -7.3500  -7.3415
    -7.3248  -7.3030  -7.2817  -7.2582  -7.2345  -7.2258  -7.2018  -7.1969
    -7.1532  -7.1476  -7.1432  -7.1047  -7.0985  -7.0772  -7.0699  -7.0661
    -7.0605  -7.0223  -7.0054  -6.9933  -6.9546  -6.9344  -6.9074  -6.8703
    -6.8559  -6.8319  -6.8223  -6.8191  -6.8168  -6.8009  -6.7972  -6.7821
    -6.7801  -6.7733  -6.7365  -6.7170  -6.7033  -6.6489  -6.6466  -6.6383
    -6.6273  -6.6122  -6.6054  -6.5524  -6.5185  -6.4980  -6.4760  -6.4683
    -6.4613  -6.4548  -6.4418  -6.4334  -6.3717  -6.3579  -6.3429  -6.3382
    -6.3318  -6.3262  -6.3039  -6.2494  -6.1973  -6.1895  -6.1696  -6.1554
    -6.1352  -6.1242  -6.1082  -6.0833  -6.0605  -6.0432  -5.9670  -5.9486
    -5.8970  -5.8699  -5.8363  -5.8088  -5.7659  -5.7160  -5.6952  -5.6633
    -5.6436  -5.6287  -5.5946  -5.5802  -5.5248  -5.4249  -5.3935  -5.3673
    -5.3450  -5.3184  -5.3052  -5.2956  -5.2945  -5.2860  -5.2677  -5.2610
    -5.2404  -5.2380  -5.2111  -5.1966  -5.1742  -5.1638  -5.1483  -5.1451
    -5.0951  -5.0573  -5.0354  -5.0212  -4.9793  -4.9356  -4.8930  -4.8761
    -4.8636  -4.8580  -4.8180  -4.7676  -4.7473  -4.6793  -4.6693  -4.6290
    -4.6128  -4.5604  -4.5222  -4.4451  -4.3328  -4.2737  -4.2501  -4.2111
    -4.1158  -4.0283  -3.9933  -3.9413  -3.8638  -3.8184  -3.7881  -3.7416
    -3.5297  -3.4353  -3.3316  -2.4375  -2.3466  -2.2474  -2.0684  -2.0354
    -1.9666  -1.9017  -1.8740  -1.8066  -1.6663  -1.6585  -1.6539  -1.6429
    -1.6367  -1.6290  -1.6128  -1.5881  -1.4921  -1.4790  -1.4669  -1.4636
    -1.4520  -1.4441  -1.4318  -1.4019  -1.3900  -1.3729  -1.3087  -1.2959
    -1.2887  -1.2545  -1.1892  -1.1847  -1.1691  -1.1640  -1.1551  -1.1522
    -1.1321  -1.1212  -1.1080  -1.0883  -1.0708  -1.0452  -1.0323  -1.0149
    -1.0096  -0.9943  -0.9837  -0.9736  -0.9660  -0.8720  -0.8464  -0.8429
    -0.8343  -0.7912  -0.7190  -0.6674  -0.6616  -0.6282  -0.5254  -0.4946
    -0.4520  -0.4091  -0.3527  -0.2842  -0.2676  -0.2046  -0.1829  -0.1633

          k = 0.0000 0.0000 0.7003 (****** PWs)   bands (ev):

   -22.6776 -22.6266 -22.5929 -22.4731 -22.4598 -22.4439 -22.4166 -22.4101
   -22.3848 -22.3772 -22.3747 -22.2366 -22.2292 -22.1705 -22.1635 -22.1313
   -22.0336 -21.9273 -21.9175 -21.8490 -21.8316 -21.8227 -21.8192 -21.7890
   -21.7824 -21.7552 -21.7498 -21.6890 -21.6120 -21.6032 -21.5601 -21.5438
   -21.5381 -21.4824 -21.4763 -21.3545 -21.3461 -21.3020 -21.2945 -21.2055
   -21.1972 -21.1195 -20.9607 -20.9212 -20.9081 -20.8691 -20.8579 -20.8269
   -20.8182 -20.7803 -20.7693 -20.7540 -20.7466 -20.7384 -20.7372 -20.7306
   -20.7283 -20.5995 -20.5932 -20.5349 -20.5293 -20.4256 -20.3162 -20.2964
   -20.2906 -20.2893 -20.2358 -20.2225 -20.2165 -20.1974 -20.1946 -20.1430
   -20.1357 -20.0325 -20.0249 -19.8706 -19.8618 -19.7456 -19.7354 -19.6318
   -19.6125 -19.6093 -19.4926 -19.4623 -19.4393 -19.4240 -19.4168 -19.4138
   -19.4076 -19.4057 -19.3909 -19.3821 -19.3805 -19.3174 -19.3114 -19.2499
   -19.2430 -19.2004 -19.1881 -19.1815 -19.1793 -19.1581 -19.1542 -18.9582
   -18.9499 -18.8685 -18.8578 -18.8242 -18.8164 -18.6967 -18.6595 -18.6470
   -18.6134 -18.6025 -18.5467 -18.5365 -18.5025 -18.4922 -18.4716 -18.4647
   -18.4435 -18.4175 -18.4141 -18.2616 -18.2492 -18.0399 -18.0110 -17.9640
   -17.9348 -17.9102 -17.8922 -17.8777 -17.8726 -17.8613 -17.8592 -17.8311
   -17.8238 -17.8026 -17.7923 -17.7351 -17.7120 -17.6997 -17.6983 -17.6788
   -17.6740 -17.6553 -17.6201 -17.5984 -17.5207 -17.4979 -17.4329 -17.4080
   -17.4034 -17.3888 -17.3747 -17.3279 -17.3041 -17.2765 -17.2633 -17.2483
   -17.2417 -17.2346 -17.2239 -17.2175 -17.1098 -17.0320 -17.0180 -16.9840
   -16.9209 -16.8772 -16.8173 -16.7789 -16.6348 -16.5592 -16.5386 -16.5138
   -16.4273 -16.4100 -16.3771 -16.3544 -16.2330 -16.2138 -16.1767 -16.0685
   -16.0228 -15.9877 -15.9748 -15.8797 -15.8216 -15.7262 -15.7120 -15.7082
   -15.5742 -15.5547 -15.5489 -15.5397 -15.5317 -15.5138 -15.5057 -15.5024
   -15.4872 -15.4826 -15.4778 -15.4747 -15.4377 -15.4076 -15.3885 -15.3775
   -15.3577 -15.3377 -15.3018 -15.2929 -15.2826 -15.2709 -15.2607 -15.2182
   -15.1633 -15.1489 -15.1358 -15.1244 -15.0899 -15.0353 -15.0040 -14.9924
   -14.9749 -14.9539 -14.9389 -14.8875 -14.8110 -14.7502 -14.7420 -14.7123
   -14.6805 -14.6623 -14.6071 -14.5923 -14.5591 -14.5219 -14.4653 -14.4084
   -14.3987 -14.3835 -14.3785 -14.3345 -14.2759 -14.1957 -14.1681 -14.1124
   -14.1089 -13.9687 -13.8862 -13.7632 -13.5635 -13.5372 -13.5315 -13.5191
   -13.5156 -13.5085 -13.4972 -13.4914 -13.4806 -13.4704 -13.4516 -13.4472
   -13.4426 -13.4224 -13.4204 -13.4097 -13.3957 -13.3786 -13.3450 -13.3020
   -13.2630 -13.2527 -13.2506 -13.2391 -13.2133 -13.2057 -13.1909 -13.1691
   -13.1677 -13.1563 -13.1089 -13.0845 -13.0764 -13.0117 -12.9979 -12.9879
   -12.9698 -12.9465 -12.9409 -12.9222 -12.9137 -12.7724 -12.6437 -12.5093
   -12.4897 -12.4513 -12.3943 -12.3835 -12.3317 -12.2846 -12.2694 -12.2510
   -12.2016 -12.1508 -12.1353 -12.1287 -12.1259 -12.1140 -12.0969 -12.0406
   -12.0371 -12.0131 -11.9784 -11.9703 -11.9289 -11.9189 -11.9149 -11.8591
   -11.7857 -11.7614 -11.7517 -11.6917 -11.6843 -11.6819 -11.6088 -11.5351
   -11.5314 -11.5154 -11.4877 -11.4772 -11.4737 -11.4498 -11.4410 -11.4193
   -11.3998 -11.3810 -11.3546 -11.3391 -11.3168 -11.3003 -11.2877 -11.2711
   -11.2081 -11.2002 -11.1946 -11.1774 -11.1730 -11.1670 -11.1231 -11.1184
   -11.1032 -11.0845 -11.0825 -11.0749 -11.0702 -11.0240 -11.0031 -10.9535
   -10.9393 -10.9333 -10.8984 -10.8852 -10.8395 -10.8075 -10.7999 -10.7972
   -10.7658 -10.7425 -10.7405 -10.7027 -10.6707 -10.6219 -10.5676 -10.5629
   -10.5557 -10.5324 -10.5087 -10.5042 -10.4991 -10.4936 -10.4738 -10.4714
   -10.4623 -10.4604 -10.4462 -10.4436 -10.4332 -10.3952 -10.3872 -10.3740
   -10.3375 -10.3339 -10.3232 -10.3061 -10.2917 -10.2720 -10.2358 -10.2182
   -10.1928 -10.1778 -10.1454 -10.1317 -10.1239 -10.0985 -10.0780 -10.0696
   -10.0649 -10.0624 -10.0495 -10.0412 -10.0404 -10.0373 -10.0338 -10.0295
   -10.0203 -10.0151 -10.0065 -10.0024  -9.9861  -9.9826  -9.9702  -9.9700
    -9.9585  -9.9533  -9.9413  -9.9384  -9.9359  -9.9228  -9.9203  -9.9149
    -9.9059  -9.8972  -9.8898  -9.8679  -9.8654  -9.8493  -9.8482  -9.8419
    -9.8402  -9.8303  -9.8034  -9.7819  -9.7799  -9.7714  -9.7590  -9.7501
    -9.7086  -9.7055  -9.6984  -9.6809  -9.6609  -9.6058  -9.5983  -9.5815
    -9.5669  -9.5597  -9.5501  -9.5398  -9.5278  -9.4883  -9.4842  -9.4536
    -9.4313  -9.4241  -9.4217  -9.3864  -9.3828  -9.3488  -9.3404  -9.3358
    -9.3179  -9.3106  -9.2812  -9.2707  -9.2569  -9.2369  -9.2284  -9.2176
    -9.2149  -9.1850  -9.1816  -9.1742  -9.1566  -9.1476  -9.1429  -9.1230
    -9.1137  -9.1012  -9.0978  -9.0939  -9.0858  -9.0855  -9.0814  -9.0310
    -9.0242  -9.0148  -9.0077  -8.9855  -8.9629  -8.9587  -8.9480  -8.9387
    -8.9181  -8.9134  -8.9031  -8.8897  -8.8754  -8.8718  -8.8434  -8.7461
    -8.7094  -8.6969  -8.6681  -8.6670  -8.6431  -8.5968  -8.5641  -8.5376
    -8.5250  -8.5188  -8.5083  -8.5063  -8.4728  -8.4521  -8.4507  -8.4077
    -8.4021  -8.3365  -8.3244  -8.3156  -8.3026  -8.2922  -8.2525  -8.2332
    -8.2122  -8.2026  -8.1969  -8.1896  -8.1777  -8.1764  -8.1574  -8.1539
    -8.1427  -8.1074  -8.0876  -8.0806  -8.0655  -8.0596  -8.0550  -8.0430
    -8.0353  -8.0322  -8.0171  -7.9995  -7.9871  -7.9835  -7.9720  -7.9237
    -7.9187  -7.9095  -7.8862  -7.8564  -7.8352  -7.8039  -7.7912  -7.7760
    -7.7725  -7.7669  -7.7494  -7.7407  -7.7272  -7.7138  -7.7129  -7.6824
    -7.6375  -7.6299  -7.6078  -7.6005  -7.5956  -7.5885  -7.5734  -7.5195
    -7.4950  -7.4811  -7.4593  -7.4406  -7.3947  -7.3749  -7.3409  -7.3167
    -7.2898  -7.2774  -7.2693  -7.2393  -7.2250  -7.1968  -7.1681  -7.1652
    -7.1339  -7.1192  -7.1131  -7.0947  -7.0861  -7.0417  -7.0368  -7.0312
    -7.0123  -6.9812  -6.9745  -6.9600  -6.9518  -6.9458  -6.9306  -6.9244
    -6.9183  -6.9117  -6.8918  -6.8734  -6.8289  -6.8092  -6.7966  -6.7794
    -6.7508  -6.7475  -6.7353  -6.7276  -6.7213  -6.7118  -6.7013  -6.6213
    -6.6089  -6.6007  -6.5883  -6.5821  -6.5642  -6.5490  -6.5231  -6.5101
    -6.5035  -6.4884  -6.3705  -6.3568  -6.3333  -6.3309  -6.3236  -6.3090
    -6.2744  -6.2686  -6.2588  -6.2035  -6.1916  -6.1813  -6.1641  -6.1488
    -6.1414  -6.1358  -6.1041  -6.0743  -6.0443  -6.0052  -5.9725  -5.9542
    -5.9379  -5.9301  -5.8829  -5.8309  -5.8123  -5.7615  -5.7558  -5.7040
    -5.6310  -5.6155  -5.5694  -5.5324  -5.4801  -5.4552  -5.4209  -5.3909
    -5.3502  -5.3386  -5.3104  -5.2954  -5.2776  -5.2687  -5.2421  -5.2390
    -5.2171  -5.1963  -5.1905  -5.1716  -5.1588  -5.1520  -5.1505  -5.1265
    -5.0727  -5.0308  -5.0183  -4.9916  -4.9697  -4.9515  -4.9389  -4.9061
    -4.8920  -4.8821  -4.8441  -4.7923  -4.7649  -4.7398  -4.6712  -4.6557
    -4.5865  -4.5796  -4.5383  -4.4294  -4.3011  -4.2188  -4.1834  -4.1400
    -4.1353  -4.0364  -4.0236  -3.9840  -3.9034  -3.8302  -3.7901  -3.7268
    -3.5786  -3.3841  -3.3170  -2.4548  -2.3878  -2.2289  -2.0411  -1.9680
    -1.9408  -1.9180  -1.8584  -1.8245  -1.7336  -1.7224  -1.6730  -1.6631
    -1.6529  -1.6470  -1.6064  -1.5612  -1.5030  -1.4935  -1.4601  -1.4446
    -1.4267  -1.4199  -1.3914  -1.3753  -1.3526  -1.3314  -1.2740  -1.2631
    -1.2513  -1.2469  -1.2294  -1.2183  -1.2121  -1.1970  -1.1924  -1.1801
    -1.1493  -1.1070  -1.0976  -1.0902  -1.0752  -1.0386  -1.0335  -1.0262
    -1.0117  -0.9964  -0.9888  -0.9810  -0.9736  -0.9647  -0.9298  -0.7890
    -0.7638  -0.7508  -0.6860  -0.6120  -0.6006  -0.5796  -0.5517  -0.5236
    -0.4658  -0.3900  -0.3475  -0.3240  -0.3112  -0.2860  -0.2234  -0.1284

     Writing all to output data dir ./CNT_PBE.save/

     init_run     :      6.78s CPU      8.53s WALL (       1 calls)
     electrons    :   8431.96s CPU   7850.75s WALL (       1 calls)

     Called by init_run:
     wfcinit      :      0.02s CPU      0.07s WALL (       1 calls)
     wfcinit:wfcr :    129.61s CPU    113.74s WALL (       2 calls)
     potinit      :      0.28s CPU      1.86s WALL (       1 calls)
     hinit0       :      1.58s CPU      1.59s WALL (       1 calls)

     Called by electrons:
     c_bands      :   8431.96s CPU   7850.75s WALL (       1 calls)
     v_of_rho     :      0.09s CPU      0.74s WALL (       1 calls)
     v_h          :      0.02s CPU      0.25s WALL (       1 calls)
     v_xc         :      0.07s CPU      0.48s WALL (       1 calls)

     Called by c_bands:
     init_us_2    :      0.66s CPU      0.41s WALL (       2 calls)
     init_us_2:cp :      0.66s CPU      0.41s WALL (       2 calls)
     cegterg      :   8265.19s CPU   7539.41s WALL (      11 calls)

     Called by sum_band:

     Called by *egterg:
     cdiaghg      :    134.16s CPU    208.68s WALL (     217 calls)
     cegterg:over :    765.97s CPU    807.11s WALL (     215 calls)
     cegterg:upda :    465.50s CPU    473.74s WALL (     215 calls)
     cegterg:last :   1041.84s CPU   1070.75s WALL (     101 calls)
     cdiaghg:chol :      2.37s CPU     11.92s WALL (     217 calls)
     cdiaghg:inve :      0.30s CPU      0.87s WALL (     217 calls)
     cdiaghg:para :     37.22s CPU     57.04s WALL (     434 calls)
     h_psi        :   5930.89s CPU   5041.51s WALL (     228 calls)
     g_psi        :      3.37s CPU      0.93s WALL (     215 calls)

     Called by h_psi:
     h_psi:calbec :   2321.45s CPU   2345.65s WALL (     228 calls)
     vloc_psi     :   1295.37s CPU    385.95s WALL (     228 calls)
     add_vuspsi   :   2303.95s CPU   2307.01s WALL (     228 calls)

     General routines
     calbec       :   2321.45s CPU   2345.65s WALL (     228 calls)
     fft          :      1.29s CPU      2.27s WALL (      10 calls)
     fftw         :   1264.41s CPU    377.73s WALL (  160168 calls)
     davcio       :      0.05s CPU      0.23s WALL (       4 calls)

     Parallel routines

     PWSCF        :      2h20m CPU      2h12m WALL


   This run was terminated on:  23:53:50   4Jun2024            

=------------------------------------------------------------------------------=
   JOB DONE.
=------------------------------------------------------------------------------=
