 C  S 
 1.0000000000000000
    32.3722991942999982    0.0000000000000000    0.0000000000000000
     0.0000000000000000   19.9214134216000005    0.0000000000000000
     0.0000000000000000    0.0000000000000000   40.4480476378999967
 C   S  
 364   1
Cartesian
 12.0080654240174347 10.7247482442372277  0.0993234692295720
 11.9372659999595463 10.8349928980005732  2.5438119362513074
 10.9422118709885083 11.8543159796816813  2.4706113476586857
 10.3738008670261337 12.1808750977059237  1.2103938476807927
  8.9920859246275757 12.5266268977111945  1.1368985149580784
 11.8617334373327843 10.9432932600625534  4.9880367609026104
 10.8324052742039143 11.9278898395417077  4.9148273520980421
 10.2533648991484920 12.2342998797227924  3.6545408723772805
  8.8604706144937193 12.5319547037035885  3.5807591111481858
  8.2064395819317184 12.4886310785733503  2.3208251144194088
  6.8646235707903598 12.0108874493047768  2.2476320586460816
  6.3304141792816466 11.6305792695877965  0.9876679670268620
  5.4385139650061820 10.5200085044299385  0.9145758385108780
 11.7815375828586060 11.0494785883237085  7.4320490283737239
 10.7194222899802618 11.9985763776510961  7.3589684327097489
 10.1306327998569241 12.2844359760398252  6.0986328932369496
  8.7282828156634906 12.5337631555230189  6.0247630591208337
  8.0764501994066489 12.4671797141336267  4.7646702103519063
  6.7521420573150248 11.9430893301003547  4.6916217665463682
  6.2315454335597664 11.5444628254050450  3.4316250617271673
  5.3786664982202188 10.4037149596709231  3.3583873819937557
  5.1441605693251722  9.7911116531668174  2.0986860854541640
  5.0164549469204411  8.3724755155855508  2.0254472053993475
  5.1383242073446489  7.7276643226129051  0.7656739700591186
  5.7741227240582118  6.4530714494869592  0.6927671309664016
 11.6982670197716043 11.1534162096446057  9.8760528957622284
 10.6041629108281601 12.0658141822971707  9.8034112432258347
 10.0057717783451761 12.3310296212056194  8.5428868531320923
  8.5958095043146621 12.5316589005556658  8.4690786348165972
  7.9468235280905670 12.4422179145704987  7.2086682002372742
  6.6416467019658727 11.8720612819407716  7.1357376310997713
  6.1353577037050018 11.4553265044402384  5.8757563294206596
  5.3226617127886948 10.2855483439482427  5.8023910605497040
  5.1097566378000092  9.6650506648123873  4.5425702897868039
  5.0310599879334799  8.2428815752750122  4.4694900187734774
  5.1751828628311580  7.6026818525188116  3.2096169716254916
  5.8543341190371310  6.3506269180208115  3.1365927078616167
  6.3129905982712220  5.8811138313351421  1.8769479430716609
  7.5481382429940655  5.1717155404697275  1.8034958641561791
  8.1849329333564196  5.0125657091860605  0.5436893323539748
  9.6086434959040972  5.0570461763643433  0.4707618289058354
 12.0012838520828886 10.7244838430764862 13.5792319599519331
 11.6121943780824015 11.2535636399776742 12.3201176426904144
 10.4870836771009710 12.1269370806249075 12.2484152696541635
  9.8798024920939902 12.3729295405238169 10.9875211021368440
  8.4637138833859655 12.5247498028368085 10.9139340348004605
  7.8181122393070428 12.4131191876772498  9.6533046641212970
  6.5336019545724611 11.7975723029461221  9.5801968075491928
  6.0424992725195290 11.3629703101384845  8.3200507725667272
  5.2714926803922300 10.1654308769074646  8.2465244108685116
  5.0799443826542490  9.5379374602889442  6.9866612685910905
  5.0503222934532630  8.1138554166314822  6.9137603830659851
  5.2160441473957828  7.4790237634346761  5.6538240699136022
  5.9376532339504005  6.2509454451565523  5.5806096428439123
  6.4124163304093758  5.7976264848739270  4.3208652219189041
  7.6712508167915123  5.1311962484855291  4.2476208069508292
  8.3134652935715092  4.9942545947021149  2.9878638880862991
  9.7348424342383790  5.0879531802457381  2.9150553973207822
 10.3532298435769992  5.3080803445933809  1.6552002148928664
 11.5140745888076719  6.1335757686263239  1.5816614730025098
 11.9251143682454330  6.6449935425543849  0.3215262727232068
 12.4807534365725203  7.9566030054926253  0.2485109926553049
 11.9251397028997417 10.8174558163635801 16.0230007451135492
 11.5205598354024445 11.3414118870588911 14.7643331766774324
 10.3666594132983150 12.1752889172499081 14.6939174251292997
  9.7527168567878952 12.4068015535707818 13.4332611625625411
  8.3319935915189074 12.5117482362571408 13.3597329012483232
  7.6908006504047499 12.3787215129992969 12.0984968278380105
  6.4286734331374022 11.7188632059005098 12.0249040688135249
  5.9528518799614627 11.2677773196390252 10.7645336185783869
  5.2243002892223753 10.0438503035867175 10.6908640088664377
  5.0548012888185028  9.4100122667733253  9.4309830470983673
  5.0743245275899573  7.9857819465070241  9.3581795558753971
  5.2616552268275756  7.3569492043764066  8.0981678436686533
  6.0244379046386660  6.1541248695595137  8.0248248952908803
  6.5140773777970820  5.7172033119007546  6.7650344237655737
  7.7949406736508067  5.0939676577667683  6.6920890019233958
  8.4417734519273928  4.9797778201910159  5.4322203343821407
  9.8589532997421063  5.1226421054553954  5.3593238651911657
 10.4699390843920312  5.3641646124319022  4.0996457788623779
 11.6015494054422312  6.2293604669453559  4.0262539350407263
 11.9951276960264615  6.7547047204962016  2.7662732352485362
 12.5052543057050745  8.0847129450503967  2.6934051987131209
 12.5646892437564706  8.7379985535376896  1.4331372731694310
 12.3005630871404410 10.1377080722166877  1.3594907368404046
 11.8501320919727231 10.8895189603921345 18.4657622918786437
 11.4160896076874110 11.4012696850827737 17.2097616237232707
 10.2410140925663136 12.2030155409543699 17.1396457380546927
  9.6227580502798293 12.4257181666036196 15.8793244988880033
  8.2004992318933212 12.4895057383288162 15.8056273100451357
  7.5638400600118958 12.3389827351910331 14.5437169341260333
  6.3248586802320332 11.6364678536954980 14.4696949077131745
  5.8661630752260283 11.1689190841471557 13.2091468441985906
  5.1807179938805783  9.9203899317269357 13.1354186949490934
  5.0338844239638645  9.2811169907139934 11.8752024074584952
  5.1020243866410961  7.8585846780188211 11.8023896036740084
  5.3109057614673869  7.2363573689781173 10.5425366424062954
  6.1140992677524011  6.0599598727048090 10.4692880080542601
  6.6186575816228430  5.6400336286108947  9.2095295396919887
  7.9198017779815579  5.0605081505949823  9.1368739892743811
  8.5700732760835052  4.9686786038608464  7.8767304072356925
  9.9814449471799787  5.1608567134594701  7.8036032218524678
 10.5836668613719027  5.4240075144664406  6.5440876031366546
 11.6843816961464668  6.3283759019475037  6.4707368973246009
 12.0601034557218476  6.8670546318442707  5.2108899760297067
 12.5236503877416769  8.2139420913289225  5.1379349934641523
 12.5614508779808904  8.8687736201499998  3.8778065080167079
 12.2494211524270504 10.2586218302203331  3.8040236032871562
 11.7713109155143165 10.9874541658867919 20.9227806375232817
 11.3266769089033481 11.4711406834005256 19.6574461833927856
 10.1239452175778375 12.2248003685669477 19.5840121400269460
  9.4936979738784260 12.4292468142942560 18.3244419720734406
  8.0712929362586809 12.4571380400748772 18.2508838636590802
  7.4386641244059408 12.2908889618369059 16.9895419551113847
  6.2224703472303862 11.5495789173604173 16.9151452590196136
  5.7808977408897988 11.0670225352538676 15.6538029694177574
  5.1388543111739553  9.7960499507823879 15.5801585384217400
  5.0150675974185130  9.1519218581557293 14.3196751683082777
  5.1314967058221308  7.7323738411891618 14.2467876389437471
  5.3630430568397731  7.1176136903818383 12.9871910884991433
  6.2061905984037722  5.9695109219915601 12.9142143637629090
  6.7254086500621622  5.5668395306561473 11.6542931033906267
  8.0456531130131008  5.0325436614106636 11.5818987596905849
  8.6985371469425576  4.9619525967178353 10.3219407763933511
 10.1026994384931825  5.2034704364644764 10.2483296951827736
 10.6949965786457959  5.4876899362580032  8.9884549758536956
 11.7628372562082415  6.4304136308615050  8.9147625412380851
 12.1197921270581439  6.9818738370017384  7.6550768504582907
 12.5362355055316748  8.3441387918361354  7.5818499654130154
 12.5520133677447276  8.9997356361437610  6.3220802790703576
 12.1925964456305476 10.3781304536684740  6.2484069022334268
 11.6924491674375499 11.1273142164544403 23.3637370862032476
 11.2235161341854965 11.5696792313811834 22.1026655801775469
  9.9974064845360218 12.2902915354541502 22.0269567440035168
  9.3645628344011396 12.4486371015530235 20.7675709080034139
  7.9431157606159921 12.4290537943268866 20.6947874091165680
  7.3148644025324812 12.2367967155882802 19.4344114184912584
  6.1249241428907846 11.4587708143447813 19.3605304421837907
  5.6979245652131238 10.9623557921447095 18.0989584914229731
  5.0997969974946011  9.6702575861594209 18.0257405661696559
  4.9984785203459916  9.0223479084876494 16.7650274528197301
  5.1634718445600374  7.6077112293003051 16.6919387162234010
  5.4169664622133462  7.0009606721143633 15.4318903467424029
  6.3000532956698860  5.8837325482994798 15.3590347375360405
  6.8339981041020721  5.4989450878726682 14.0996737255464062
  8.1735188227713991  5.0137615724482645 14.0275644951175256
  8.8280163362893003  4.9635743445380696 12.7676734505548435
 10.2227324803299737  5.2528932095281338 12.6932965772750350
 10.8045258068263124  5.5555710967902794 11.4325562010097812
 11.8386330116823526  6.5353778820571380 11.3578783779141261
 12.1754282368531044  7.0989112845330560 10.0986582791947068
 12.5443386913756090  8.4750264253314924 10.0249860816490131
 12.5371630870464550  9.1307104711742539  8.7655265488348384
 12.1313085946419523 10.4960011794659493  8.6923536643675821
 11.6146855908361193 11.2484245544132655 25.8077348195316141
 11.1369126480779457 11.6916354739053112 24.5469494622419404
  9.8794987670604097 12.3583909998498509 24.4718473947664457
  9.2370122709557982 12.4901684135928175 23.2114962422744462
  7.8154731126214170 12.4088914276525184 23.1393423231658595
  7.1956092283552175 12.1895293275448449 21.8802309313514911
  6.0329535070331923 11.3669327157389652 21.8069532531166317
  5.6223305879404490 10.8542359673704034 20.5465596808495938
  5.0695255210180203  9.5431915205311295 20.4733418347970115
  4.9883839229750420  8.8923153816456839 19.2113126326337529
  5.2018047936028529  7.4855628095770195 19.1377308582382639
  5.4741419922416794  6.8876294155800029 17.8774792296763003
  6.3989664375833355  5.8045309520520245 17.8046132834119355
  6.9457823802377225  5.4392333462789857 16.5454327153564265
  8.3036542893232888  5.0108005721830136 16.4732471602265775
  8.9587969276351380  4.9803383224709137 15.2130339806748385
 10.3413223061920565  5.3183207802958874 15.1377127460437535
 10.9132182790168226  5.6304041074255036 13.8768759981869199
 11.9152102666408766  6.6438719411462506 13.8006305679326662
 12.2290622486352891  7.2185701942807174 12.5406671845654412
 12.5504844854456294  8.6056986024137512 12.4664309223645642
 12.5193497671553065  9.2614130236172869 11.2077485790776556
 12.0675268965475393 10.6123512191154745 11.1357362715170183
 11.5279063077441091 11.3472570071119208 28.2520566086063667
 11.0379844122416593 11.7835072125329763 26.9913696118149744
  9.7569389466526584 12.4063779288902616 26.9173903854343308
  9.1102163215932297 12.5187058724495834 25.6573706360413460
  7.6924538248935441 12.3780755212713132 25.5850159797367382
  7.0802472398694745 12.1366789707133726 24.3256985517970001
  5.9493721661105505 11.2710949921810002 24.2527044130833254
  5.5545730173190355 10.7453872459323225 22.9924873917704424
  5.0467328419250439  9.4148416512501107 22.9196248964204443
  4.9858605046834068  8.7619262615806619 21.6589834689838874
  5.2481862733093916  7.3624429414683181 21.5853608149573368
  5.5403426486121461  6.7762520242863973 20.3238749185592198
  6.5029914972819043  5.7300492493162727 20.2505229118616512
  7.0646007902937260  5.3889287122271243 18.9901336652245973
  8.4375704309597825  5.0204960695147047 18.9170810541719376
  9.0898383044268893  5.0181201533230242 17.6577672552967861
 10.4551877217269507  5.4158808020861002 17.5820595272863898
 11.0182940720249594  5.7294404149995870 16.3208928458027174
 11.9981838583523146  6.7603426411770515 16.2430565119669197
 12.2891578805884549  7.3388572262201253 14.9796898914391203
 12.5631923490394470  8.7346620039171547 14.9049929418444407
 12.5022745002875624  9.3902794720825931 13.6494895455597405
 11.4387231792018422 11.4400768645269562 30.6961284532418155
 10.9340416343164151 11.8608318306469016 29.4362903744812172
  9.6321640450725141 12.4397704788762926 29.3631553466811610
  8.9817689905000897 12.5317604648656875 28.1031976648437123
  7.5706657848686998 12.3389744470682121 28.0303811326660970
  6.9682007442692377 12.0764850048378438 26.7704985298864102
  5.8685278998603359 11.1711631716601669 26.6976875618516161
  5.4929022242354497 10.6323483870155808 25.4378605761319143
  5.0308567982227288  9.2851249160127942 25.3649235279157708
  4.9926491487059383  8.6303692445705646 24.1045063820244643
  5.3029887192979395  7.2407054849289283 24.0305211440498496
  5.6126101080826558  6.6644831906732440 22.7691839552878257
  6.6097884796780484  5.6474308677707752 22.6952906185591203
  7.1822549451765765  5.3309151545631774 21.4340042758625131
  8.5677303699967364  5.0081824098433678 21.3600113876427393
  9.2288633587210125  5.0512300596156070 20.1005051232085385
 10.5797256883807229  5.4864495943804270 20.0273462080835465
 11.1293526718570579  5.8458662352345705 18.7618505036838989
 12.1396096757927783  6.8329325240371626 18.6721304893398212
 12.3969286286504694  7.4430787672000838 17.4243464088091926
 12.6224294510911683  8.8652834976957227 17.3493267344582023
 12.4881291792219375  9.5110788742411945 16.0915528578078337
 11.3466269770377366 11.5293244133164201 33.1404728764175402
 10.8271971520986323 11.9321277705938282 31.8809211455331791
  9.5063098959185517 12.4651766084292017 31.8081760248316137
  8.8531224799429129 12.5357745400557334 30.5482109721626394
  7.4493616901147508 12.2942356252065998 30.4751637821587629
  6.8569465812659933 12.0114092448567220 29.2154396014758646
  5.7891059129005455 11.0686925321682743 29.1425588409158642
  5.4333057291206650 10.5171925616663167 27.8825224160981016
  5.0173350493309483  9.1551687917724962 27.8093443298352270
  5.0025141490277099  8.4994443986499579 26.5491518172630840
  5.3608328545102957  7.1209738985245270 26.4752093672935587
  5.6908750028193795  6.5552528831004535 25.2145962052202748
  6.7194238366753893  5.5699758012396092 25.1408738392951534
  7.2994990008637810  5.2676186774724902 23.8791091152047130
  8.6937232137391938  4.9795522023239602 23.8049533740926833
  9.3477649196961661  5.0436709334438650 22.5446899282935433
 10.6837549730612231  5.5321609498287874 22.4749692303445876
 11.2302585461442721  5.9217158572799615 21.2189145428740744
 12.2011487402277758  6.9495161787815976 21.1655751155321745
 12.6837436640232006  7.4412329645476714 19.8810689047575657
 12.8857059628237867  9.0592354886906890 19.8033758502239436
 12.5384630756318067  9.6545158830388864 18.5188479834179063
 11.2512616264750775 11.6155362324658569 35.5850463763663498
 10.7183491849112418 11.9997711346156493 34.3252572174521333
  9.3796842929257345 12.4864212453731920 34.2525950166488187
  8.7244583833444995 12.5343789856056009 32.9929293083601252
  7.3297092056369886 12.2448425034626567 32.9196319261620047
  6.7472876526702281 11.9418010527082377 31.6599619218682591
  5.7120999522219904 10.9634995617237454 31.5870604983191328
  5.3756700314985455 10.4003503261451158 30.3269254115385749
  5.0062843177793788  9.0247400175242447 30.2535824988671429
  5.0148058458739744  8.3689412802443890 28.9936137501409235
  5.4207825405206940  7.0037300094706048 28.9199353498738247
  5.7712455174865189  6.4497261687920728 27.6594031086138941
  6.8325423668675160  5.4999238667394428 27.5858236648445185
  7.4214005378716852  5.2134458607904905 26.3247704620111911
  8.8242019058732453  4.9653384735491528 26.2509287715007744
  9.4763945141145296  5.0388778829636962 24.9903152329046776
 10.7998260239216215  5.5635909332139706 24.9203717152315072
 11.3208533932172681  5.9723591905921420 23.6617878630813188
 12.1877699600653724  7.1003100009479132 23.5928524616895317
 12.4767371988843916  7.6935422058116192 22.3351742954317771
 12.6078550572576553  9.1276317359430887 22.2604834199126280
 12.5080929724388437  9.7824596715779908 21.0125664949263751
 11.1519591644315366 11.6983652597379475 38.0296198170419402
 10.6064829252990211 12.0638594461066297 36.7696569279396925
  9.2517493548989194 12.5039447561014754 36.6968170432655185
  8.5955115606507722 12.5288697829202480 35.4371813307673236
  7.2116988870366177 12.1916204797965140 35.3637631164345336
  6.6400567331106810 11.8687635766874333 34.1040395910137590
  5.6385092608011567 10.8559213221984496 34.0312064080752279
  5.3212100782439089 10.2815640152218197 32.7713564269495095
  4.9991975291843014  8.8940451205802589 32.6978310310633375
  5.0304910813069856  8.2388877710303028 31.4378563806241615
  5.4836813918785801  6.8886282973926534 31.3645408202586182
  5.8533063152536862  6.3471250839326459 30.1041661089164876
  6.9470184350676583  5.4346038822640415 30.0307892667157006
  7.5456418668597269  5.1678354511635156 28.7703169116383535
  8.9555251827825391  4.9663390984990210 28.6966635367847935
  9.6049081957547955  5.0556873014463113 27.4357897837818570
 10.9100742990425008  5.6259145471695930 27.3644767511097164
 11.4174813973213283  6.0432444376212464 26.1055100357704752
 12.2310362336521568  7.2134913129919775 26.0349038453769985
 12.4513699194752991  7.8342855669978038 24.7794937281898413
 12.5289310215414940  9.2546953280571032 24.7052718883556821
 12.3891327188260583  9.8872989660443906 23.4418611791543547
 11.0488834270896916 11.7778511855471333  0.0261595206022820
 10.4917035604894018 12.1243020417166090 39.2140999407287438
  9.1226315900618342 12.5174628652042514 39.1409340806194663
  8.4662817551918632 12.5196616386289037 37.8811795726319929
  7.0948331649964151 12.1351066669998993 37.8077451741161568
  6.5348804447402440 11.7926381272652385 36.5480235690865385
  5.5686720181640830 10.7460169506035754 36.4751964080143267
  5.2714074944979190 10.1610435917405137 35.2154955660740754
  4.9972469447908372  8.7634091764924786 35.1419104805681926
  5.0507450248602357  8.1096019485536956 33.8820310120857684
  5.5506386196456248  6.7758757131776983 33.8089949539088082
  5.9388751010216057  6.2475285238192635 32.5488407918970566
  7.0640872798624548  5.3742115382984670 32.4754708675167407
  7.6713341030380882  5.1281924593191359 31.2151104674410860
  9.0873923980183289  4.9757976584926231 31.1414941063526705
  9.7329122783935578  5.0858243021266389 29.8809183582622069
 11.0175158900904986  5.7016278459637437 29.8084296174375325
 11.5087286793053458  6.1355298005206746 28.5489644885915013
 12.2789737257968188  7.3339315056594687 28.4766864031336802
 12.4706347355701457  7.9619793548973590 27.2180535087479747
 12.5003711447070867  9.3856113659167661 27.1443417233490401
 12.3372509246110340 10.0200191374388616 25.8844205300093968
  8.3366417656767275 12.5062221284563684 40.3250611645576100
  6.9792197554379714 12.0747477072691556 40.2517188037160807
  6.4317782848890355 11.7131973782822936 38.9919017838300590
  5.5021485037930553 10.6340170176470146 38.9189710822367161
  5.2254212562901410 10.0390649441368840 37.6593376198997589
  4.9997092607879781  8.6327697897217526 37.5858116036564454
  5.0760197453087752  7.9812677834932542 36.3260686693483947
  5.6219410517569308  6.6657338755194742 36.2532013178973926
  6.0283683468178291  6.1513136984990737 34.9931591791221948
  7.1833360044870203  5.3178748363101560 34.9196297920281751
  7.7988857720941791  5.0933275866280674 33.6594619657545877
  9.2194724090430320  4.9901885537377035 33.5859748486742120
  9.8607009787821589  5.1226112045088241 32.3255249464908587
 11.1234546505016549  5.7815712229764138 32.2523808893313415
 11.5987366688419939  6.2322302791560746 30.9922412257297992
 12.3278091026682652  7.4558896181797536 30.9190098863465934
 12.4963739051378599  8.0897938953501054 29.6595896628732554
 12.4776200914062017  9.5144168289484483 29.5863441246054322
 12.2897604804084661 10.1435889537366037 28.3272118158125004
  5.1830406305677288  9.9156951642090139 40.1030111047604976
  5.0061228885156694  8.5023684574838292 40.0295961489977401
  5.1053184472361623  7.8537720378839193 38.7698990733998414
  5.6965228600466071  6.5579634542306025 38.6970710084086420
  6.1208003713801853  6.0578786625277816 37.4371970119493724
  7.3040891949665543  5.2649649620114989 37.3635829558950547
  7.9273681039740804  5.0622328658102411 36.1035777738717982
  9.3506936071872371  5.0083884966586014 36.0302778075466748
  9.9872018189533183  5.1631453315221574 34.7698653888590101
 11.2268988169841464  5.8646189641957642 34.6963590068422434
 11.6867530383658984  6.3312235894306337 33.4361077112659686
 12.3739719068770988  7.5790349949941351 33.3625759916951026
 12.5203056733692453  8.2184210587077224 32.1027573029257027
 12.4523349049576080  9.6413324932504363 32.0297305437451314
 12.2421832679250411 10.2638795210742675 30.7702290216053314
  6.2159077161772265  5.9679077690758131 39.8811444362053891
  7.4258528937485959  5.2162809416318767 39.8075553904630084
  8.0561420405647066  5.0351459564846710 38.5476424799530548
  9.4805441188912596  5.0304932246623144 38.4745849623423695
 10.1116821264567136  5.2074682376502270 37.2143112349965151
 11.3265584166671314  5.9511430814677349 37.1406437405823198
 11.7706711196250104  6.4331579260111464 35.8804009525848073
 12.4148015653308565  7.7036470239563233 35.8069473861437046
 12.5395889378028329  8.3476357982814040 34.5467266794274224
 12.4221755737316339  9.7672679954371553 34.4737238531529968
 12.1909375167272689 10.3819173254711341 33.2140036326149968
 10.2340251033011160  5.2554349886339109 39.6587990738964606
 11.4226324872967258  6.0405720992480347 39.5851399662140508
 11.8501960847387959  6.5377582156609808 38.3249100767199025
 12.4505721964878067  7.8294624134052038 38.2516807123438198
 12.5536364984365925  8.4773408145160083 36.9913364530219368
 12.3872193824321304  9.8921188125474533 36.9181732504385138
 12.1350356144540896 10.4983404924121562 35.6583300811293000
 12.5620894701485515  8.6074953161726615 39.4362280562007044
 12.3466151048815824 10.0155878221804162 39.3628316398854068
 12.0741264491104321 10.6126209170709398 38.1028093014814786
 14.4129130330494419  8.0469849146627173 19.8419215769988000
