 C  S  O 
 1.0000000000000000
    32.3722991942999982    0.0000000000000000    0.0000000000000000
     0.0000000000000000   19.9214134216000005    0.0000000000000000
     0.0000000000000000    0.0000000000000000   40.4480476378999967
 C   S   O  
 364   1   1
Cartesian
 12.0064077471066994 10.7193983681875515  0.0983262009008002
 11.9355735524548390 10.8288143888351645  2.5426828399584549
 10.9429684538208090 11.8505424264467702  2.4696667456272574
 10.3752572269168564 12.1787658606773057  1.2093724379408759
  8.9941904398802137 12.5272402335656725  1.1357028970356908
 11.8606685538293490 10.9354577956356618  4.9868496671281539
 10.8338843493602859 11.9228137736822859  4.9142074751981726
 10.2552156082744705 12.2314992152158126  3.6540147003667234
  8.8629899545440960 12.5322451085803461  3.5803507398702257
  8.2087347871331833 12.4903425938993085  2.3200179672327934
  6.8663251660636693 12.0140954167225082  2.2465621388522758
  6.3319156749196450 11.6341911447702184  0.9860664376053978
  5.4392867396467066 10.5241269376067947  0.9127386735580645
 11.7819110125173445 11.0390884618780056  7.4306467670189749
 10.7223181069489542 11.9908300691483980  7.3584885835086764
 10.1335743182349134 12.2799838645158168  6.0985392643713610
  8.7318239429498217 12.5330374133584588  6.0251704307392151
  8.0793534209909943 12.4685115945293141  4.7648719794807723
  6.7542467094806860 11.9461912890622699  4.6916384338673192
  6.2331968315066666 11.5481715175749553  3.4310762535017436
  5.3795911856427443 10.4079514267571103  3.3574428388856323
  5.1444244581831988  9.7956769473323462  2.0972384952755867
  5.0150532452452614  8.3770878371721711  2.0237493164885878
  5.1358887049150566  7.7321635409745770  0.7636061911588290
  5.7691906718974835  6.4562818165161397  0.6906132816061967
 11.7013930650902171 11.1400752452137546  9.8740769013883352
 10.6096144191972392 12.0550684834266626  9.8027020659591866
 10.0105781952824575 12.3239008489771820  8.5432686267494553
  8.6010479970756446 12.5287013798421842  8.4703669381219608
  7.9509744228892725 12.4421070368925371  7.2098502498726793
  6.6448274306968020 11.8742371533947146  7.1367493577628176
  6.1375204541266060 11.4588332023180026  5.8761941948081065
  5.3239054615646344 10.2895968300181124  5.8022209581604614
  5.1102827894935903  9.6695605199503554  4.5420002869309739
  5.0298653989067619  8.2473822908556986  4.4684618002674048
  5.1726609332791265  7.6071205580772876  3.2081071650306940
  5.8491242916032924  6.3536204455086480  3.1348572808360493
  6.3065744752014483  5.8831358968101837  1.8749528406299012
  7.5401287997417468  5.1709103950903632  1.8013842247240834
  8.1768142776663737  5.0107094857803842  0.5416077195142114
  9.6005081333847233  5.0529913437734253  0.4687588321453747
 12.0105313564049023 10.7083611150252214 13.5753851460307988
 11.6197688637209531 11.2383836180988350 12.3176364448607263
 10.4965234457799212 12.1142296568635697 12.2474602629685858
  9.8872769938422369 12.3622730728633670 10.9879372439438203
  8.4718385954711817 12.5175612427747307 10.9157707343440222
  7.8243759308178040 12.4102334467996407  9.6553366995273269
  6.5382711543107579 11.7976966815617637  9.5820718301600234
  6.0455843698647698 11.3654081349587841  8.3215645424326787
  5.2728589039902580 10.1687525884361243  8.2470937939974611
  5.0807616164722287  9.5419741459655025  6.9866246972748769
  5.0493303448697144  8.1179805489603769  6.9130270626478580
  5.2136495075124669  7.4831368644076273  5.6527559297678138
  5.9325971405789710  6.2533303101993791  5.5792662496155261
  6.4059668660921885  5.7991350959095938  4.3191782186623051
  7.6631006081440116  5.1295530552350179  4.2456903485619941
  8.3049221184596789  4.9915317626207196  2.9857130023104927
  9.7263854195431225  5.0828072026746396  2.9127649663793043
 10.3451925601744765  5.3027465432360898  1.6531659533804577
 11.5066144052861219  6.1273801655247455  1.5797044166695009
 11.9181724748557638  6.6391292516263674  0.3200314190626354
 12.4748304574978608  7.9502098408554893  0.2472481598725818
 11.9469169746847985 10.8138846531041022 16.0187110643427388
 11.5366066756515835 11.3323573377850675 14.7602417152783172
 10.3832599427325523 12.1646403380040660 14.6919604330727598
  9.7649596654659732 12.3944973746705145 13.4333365801878202
  8.3442668295505715 12.4991733677542687 13.3615780211717663
  7.7004670985813615 12.3709619145969487 12.1017292509007834
  6.4358021682625157 11.7150218087337006 12.0277686347615376
  5.9574535564234203 11.2675859489768140 10.7667694745267504
  5.2256592193628730 10.0457473998779889 10.6917780591954852
  5.0549111636354009  9.4132033700677624  9.4311653024602187
  5.0723161142655258  7.9888116681580490  9.3574304711941743
  5.2591167475704275  7.3602931779009095  8.0973628171903247
  6.0196227654998387  6.1557780835822449  8.0237850279984926
  6.5079824791955501  5.7180534122388611  6.7635210054583021
  7.7871493766488511  5.0915107304012377  6.6903322132537726
  8.4333522629908710  4.9758922612657077  5.4301914558186599
  9.8508321535652250  5.1160410788279975  5.3570327489136860
 10.4619125146762499  5.3574882276797497  4.0972938051375936
 11.5941349012814854  6.2216747470103808  4.0237688844553068
 11.9880206730430992  6.7476625383249749  2.7641854300949014
 12.4991399323752308  8.0772209953757663  2.6914941022418959
 12.5594721434379846  8.7311856781406814  1.4317878546247855
 12.2976283166446532 10.1313511486818051  1.3583253325689835
 11.8893992716706158 10.8985367427067974 18.4614667908184060
 11.4534696423698108 11.4110382708010754 17.2068977400332450
 10.2683010259850320 12.1998450183024669 17.1380159431169901
  9.6431039205343048 12.4135193968236290 15.8816704599373857
  8.2189245775817685 12.4690896373521696 15.8083461926695037
  7.5792413669308809 12.3225565153415726 14.5476054461128363
  6.3371796971201029 11.6262035047280943 14.4727294851855817
  5.8730412431692622 11.1649549393997241 13.2115105058299296
  5.1810026209721753  9.9198207272401717 13.1362376989994942
  5.0323143570999145  9.2826034062999732 11.8756697222183387
  5.0976041852754053  7.8595592953981566 11.8017643029677100
  5.3072806379006101  7.2382971108013852 10.5415316898241809
  6.1090622231789080  6.0610870910467245 10.4679898148145565
  6.6126195404212975  5.6402402424560822  9.2081867221149150
  7.9128325937761224  5.0576029803999534  9.1355528482134201
  8.5623303353001852  4.9643058526881401  7.8749756059952487
  9.9740197326567213  5.1531742475026103  7.8015119844353258
 10.5762927485005527  5.4156262586825248  6.5415609833408022
 11.6780344811710375  6.3185039432433294  6.4678587677368391
 12.0536267472372050  6.8580472578697975  5.2083292902972298
 12.5181284808021989  8.2045850802588003  5.1354591868055781
 12.5562275511257706  8.8605550169873606  3.8759403137506601
 12.2465514782260048 10.2508417735797046  3.8025188624902029
 11.8329327417974923 11.0520287172830862 20.9159119031009766
 11.3700195618767737 11.4915091330251400 19.6666517036434527
 10.1460774761011319 12.2253148608405784 19.5862255586527247
  9.5155010405298963 12.4129814065206254 18.3266228907586530
  8.0943894948045205 12.4283735422120589 18.2520637446298686
  7.4591440415366623 12.2665830453031770 16.9914558214012672
  6.2376248231414415 11.5339997702597241 16.9164629328168417
  5.7899648930005361 11.0583192093729128 15.6561840167089272
  5.1375120313344054  9.7918805873834209 15.5810298451867784
  5.0116880679575768  9.1502406305577253 14.3198124577649590
  5.1247211101242947  7.7306746014243171 14.2457804764428086
  5.3564629495919629  7.1172259093923209 12.9857806761685985
  6.2000656070659232  5.9689438243027828 12.9124728484377123
  6.7194274237277893  5.5667783296185318 11.6531560946098445
  8.0393199999307985  5.0303457421297981 11.5811704830798909
  8.6915784658651862  4.9578707103927631 10.3202273329270078
 10.0961647084336246  5.1952281170735590 10.2465372247129025
 10.6887867007823072  5.4776823680022337  8.9862716666950018
 11.7585500865366797  6.4183465296171587  8.9121240729642945
 12.1149731888663901  6.9705039109071496  7.6522386669604074
 12.5324789546457325  8.3321309853609566  7.5788208078702706
 12.5479725991477462  8.9892467285108228  6.3196387884687848
 12.1908808599259455 10.3681495043779570  6.2464532083121362
 11.7380960801764935 11.1471722937266424 23.3674923737178659
 11.2642608309183370 11.5848977113404246 22.0955740406269925
 10.0179657252128891 12.2741794500076509 22.0234297526157725
  9.3859258712988201 12.4337003617207706 20.7660586693138427
  7.9582930149972784 12.4072603381957247 20.6928190120827260
  7.3345876687909639 12.2126970813890807 19.4357130538863565
  6.1366623789322663 11.4422243849339935 19.3606567320982954
  5.7077399575737751 10.9491731081926673 18.0997498726181796
  5.0984211128115930  9.6632145902052535 18.0253375298318801
  4.9927974621964628  9.0175335352797887 16.7643393426199196
  5.1542531038000083  7.6018785111121385 16.6903995128575815
  5.4081691027346137  6.9972875855182224 15.4306672555280660
  6.2923016520514885  5.8799421657995001 15.3574899594613345
  6.8275667298718039  5.4976375632002501 14.0977598675371745
  8.1661108060342773  5.0108088052621955 14.0259517683239388
  8.8207709384989688  4.9589307766737010 12.7662344462918611
 10.2176691950019567  5.2439040870144984 12.6928788455045414
 10.7993441621699819  5.5454101842549539 11.4310546264603374
 11.8358879742067842  6.5216225919585895 11.3560246453026910
 12.1732351132442531  7.0850944215711547 10.0958408289384831
 12.5442395747140623  8.4602844703895492 10.0215402121915833
 12.5360962875706790  9.1174505372805665  8.7627481694909193
 12.1320109741156159 10.4833480960442049  8.6900017988992246
 11.6348940418542668 11.2408936515669637 25.8091670723777185
 11.1672227821969354 11.6921228027673205 24.5419512012680912
  9.8969518578340203 12.3465415953335409 24.4673720943869029
  9.2539727789683415 12.4653158618268769 23.2086463185308034
  7.8329408276131307 12.3810025191401518 23.1357028900130679
  7.2125976271691741 12.1642565816929764 21.8762757096396889
  6.0433364978389461 11.3506345692874646 21.8030943599969653
  5.6272280378732829 10.8437692442968263 20.5443048525342959
  5.0619987556790838  9.5342424482518915 20.4707339698807580
  4.9799742147230139  8.8849043910542900 19.2108348437755474
  5.1901930569192851  7.4756413478047268 19.1366299871581482
  5.4643584162871113  6.8798395801953625 17.8756385581394674
  6.3869307760285112  5.7950764299835944 17.8021692441995540
  6.9348131044841734  5.4311031224217938 16.5428017663136941
  8.2924332024589447  4.9959250073558490 16.4705751100607287
  8.9498975744552816  4.9704189311413254 15.2122575554600150
 10.3357541349579680  5.3037526413721992 15.1394130217054155
 10.9087558333314707  5.6182057127297185 13.8758244935654069
 11.9144443526842796  6.6274331577934422 13.8000666269487589
 12.2296279153864624  7.2020260422592974 12.5395151074073290
 12.5537709351612428  8.5889481493185702 12.4636245095477971
 12.5217707401366756  9.2456054046961906 11.2047378904626243
 12.0713702107603567 10.5964272986635617 11.1328659694211378
 11.5394813200384441 11.3371584543218447 28.2514617161602288
 11.0533438063316733 11.7743704431113478 26.9902463180651679
  9.7702284019883709 12.3943066019008743 26.9139580620231023
  9.1256744980389790 12.4996416618784192 25.6504637053413269
  7.7077227784856879 12.3565863839105265 25.5782319560988398
  7.0952597727801239 12.1154380969351951 24.3203651806084693
  5.9560477340595970 11.2582481475043448 24.2478640248495623
  5.5585767901919692 10.7337080801442859 22.9892232089945701
  5.0407109430120709  9.4073157435634727 22.9165696441529896
  4.9765064932971734  8.7539080173286745 21.6558689899780603
  5.2365632670097826  7.3532946748751362 21.5817705130424287
  5.5254276765709776  6.7657501013438628 20.3217405408139129
  6.4877007070340467  5.7127325794990140 20.2479060477810435
  7.0465630521760829  5.3701706474313999 18.9886270774137387
  8.4190079753895102  4.9869236438558548 18.9155839179038416
  9.0765992710913785  4.9883695648370763 17.6559550113264052
 10.4458816899260380  5.3782822873500633 17.5823186242571410
 11.0133345017212410  5.7021414972997597 16.3224913829839728
 11.9957973510513849  6.7396864168068982 16.2480149637574414
 12.2879330405388991  7.3214787358047904 14.9816950403195150
 12.5617752249839896  8.7167750979258685 14.9031516113746605
 12.5067473297247389  9.3729779249713001 13.6456716344752262
 11.4457314521915166 11.4316965169193345 30.6953470906549342
 10.9425344455660891 11.8510463652040539 29.4345541232849079
  9.6417701499837332 12.4300295302807911 29.3589383275182314
  8.9937595398352528 12.5204850979650377 28.0964674580776226
  7.5811315750190964 12.3277794025959722 28.0234338528375240
  6.9804989345586286 12.0617263892511453 26.7642536897468695
  5.8755047440633348 11.1628423300509905 26.6922808114935748
  5.4954825879983966 10.6248347163517511 25.4331656862024005
  5.0247970504715669  9.2801805656902818 25.3612451075823806
  4.9825493277911717  8.6245802815598065 24.1020707428805991
  5.2921792967579844  7.2337549382281585 24.0284660022658372
  5.6026059577374436  6.6569651236453060 22.7679525920481751
  6.5996756572267339  5.6415634137140520 22.6941082877538491
  7.1663425702644670  5.3163628728031824 21.4324001138493294
  8.5508385787112431  4.9852481917918068 21.3572802322352260
  9.2030459594759755  5.0062476222003944 20.0992404629905259
 10.5578445217069543  5.4560295081150088 20.0245033012923770
 11.1033627658698180  5.8124556965424619 18.7677630942186049
 12.0543436017419907  6.8744928056236949 18.6957716344774312
 12.3542813025148543  7.4427767036187253 17.4224978677620257
 12.5842216513639684  8.8501493367353259 17.3414343442459469
 12.4896188632467631  9.4999312783055423 16.0854166769233480
 11.3505170511126643 11.5228977830457442 33.1391920333439742
 10.8330675628887807 11.9253775523677614 31.8785201578764905
  9.5128951095819421 12.4602122141911611 31.8039513343956983
  8.8613138994015674 12.5295567345547614 30.5430161424824504
  7.4570393789310385 12.2896424686208547 30.4692501308476089
  6.8660226216264508 12.0046890819018941 29.2085334713733715
  5.7950715308973137 11.0651264659399420 29.1366840992442420
  5.4362383710149720 10.5137053552726449 27.8778132586357366
  5.0140568793227231  9.1528226377376569 27.8059813047135584
  4.9960281593126821  8.4958009317238155 26.5467794463310476
  5.3540491463511790  7.1175485985518643 26.4731699052089589
  5.6829484430491686  6.5511025751821608 25.2125508814291734
  6.7153159335535015  5.5693674707203664 25.1384149243059198
  7.2932476346865904  5.2654458429466198 23.8778194625988327
  8.6886140656112651  4.9787334539771289 23.8026229276146566
  9.3400257311076036  5.0358363716204888 22.5413587460475000
 10.6741229550012307  5.5238290375091923 22.4658944255389592
 11.2045590240465049  5.9105157942168729 21.2042755041300133
 12.1193099236493573  7.0015349958377797 21.1221594491499367
 12.4181784831823023  7.5683885264846404 19.8726781233503260
 12.7844716986258895  8.9867863630820484 19.7829291260781588
 12.4958335749777572  9.6317172975124361 18.5153405295408611
 11.2533085605822123 11.6110327900430796 35.5834797010509973
 10.7220731311805935 11.9955125219884984 34.3231433632614937
  9.3842255140949771 12.4844807215062783 34.2491992841573278
  8.7301342616120952 12.5318686966518964 32.9884713258803401
  7.3352150948899766 12.2442227207403196 32.9144687867737531
  6.7535309883479258 11.9407455863008387 31.6538995041244533
  5.7164507299404583 10.9635551098597546 31.5817573616655309
  5.3794065309167935 10.3996510300296681 30.3222817204094852
  5.0067124698656125  9.0249334568967505 30.2500778324127744
  5.0121880802378023  8.3679547668509606 28.9906106855400090
  5.4177412252305377  7.0024206850702315 28.9171976521541865
  5.7671504453289977  6.4478390386584747 27.6572398467221952
  6.8311721546062616  5.5004822701489404 27.5831907831558425
  7.4206675027406481  5.2163911882363863 26.3221692282569215
  8.8229556903820736  4.9699222730774615 26.2468550426034462
  9.4737889928939421  5.0416013202604537 24.9853220351243941
 10.7993930283597166  5.5646508830366681 24.9113253826177043
 11.3174401852178761  5.9714460906546787 23.6536181432783046
 12.1812605553635436  7.1038440628953152 23.5842498487893479
 12.4254146738860225  7.7298669378740721 22.3287208500764223
 12.5963868820488525  9.1251469043601965 22.2764712570400754
 12.6548022311441066  9.8372309916204390 21.0054311026055132
 11.1530099312409270 11.6948495595033197 38.0282319253132997
 10.6086980602352696 12.0610047586762690 36.7677809306971568
  9.2548912900149425 12.5035372847610002 36.6940987690415810
  8.5995186881243875 12.5289239760432913 35.4335853922135584
  7.2152187203896903 12.1932663556895626 35.3595907955579634
  6.6442542798993935 11.8702324692415697 34.0992967504187021
  5.6418670445911827 10.8580467281258084 34.0267579112342062
  5.3245957312112537 10.2832475038350530 32.7666778671477488
  5.0009047254607246  8.8960085727238738 32.6939942665369543
  5.0305603534646286  8.2399320926680435 31.4346552542214290
  5.4825012308498442  6.8889430587832656 31.3616020252829450
  5.8519313707602283  6.3468387431808049 30.1015351441581132
  6.9457535428121053  5.4348448755851333 30.0277107489705770
  7.5446530403253798  5.1688701766541190 28.7669890645684667
  8.9547849958194128  4.9670853280646945 28.6924776321860975
  9.6041746366013445  5.0569063155818039 27.4324018357173500
 10.9111971300552337  5.6236903041199371 27.3604843119298593
 11.4187017012839078  6.0425485882503418 26.1010786945701732
 12.2367946560269019  7.2059950108873094 26.0325088905816990
 12.4554078601338638  7.8288425811275397 24.7731804794150179
 12.5405058608648385  9.2481583580403424 24.7065258579002709
 12.4212149648775370  9.8929054633766107 23.4494983783567399
 11.0495098532349321 11.7744853893302110  0.0249781577062557
 10.4933111387179618 12.1221454636638768 39.2125643261874757
  9.1249564552876752 12.5178355610308216 39.1389404321181402
  8.4690928131520824 12.5207997054247304 37.8785840542412942
  7.0972113517640203 12.1376529990162254 37.8046921786116030
  6.5376831630836350 11.7953008521375704 36.5442785621081327
  5.5709267239868439 10.7492324828960317 36.4714579151099443
  5.2737703805135210 10.1642053044033940 35.2113816635048806
  4.9983403201349503  8.7665494828210075 35.1382908072557925
  5.0515018172597763  8.1120936524756768 33.8787066773509267
  5.5494001740505139  6.7776566305330723 33.8058672597710341
  5.9372277294268558  6.2481569350191339 32.5458300037865413
  7.0615243909577936  5.3734938549063278 32.4722956406910868
  7.6692169308186022  5.1272472389619876 31.2122618057677563
  9.0853940060237530  4.9734051248078348 31.1385983325004574
  9.7317875920465529  5.0843799862100552 29.8782211393666692
 11.0172330128636506  5.6966496694288864 29.8063231978999141
 11.5107979814625399  6.1297175250802542 28.5461282004755468
 12.2855324268180688  7.3247872866549590 28.4753393865028599
 12.4816798601628101  7.9518013708783890 27.2169161898054526
 12.5140577667075785  9.3763307449498985 27.1466303031383589
 12.3517695498941951 10.0129936357206901 25.8886383261651218
  8.3388760017377290 12.5077462232699830 40.3233436789123445
  6.9810416915475830 12.0776864022021257 40.2496489357492209
  6.4336828432409616 11.7165126562700763 38.9891902418615501
  5.5033400543312840 10.6378240793519829 38.9161438235709909
  5.2266904581638478 10.0429432063377302 37.6560880183061784
  4.9996530340035106  8.6367866292092206 37.5826960430673651
  5.0756948905256500  7.9848663679417884 36.3228026714229841
  5.6194173851694336  6.6683721584783742 36.2501215423423702
  6.0254212682094987  6.1526905450492206 34.9903081234187709
  7.1789928890423402  5.3170255878421031 34.9169013283279170
  7.7951707477622509  5.0916814876066923 33.6569736581465762
  9.2154218118573041  4.9865876869633841 33.5837866663071765
  9.8578114359375029  5.1184221119266313 32.3233285205144156
 11.1215745752716337  5.7752969083823924 32.2509695078830063
 11.5990780271750094  6.2247941128646742 30.9912444151341866
 12.3306682901993554  7.4471403252292516 30.9191498955691593
 12.5023094916199877  8.0805089774214611 29.6599373998212954
 12.4856298135442092  9.5044284098106715 29.5880793728456197
 12.3010879443587946 10.1337566930591070 28.3282822089633086
  5.1835515472526206  9.9200245220187462 40.1006387713853769
  5.0051030578999107  8.5068665881217367 40.0271280766344759
  5.1036114276247124  7.8580197390180908 38.7671488663034225
  5.6925260856121591  6.5610157904708268 38.6944063676780843
  6.1164379307407870  6.0598787942568357 37.4346231200730628
  7.2980437129270577  5.2645655270822251 37.3611768308965111
  7.9217182402141209  5.0604213255186838 36.1012832184652623
  9.3449316391597463  5.0045136808924164 36.0283392748350053
  9.9824462111523111  5.1583094581834716 34.7683060018687797
 11.2228907089779604  5.8585973996829326 34.6954908585504853
 11.6842602822889905  6.3245361394891280 33.4356163085066029
 12.3726681208628566  7.5713355870594379 33.3628719430788792
 12.5217871031092134  8.2099670211862943 32.1029865354701442
 12.4555109188496402  9.6328194012697868 32.0303477520824345
 12.2485835800819753 10.2549863899843672 30.7708392133791655
  6.2101793846773505  5.9701224329353968 39.8788077139543518
  7.4185206197939815  5.2159519045769089 39.8052726605546923
  8.0489664374440402  5.0334663962833011 38.5455475929905020
  9.4733688585172846  5.0267108790917536 38.4727569511223138
 10.1053679372036758  5.2029819525473027 37.2128233305999174
 11.3206918554012006  5.9456761502445659 37.1396797326858490
 11.7660909474901683  6.4270873897838614 35.8797327382965818
 12.4111831579197638  7.6970005628488600 35.8067690302591544
 12.5378037416810866  8.3403636061316817 34.5468529449327448
 12.4220247268246311  9.7601081248690580 34.4738119209135334
 12.1928148655638786 10.3744515656342280 33.2139003230171213
 10.2265437010773361  5.2508821628115729 39.6570470993219573
 11.4156226333011741  6.0351626275856898 39.5837076173669828
 11.8440972781072258  6.5321307940668287 38.3239396209259411
 12.4454256182132941  7.8233687205633400 38.2510277110556345
 12.5497749222640227  8.4710613699521833 36.9909492166223401
 12.3853414291129980  9.8859012663544092 36.9176987616640631
 12.1349057748541611 10.4921845268870246 35.6576341558833931
 12.5572756131275494  8.6013515600027635 39.4352909171053270
 12.3440080940823389 10.0097582077983152 39.3619393694761257
 12.0730138136176492 10.6072765147594534 38.1019476964587227
 14.5811055429206142  9.8368356495754501 20.3991638862361029
 14.8910743643030159 10.9800426812917546 19.4998749392288282
