Ge Se                                   
    1.000000000000000     
     4.0999999999999996    0.0000000000000000    0.0000000000000000
     0.0000000000000000    4.4500000000000011    0.0000000000000000
     0.0000000000000000    0.0000000000000000   11.1422209999999993
   Ge   Se
     4     4
Selective dynamics
Direct
  0.2500000000000000  0.1064389022921688  0.1283648297483708   T   T   T
  0.7500000000000000  0.6064389022921688  0.3716351702516292   T   T   T
  0.7500000000000000  0.8935610977078312  0.8716351702516292   T   T   T
  0.2500000000000000  0.3935610977078312  0.6283648297483708   T   T   T
  0.2500000000000000  0.9827553029749865  0.3536892866694359   T   T   T
  0.7500000000000000  0.4827553029749865  0.1463107133305641   T   T   T
  0.7500000000000000  0.0172446970250135  0.6463107133305641   T   T   T
  0.2500000000000000  0.5172446970250135  0.8536892866694359   T   T   T
 
  0.00000000E+00  0.00000000E+00  0.00000000E+00
  0.00000000E+00  0.00000000E+00  0.00000000E+00
  0.00000000E+00  0.00000000E+00  0.00000000E+00
  0.00000000E+00  0.00000000E+00  0.00000000E+00
  0.00000000E+00  0.00000000E+00  0.00000000E+00
  0.00000000E+00  0.00000000E+00  0.00000000E+00
  0.00000000E+00  0.00000000E+00  0.00000000E+00
  0.00000000E+00  0.00000000E+00  0.00000000E+00
