Ge Se
 1.0000000000000000
     4.4500000000000002    0.0000000000000000    0.0000000000000000
     0.0000000000000000    4.0000000000000000    0.0000000000000000
     0.0000000000000000    0.0000000000000000   11.1422209999999993
 Ge  Se 
   4   4
Selective dynamics
Cartesian
  0.4784805031941783  1.0000000000000000  1.4151151129941255   T   T   T
  2.7034805031941795  3.0000000000000000  4.1559953870058761   T   T   T
  3.9715194968058252  3.0000000000000000  9.7271058870058766   T   T   T
  1.7465194968058209  1.0000000000000000  6.9862256129941231   T   T   T
 -0.0497819353297715  1.0000000000000000  3.9392051840245288   T   T   T
  2.1752180646702288  3.0000000000000000  1.6319053159754704   T   T   T
  4.4997819353297723  3.0000000000000000  7.2030158159754727   T   T   T
  2.2747819353297714  1.0000000000000000  9.5103156840245298   T   T   T
