Ge Se
 1.0000000000000000
     4.0999999999999996    0.0000000000000000    0.0000000000000000
     0.0000000000000000    4.5499999999999998    0.0000000000000000
     0.0000000000000000    0.0000000000000000   11.1422209999999993
 Ge  Se 
   4   4
Selective dynamics
Cartesian
  1.0249999999999999  0.5009243553141997  1.4242667404970784   T   T   T
  3.0749999999999997  2.7759243553142010  4.1468437595029215   T   T   T
  3.0749999999999997  4.0490756446858009  9.7179542595029211   T   T   T
  1.0249999999999999  1.7740756446857999  6.9953772404970778   T   T   T
  1.0249999999999999 -0.1043523382049095  3.9256791086959959   T   T   T
  3.0749999999999997  2.1706476617950896  1.6454313913040046   T   T   T
  3.0749999999999997  4.6543523382049070  7.2165418913040034   T   T   T
  1.0249999999999999  2.3793523382049093  9.4967896086959929   T   T   T
