Ge Se
 1.0000000000000000
     4.4500000000000002    0.0000000000000000    0.0000000000000000
     0.0000000000000000    4.0999999999999988    0.0000000000000000
     0.0000000000000000    0.0000000000000000   11.1422209999999975
 Ge  Se 
   4   4
Selective dynamics
Cartesian
  0.4736508910865805  1.0249999999999995  1.4302693931848209   T   T   T
  2.6986508910865799  3.0749999999999993  4.1408411068151771   T   T   T
  3.9763491089134200  3.0749999999999993  9.7119516068151803   T   T   T
  1.7513491089134194  1.0249999999999995  7.0013798931848212   T   T   T
 -0.0767412748358857  1.0249999999999995  3.9408835965083258   T   T   T
  2.1482587251641148  3.0749999999999993  1.6302269034916730   T   T   T
  4.5267412748358860  3.0749999999999993  7.2013374034916717   T   T   T
  2.3017412748358854  1.0249999999999995  9.5119940965083263   T   T   T
