Ge Se 
 1.0000000000000000
    12.4242460230493919   -0.0000081399509399    0.0000030601520973
    -0.0000081928277904   12.5049522640029380    0.0000000816481058
     0.0000035071581474    0.0000000929707666   11.0614665195041333
 Ge  Se 
  36  36
Cartesian
  0.6452223097257139  0.3244337745625867  1.4558703612594950
  2.5833942478241316 10.9457134373866207  4.1656412345497449
  6.7798758139746926  2.5093336529631483  4.1223019525589484
  7.0631238769799900  6.8790620235787374  4.1352159664132149
  7.2780351176387423 10.9341625102757565  4.1161624710131282
 11.1093763432436852  2.6984203319562781  4.1226092641759005
 11.1734054082325809  6.7119892183354501  4.3001496227582274
 10.9004395870711992 10.8994319542839513  4.1030143893550566
  0.9185970734740594  1.9450877437493288  6.9223231506447656
  0.6157881744188294  6.0446118418535875  7.0273282136307049
  0.9113610837916651 10.2379677708515615  6.9539387723890700
  5.1842066654173822  1.8852476997763388  6.9966478655822533
  4.9908354660030172  5.9318724934776581  6.9243029872703774
  5.1263916418724973 10.3342002284355257  6.8702263200035860
  9.1987265009742227  1.7765882538800464  6.8870287604057374
  9.1118928667612167  5.9733936416095155  6.9175204168688680
  3.0117961848178720  7.0687009246030224  4.3492308256998804
  2.8280031502981617  2.6340907920335894  4.1032468600524377
  9.2295666789253037 10.3133385721876270  6.7506048188249066
 11.2496659377715886  8.1964374368082744  9.7861507892874933
 11.3159249488505615 12.1071357420493850  9.7409136667616689
  0.8905132031432941  4.8341340476271011  1.4234282788018500
  1.0481947822177102  9.0869552062843475  1.4127212861178453
  5.3842468380299326  0.6599616698254557  1.3518681801776513
  4.5378265304120591  4.3435369435158799  1.3802827319224569
  9.2802154415614062  0.3796512198185689  1.3627774781693085
  9.3130612459805651  4.9263055235501110  1.4613282061688178
  5.0765225671562320  9.1964872308164249  1.4756368656378149
  2.7931473688450619  4.1363756966668257  9.6209115467589346
  2.9863418716685128  8.0668714531916077  9.6601564333475221
  2.8413720296898450 12.3422054381141635  9.7552587560575503
  7.2333212497665524  3.9362415949215599  9.5576485478213495
  7.1447311413795012  8.3376029842551596  9.5497509885203353
  6.9840638179314327 12.2712248739234937  9.7778251807492733
 11.1774630073747669  3.9323896228578303  9.9887353816700646
  9.0389339916471041  8.7007352428329963  1.4121257280780126
 11.1579270324070201  0.0941115152161859  7.1696549650397872
  2.8493889743319896  4.3489594271642220  7.1379034411014626
  2.9473409464288465  8.6562500234975825  7.2221832708111071
  7.1721131593548888  0.0108881281353130  7.0685758737749786
  7.1052842069125672  4.3654731060319278  7.1582932145763749
  7.0777908999034640  8.4876265962084236  7.0742054991727414
 11.1518321279301116  4.3432265699927699  7.2950528519229305
  9.1113563774659330  0.2546391268074371  3.8546528621387899
  0.8098784093492629  0.3105506802726984  4.0110477170016576
  0.8398307861665074  4.3618076943487196  4.0410974943328366
  1.0842401957555228  8.7092984400427671  4.0042460281683123
  5.0968992111496227  0.4614535032365537  3.8860670066226253
  4.8587040774121029  4.2133820469931793  3.9274394904114063
  5.0968589403815381  8.6015342669495585  4.0824124338061125
  2.9283367975808550  0.4730627619308702  7.3043752548154721
 11.4199848343459571  8.5442043123461566  7.1568912064246364
 11.2312672899207495 10.5655160391473171  1.5902054338054772
  2.9786575511479159  2.1172190485571254  1.6119611947227490
 11.2307256466103969  2.1138494420332954  1.5386764802056281
  9.4205877141264711  4.6499242240385463  4.1167177409028746
  0.7894193713543121  2.3021970063639623  9.4542739161114611
  0.8170105372211520  6.4765367156917559  9.5676338515714914
  0.9696832042248228 10.5825456350853102  9.4780782163321948
  5.0462151146356655  2.3762703549389492  9.5636593058329193
  4.8789227875540435  6.5870131708784934  9.5185109115381241
  4.9936223956341186 10.7681960056603199  9.4857385969850014
  9.1260323454158012  2.2738416240064963  9.4977792767474085
  9.1569366039706264  6.5313674656875138  9.5189481028772409
  9.0076398556484154 10.5126358617538145  9.2972943230699698
  2.9884850645877168  6.4618836246577898  1.6433281306218046
  3.0359541558431324 10.7233551361926001  1.6666686095433669
  7.3361652896007783  2.2876563670141743  1.4983207266174727
  7.2805152427436397  6.4737643513848457  1.5913242104778931
  7.1023780673447989 10.6492903904374057  1.6010427985677733
 11.3191803650559475  6.5992578906970163  1.7636344287898675
  9.1550063435106033  8.5610239392154490  3.9326656438844418
