 C  S                                   
    1.000000000000000     
    32.3722991942999982    0.0000000000000000    0.0000000000000000
     0.0000000000000000   19.9214134216000005    0.0000000000000000
     0.0000000000000000    0.0000000000000000   40.4480476378999967
   C    S 
   364     1
Direct
  0.3709466516068413  0.5383211688010748  0.0024657082661249
  0.3687625995516605  0.5438411483675335  0.0628966174916682
  0.3380399512576398  0.5950316496081431  0.0610926869383170
  0.3204798391468691  0.6114392209178485  0.0299371722024216
  0.2778025719949283  0.6288189762073489  0.0281227228733954
  0.3664355583118264  0.5492413916260025  0.1233173713120873
  0.3346632628190043  0.5986987179068072  0.1215210396643022
  0.3167739643568606  0.6141161711737680  0.0903667886239457
  0.2737505014909032  0.6290922540326948  0.0885510263165835
  0.2535397770426365  0.6269253663790437  0.0574013691751441
  0.2120861674316357  0.6029606886649961  0.0555957349004243
  0.1955796661319792  0.5838719958515814  0.0244404328464777
  0.1680240996632529  0.5281292863638386  0.0226351889113430
  0.3639755404470764  0.5545111975573032  0.1837324429955236
  0.3311978636080178  0.6022203437685097  0.1819503007376375
  0.3130038185676710  0.6166148643104366  0.1507991549689538
  0.2696920396059482  0.6291854450423950  0.1489864996806086
  0.2495434231261216  0.6258526656990605  0.1178309253758035
  0.2086341784739686  0.5995627439634406  0.1160309265937307
  0.1925390651234616  0.5795600499755524  0.0848782092439426
  0.1661883889887455  0.5222965417387878  0.0830688416691298
  0.1589354113553596  0.4915495607696044  0.0519204109689243
  0.1549817454166741  0.4203351846529385  0.0501104505874458
  0.1587330924382527  0.3879702468518165  0.0189560588514035
  0.1783597022875465  0.3239759602693012  0.0171523662070137
  0.3614255234249329  0.5596444700734465  0.2441471946570110
  0.3276774884274393  0.6055220176563482  0.2423945251411120
  0.3091761862646934  0.6189114778523952  0.2112328296956141
  0.2656401564788536  0.6290524511260286  0.2094303165545899
  0.2455710462753516  0.6246123893626441  0.1782706497376644
  0.2052458463775806  0.5960020719652334  0.1764713575764182
  0.1895930982897676  0.5750900608924723  0.1453223163360575
  0.1644832555561314  0.5163697548887493  0.1435067119936008
  0.1578934779855923  0.4852250378597761  0.1123544330083591
  0.1554547854694928  0.4138353877954721  0.1105468445010335
  0.1598845575922173  0.3816988401126929  0.0793924610295647
  0.1808496683685868  0.3188277899472184  0.0775851192679530
  0.1950004848246036  0.2952562571686827  0.0464327571407052
  0.2331451055409379  0.2596201212493124  0.0446122001028532
  0.2528102474586598  0.2516217672232338  0.0134606457860608
  0.2967894862558909  0.2538323100872831  0.0116537299419377
  0.3707923950018403  0.5376979667373334  0.3356494106475792
  0.3587873699687453  0.5645112413617296  0.3045322933464175
  0.3241186773786212  0.6083518348806193  0.3028380236496798
  0.3053446068865833  0.6209334255601228  0.2716913133780212
  0.2615963387810262  0.6286316738311820  0.2698963576500262
  0.2416345317527272  0.6231119193405080  0.2387409057257954
  0.2019405837143127  0.5922342246899905  0.2369274276234800
  0.1867577151903641  0.5704397646672206  0.2057663085641788
  0.1629327490482051  0.5103420814117202  0.2039406001009637
  0.1569938211501574  0.4788519185579063  0.1727901213004879
  0.1560711614457066  0.4073585860429944  0.1709847961281085
  0.1611750991210869  0.3754930488113193  0.1398331288476795
  0.1834533881519106  0.3138269753618676  0.1380200562635651
  0.1980897768695641  0.2910579926136190  0.1068635548372758
  0.2369638631787800  0.2575639514133468  0.1050463622272130
  0.2567864122945175  0.2506831150682156  0.0738929236708014
  0.3006942495148998  0.2553601467255630  0.0720834120260411
  0.3197934797903193  0.2664158944624719  0.0409333405726334
  0.3556545338059117  0.3078423337537360  0.0391091897306698
  0.3683568533167564  0.3335224514606235  0.0079599094918802
  0.3855274616939439  0.3993557382756188  0.0061531063685779
  0.3687486178886527  0.5414674814488168  0.3960655038742635
  0.3559854279076838  0.5681596941731351  0.3650392592625755
  0.3204221880973835  0.6101138212078682  0.3633266001250843
  0.3014885536371880  0.6221964170620555  0.3322379481883541
  0.2575910177183836  0.6276219183959089  0.3304073504326356
  0.2377533923653097  0.6211919089581223  0.2992157528738804
  0.1987353007595291  0.5881916903939686  0.2973784498502487
  0.1840020114071360  0.5656401966922068  0.2662089272476030
  0.1614609592818146  0.5042226523076759  0.2643760874684359
  0.1562255035684458  0.4724241417910208  0.2332293250178445
  0.1568165684686156  0.4009219398632649  0.2314215668698910
  0.1626063649876708  0.3693641034148964  0.2002676273550494
  0.1861679149183314  0.3089825348636143  0.1984507480131674
  0.2012623679989417  0.2870257945420605  0.1673018001719483
  0.2408224660943012  0.2556802464359365  0.1654963345485649
  0.2607749979584323  0.2499323486360034  0.1343301436556617
  0.3045502586324476  0.2570611462509406  0.1325146518000725
  0.3234129771861118  0.2691911824535949  0.1013639056349505
  0.3583728217756918  0.3126109658323460  0.0995377730851884
  0.3705238928934046  0.3390055180002807  0.0683918717801492
  0.3862846895527645  0.4057651523027112  0.0665865910155595
  0.3881225916789116  0.4385757203506245  0.0354356489719527
  0.3799755512881632  0.5088387140615992  0.0336166057200335
  0.3679430184803389  0.5500424987182522  0.4567077401221441
  0.3535831746293228  0.5722028745870401  0.4258983325069060
  0.3166744097877369  0.6113884713987843  0.4238779654519078
  0.2974602227729164  0.6221854018808262  0.3927240539429135
  0.2536307682865486  0.6258801314561815  0.3908567002594693
  0.2338825897211466  0.6188560712603074  0.3596630592827373
  0.1954775414523957  0.5839525492420213  0.3578160243255070
  0.1812863846772162  0.5606138404566935  0.3266565673041107
  0.1600549317963703  0.4979719813936002  0.3248201709966148
  0.1555495171712949  0.4659181563413075  0.2936551908569756
  0.1576528090375066  0.3945173640070310  0.2918435345421068
  0.1641115905805784  0.3632988063284108  0.2606979711797335
  0.1889475695095792  0.3042511657424614  0.2588818321622307
  0.2045367575297556  0.2831851135075436  0.2277427372357640
  0.2447261267939343  0.2540491356569927  0.2259509796736703
  0.2647774207264489  0.2493581089669686  0.1947736372667614
  0.3083864394839196  0.2589083333893276  0.1929559800859277
  0.3269620223043255  0.2721304545841903  0.1618020703697815
  0.3609632232461345  0.3175197168839022  0.1599693151355895
  0.3725486145904105  0.3446011641624905  0.1288191448301545
  0.3868591947951315  0.4122069615959397  0.1270064339506275
  0.3880272269848580  0.4451099520651745  0.0958626599777584
  0.3784026159670590  0.5148833773959403  0.0940445933211471
  0.3647069549778032  0.5547812913514153  0.5173810258804317
  0.3506600462662797  0.5774283910541212  0.4858400988254413
  0.3129143176896499  0.6143015686824428  0.4840940721820109
  0.2935309808806028  0.6235582061669808  0.4530441341480685
  0.2494122265686002  0.6251059264364048  0.4512247361949350
  0.2299494247254259  0.6164254076399696  0.4201348586139581
  0.1922504689970465  0.5795643317731034  0.4182729081269188
  0.1786130362657223  0.5553836706085563  0.3870885558346621
  0.1587597274510968  0.4916478796247505  0.3852568660845385
  0.1549169523894079  0.4593744389124377  0.3540907764591078
  0.1585376259430655  0.3880976428754522  0.3522770710407523
  0.1656988944299270  0.3572950156062161  0.3211371309398425
  0.1917541955697378  0.2996572454668948  0.3193187623371594
  0.2078340194937583  0.2795101588458993  0.2881721988478958
  0.2486303833181314  0.2527260855189301  0.2863885620544916
  0.2687825610409704  0.2490693667317681  0.2552441797031565
  0.3122081589964141  0.2610219130783789  0.2534391350136345
  0.3304649485629105  0.2752571309021085  0.2222424060204565
  0.3634423624363574  0.3225532142163353  0.2203919654007226
  0.3744365645584198  0.3502842144830783  0.1892401756261891
  0.3872811037334043  0.4186745103839185  0.1874064124859934
  0.3877457434111974  0.4516309861443240  0.1562783177902436
  0.3766534592410797  0.5208251879397502  0.1544692640930665
  0.3616007813744580  0.5595896908304957  0.5777249206004611
  0.3477163590678262  0.5831935627146497  0.5463845968979451
  0.3092658382583180  0.6184669792784565  0.5445488489989451
  0.2895661137068636  0.6255067466694062  0.5134136035394066
  0.2455955164789318  0.6238852130346579  0.5116267658009563
  0.2261612765930292  0.6141634040472271  0.4804922505142382
  0.1893084430847786  0.5750744715839443  0.4786772408206843
  0.1760377984674669  0.5502197893668495  0.4475463431814129
  0.1575460248981632  0.4852318040474106  0.4457217076792824
  0.1544548534726617  0.4527676552064797  0.4145699332243356
  0.1595840712798804  0.3817410077293883  0.4127429615213807
  0.1673754244599445  0.3513546572349672  0.3815706547655717
  0.1946000717127125  0.2952154003932874  0.3797431537392426
  0.2110882730731394  0.2759402318038833  0.3486108786203664
  0.2525117593793427  0.2516337150530423  0.3468253844936082
  0.2727878455326611  0.2492931436124427  0.3157156212953674
  0.3159117071791108  0.2637312016175787  0.3139296436925982
  0.3339195479111302  0.2786116786699487  0.2826907841011492
  0.3659453700250857  0.3276919429302892  0.2808264872826547
  0.3762386378107789  0.3560601777498303  0.2496637536240577
  0.3875689441891331  0.4251428320326507  0.2477816289638263
  0.3873082053489174  0.4581287045615354  0.2166571154086541
  0.3747716836811750  0.5266487342185087  0.2148711749854752
  0.3588477023147534  0.5645112147022566  0.6380934208594627
  0.3443042327269472  0.5874207221715853  0.6069329853102399
  0.3054217461937191  0.6209461945824906  0.6050558038062085
  0.2856402376312333  0.6275078274969590  0.5738106528359542
  0.2417069338093883  0.6227787277863670  0.5720386821883297
  0.2225557904660857  0.6117446589120423  0.5409285503075415
  0.1865908126461225  0.5704301822741222  0.5391254462960128
  0.1738531474116996  0.5447129090793763  0.5079977040463602
  0.1567806845490753  0.4788452891419350  0.5061848353801983
  0.1542279276990474  0.4461813857441285  0.4750120507153240
  0.1608832603925563  0.3754911208445034  0.4731811664062132
  0.1691635965013016  0.3455225710704867  0.4420330629681266
  0.1976023024054032  0.2908299538734321  0.4402031563417940
  0.2144612187121324  0.2726091750058031  0.4090657564287141
  0.2563781610455485  0.2508333909171169  0.4072644029669529
  0.2767055306837210  0.2498719042656365  0.3761302935235244
  0.3193556802715974  0.2673229988030132  0.3743295753819197
  0.3371995675006522  0.2826331617925655  0.3431971483823668
  0.3685253745200007  0.3332044039854247  0.3413840337533165
  0.3780823354984453  0.3619514254328088  0.3100428079450941
  0.3878042695848132  0.4315351108695230  0.3080608831787925
  0.3867999252160609  0.4645693277306436  0.2769919342426554
  0.3728546530977738  0.5324072871677162  0.2752571778442930
  0.3561714823525288  0.5693527104572408  0.6985077815576431
  0.3410435146311402  0.5913288499535092  0.6673592113442545
  0.3015314757789114  0.6227215663479443  0.6655065344035023
  0.2816089170850350  0.6285453752675692  0.6343044295490415
  0.2377922299967234  0.6212887161695089  0.6325074243548849
  0.2189735458745118  0.6090453722917835  0.6013641200067203
  0.1840150757367037  0.5656208450346296  0.5995652021542215
  0.1718191050386287  0.5392381598764022  0.5684188750275994
  0.1561174052801914  0.4724314537767504  0.5666207279156844
  0.1542611769371024  0.4396284279658833  0.5354822528736851
  0.1624154923776912  0.3693507775141718  0.5336583938702240
  0.1713832815770515  0.3398725502176960  0.5024969429775534
  0.2009290988026246  0.2869728032437717  0.5006711364337418
  0.2180230017663739  0.2695255760329445  0.4694799531946778
  0.2603914108293371  0.2502469307419656  0.4676259575055818
  0.2805767123632815  0.2503056388308544  0.4365367284987541
  0.3228556944171898  0.2708511838289592  0.4347065621625867
  0.3400314870962508  0.2881730454794821  0.4036566457591668
  0.3704175224614429  0.3399809342346655  0.4019369535616384
  0.3802811716337381  0.3678850783924953  0.3703973653776977
  0.3886991575403206  0.4382195077347634  0.3683012039678202
  0.3862682214032205  0.4709434358968981  0.3372699210770980
  0.3534306633810274  0.5740729496392621  0.7589231632637988
  0.3378347398348907  0.5951628384682895  0.7277745181450943
  0.2976419887715774  0.6242681704558661  0.7259509725227994
  0.2775708536855915  0.6289707897326571  0.6947916710447477
  0.2339688797271771  0.6193272671932005  0.6929739619381785
  0.2154091335785164  0.6061170152153245  0.6618002710198267
  0.1814265295814531  0.5606767222246295  0.6600013256858687
  0.1698463494312681  0.5336276628947760  0.6288583603116277
  0.1555491127913514  0.4659869766696893  0.6270610471497805
  0.1544345916806027  0.4330867630196433  0.5959172467635206
  0.1640841254641560  0.3633479188789241  0.5940919161877810
  0.1736675001139874  0.3343646388358100  0.5629325206078929
  0.2043642633394621  0.2831145318683256  0.5611118007482548
  0.2218584661092192  0.2667191762291746  0.5299481555113168
  0.2645796079617518  0.2495942522511157  0.5281003545616629
  0.2847665482810641  0.2513330788853824  0.4969076623102542
  0.3264190626734815  0.2738085557741867  0.4950376345116131
  0.3431782496660426  0.2925355362027088  0.4638817701183757
  0.3723612789288925  0.3462436685528944  0.4618847968837576
  0.3826051498093607  0.3738067710963707  0.4310811686320047
  0.3967975341872479  0.4444594232522002  0.4286886313760468
  0.3868445493956492  0.4775814432207820  0.3972411527030517
  0.3505712058253143  0.5786310596716983  0.8193475622148286
  0.3345354477656535  0.5988165399922947  0.7882018264159779
  0.2937354875590007  0.6255902244235565  0.7863930110991317
  0.2735667139751702  0.6291277036437360  0.7552394322502545
  0.2302008846947357  0.6170707471934029  0.7534181572380616
  0.2119117953582169  0.6028989955240682  0.7222546628689948
  0.1789036728943813  0.5555855969390944  0.7204515440017173
  0.1679359584655681  0.5278908576843906  0.6892985792348332
  0.1550779590034024  0.4595153588819071  0.6874944729268407
  0.1546585538157619  0.4265799583278310  0.6563419890320508
  0.1657846567694250  0.3573963323881145  0.6545216869185672
  0.1760373411345028  0.3289882697865512  0.6233766004636033
  0.2077941881532940  0.2794810212545388  0.6215655685276048
  0.2256801540126833  0.2640515085117801  0.5903960931970825
  0.2686821159477286  0.2490177531659520  0.5885510690041901
  0.2888629074314109  0.2513578040257682  0.5573621275216442
  0.3302960301311854  0.2755411657690617  0.5555371109114084
  0.3465790051615291  0.2953579282887366  0.5244420310400139
  0.3739931027618967  0.3511753924576722  0.5227419122996505
  0.3819434155409319  0.3824136117225896  0.4917226210318386
  0.3889495659280299  0.4518174287657971  0.4905427972889020
  0.3931574996749027  0.4880365713996098  0.4590937790692958
  0.3476020193985505  0.5830158892461175  0.8797831745788079
  0.3311514075428335  0.6022795068512632  0.8486310812828316
  0.2898037601608515  0.6267225560205033  0.8468268075394706
  0.2695745187454965  0.6291115772878979  0.8156766416738808
  0.2264857937489568  0.6146207346273206  0.8138554202440172
  0.2084975455070181  0.5994206819816730  0.7827049760433439
  0.1765021005038996  0.5503325855488664  0.7808993296701210
  0.1661208196935418  0.5220590938688303  0.7497365739557662
  0.1547062186238059  0.4530010752809234  0.7479279121794572
  0.1549857330066686  0.4200699053721534  0.7167796011422624
  0.1675561684051250  0.3515401720217762  0.7149666778968717
  0.1784360164125161  0.3237365260966866  0.6838147672441567
  0.2112193675288257  0.2760615892734392  0.6820101519549931
  0.2294213813991650  0.2615762146665599  0.6508522976187078
  0.2727290767200943  0.2488974530230942  0.6490270002874835
  0.2928814263561114  0.2521513338115474  0.6178738164086659
  0.3337950331474540  0.2784685795479986  0.6160928049363807
  0.3498398661631780  0.2986872491306086  0.5849403206419265
  0.3760781039522332  0.3559373888766711  0.5832437454431844
  0.3832676693599727  0.3869554257807382  0.5521314790432685
  0.3872680392684089  0.4579927479516248  0.5505087138661870
  0.3842842458564160  0.4905804150026004  0.5194744540706082
  0.3445165930243076  0.5872016249574793  0.9402196782243756
  0.3276768169426529  0.6055434565708707  0.9090653105548621
  0.2858320086365042  0.6276526141030404  0.9072594365887894
  0.2655712276183421  0.6288944760135012  0.8761104298115657
  0.2228201623233786  0.6119878829450015  0.8742906449033550
  0.2051688696188484  0.5957764159700266  0.8431399057543258
  0.1742188134006934  0.5449529109120137  0.8413371468802030
  0.1644191487030462  0.5161228163424328  0.8101813803187845
  0.1544672599338550  0.4464652364091848  0.8083674874365629
  0.1554459779285747  0.4135696828304741  0.7772169375019792
  0.1694568245361234  0.3457929937004836  0.7754112554427144
  0.1809008468276632  0.3186086018096073  0.7442547218920456
  0.2146953211200434  0.2728123054227906  0.7424536972161283
  0.2332068883578172  0.2593837217787576  0.7113090126875122
  0.2767581002451521  0.2491996443162279  0.7094970293658133
  0.2968398983610463  0.2535499333313630  0.6783394751574365
  0.3371490640329589  0.2821390889987248  0.6765541543752003
  0.3528002426154350  0.3030010668002224  0.6453881197895547
  0.3778213578047981  0.3618112290985659  0.6436221647983495
  0.3843779410965267  0.3929879095854517  0.6125141901173746
  0.3867281958649634  0.4644070467378690  0.6107814914678839
  0.3823098474259730  0.4966730845958073  0.5797088759208101
  0.3413276057845143  0.5912011039463450  0.0006568552348832
  0.3241207180511181  0.6085982959982777  0.9695028068560430
  0.2818326057806718  0.6283545370316282  0.9676922190029887
  0.2615633097513228  0.6284640404322362  0.9365420530842454
  0.2191958487657629  0.6091760912099646  0.9347248712166301
  0.2019039685125378  0.5919836853382576  0.9035737014875914
  0.1720498504887347  0.5394539993429347  0.9017725595062367
  0.1628695999941307  0.5100899924886775  0.8706225477355090
  0.1543948755105387  0.4399308455333804  0.8688056437005266
  0.1560539783818839  0.4071063085399548  0.8376535249155166
  0.1714965428901946  0.3401534026610469  0.8358528030989443
  0.1835018493468120  0.3136256182885208  0.8047004012809957
  0.2182664063402493  0.2697887389409301  0.8028968182227226
  0.2370471324819972  0.2574371477098502  0.7717481820616112
  0.2807858887729485  0.2497640162214894  0.7699395188830676
  0.3007540119662885  0.2552337646580967  0.7387817571397335
  0.3404456885534921  0.2860728298010437  0.7369830362191081
  0.3556395171868162  0.3077805423814955  0.7058321437309829
  0.3794376697497091  0.3679253661814543  0.7040298095324096
  0.3852919831793397  0.3994180244931302  0.6728900014112439
  0.3861747882056481  0.4708867155075163  0.6711120417210347
  0.3810351677645904  0.5027764283302361  0.6399834363586974
  0.2575541155786439  0.6278040278490117  0.9969713641839386
  0.2156187147153856  0.6061592424478491  0.9951596464985630
  0.1987095131419455  0.5880120468069042  0.9640077388484647
  0.1699871628114121  0.5338452161724371  0.9622053544312635
  0.1614405112034669  0.5039812427443411  0.9310564284315651
  0.1544603840295158  0.4333893438848976  0.9292397063086342
  0.1568184941110862  0.4006837108604205  0.8980894764106878
  0.1736766421732049  0.3346386019735794  0.8962913543050078
  0.1862388951077676  0.3088099085390166  0.8651393934488734
  0.2219147563099302  0.2669673444383351  0.8633280977017547
  0.2409454522015126  0.2556921786568887  0.8321773272056968
  0.2848262809252493  0.2504980407462994  0.8303698290692890
  0.3046575648152500  0.2571203776149435  0.7992162490615679
  0.3436821402782670  0.2901428331111354  0.7974085923119890
  0.3583975216663744  0.3127172434807681  0.7662553788306932
  0.3809407177187391  0.3741122238327136  0.7644377250423273
  0.3861532731284442  0.4058966725288964  0.7332858278947934
  0.3855466789397629  0.4773958902023165  0.7314886896028649
  0.3797137198751816  0.5089421992320741  0.7003560440014757
  0.1601274229465968  0.4977993713940081  0.9914874755709437
  0.1546537192013435  0.4268512978012808  0.9896737294587682
  0.1577136108549318  0.3942951098035997  0.9585227657654979
  0.1759666266743695  0.3292395054447687  0.9567231436662836
  0.1890731171532869  0.3041299228100773  0.9255715877237557
  0.2256198163077726  0.2643117006381649  0.9237547003825050
  0.2448817006402102  0.2541265094638419  0.8926053496912800
  0.2888501414602545  0.2514043250902562  0.8907990335808180
  0.3085290192230453  0.2591636129451130  0.8596447216755924
  0.3468332564960928  0.2943444946642367  0.8578304387162090
  0.3610694543895110  0.3177392342264072  0.8266772439665047
  0.3823148386579475  0.3803543631070445  0.8248562953758519
  0.3868668285353381  0.4124178441414589  0.7937043666546947
  0.3847569909430328  0.4838423737456166  0.7918992494736951
  0.3782645013672895  0.5150506625098964  0.7607547992642953
  0.1919987520949893  0.2996165912729872  0.9860031931563368
  0.2293679216944400  0.2618647822736923  0.9841830003025481
  0.2488400108090526  0.2527639578945133  0.9530327540230389
  0.2928401409948820  0.2525107553604223  0.9512279266080430
  0.3123476729560848  0.2613862027281956  0.9200742347635087
  0.3498811389551410  0.2987001758135420  0.9182543886369023
  0.3636206387853329  0.3228835267656142  0.8871036386895738
  0.3835293747930476  0.3866473433664300  0.8852866546629105
  0.3874089959038151  0.4189581864927970  0.8541304797129438
  0.3837844859351378  0.4902157088871793  0.8523216187048398
  0.3766566066258458  0.5210435424614442  0.8211707921647949
  0.3161122484249859  0.2637881608036450  0.9805046027923098
  0.3528331922129482  0.3031888794347889  0.9786820795877382
  0.3660515673085467  0.3281459846828881  0.9475307205295042
  0.3846046852304367  0.3929776013834935  0.9457194347872477
  0.3878052506014648  0.4254961357641834  0.9145629270567336
  0.3826725790376567  0.4965119916888798  0.9127503505491289
  0.3748986682950844  0.5269326981574776  0.8816010388555308
  0.3880479051916362  0.4320353841343301  0.9749998996117670
  0.3814019166673650  0.5027194409926218  0.9731834236633945
  0.3729938765528591  0.5326904399322612  0.9420329403351325
  0.4477152423948967  0.4778278026656118  0.4439074680189613
 
  0.00000000E+00  0.00000000E+00  0.00000000E+00
  0.00000000E+00  0.00000000E+00  0.00000000E+00
  0.00000000E+00  0.00000000E+00  0.00000000E+00
  0.00000000E+00  0.00000000E+00  0.00000000E+00
  0.00000000E+00  0.00000000E+00  0.00000000E+00
  0.00000000E+00  0.00000000E+00  0.00000000E+00
  0.00000000E+00  0.00000000E+00  0.00000000E+00
  0.00000000E+00  0.00000000E+00  0.00000000E+00
  0.00000000E+00  0.00000000E+00  0.00000000E+00
  0.00000000E+00  0.00000000E+00  0.00000000E+00
  0.00000000E+00  0.00000000E+00  0.00000000E+00
  0.00000000E+00  0.00000000E+00  0.00000000E+00
  0.00000000E+00  0.00000000E+00  0.00000000E+00
  0.00000000E+00  0.00000000E+00  0.00000000E+00
  0.00000000E+00  0.00000000E+00  0.00000000E+00
  0.00000000E+00  0.00000000E+00  0.00000000E+00
  0.00000000E+00  0.00000000E+00  0.00000000E+00
  0.00000000E+00  0.00000000E+00  0.00000000E+00
  0.00000000E+00  0.00000000E+00  0.00000000E+00
  0.00000000E+00  0.00000000E+00  0.00000000E+00
  0.00000000E+00  0.00000000E+00  0.00000000E+00
  0.00000000E+00  0.00000000E+00  0.00000000E+00
  0.00000000E+00  0.00000000E+00  0.00000000E+00
  0.00000000E+00  0.00000000E+00  0.00000000E+00
  0.00000000E+00  0.00000000E+00  0.00000000E+00
  0.00000000E+00  0.00000000E+00  0.00000000E+00
  0.00000000E+00  0.00000000E+00  0.00000000E+00
  0.00000000E+00  0.00000000E+00  0.00000000E+00
  0.00000000E+00  0.00000000E+00  0.00000000E+00
  0.00000000E+00  0.00000000E+00  0.00000000E+00
  0.00000000E+00  0.00000000E+00  0.00000000E+00
  0.00000000E+00  0.00000000E+00  0.00000000E+00
  0.00000000E+00  0.00000000E+00  0.00000000E+00
  0.00000000E+00  0.00000000E+00  0.00000000E+00
  0.00000000E+00  0.00000000E+00  0.00000000E+00
  0.00000000E+00  0.00000000E+00  0.00000000E+00
  0.00000000E+00  0.00000000E+00  0.00000000E+00
  0.00000000E+00  0.00000000E+00  0.00000000E+00
  0.00000000E+00  0.00000000E+00  0.00000000E+00
  0.00000000E+00  0.00000000E+00  0.00000000E+00
  0.00000000E+00  0.00000000E+00  0.00000000E+00
  0.00000000E+00  0.00000000E+00  0.00000000E+00
  0.00000000E+00  0.00000000E+00  0.00000000E+00
  0.00000000E+00  0.00000000E+00  0.00000000E+00
  0.00000000E+00  0.00000000E+00  0.00000000E+00
  0.00000000E+00  0.00000000E+00  0.00000000E+00
  0.00000000E+00  0.00000000E+00  0.00000000E+00
  0.00000000E+00  0.00000000E+00  0.00000000E+00
  0.00000000E+00  0.00000000E+00  0.00000000E+00
  0.00000000E+00  0.00000000E+00  0.00000000E+00
  0.00000000E+00  0.00000000E+00  0.00000000E+00
  0.00000000E+00  0.00000000E+00  0.00000000E+00
  0.00000000E+00  0.00000000E+00  0.00000000E+00
  0.00000000E+00  0.00000000E+00  0.00000000E+00
  0.00000000E+00  0.00000000E+00  0.00000000E+00
  0.00000000E+00  0.00000000E+00  0.00000000E+00
  0.00000000E+00  0.00000000E+00  0.00000000E+00
  0.00000000E+00  0.00000000E+00  0.00000000E+00
  0.00000000E+00  0.00000000E+00  0.00000000E+00
  0.00000000E+00  0.00000000E+00  0.00000000E+00
  0.00000000E+00  0.00000000E+00  0.00000000E+00
  0.00000000E+00  0.00000000E+00  0.00000000E+00
  0.00000000E+00  0.00000000E+00  0.00000000E+00
  0.00000000E+00  0.00000000E+00  0.00000000E+00
  0.00000000E+00  0.00000000E+00  0.00000000E+00
  0.00000000E+00  0.00000000E+00  0.00000000E+00
  0.00000000E+00  0.00000000E+00  0.00000000E+00
  0.00000000E+00  0.00000000E+00  0.00000000E+00
  0.00000000E+00  0.00000000E+00  0.00000000E+00
  0.00000000E+00  0.00000000E+00  0.00000000E+00
  0.00000000E+00  0.00000000E+00  0.00000000E+00
  0.00000000E+00  0.00000000E+00  0.00000000E+00
  0.00000000E+00  0.00000000E+00  0.00000000E+00
  0.00000000E+00  0.00000000E+00  0.00000000E+00
  0.00000000E+00  0.00000000E+00  0.00000000E+00
  0.00000000E+00  0.00000000E+00  0.00000000E+00
  0.00000000E+00  0.00000000E+00  0.00000000E+00
  0.00000000E+00  0.00000000E+00  0.00000000E+00
  0.00000000E+00  0.00000000E+00  0.00000000E+00
  0.00000000E+00  0.00000000E+00  0.00000000E+00
  0.00000000E+00  0.00000000E+00  0.00000000E+00
  0.00000000E+00  0.00000000E+00  0.00000000E+00
  0.00000000E+00  0.00000000E+00  0.00000000E+00
  0.00000000E+00  0.00000000E+00  0.00000000E+00
  0.00000000E+00  0.00000000E+00  0.00000000E+00
  0.00000000E+00  0.00000000E+00  0.00000000E+00
  0.00000000E+00  0.00000000E+00  0.00000000E+00
  0.00000000E+00  0.00000000E+00  0.00000000E+00
  0.00000000E+00  0.00000000E+00  0.00000000E+00
  0.00000000E+00  0.00000000E+00  0.00000000E+00
  0.00000000E+00  0.00000000E+00  0.00000000E+00
  0.00000000E+00  0.00000000E+00  0.00000000E+00
  0.00000000E+00  0.00000000E+00  0.00000000E+00
  0.00000000E+00  0.00000000E+00  0.00000000E+00
  0.00000000E+00  0.00000000E+00  0.00000000E+00
  0.00000000E+00  0.00000000E+00  0.00000000E+00
  0.00000000E+00  0.00000000E+00  0.00000000E+00
  0.00000000E+00  0.00000000E+00  0.00000000E+00
  0.00000000E+00  0.00000000E+00  0.00000000E+00
  0.00000000E+00  0.00000000E+00  0.00000000E+00
  0.00000000E+00  0.00000000E+00  0.00000000E+00
  0.00000000E+00  0.00000000E+00  0.00000000E+00
  0.00000000E+00  0.00000000E+00  0.00000000E+00
  0.00000000E+00  0.00000000E+00  0.00000000E+00
  0.00000000E+00  0.00000000E+00  0.00000000E+00
  0.00000000E+00  0.00000000E+00  0.00000000E+00
  0.00000000E+00  0.00000000E+00  0.00000000E+00
  0.00000000E+00  0.00000000E+00  0.00000000E+00
  0.00000000E+00  0.00000000E+00  0.00000000E+00
  0.00000000E+00  0.00000000E+00  0.00000000E+00
  0.00000000E+00  0.00000000E+00  0.00000000E+00
  0.00000000E+00  0.00000000E+00  0.00000000E+00
  0.00000000E+00  0.00000000E+00  0.00000000E+00
  0.00000000E+00  0.00000000E+00  0.00000000E+00
  0.00000000E+00  0.00000000E+00  0.00000000E+00
  0.00000000E+00  0.00000000E+00  0.00000000E+00
  0.00000000E+00  0.00000000E+00  0.00000000E+00
  0.00000000E+00  0.00000000E+00  0.00000000E+00
  0.00000000E+00  0.00000000E+00  0.00000000E+00
  0.00000000E+00  0.00000000E+00  0.00000000E+00
  0.00000000E+00  0.00000000E+00  0.00000000E+00
  0.00000000E+00  0.00000000E+00  0.00000000E+00
  0.00000000E+00  0.00000000E+00  0.00000000E+00
  0.00000000E+00  0.00000000E+00  0.00000000E+00
  0.00000000E+00  0.00000000E+00  0.00000000E+00
  0.00000000E+00  0.00000000E+00  0.00000000E+00
  0.00000000E+00  0.00000000E+00  0.00000000E+00
  0.00000000E+00  0.00000000E+00  0.00000000E+00
  0.00000000E+00  0.00000000E+00  0.00000000E+00
  0.00000000E+00  0.00000000E+00  0.00000000E+00
  0.00000000E+00  0.00000000E+00  0.00000000E+00
  0.00000000E+00  0.00000000E+00  0.00000000E+00
  0.00000000E+00  0.00000000E+00  0.00000000E+00
  0.00000000E+00  0.00000000E+00  0.00000000E+00
  0.00000000E+00  0.00000000E+00  0.00000000E+00
  0.00000000E+00  0.00000000E+00  0.00000000E+00
  0.00000000E+00  0.00000000E+00  0.00000000E+00
  0.00000000E+00  0.00000000E+00  0.00000000E+00
  0.00000000E+00  0.00000000E+00  0.00000000E+00
  0.00000000E+00  0.00000000E+00  0.00000000E+00
  0.00000000E+00  0.00000000E+00  0.00000000E+00
  0.00000000E+00  0.00000000E+00  0.00000000E+00
  0.00000000E+00  0.00000000E+00  0.00000000E+00
  0.00000000E+00  0.00000000E+00  0.00000000E+00
  0.00000000E+00  0.00000000E+00  0.00000000E+00
  0.00000000E+00  0.00000000E+00  0.00000000E+00
  0.00000000E+00  0.00000000E+00  0.00000000E+00
  0.00000000E+00  0.00000000E+00  0.00000000E+00
  0.00000000E+00  0.00000000E+00  0.00000000E+00
  0.00000000E+00  0.00000000E+00  0.00000000E+00
  0.00000000E+00  0.00000000E+00  0.00000000E+00
  0.00000000E+00  0.00000000E+00  0.00000000E+00
  0.00000000E+00  0.00000000E+00  0.00000000E+00
  0.00000000E+00  0.00000000E+00  0.00000000E+00
  0.00000000E+00  0.00000000E+00  0.00000000E+00
  0.00000000E+00  0.00000000E+00  0.00000000E+00
  0.00000000E+00  0.00000000E+00  0.00000000E+00
  0.00000000E+00  0.00000000E+00  0.00000000E+00
  0.00000000E+00  0.00000000E+00  0.00000000E+00
  0.00000000E+00  0.00000000E+00  0.00000000E+00
  0.00000000E+00  0.00000000E+00  0.00000000E+00
  0.00000000E+00  0.00000000E+00  0.00000000E+00
  0.00000000E+00  0.00000000E+00  0.00000000E+00
  0.00000000E+00  0.00000000E+00  0.00000000E+00
  0.00000000E+00  0.00000000E+00  0.00000000E+00
  0.00000000E+00  0.00000000E+00  0.00000000E+00
  0.00000000E+00  0.00000000E+00  0.00000000E+00
  0.00000000E+00  0.00000000E+00  0.00000000E+00
  0.00000000E+00  0.00000000E+00  0.00000000E+00
  0.00000000E+00  0.00000000E+00  0.00000000E+00
  0.00000000E+00  0.00000000E+00  0.00000000E+00
  0.00000000E+00  0.00000000E+00  0.00000000E+00
  0.00000000E+00  0.00000000E+00  0.00000000E+00
  0.00000000E+00  0.00000000E+00  0.00000000E+00
  0.00000000E+00  0.00000000E+00  0.00000000E+00
  0.00000000E+00  0.00000000E+00  0.00000000E+00
  0.00000000E+00  0.00000000E+00  0.00000000E+00
  0.00000000E+00  0.00000000E+00  0.00000000E+00
  0.00000000E+00  0.00000000E+00  0.00000000E+00
  0.00000000E+00  0.00000000E+00  0.00000000E+00
  0.00000000E+00  0.00000000E+00  0.00000000E+00
  0.00000000E+00  0.00000000E+00  0.00000000E+00
  0.00000000E+00  0.00000000E+00  0.00000000E+00
  0.00000000E+00  0.00000000E+00  0.00000000E+00
  0.00000000E+00  0.00000000E+00  0.00000000E+00
  0.00000000E+00  0.00000000E+00  0.00000000E+00
  0.00000000E+00  0.00000000E+00  0.00000000E+00
  0.00000000E+00  0.00000000E+00  0.00000000E+00
  0.00000000E+00  0.00000000E+00  0.00000000E+00
  0.00000000E+00  0.00000000E+00  0.00000000E+00
  0.00000000E+00  0.00000000E+00  0.00000000E+00
  0.00000000E+00  0.00000000E+00  0.00000000E+00
  0.00000000E+00  0.00000000E+00  0.00000000E+00
  0.00000000E+00  0.00000000E+00  0.00000000E+00
  0.00000000E+00  0.00000000E+00  0.00000000E+00
  0.00000000E+00  0.00000000E+00  0.00000000E+00
  0.00000000E+00  0.00000000E+00  0.00000000E+00
  0.00000000E+00  0.00000000E+00  0.00000000E+00
  0.00000000E+00  0.00000000E+00  0.00000000E+00
  0.00000000E+00  0.00000000E+00  0.00000000E+00
  0.00000000E+00  0.00000000E+00  0.00000000E+00
  0.00000000E+00  0.00000000E+00  0.00000000E+00
  0.00000000E+00  0.00000000E+00  0.00000000E+00
  0.00000000E+00  0.00000000E+00  0.00000000E+00
  0.00000000E+00  0.00000000E+00  0.00000000E+00
  0.00000000E+00  0.00000000E+00  0.00000000E+00
  0.00000000E+00  0.00000000E+00  0.00000000E+00
  0.00000000E+00  0.00000000E+00  0.00000000E+00
  0.00000000E+00  0.00000000E+00  0.00000000E+00
  0.00000000E+00  0.00000000E+00  0.00000000E+00
  0.00000000E+00  0.00000000E+00  0.00000000E+00
  0.00000000E+00  0.00000000E+00  0.00000000E+00
  0.00000000E+00  0.00000000E+00  0.00000000E+00
  0.00000000E+00  0.00000000E+00  0.00000000E+00
  0.00000000E+00  0.00000000E+00  0.00000000E+00
  0.00000000E+00  0.00000000E+00  0.00000000E+00
  0.00000000E+00  0.00000000E+00  0.00000000E+00
  0.00000000E+00  0.00000000E+00  0.00000000E+00
  0.00000000E+00  0.00000000E+00  0.00000000E+00
  0.00000000E+00  0.00000000E+00  0.00000000E+00
  0.00000000E+00  0.00000000E+00  0.00000000E+00
  0.00000000E+00  0.00000000E+00  0.00000000E+00
  0.00000000E+00  0.00000000E+00  0.00000000E+00
  0.00000000E+00  0.00000000E+00  0.00000000E+00
  0.00000000E+00  0.00000000E+00  0.00000000E+00
  0.00000000E+00  0.00000000E+00  0.00000000E+00
  0.00000000E+00  0.00000000E+00  0.00000000E+00
  0.00000000E+00  0.00000000E+00  0.00000000E+00
  0.00000000E+00  0.00000000E+00  0.00000000E+00
  0.00000000E+00  0.00000000E+00  0.00000000E+00
  0.00000000E+00  0.00000000E+00  0.00000000E+00
  0.00000000E+00  0.00000000E+00  0.00000000E+00
  0.00000000E+00  0.00000000E+00  0.00000000E+00
  0.00000000E+00  0.00000000E+00  0.00000000E+00
  0.00000000E+00  0.00000000E+00  0.00000000E+00
  0.00000000E+00  0.00000000E+00  0.00000000E+00
  0.00000000E+00  0.00000000E+00  0.00000000E+00
  0.00000000E+00  0.00000000E+00  0.00000000E+00
  0.00000000E+00  0.00000000E+00  0.00000000E+00
  0.00000000E+00  0.00000000E+00  0.00000000E+00
  0.00000000E+00  0.00000000E+00  0.00000000E+00
  0.00000000E+00  0.00000000E+00  0.00000000E+00
  0.00000000E+00  0.00000000E+00  0.00000000E+00
  0.00000000E+00  0.00000000E+00  0.00000000E+00
  0.00000000E+00  0.00000000E+00  0.00000000E+00
  0.00000000E+00  0.00000000E+00  0.00000000E+00
  0.00000000E+00  0.00000000E+00  0.00000000E+00
  0.00000000E+00  0.00000000E+00  0.00000000E+00
  0.00000000E+00  0.00000000E+00  0.00000000E+00
  0.00000000E+00  0.00000000E+00  0.00000000E+00
  0.00000000E+00  0.00000000E+00  0.00000000E+00
  0.00000000E+00  0.00000000E+00  0.00000000E+00
  0.00000000E+00  0.00000000E+00  0.00000000E+00
  0.00000000E+00  0.00000000E+00  0.00000000E+00
  0.00000000E+00  0.00000000E+00  0.00000000E+00
  0.00000000E+00  0.00000000E+00  0.00000000E+00
  0.00000000E+00  0.00000000E+00  0.00000000E+00
  0.00000000E+00  0.00000000E+00  0.00000000E+00
  0.00000000E+00  0.00000000E+00  0.00000000E+00
  0.00000000E+00  0.00000000E+00  0.00000000E+00
  0.00000000E+00  0.00000000E+00  0.00000000E+00
  0.00000000E+00  0.00000000E+00  0.00000000E+00
  0.00000000E+00  0.00000000E+00  0.00000000E+00
  0.00000000E+00  0.00000000E+00  0.00000000E+00
  0.00000000E+00  0.00000000E+00  0.00000000E+00
  0.00000000E+00  0.00000000E+00  0.00000000E+00
  0.00000000E+00  0.00000000E+00  0.00000000E+00
  0.00000000E+00  0.00000000E+00  0.00000000E+00
  0.00000000E+00  0.00000000E+00  0.00000000E+00
  0.00000000E+00  0.00000000E+00  0.00000000E+00
  0.00000000E+00  0.00000000E+00  0.00000000E+00
  0.00000000E+00  0.00000000E+00  0.00000000E+00
  0.00000000E+00  0.00000000E+00  0.00000000E+00
  0.00000000E+00  0.00000000E+00  0.00000000E+00
  0.00000000E+00  0.00000000E+00  0.00000000E+00
  0.00000000E+00  0.00000000E+00  0.00000000E+00
  0.00000000E+00  0.00000000E+00  0.00000000E+00
  0.00000000E+00  0.00000000E+00  0.00000000E+00
  0.00000000E+00  0.00000000E+00  0.00000000E+00
  0.00000000E+00  0.00000000E+00  0.00000000E+00
  0.00000000E+00  0.00000000E+00  0.00000000E+00
  0.00000000E+00  0.00000000E+00  0.00000000E+00
  0.00000000E+00  0.00000000E+00  0.00000000E+00
  0.00000000E+00  0.00000000E+00  0.00000000E+00
  0.00000000E+00  0.00000000E+00  0.00000000E+00
  0.00000000E+00  0.00000000E+00  0.00000000E+00
  0.00000000E+00  0.00000000E+00  0.00000000E+00
  0.00000000E+00  0.00000000E+00  0.00000000E+00
  0.00000000E+00  0.00000000E+00  0.00000000E+00
  0.00000000E+00  0.00000000E+00  0.00000000E+00
  0.00000000E+00  0.00000000E+00  0.00000000E+00
  0.00000000E+00  0.00000000E+00  0.00000000E+00
  0.00000000E+00  0.00000000E+00  0.00000000E+00
  0.00000000E+00  0.00000000E+00  0.00000000E+00
  0.00000000E+00  0.00000000E+00  0.00000000E+00
  0.00000000E+00  0.00000000E+00  0.00000000E+00
  0.00000000E+00  0.00000000E+00  0.00000000E+00
  0.00000000E+00  0.00000000E+00  0.00000000E+00
  0.00000000E+00  0.00000000E+00  0.00000000E+00
  0.00000000E+00  0.00000000E+00  0.00000000E+00
  0.00000000E+00  0.00000000E+00  0.00000000E+00
  0.00000000E+00  0.00000000E+00  0.00000000E+00
  0.00000000E+00  0.00000000E+00  0.00000000E+00
  0.00000000E+00  0.00000000E+00  0.00000000E+00
  0.00000000E+00  0.00000000E+00  0.00000000E+00
  0.00000000E+00  0.00000000E+00  0.00000000E+00
  0.00000000E+00  0.00000000E+00  0.00000000E+00
  0.00000000E+00  0.00000000E+00  0.00000000E+00
  0.00000000E+00  0.00000000E+00  0.00000000E+00
  0.00000000E+00  0.00000000E+00  0.00000000E+00
  0.00000000E+00  0.00000000E+00  0.00000000E+00
  0.00000000E+00  0.00000000E+00  0.00000000E+00
  0.00000000E+00  0.00000000E+00  0.00000000E+00
  0.00000000E+00  0.00000000E+00  0.00000000E+00
  0.00000000E+00  0.00000000E+00  0.00000000E+00
  0.00000000E+00  0.00000000E+00  0.00000000E+00
  0.00000000E+00  0.00000000E+00  0.00000000E+00
  0.00000000E+00  0.00000000E+00  0.00000000E+00
  0.00000000E+00  0.00000000E+00  0.00000000E+00
  0.00000000E+00  0.00000000E+00  0.00000000E+00
  0.00000000E+00  0.00000000E+00  0.00000000E+00
  0.00000000E+00  0.00000000E+00  0.00000000E+00
  0.00000000E+00  0.00000000E+00  0.00000000E+00
  0.00000000E+00  0.00000000E+00  0.00000000E+00
  0.00000000E+00  0.00000000E+00  0.00000000E+00
  0.00000000E+00  0.00000000E+00  0.00000000E+00
  0.00000000E+00  0.00000000E+00  0.00000000E+00
  0.00000000E+00  0.00000000E+00  0.00000000E+00
  0.00000000E+00  0.00000000E+00  0.00000000E+00
  0.00000000E+00  0.00000000E+00  0.00000000E+00
  0.00000000E+00  0.00000000E+00  0.00000000E+00
  0.00000000E+00  0.00000000E+00  0.00000000E+00
  0.00000000E+00  0.00000000E+00  0.00000000E+00
  0.00000000E+00  0.00000000E+00  0.00000000E+00
  0.00000000E+00  0.00000000E+00  0.00000000E+00
  0.00000000E+00  0.00000000E+00  0.00000000E+00
  0.00000000E+00  0.00000000E+00  0.00000000E+00
  0.00000000E+00  0.00000000E+00  0.00000000E+00
  0.00000000E+00  0.00000000E+00  0.00000000E+00
  0.00000000E+00  0.00000000E+00  0.00000000E+00
  0.00000000E+00  0.00000000E+00  0.00000000E+00
  0.00000000E+00  0.00000000E+00  0.00000000E+00
  0.00000000E+00  0.00000000E+00  0.00000000E+00
  0.00000000E+00  0.00000000E+00  0.00000000E+00
  0.00000000E+00  0.00000000E+00  0.00000000E+00
  0.00000000E+00  0.00000000E+00  0.00000000E+00
  0.00000000E+00  0.00000000E+00  0.00000000E+00
  0.00000000E+00  0.00000000E+00  0.00000000E+00
  0.00000000E+00  0.00000000E+00  0.00000000E+00
  0.00000000E+00  0.00000000E+00  0.00000000E+00
  0.00000000E+00  0.00000000E+00  0.00000000E+00
  0.00000000E+00  0.00000000E+00  0.00000000E+00
  0.00000000E+00  0.00000000E+00  0.00000000E+00
  0.00000000E+00  0.00000000E+00  0.00000000E+00
  0.00000000E+00  0.00000000E+00  0.00000000E+00
  0.00000000E+00  0.00000000E+00  0.00000000E+00
  0.00000000E+00  0.00000000E+00  0.00000000E+00
  0.00000000E+00  0.00000000E+00  0.00000000E+00
  0.00000000E+00  0.00000000E+00  0.00000000E+00
  0.00000000E+00  0.00000000E+00  0.00000000E+00
  0.00000000E+00  0.00000000E+00  0.00000000E+00
  0.00000000E+00  0.00000000E+00  0.00000000E+00
  0.00000000E+00  0.00000000E+00  0.00000000E+00
  0.00000000E+00  0.00000000E+00  0.00000000E+00
  0.00000000E+00  0.00000000E+00  0.00000000E+00
