Ge Se 
 1.0000000000000000
    12.4058107893059510    0.0000059497286399   -0.0000024872823430
     0.0000060064870737   12.5241492948761479   -0.0000025203580962
    -0.0000028599684751   -0.0000028706154719   11.0813188558048363
 Ge  Se 
  36  36
Cartesian
  0.9293477889722754  0.4382936499829866  1.5035020057015733
  2.9492518165444959 11.0185855164644479  4.2191675384008995
  7.2346187699303082  2.7179894274647349  4.1550923206665491
  7.1272633427744587  6.9652286875796863  4.3302308486208352
  7.0387506690265722 10.8705501511246716  4.1698647994415570
 11.1264832441118493  2.6960905628659755  4.1131835957890823
 11.4385471114984263  6.6184591089302689  4.1630297300288444
 11.4283977205963900 11.0444831315280734  4.1652286526592937
  1.1032463840096367  1.9707341980314947  7.0171725752999112
  0.6545557110898529  5.9558164822336952  6.7799019463082555
  0.8847373569856865 10.3850570687509087  6.8637566544958135
  5.1572629602354558  1.6912928914443233  6.8424391921020753
  5.1458879380742557  6.1311678121732465  6.9247118584282532
  4.9442743620549514  9.9892605800082546  6.7739380683296329
  9.0180266196674452  1.8211721545602346  6.9203553112056673
  9.1633494290575399  6.0614683306289132  6.8647092982483562
  3.0469316962178228  6.6813274829221090  4.1625268595897227
  2.8042010781054976  2.5697290305800893  3.9839159523391410
  9.6752104425891794 10.6406628285695639  6.8868091086686540
 11.3946395647975898  8.1720380218209332  9.7514120236447237
 11.4631642904797832 12.4198090677864439  9.6599553966259943
  0.7942880185616794  4.9712993795226783  1.2468528691388239
  1.2424768646684263  8.7636294633980896  1.4124338904963971
  4.9230962857399669  0.6130823845850573  1.5333736032271934
  5.3386833847076733  4.5450689307716310  1.4900321878310339
  9.2085811749864241  0.3798811052193996  1.2933003553737952
  9.0988178695252273  4.6065676634054595  1.4315026574359573
  4.8350928081155207  8.9509327185516021  0.9960934449071985
  3.2793882937470742  4.2290243855675174  9.4984207615207197
  2.9157115323214073  8.0287901728748174  9.7099195478302054
  3.1066625764515656 12.3783491373011643  9.5492369331283538
  7.2622673224844547  3.9053464421307980  9.7585777356648258
  7.2658108749386328  8.4299020735433601  9.5492414996797006
  6.9294143892409732 12.2205686743441362  9.6821204786846096
 11.1017830983461092  3.6487537371932497  9.8934293145354122
  9.0297934468239767  9.0456271166520406  1.6074099449129002
 11.0929420208732896  0.1385614156557033  7.1718046437606295
  2.6408288360361181  4.1495304720271751  7.0095492795782075
  2.9645478030710706  8.4965959802898166  7.2566450553447410
  7.0487558793845428  0.0375423016438228  7.2092582512018524
  7.1261955154767449  4.3636590014377905  7.1706278593992128
  6.7197993826267899  8.2604096109108003  6.9036528325820674
 11.1464341760097607  4.2097517618838669  7.2745687307492668
  9.0651966418779821  0.0768054674313038  3.9212143563083623
  0.9445731166812632  0.1576229417886710  4.0572919940797494
  0.8298359342886994  4.4863905224646938  3.8376490787494371
  1.0176948729567998  8.6192227374156989  3.9734782183139576
  4.8293168233830377  0.1841915549104059  4.0419749340706073
  4.9660325113999164  4.1765265872544406  3.9849935893349997
  5.0203307796322587  8.2354271635154834  3.8102594422735967
  2.9700321126213511  0.3145215814056238  7.1014493127577945
 11.3945511981391885  8.7863078940420163  7.2751461649092528
 11.2363768283079057 10.5987397524002400  1.6450430705186261
  2.7292420044625940  2.2426537269041349  1.4657028710252811
 11.2342484076253921  2.1807081321655613  1.6255863313706811
  9.1433494731338776  4.4385283634998958  3.9593244178337592
  0.8365921760452374  2.1164689032520498  9.5269068860651167
  0.8805697261029003  6.3727119211977090  9.4120606781221525
  1.0323966564397538 10.7713472478672330  9.3719504082868905
  5.1448781940924357  2.4166373571765485  9.4550194130446190
  4.9726824168788530  6.2580288375509845  9.4897969155834812
  4.9979097961995391 10.5299796634954479  9.4115209567676068
  8.9982301423766966  2.0581003826235040  9.4762897472635306
  9.0508219194824218  6.6676268973493151  9.3516618021304758
  9.0350182309525060 10.3919161306407570  9.4788783100759524
  3.0955447210033333  6.3162176174915414  1.5404341412064544
  2.9455674319318170 10.6370870340363535  1.4771105079381863
  6.9675612274224550  2.2301882934348134  1.5993464595356088
  7.1276043520878272  6.2644154506408274  1.6804490107156724
  7.1191858970823256 10.7249932329870390  1.6220605810568083
 11.2028943984228100  6.5665210393568474  1.5507403133300579
  9.1457163638306831  8.6832012587585314  4.0744050650031687
