 C  S 
 1.0000000000000000
    32.3722991942999982    0.0000000000000000    0.0000000000000000
     0.0000000000000000   19.9214134216000005    0.0000000000000000
     0.0000000000000000    0.0000000000000000   40.4480476378999967
 C   S  
 364   1
Cartesian
 12.0085557173992772 10.7243755899421060  0.0994216112454335
 11.9383843100235012 10.8341224691486318  2.5437201946248251
 10.9436543224879816 11.8537254154946901  2.4710558438257149
 10.3749723629647832 12.1808081396250589  1.2110152224441069
  8.9932264663919614 12.5268582163032800  1.1377545330955801
 11.8641438565935413 10.9412459110886910  4.9879160704367234
 10.8349391986890193 11.9262854962942253  4.9154395875687378
 10.2554179348260366 12.2334630487384324  3.6555528649597018
  8.8624530590688799 12.5314852881346361  3.5821438648401327
  8.2079852925013466 12.4886076698873012  2.3220973734606125
  6.8660927030376611 12.0110609104295953  2.2488904949696171
  6.3315443051059503 11.6311502755597100  0.9886104731896743
  5.4394726099116228 10.5206073149294053  0.9152189548995202
 11.7849877961140201 11.0453549208393618  7.4321485425650975
 10.7231512356243481 11.9951490750360197  7.3599873432136320
 10.1337789168800914 12.2820774434189595  6.0998970091550699
  8.7316126634100169 12.5320993946727928  6.0265541164298861
  8.0791043660940787 12.4664777551533277  4.7665002433902055
  6.7544726579452643 11.9426354696077617  4.6934810444854733
  6.2333964262200876 11.5445042697857527  3.4332710619033868
  5.3802031137934696 10.4038559174232965  3.3597261064834387
  5.1452605994450744  9.7916629828872708  2.0994884345042175
  5.0170883025003841  8.3730751421933398  2.0257978058658548
  5.1386287840316944  7.7284792032978640  0.7655894357081211
  5.7739856074917872  6.4536491812855763  0.6922538686726905
 11.7018726190681903 11.1468004995245238  9.8755992850922087
 10.6095759940922854 12.0604019438359611  9.8042289622363068
 10.0106833218791174 12.3274473336803201  8.5443867013420522
  8.6003860531026515 12.5292013506850299  8.4712009497974687
  7.9508143079260600 12.4406060923583315  7.2112268906537018
  6.6450433103154554 11.8707796462644914  7.1381945115858345
  6.1382023591998660 11.4546037528761957  5.8779177863547396
  5.3249909786873655 10.2851710060148740  5.8042132471896943
  5.1113557738351725  9.6651587469787081  4.5439970022158240
  5.0320456759885746  8.2429286135874893  4.4705124484021708
  5.1757376869730987  7.6030769091379709  3.2100791530989983
  5.8544312863539094  6.3509035189436229  3.1364932412872739
  6.3126391350497322  5.8814044436582495  1.8764426545937165
  7.5475684104540912  5.1716542438671942  1.8025547196763407
  8.1842540121751846  5.0124927544636275  0.5426829891697701
  9.6079741351784715  5.0567286915929950  0.4696269142677651
 12.0113470790027854 10.7189652210489346 13.5763565276608666
 11.6204395275836703 11.2479810640033016 12.3191340813193850
 10.4955529188457533 12.1237760289690293 12.2485673388768639
  9.8871399577704970 12.3689818183263807 10.9902096195461834
  8.4696282353883667 12.5209161433793970 10.9167913732951600
  7.8235770885300768 12.4098817276822722  9.6562502151037943
  6.5385707131367434 11.7953236654108604  9.5828922565285630
  6.0463668673093665 11.3617120393556625  8.3225157602485549
  5.2744052943821407 10.1645385435313127  8.2487281205112453
  5.0823303564381819  9.5374390049252877  6.9886045679507474
  5.0522757246709693  8.1132920292423751  6.9153617725943697
  5.2171995499102364  7.4788240026340418  5.6547360213734610
  5.9385075554733033  6.2506512043402562  5.5808846153406062
  6.4125583928389602  5.7974884527552506  4.3207726617558988
  7.6712381131874894  5.1308189562656947  4.2468651846900753
  8.3130499062965111  4.9939656436518209  2.9868132555037525
  9.7342781763224675  5.0874468169124283  2.9136167359472198
 10.3526325370906722  5.3075289365464631  1.6538716640891435
 11.5135972176597878  6.1328662856389560  1.5803346771443192
 11.9246978891858593  6.6444608588150205  0.3206382435899657
 12.4805734542353797  7.9559777407377874  0.2479109441223210
 11.9670104682291107 10.8397947094778750 16.0169890587635031
 11.5452742195910396 11.3474581391851395 14.7679979995071715
 10.3790922621120831 12.1743416319949986 14.6956733708902814
  9.7622839052239883 12.4000422624808824 13.4366159600916788
  8.3412451872451427 12.5027664592734951 13.3626357559561022
  7.6984155839260628 12.3731949836321533 12.1012272035530835
  6.4344175940577388 11.7159897759573042 12.0274620968952277
  5.9574729850556469 11.2661466669576491 10.7672534211929367
  5.2275623880395523 10.0425284804133987 10.6933770866532889
  5.0579104832707040  9.4089472685254574  9.4331136022915345
  5.0776795858829296  7.9847381117548260  9.3600232299093378
  5.2640566472505199  7.3562124689834558  8.0996476464118281
  6.0271130349573943  6.1533466744861061  8.0257600217946230
  6.5157923047675599  5.7168239455060412  6.7651837366258398
  7.7962461647810839  5.0936138781451712  6.6913109803517763
  8.4421982677149057  4.9790589809691594  5.4310359282538236
  9.8593691863242867  5.1213946920550217  5.3575183370368693
 10.4698912661535335  5.3631365102711284  4.0979880945639966
 11.6017431880485304  6.2279314924249309  4.0244064294606492
 11.9950074599163425  6.7537501894398213  2.7647467351985671
 12.5054946368617799  8.0834758139287661  2.6921381162709026
 12.5648876234066140  8.7371897720181479  1.4323684883586085
 12.3011825878142211 10.1370385361044075  1.3591841527138000
 11.9132952355970847 10.9546803932145878 18.4709256316608119
 11.4520507187385814 11.4176543739419252 17.2175137285208812
 10.2554994227169214 12.1907448320415330 17.1413846842929694
  9.6345218723297830 12.4115868583701943 15.8802047853134916
  8.2115641174549232 12.4770861342290242 15.8067037028924933
  7.5735008645021358 12.3310631584144730 14.5462755485373947
  6.3303001190476937 11.6332604147524830 14.4720972596161932
  5.8709736729956585 11.1667621306090972 13.2114903939289210
  5.1844184848976358  9.9188609879830238 13.1376511942132623
  5.0373460535885899  9.2798078351048634 11.8773854599377042
  5.1072000693118653  7.8569660417312139 11.8044939270713698
  5.3158960330854628  7.2353259833703962 10.5443617884214937
  6.1199079614568452  6.0595666504282066 10.4706284974195256
  6.6226849171608837  5.6394907212519509  9.2097108390336153
  7.9233450256286755  5.0594973090371491  9.1360028414887164
  8.5722737548451242  4.9673992194588097  7.8756341121363631
  9.9837237369163176  5.1581946774668914  7.8017501964241580
 10.5850349908849974  5.4219581288479812  6.5418994698030577
 11.6860227611441445  6.3253774276015964  6.4682487746532429
 12.0612973907409824  6.8647759733070854  5.2087686806021383
 12.5253786281836952  8.2115358212561471  5.1360621163934628
 12.5626070791805766  8.8671299535350272  3.8766784179325477
 12.2510296780465779 10.2571646818136841  3.8035153455258692
 11.7879375972311635 10.9923154450218554 20.9256352225032138
 11.3537170986641254 11.4791778330373493 19.6434748000601829
 10.1352652023294443 12.2266335991764183 19.5780863221878754
  9.5069365782299187 12.4224099647764454 18.3231354321223421
  8.0792755308984567 12.4525649037347517 18.2501933674952106
  7.4479699713500391 12.2826335408885434 16.9902189332415574
  6.2292607755575098 11.5462103393986464 16.9161848770872218
  5.7856648840392966 11.0650794785243587 15.6552267391733420
  5.1427168018745721  9.7936977462865382 15.5820011359993877
  5.0195987933668915  9.1499610933234639 14.3218660857304538
  5.1393247624414817  7.7303694603139004 14.2490016424618187
  5.3709838179593090  7.1164632393408311 12.9886816730474663
  6.2149576751646878  5.9692227610412258 12.9151602550883702
  6.7321155950693559  5.5661169876798198 11.6548529383339297
  8.0520775401872324  5.0299845750846313 11.5818673239855947
  8.7036277508719238  4.9600766485667664 10.3206141786145800
 10.1071298265092722  5.1988147155399211 10.2462429900252818
 10.6988773444886167  5.4827989701121744  8.9860206918065515
 11.7676363561187820  6.4246033654484274  8.9120665803352637
 12.1232258570476645  6.9774296745674089  7.6528929708681099
 12.5398057743767630  8.3396874171539519  7.5797218721972159
 12.5544776357176708  8.9965409027514767  6.3205305680074542
 12.1952929445449971 10.3748478974555187  6.2476389314584555
 11.7048422414466931 11.1361531919675798 23.3670295312192842
 11.2448005298828821 11.5846712288586939 22.1043972154852923
 10.0145914665886568 12.2966693259916457 22.0267441055994588
  9.3793629099133131 12.4422448396660563 20.7622719434048228
  7.9579635247719196 12.4203917795411947 20.6917214261596136
  7.3271363587122780 12.2329871889600152 19.4320841012594805
  6.1310889346897719 11.4566914611209523 19.3598144494067306
  5.7033303800877482 10.9610745367494040 18.1002407047975851
  5.1053005025140683  9.6672393029810095 18.0274081526335515
  5.0053058958759964  9.0194620667966650 16.7664238422022613
  5.1739587056239174  7.6054398602465607 16.6933513159988003
  5.4264753431860822  6.9994313901180840 15.4332849175743050
  6.3098927933625610  5.8813800794411319 15.3601881197628138
  6.8434827391637194  5.4976388230853876 14.1002027112903985
  8.1811780296804724  5.0086501125045553 14.0280000520028079
  8.8350228974834071  4.9583697640148028 12.7661168774656488
 10.2298840946535403  5.2448848748439563 12.6916186848645207
 10.8112378286904161  5.5478421080897400 11.4313897807622116
 11.8459533754903195  6.5269020652002769 11.3564732622613320
 12.1810283936677450  7.0921312007591411 10.0964825673707033
 12.5487583134099534  8.4678212476765715 10.0221704861477932
 12.5413976437224424  9.1249839392436787  8.7636794687922368
 12.1350521436088368 10.4905693700175835  8.6913612975276688
 11.6209691448230323 11.2458657269451283 25.8105688295813174
 11.1465603242591218 11.6964887087563021 24.5503066106375023
  9.8911036114589859 12.3630764965418329 24.4726992610455447
  9.2517160903325593 12.4937622338994263 23.2088026865964281
  7.8290394260050213 12.4059222009629195 23.1368604588212641
  7.2102370907256335 12.1835582383418739 21.8780068309825602
  6.0459014675729685 11.3639094661621058 21.8052801909660872
  5.6319216438742492 10.8526000047987949 20.5448102518781894
  5.0777242770765527  9.5406821332271061 20.4722939195053044
  4.9957384172849073  8.8901788148214234 19.2117500839379254
  5.2120419025389273  7.4805761352550730 19.1388857543764885
  5.4854523038886782  6.8845380069694269 17.8785395845134083
  6.4060256983006072  5.7978079760681283 17.8057547458790886
  6.9532139364125225  5.4327303925896437 16.5450464630877896
  8.3084014451927128  4.9958365035445151 16.4727989434368354
  8.9650287984533801  4.9675524706522802 15.2135709022229637
 10.3492310835028327  5.3077938184745070 15.1407925382746829
 10.9200159589532468  5.6242260054476416 13.8767791631092461
 11.9185695208784317  6.6359057002172985 13.7996965507775418
 12.2361758437779216  7.2090327654781570 12.5396623686724826
 12.5545660661228986  8.5978472436691682 12.4629928499410170
 12.5234120221402385  9.2535893738432424 11.2058795896749235
 12.0716419577133305 10.6046635637153841 11.1349272739770679
 11.5329002237373874 11.3432856574776562 28.2536500185661232
 11.0444099102241484 11.7811958899224418 26.9933358636557728
  9.7644124738009346 12.4062296044448477 26.9181645566133874
  9.1192583163628882 12.5201653722157626 25.6576873536386714
  7.7024188382616092 12.3772263877835833 25.5839053397340130
  7.0931246147303018 12.1340248859792599 24.3223987000174340
  5.9609758648609121 11.2696872492781797 24.2498326629058880
  5.5655628048446655 10.7442349755940114 22.9901142831591798
  5.0558446661288681  9.4136755533702079 22.9176486741763732
  4.9960962849450752  8.7597201064126793 21.6575353893184506
  5.2591722919762152  7.3602402650432088 21.5841521730899508
  5.5488321915283922  6.7720704017159479 20.3233772769325149
  6.5063022782173405  5.7160784101026252 20.2506977942498878
  7.0624420205450580  5.3701493426196203 18.9910016007003790
  8.4351604240823512  4.9844561144629962 18.9191786793077306
  9.0929194497690791  4.9923433615280173 17.6592800814182098
 10.4564197582352154  5.3946817747404046 17.5880636507554122
 11.0187090518728414  5.7231175776666747 16.3230583516332928
 11.9799073532103506  6.7702272699328310 16.2460062223998705
 12.2840568496141564  7.3365980557905077 14.9832959978843032
 12.5580911541511782  8.7306540407288526 14.9016917080868989
 12.5027160652627902  9.3844794367412536 13.6438109844968078
 11.4429628269420522 11.4377154713729681 30.6971840242250629
 10.9386861404081976 11.8579111202628624 29.4377138803068412
  9.6374233798734430 12.4374233936950347 29.3637881298087180
  8.9879929505903533 12.5302286296744736 28.1032411653094449
  7.5772881714940681 12.3384920418674007 28.0292173709053216
  6.9763659579495094 12.0764440217770961 26.7682665854884831
  5.8758849782531959 11.1716399049360700 26.6951694247422608
  5.5017737737726282 10.6325677586736500 25.4350398471424057
  5.0381437407734690  9.2859963405835089 25.3623175441993993
  5.0005609689938435  8.6305965030308300 24.1020513299420287
  5.3114997033889573  7.2403835698208594 24.0286623693982300
  5.6219228627104378  6.6629113482249291 22.7687058491513064
  6.6156152400138089  5.6418696164500695 22.6960415787318368
  7.1827540127913840  5.3147953770523362 21.4350085267251451
  8.5654146548218684  4.9744529874629624 21.3612599110863641
  9.2186865598808296  4.9992221108502770 20.1012251592411033
 10.5726778964264252  5.4527110069785110 20.0278541079351875
 11.1140045024007854  5.8259944133663755 18.7723063692967216
 12.0541417024838786  6.9028917841051776 18.7074526887609522
 12.3218659677599796  7.4973733648326810 17.4249857215008284
 12.6011234579646487  8.8665199306752740 17.3274629443073316
 12.5067027840128517  9.5155093746258146 16.0802771465258942
 11.3493609911529827 11.5279525702344383 33.1413521038894459
 10.8304809103089870 11.9301193489672919 31.8815995772783154
  9.5099514533688687 12.4633968892792257 31.8083031247102355
  8.8575727972015557 12.5343022267637387 30.5480737134725011
  7.4536162875218128 12.2940099406756076 30.4741797134409005
  6.8621026468880340 12.0115090287015622 29.2140161690170466
  5.7937275679904916 11.0697590986188583 29.1405139031901896
  5.4388151902968254 10.5185519290451719 27.8796626885330312
  5.0217527684239931  9.1566464377023813 27.8066414856515784
  5.0078940311321745  8.5007683849312574 26.5466263052693456
  5.3670525070283581  7.1222854119572796 26.4731386338577330
  5.6986270448830316  6.5562476992489245 25.2130001361198275
  6.7269959390469261  5.5707378691739349 25.1399525061868694
  7.3049683818962254  5.2625917783291634 23.8793881340500853
  8.6996239108881728  4.9671894370917942 23.8052336117144563
  9.3522532307746626  5.0169047352757925 22.5449600256990266
 10.6912253650593758  5.5029848252311622 22.4714326594037814
 11.2182523330380981  5.8974512864236477 21.2096714959790908
 12.1303093970362657  6.9918167589184099 21.1337610642605860
 12.4320198550444232  7.5706948669571092 19.8800190755666257
 12.8478246796460223  8.9951665279509037 19.8316780836831050
 12.7361231753270232  9.7199035325739604 18.5186783790190219
 11.2527211092182409 11.6149216277905616 35.5856091143468873
 10.7204836521387517 11.9989279734658538 34.3256713289189648
  9.3818994468954866 12.4858648817278741 34.2526529598342151
  8.7273478624253595 12.5335542148936323 32.9928000658951035
  7.3325421316868704 12.2448616962780275 32.9189305659306370
  6.7506689324654712 11.9420390444935158 31.6587386590468967
  5.7148801594858991 10.9645726321927235 31.5853362093445824
  5.3788147079493331 10.4018523641737346 30.3247140709776453
  5.0089517653914335  9.0262117425259589 30.2512884609761201
  5.0183104990282867  8.3705342108582226 28.9910991013411348
  5.4249974102467409  7.0055049419958833 28.9175860973057794
  5.7765732425545835  6.4516491523951105 27.6572980444419088
  6.8389450147675879  5.5022742721786964 27.5842261401789450
  7.4285970806500981  5.2151754350887698 26.3241554116383796
  8.8310410531381685  4.9650524427214702 26.2501684596657192
  9.4834244547292101  5.0326331444554464 24.9890033913428233
 10.8092913252174334  5.5540831748923631 24.9154222131315528
 11.3314198418891152  5.9519552150081410 23.6560405739001354
 12.1988438180971759  7.0883644007203621 23.5835549909341502
 12.4500102664260872  7.6976106447343247 22.3342480267835342
 12.5693598912340079  9.1227955136088212 22.2704662475557562
 12.4643944311421855  9.7695796475669745 21.0229488943713854
 11.1527504702483391 11.6982711383204521 38.0300301835277921
 10.6076033460759653 12.0636714166568630 36.7700671741506540
  9.2529966470634086 12.5040896702521351 36.6970578357270369
  8.5972230196113628 12.5288362204619776 35.4371010914541742
  7.2133728354897402 12.1920900355675403 35.3633144647257467
  6.6421222344467150 11.8694116983863900 34.1032021034062893
  5.6401944464127904 10.8569147314552001 34.0299782163841869
  5.3232179084272335 10.2827769161823621 32.7697648326109601
  5.0010686632202122  8.8953472677065388 32.6959805667048258
  5.0327708651527479  8.2404020832740663 31.4355869063079219
  5.4864832617784627  6.8901226746972615 31.3622682852261221
  5.8571458446161948  6.3490159607559811 30.1020098301015260
  6.9515138385153312  5.4370802053583631 30.0289037939092047
  7.5512089694868232  5.1706252468251908 28.7687078180212268
  8.9610714012859241  4.9680508501712870 28.6949250721484610
  9.6111647934471396  5.0546313924745991 27.4346433016081903
 10.9187372633585067  5.6225730902666164 27.3619467137439116
 11.4268975914696913  6.0370299799227052 26.1034313849776289
 12.2401466718040481  7.2078916719050277 26.0324963586320806
 12.4563141660243772  7.8282980541279379 24.7750623668847787
 12.5264628802533373  9.2487359379331799 24.7072321757894180
 12.3837932633793404  9.8880921400489648 23.4488063295136726
 11.0496688068797244 11.7777885738593966  0.0265711532224820
 10.4924634817332478 12.1243599035113796 39.2145375868162063
  9.1235261363683460 12.5178471282979480 39.1414012363565291
  8.4673435720737231 12.5201769056926011 37.8814246958963068
  7.0957958750188759 12.1358200388172524 37.8077854978111603
  6.5361266555232005 11.7934169859519713 36.5477174083067808
  5.5698224920795836 10.7469243724883405 36.4745504548800454
  5.2727854634822542 10.1620969143630244 35.2143874680545821
  4.9984840996200273  8.7645038819934467 35.1404969704854935
  5.0522388397563613  8.1108554342406940 33.8802867736993818
  5.5523308127916504  6.7771243727830655 33.8070932491854066
  5.9412984869184715  6.2491018003993535 32.5467697875658715
  7.0667546001540984  5.3759959256619503 32.4734879679847950
  7.6747402530238684  5.1301940041521839 31.2133582324502292
  9.0911661483183774  4.9770299380683332 31.1399610060845617
  9.7376869447953140  5.0865459849409831 29.8801117643526197
 11.0232679042932258  5.7004526791046173 29.8076705576787582
 11.5157924762481976  6.1332966695925499 28.5479037189838749
 12.2860373705160981  7.3309145178491670 28.4759211775675460
 12.4781606005717656  7.9576143907940953 27.2164348724889038
 12.5059699369606907  9.3819588743202722 27.1454465977933026
 12.3402671845888161 10.0158860226692106 25.8876706120905702
  8.3376379675777343 12.5066904222346800 40.3258144341285742
  6.9801277844287437 12.0753335418072449 40.2523823282443587
  6.4327090277207208 11.7139418810231106 38.9921549988304079
  5.5029987804003460 10.6348426357643149 38.9189194322410614
  5.2263268264924738 10.0400652193746165 37.6588545993750685
  5.0004776846859276  8.6337597764459009 37.5849705383321080
  5.0769489635137752  7.9823708677545806 36.3248523679439685
  5.6227516023298785  6.6667994677968876 36.2517226850423313
  6.0295078596207050  6.1524953608982722 34.9914217743529932
  7.1845150094380168  5.3188460739981336 34.9179395064845579
  7.8007111119331984  5.0945721775975894 33.6579377141219567
  9.2213683301924991  4.9908990343244071 33.5847991287913246
  9.8635451444906526  5.1232766556978131 32.3246589229507961
 11.1267895875533647  5.7810558988919203 32.2519525297759841
 11.6037539839458184  6.2306743604152492 30.9920154109707404
 12.3336321040069059  7.4540856405966602 30.9191514755893735
 12.5029329138593379  8.0873275271059430 29.6599015590846093
 12.4833574121030537  9.5119065930501723 29.5877632001611666
 12.2947738621848899 10.1402883200905922 28.3287272266712264
  5.1838653357466429  9.9165421710776798 40.1031914728282430
  5.0067240221545743  8.5032624768434619 40.0293550834453242
  5.1058093842630825  7.8547893925979686 38.7692220258206106
  5.6966617099446912  6.5587969957366647 38.6960533260729989
  6.1210520371060744  6.0587403715086703 37.4359392380029306
  7.3041765475554365  5.2654944922265710 37.3622555721388423
  7.9278832824972172  5.0628476738029535 36.1022458458552933
  9.3511807979503772  5.0086216399936072 36.0292041647703414
  9.9883971676430896  5.1632057454715969 34.7690666899195620
 11.2285062491239653  5.8642056679911185 34.6960425148482159
 11.6894773080700443  6.3304741919579879 33.4362610855585061
 12.3772171119922181  7.5779991685787662 33.3631698054195880
 12.5246787297538802  8.2170559381431048 32.1034006338012574
 12.4563714769424312  9.6397609559891340 32.0308287959243216
 12.2470888800899349 10.2618144764992056 30.7713399140159218
  6.2156560103183054  5.9685319837481545 39.8802936227337455
  7.4253474319443074  5.2165805164079826 39.8064659921671478
  8.0557671943952442  5.0353330435388894 38.5464804807984009
  9.4802284549459710  5.0303725676145135 38.4735289436916759
 10.1117770892500811  5.2073221356927464 37.2135343832779171
 11.3268301477978373  5.9507672354668699 37.1402561347742477
 11.7716439142530369  6.4327274570562922 35.8803532894107207
 12.4159805414956299  7.7030195753868940 35.8072990013812458
 12.5418731896366982  8.3467983573201590 34.5473310100889037
 12.4243710779471144  9.7664714998149229 34.4745682301726362
 12.1938538007177772 10.3807542785221631 33.2149990917319187
 10.2335203652091291  5.2551655405855300 39.6578052127757985
 11.4221500085657297  6.0401563443819049 39.5843471866268857
 11.8501657769193631  6.5373131758449823 38.3244830928247140
 12.4506961954438076  7.8289889015787866 38.2515952668331778
 12.5542727281148547  8.4768730588900336 36.9916549412288589
 12.3880138937698892  9.8916481854863143 36.9187217676338477
 12.1363253920714023 10.4977414258857653 35.6589587608416778
 12.5620166992277795  8.6070697130450160 39.4360069098802910
 12.3468619837616771 10.0151391277402428 39.3629152447793942
 12.0746948008020194 10.6122978817519353 38.1031248317742950
 14.4953893952872317  9.6185705709118778 19.1745255550453386
