Ge Se                                   
    1.000000000000000     
    12.4099211332960717   -0.0000081305657507    0.0000030566238074
    -0.0000082000607104   12.5159920809760425    0.0000000817201876
     0.0000035137195683    0.0000000931447024   11.0821610347067701
   Ge   Se
    36    36
Direct
  0.0655094284867985  0.0436414650764476  0.1452879498085480
  0.2207334231910991  0.8744118549544808  0.3654518124213766
  0.5713643421113304  0.2114329022363961  0.3827659912968002
  0.5794635707388167  0.5573547784649406  0.3677720384021015
  0.5547264068141047  0.8698703605033700  0.3729189672043205
  0.8891924619352167  0.2252927539043057  0.3729469390129552
  0.8921912243963774  0.5389577439794024  0.3787960657984186
  0.8889023376369423  0.8767411625583179  0.3856743550885326
  0.0503348550150804  0.1669890062888442  0.6328259997264212
  0.0890477718785760  0.4817587897661610  0.6100787888375052
  0.0686140490282696  0.8314003661205476  0.6108227333843672
  0.4205608065370754  0.1435845925979962  0.6317349141914193
  0.3828917181906206  0.4930068206383353  0.6399822023526980
  0.3838475774415642  0.8256374050464927  0.6326860384688047
  0.7340105044408958  0.1410800659549380  0.6148135735576972
  0.7093965698706199  0.5077620842420956  0.6403693509394017
  0.2326947524866583  0.5493445145741944  0.3777876978388406
  0.2247257988505353  0.1969880461181006  0.3582359380275904
  0.7480917615811578  0.8095691333937935  0.6353396871901893
  0.9166290851497578  0.6442470920879018  0.8663944478160062
  0.9068202029153625  0.9956993848299334  0.8764711512321952
  0.0720056189665854  0.3900230880137343  0.1295910952580428
  0.0609498354063405  0.7154177826348231  0.1200315238339726
  0.4088635048171554  0.0455426470089080  0.1342522412152860
  0.3964289802312280  0.3840943585291114  0.1253741062988922
  0.7386296645218877  0.0451528981494604  0.1366621232371514
  0.7384957691076224  0.3779034276633411  0.1286500820566303
  0.3906515559212593  0.7148015769627918  0.1514409621659780
  0.2405012422062427  0.2964615367016563  0.8693606344106328
  0.2456139925858807  0.6694230215591972  0.8735958743411558
  0.2125904582685720  0.0006315823514313  0.8798103905194878
  0.5689366089981220  0.3288275344870897  0.8913732888739077
  0.5471889097843103  0.6868459551409813  0.8765601782639578
  0.5942156347334446  0.9972553891375355  0.8830580822146601
  0.8913796626070791  0.3349381217427521  0.8752823713231379
  0.7468729249574224  0.7089264384473850  0.1335084015043009
  0.9089959436207451  0.0145252933080329  0.6525733103021878
  0.2477323196660635  0.3431229314152802  0.6360307973923298
  0.2287125789332265  0.6860212302057249  0.6381329161460343
  0.5819946734850205  0.0164259590586511  0.6533720516134736
  0.5547454142593296  0.3674045221658844  0.6638410342795709
  0.5888226989173191  0.6707190700165029  0.6560878164498547
  0.9297191977683141  0.3374058128950708  0.6540476004938611
  0.7331104941098232  0.0067858749823770  0.3657136717044764
  0.0605126544857839  0.0204316293966187  0.3741510808357873
  0.0756096329234452  0.3498405658887620  0.3473809747740191
  0.0524500336530735  0.6675209676858245  0.3536713565563616
  0.3855681065461312  0.9999744234278793  0.3621735547086828
  0.4024664264649047  0.3416760238170582  0.3470685881336877
  0.4050875297837919  0.6921584313072628  0.3658919299087771
  0.2757800899809268  0.0013217165625079  0.6530065086554728
  0.9170655060339712  0.6921738434904654  0.6492138934412424
  0.8977243095925118  0.8472743731027350  0.1462775156469363
  0.2305561322122784  0.1699847234315683  0.1306353136085221
  0.8958603234236406  0.1743624807994024  0.1464763317452906
  0.7211362794427956  0.3458292743942195  0.3543304527558888
  0.0797014492836468  0.1684393770826702  0.8519272449812263
  0.0857064918143635  0.5238760567723233  0.8495043088140335
  0.0635102796505507  0.8532192122832640  0.8419770162233746
  0.4213039805987648  0.1805640045971799  0.8636606068115071
  0.3998027811632809  0.5257881224374259  0.8669330071040520
  0.4321258506360053  0.8563034103558778  0.8640689000800279
  0.7555452110868259  0.1772473239776673  0.8388580297101242
  0.7609269492359232  0.5095847217107803  0.8650414738049292
  0.7403892951588702  0.8565980733369614  0.8580499694754309
  0.2284889904051610  0.5175981373540068  0.1568191814150310
  0.2275545081905221  0.8450795965902813  0.1321091191874828
  0.5711821561324939  0.1815591875052647  0.1522694921396592
  0.5786527196670335  0.5078033969939071  0.1398805834298145
  0.5715464816551545  0.8407259302239041  0.1367385409571540
  0.9078787254518872  0.5231995677492307  0.1481889973094326
  0.7472759797892863  0.6945637969931369  0.3648802283871291
 
  0.00000000E+00  0.00000000E+00  0.00000000E+00
  0.00000000E+00  0.00000000E+00  0.00000000E+00
  0.00000000E+00  0.00000000E+00  0.00000000E+00
  0.00000000E+00  0.00000000E+00  0.00000000E+00
  0.00000000E+00  0.00000000E+00  0.00000000E+00
  0.00000000E+00  0.00000000E+00  0.00000000E+00
  0.00000000E+00  0.00000000E+00  0.00000000E+00
  0.00000000E+00  0.00000000E+00  0.00000000E+00
  0.00000000E+00  0.00000000E+00  0.00000000E+00
  0.00000000E+00  0.00000000E+00  0.00000000E+00
  0.00000000E+00  0.00000000E+00  0.00000000E+00
  0.00000000E+00  0.00000000E+00  0.00000000E+00
  0.00000000E+00  0.00000000E+00  0.00000000E+00
  0.00000000E+00  0.00000000E+00  0.00000000E+00
  0.00000000E+00  0.00000000E+00  0.00000000E+00
  0.00000000E+00  0.00000000E+00  0.00000000E+00
  0.00000000E+00  0.00000000E+00  0.00000000E+00
  0.00000000E+00  0.00000000E+00  0.00000000E+00
  0.00000000E+00  0.00000000E+00  0.00000000E+00
  0.00000000E+00  0.00000000E+00  0.00000000E+00
  0.00000000E+00  0.00000000E+00  0.00000000E+00
  0.00000000E+00  0.00000000E+00  0.00000000E+00
  0.00000000E+00  0.00000000E+00  0.00000000E+00
  0.00000000E+00  0.00000000E+00  0.00000000E+00
  0.00000000E+00  0.00000000E+00  0.00000000E+00
  0.00000000E+00  0.00000000E+00  0.00000000E+00
  0.00000000E+00  0.00000000E+00  0.00000000E+00
  0.00000000E+00  0.00000000E+00  0.00000000E+00
  0.00000000E+00  0.00000000E+00  0.00000000E+00
  0.00000000E+00  0.00000000E+00  0.00000000E+00
  0.00000000E+00  0.00000000E+00  0.00000000E+00
  0.00000000E+00  0.00000000E+00  0.00000000E+00
  0.00000000E+00  0.00000000E+00  0.00000000E+00
  0.00000000E+00  0.00000000E+00  0.00000000E+00
  0.00000000E+00  0.00000000E+00  0.00000000E+00
  0.00000000E+00  0.00000000E+00  0.00000000E+00
  0.00000000E+00  0.00000000E+00  0.00000000E+00
  0.00000000E+00  0.00000000E+00  0.00000000E+00
  0.00000000E+00  0.00000000E+00  0.00000000E+00
  0.00000000E+00  0.00000000E+00  0.00000000E+00
  0.00000000E+00  0.00000000E+00  0.00000000E+00
  0.00000000E+00  0.00000000E+00  0.00000000E+00
  0.00000000E+00  0.00000000E+00  0.00000000E+00
  0.00000000E+00  0.00000000E+00  0.00000000E+00
  0.00000000E+00  0.00000000E+00  0.00000000E+00
  0.00000000E+00  0.00000000E+00  0.00000000E+00
  0.00000000E+00  0.00000000E+00  0.00000000E+00
  0.00000000E+00  0.00000000E+00  0.00000000E+00
  0.00000000E+00  0.00000000E+00  0.00000000E+00
  0.00000000E+00  0.00000000E+00  0.00000000E+00
  0.00000000E+00  0.00000000E+00  0.00000000E+00
  0.00000000E+00  0.00000000E+00  0.00000000E+00
  0.00000000E+00  0.00000000E+00  0.00000000E+00
  0.00000000E+00  0.00000000E+00  0.00000000E+00
  0.00000000E+00  0.00000000E+00  0.00000000E+00
  0.00000000E+00  0.00000000E+00  0.00000000E+00
  0.00000000E+00  0.00000000E+00  0.00000000E+00
  0.00000000E+00  0.00000000E+00  0.00000000E+00
  0.00000000E+00  0.00000000E+00  0.00000000E+00
  0.00000000E+00  0.00000000E+00  0.00000000E+00
  0.00000000E+00  0.00000000E+00  0.00000000E+00
  0.00000000E+00  0.00000000E+00  0.00000000E+00
  0.00000000E+00  0.00000000E+00  0.00000000E+00
  0.00000000E+00  0.00000000E+00  0.00000000E+00
  0.00000000E+00  0.00000000E+00  0.00000000E+00
  0.00000000E+00  0.00000000E+00  0.00000000E+00
  0.00000000E+00  0.00000000E+00  0.00000000E+00
  0.00000000E+00  0.00000000E+00  0.00000000E+00
  0.00000000E+00  0.00000000E+00  0.00000000E+00
  0.00000000E+00  0.00000000E+00  0.00000000E+00
  0.00000000E+00  0.00000000E+00  0.00000000E+00
  0.00000000E+00  0.00000000E+00  0.00000000E+00
