INCAR created by Atomic Simulation Environment
 SIGMA = 0.010000
 EDIFF = 1.00e-06
 ALGO = N
 GGA = PE
 PREC = Accurate
 SYSTEM = 03_BS
 ICHARG = 11
 ISMEAR = 0
 ISPIN = 2
 ISTART = 1
 KPAR = 8
 LORBIT = 11
 NBANDS = 896
 NELMIN = 5
 NPAR = 16
 IVDW = 11
 LCHARG = .TRUE.
 LWAVE = .TRUE.
 LREAL = .FALSE.
