 C  H 
 1.0000000000000000
    32.3722991942999982    0.0000000000000000    0.0000000000000000
     0.0000000000000000   19.9214134216000005    0.0000000000000000
     0.0000000000000000    0.0000000000000000   40.4480476378999967
 C   H  
 364   1
Cartesian
 12.0096481995885700 10.7241035892394390  0.1000643918890294
 11.9396975142519004 10.8336057550839513  2.5447888687346150
 10.9452510602819117 11.8534576363650501  2.4719318517157820
 10.3766018199918353 12.1807799225549562  1.2116804935214958
  8.9950072342116947 12.5272393392922705  1.1381687790782098
 11.8656331265288717 10.9402920480981454  4.9894412146754155
 10.8367057225721783 11.9256245602593616  4.9167566628290729
 10.2572969841213570 12.2331920668273018  3.6566434888733168
  8.8644188192629354 12.5317009700096573  3.5829394906141387
  8.2099180743194022 12.4892250293574580  2.3227479096444728
  6.8678013851565929 12.0122622811881890  2.2492963220142297
  6.3331055546329296 11.6325203456371575  0.9888656548311959
  5.4406238848063273 10.5223855114480340  0.9153931561642865
 11.7863341387674883 11.0439397110572788  7.4341678361395340
 10.7249671836221818 11.9942825166291662  7.3617512487954553
 10.1357282807343605 12.2814817230840738  6.1014399798412908
  8.7337317500444591 12.5321378740527614  6.0277397052632420
  8.0811654891814122 12.4668355787787153  4.7674301526523406
  6.7563559483027591 11.9437751559319878  4.6940489937073462
  6.2349712310678758 11.5460946094270440  3.4337446884663958
  5.3811832513542814 10.4058048041194180  3.3598810207609668
  5.1459970169150377  9.7936949583375998  2.0998004090541689
  5.0172988342598526  8.3750575194736143  2.0260243188488110
  5.1387269578680383  7.7303123672033651  0.7659528746061509
  5.7736637526185373  6.4552892375480786  0.6927213592226059
 11.7028070690311630 11.1451146271827568  9.8781260147173064
 10.6114228517454325 12.0596650410055410  9.8065191471088298
 10.0126732475620717 12.3268390038152091  8.5463628212754408
  8.6025630743558583 12.5290237665997761  8.4725450868523620
  7.9530137322306897 12.4409807336530083  7.2124991292664049
  6.6468963183360863 11.8716625112603467  7.1388398276131371
  6.1398208279036535 11.4560836165544639  5.8786874578320720
  5.3258713254054895 10.2870235578378608  5.8045168299233341
  5.1120872231963119  9.6671800653956605  4.5442527051027080
  5.0321035844360056  8.2450915376575153  4.4704975124011757
  5.1755629733952553  7.6050640242674348  3.2101760967999042
  5.8538008028947539  6.3525634617965991  3.1365680444066446
  6.3120270395015163  5.8828239494986061  1.8768479777924876
  7.5468467864145188  5.1726942261767226  1.8030821795247609
  8.1836852049435560  5.0133540283330706  0.5434642700730706
  9.6073916035521627  5.0572291098720630  0.4704988925887033
 12.0139057141749230 10.7169440584297284 13.5793680280612072
 11.6221760419746154 11.2459877626365987 12.3226532213581166
 10.4967643629466281 12.1213049764331320 12.2512882205538016
  9.8891738398014031 12.3678429681519475 10.9930781702488858
  8.4713804864026994 12.5197092325293102 10.9183613889009248
  7.8257463997591836 12.4095319186694617  9.6580943681636633
  6.5403603655234850 11.7952816310120294  9.5837820827908686
  6.0481829348694758 11.3622571944567650  8.3232723537747901
  5.2754060743883082 10.1658693563813838  8.2489459890894974
  5.0826969625000000  9.5392859021478014  6.9886356438062931
  5.0516033080994358  8.1151431988595135  6.9149982719925687
  5.2164250059818995  7.4807490449266956  5.6546939028443415
  5.9373073807504229  6.2521436534710668  5.5806773151653450
  6.4116505286431904  5.7989610533114284  4.3208174565180455
  7.6700726087935838  5.1319458521019774  4.2469953801333853
  8.3121692994878291  4.9948392309766909  2.9872283340875443
  9.7334712097912366  5.0878835381033065  2.9142083388044826
 10.3521005308562799  5.3077886839733264  1.6547225488487081
 11.5133592590897305  6.1327847441642671  1.5812387542484565
 11.9246350598437658  6.6443605454141608  0.3215894987049877
 12.4808753082659045  7.9556847354839206  0.2487456640941761
 11.9735706090838985 10.8333224344332830 16.0214199445777723
 11.5471083341071932 11.3400519380636808 14.7746219588467937
 10.3769424185229813 12.1644061850763645 14.6993322444436458
  9.7627084912180884 12.3937595992194769 13.4410133688790712
  8.3411915995548043 12.4990513476965894 13.3648018556251813
  7.6996275847070041 12.3707431195200286 12.1029726763832048
  6.4352856814546673 11.7149136901234758 12.0280185820112617
  5.9585703305099456 11.2659445392278599 10.7675934638544906
  5.2275537230270812 10.0429806442791314 10.6931601731160697
  5.0575713371146156  9.4101494931410610  9.4331852752017973
  5.0760472411830646  7.9856927489804175  9.3596810420282992
  5.2627046976405296  7.3575801684386271  8.0992927799108383
  6.0250569930180511  6.1545585188905081  8.0250997334957876
  6.5139932988468940  5.7179808330752824  6.7647524222201048
  7.7943457669783891  5.0942974729139614  6.6909451659550516
  8.4406980316743070  4.9797248166334347  5.4311589078938862
  9.8580665871566353  5.1215606672241405  5.3579190586590073
 10.4690032170927889  5.3632943240459623  4.0986338519539389
 11.6012755161499772  6.2275208350808340  4.0253405148475707
 11.9949296153604354  6.7533611610106519  2.7657154140955460
 12.5059688598409604  8.0828928023654871  2.6931852621893251
 12.5654972644145015  8.7367265649652595  1.4333542904463363
 12.3021732927561320 10.1366411802881995  1.3600081707660909
 11.8776347921619063 10.9393163183701532 18.4716592273910649
 11.4363857521601329 11.4004330992919698 17.2242461961416602
 10.2419065268262734 12.1801112840847772 17.1437050273196796
  9.6275356270809525 12.4025345488042120 15.8827475870300976
  8.2056405036116953 12.4754048949141705 15.8076345251762440
  7.5701814249980686 12.3296034998220332 14.5466099737514920
  6.3262665216817737 11.6335884399098521 14.4716442899862781
  5.8690714899891230 11.1666207647732723 13.2116646928032928
  5.1824089768658039  9.9184679879398630 13.1375041349082871
  5.0364943705365697  9.2797228778295722 11.8773234572087976
  5.1054520272778063  7.8572725552190850 11.8040695575658869
  5.3134519217449947  7.2357827935790882 10.5436727193370174
  6.1165266343467382  6.0594314027534795 10.4694146501104299
  6.6196099556120345  5.6396466069067150  9.2091423056690314
  7.9203428406342447  5.0589869155098057  9.1353389939832681
  8.5699351136602608  4.9675319692118070  7.8753716434912349
  9.9814125275060803  5.1575917634490400  7.8018297645335863
 10.5834772077846786  5.4214914867528696  6.5423678576980313
 11.6850919520843863  6.3243080412061392  6.4691733330234209
 12.0610219355899613  6.8638124086927848  5.2099172599937829
 12.5258278964366276  8.2104421311322007  5.1374309327118084
 12.5633787873649645  8.8662566145977024  3.8779654446446910
 12.2522513536451143 10.2564004678630365  3.8047629625207913
 11.8151492586614406 11.0429486216517994 20.9225586564896240
 11.3384647124026277 11.4834202239578023 19.6471251206309958
 10.1198113566503576 12.2263462033658357 19.5793305321410394
  9.4940007954955856 12.4190139244673219 18.3238819698953712
  8.0670297217155387 12.4576576909191843 18.2502824484651747
  7.4382600509163614 12.2870756185455576 16.9910527692244422
  6.2194397960891372 11.5497427742930601 16.9164058410240798
  5.7798861454301118 11.0658583191164706 15.6554541036011639
  5.1404625359362015  9.7935378839500036 15.5819257506203552
  5.0179918473069858  9.1495615725613177 14.3216914721632804
  5.1379739689553903  7.7300106597840736 14.2483730123724559
  5.3680796159141897  7.1160688994877912 12.9885628848558206
  6.2106510642699799  5.9672453659991769 12.9143032457893217
  6.7281463930463019  5.5648388081669387 11.6539787321284489
  8.0472974257723546  5.0279050741763855 11.5805046403881615
  8.6997384773886015  4.9583689581980765 10.3198612117766295
 10.1037380790653124  5.1965673767579110 10.2458951353118763
 10.6962755610005047  5.4810305206231931  8.9864962723925927
 11.7655956167212796  6.4226785481085553  8.9131093452211374
 12.1220836369094300  6.9758186579020167  7.6542377166519797
 12.5395170164989391  8.3378389968175064  7.5814776679065208
 12.5550371376588679  8.9950641640881734  6.3222366232691414
 12.1964819483458555 10.3735576124024540  6.2493717996314739
 11.7102703354265305 11.1429898215654255 23.3648599200187661
 11.2595137160062464 11.6059315870259745 22.0943102682828894
 10.0117133817371542 12.3066981742282007 22.0225737484370363
  9.3698305449544375 12.4515453645468916 20.7652375190666625
  7.9460461961976261 12.4295278134330491 20.6936290751115273
  7.3149314145079325 12.2402676162900299 19.4343013766490635
  6.1225936250180064 11.4603784969771922 19.3608896777119419
  5.6954866959282517 10.9638446774599387 18.1008205325050362
  5.1028054497306430  9.6671694657540765 18.0273058175419116
  5.0040380895054275  9.0193189345799407 16.7673068171592163
  5.1742153430810456  7.6048474429490343 16.6936356125525087
  5.4261388676428277  6.9988020778948545 15.4334396191259078
  6.3065653990844925  5.8794795133292235 15.3594263616932007
  6.8382399714347191  5.4940907516381268 14.0988983976194238
  8.1753333108249180  5.0032528130263145 14.0256731510116932
  8.8295852273333111  4.9542073490343652 12.7654304981027682
 10.2249962309690403  5.2418799801000988 12.6911706000310858
 10.8069931609251206  5.5455152202860987 11.4315432692358492
 11.8418379118961674  6.5243176527823996 11.3573157237698581
 12.1783365357705016  7.0896564045902180 10.0978436754080914
 12.5469658445182830  8.4652573301512000 10.0242071816079896
 12.5410460040163265  9.1227259615094827  8.7658399676123988
 12.1356688392901901 10.4887324533012265  8.6936121514206981
 11.6200089180156976 11.2425007703291904 25.8070093296003087
 11.1497319268240176 11.6976343730792287 24.5455545523377729
  9.8899228991461623 12.3646488401457333 24.4704370547093042
  9.2491377913684794 12.4919535924547738 23.2065792966381608
  7.8262150017723071 12.4029466127608003 23.1364758875098886
  7.2024443963370128 12.1869570666841600 21.8791768123391961
  6.0377934294022308 11.3650737581035095 21.8062540039241526
  5.6248714246541658 10.8535990908214384 20.5467561287043452
  5.0764460052028397  9.5394097623824230 20.4734625598444069
  4.9975093528790540  8.8884218898161773 19.2124315242801487
  5.2162997612114212  7.4813126152059590 19.1388344309308920
  5.4867268670925808  6.8841567455319259 17.8783354059898905
  6.4050938950052538  5.7952373805732975 17.8043583113185520
  6.9491222944444733  5.4281553348302491 16.5448181951329154
  8.3043966369020321  4.9885717388520687 16.4715322361183496
  8.9599726913811075  4.9626726647404258 15.2120031111198930
 10.3415921962879125  5.3065039920447985 15.1383813923034154
 10.9134360259225502  5.6222264033402398 13.8762397215794380
 11.9128308541707622  6.6342203300394313 13.8000273615644407
 12.2317838800172360  7.2061134596566383 12.5410146026657134
 12.5513582396032763  8.5949667831611016 12.4653651088923745
 12.5213892532287314  9.2508056557936325 11.2082666221746265
 12.0720510031340869 10.6025027913059642 11.1376380497045506
 11.5334378674253752 11.3405983718172081 28.2512641887772702
 11.0439303289953621 11.7776530819973448 26.9908850272843281
  9.7647049144539491 12.4030836646176787 26.9161269967635022
  9.1198373104928727 12.5178460323329848 25.6537570216218356
  7.7011806269646517 12.3740684596450929 25.5821372840917682
  7.0908854086149420 12.1309518756116788 24.3229644803043819
  5.9577632724283838 11.2675050440913935 24.2506535218339820
  5.5615164900070457 10.7423655283588495 22.9911393923000098
  5.0549314811814234  9.4111026939387443 22.9182327079229964
  4.9964861533125360  8.7577272128610328 21.6582008778598514
  5.2625874912844912  7.3582851596092231 21.5846591597235715
  5.5542998716351111  6.7712477679948933 20.3245103941583629
  6.5095888939508502  5.7160067552408966 20.2516912600088190
  7.0657330384060408  5.3694095819984202 18.9902372961737917
  8.4334658894406012  4.9830005309295426 18.9167084492210833
  9.0902933298281319  4.9857235834195519 17.6566355210129728
 10.4532577296020275  5.3904551143594119 17.5826153829991334
 11.0103966550898242  5.7244158650566606 16.3223712204449356
 11.9712151049859035  6.7732883586502979 16.2457919501733343
 12.2782571940052296  7.3357448173563764 14.9835850596927767
 12.5615910590907802  8.7273445095641602 14.9041848030800566
 12.5025283558122524  9.3813958824466557 13.6466256108698758
 11.4443304559616461 11.4357050593173959 30.6956637599737689
 10.9397675625421034 11.8552059764415265 29.4352449128742037
  9.6385777804319801 12.4348955487888944 29.3614498364742751
  8.9891571825701035 12.5282044143536044 28.1008128034227767
  7.5774184383475660 12.3363259457502483 28.0278827464718461
  6.9764755133020246 12.0729607794564782 26.7672648739050238
  5.8755580373353080 11.1687995573768912 26.6949524342457529
  5.4996466909649024 10.6301671099937796 25.4354427377491916
  5.0363880612398413  9.2828908298835451 25.3627598299277608
  5.0006372637411634  8.6272812523159423 24.1030665455075521
  5.3136659001149846  7.2380272812955111 24.0295289409036421
  5.6257020746211328  6.6609278364784767 22.7692553555914792
  6.6180436892193288  5.6391863983168653 22.6964552039094905
  7.1848139870572334  5.3110382488405792 21.4357672558484040
  8.5671372085435156  4.9671385062925593 21.3619178301866164
  9.2221279005349484  5.0003764923909300 20.1011401643573144
 10.5699734969700465  5.4505058175346228 20.0276086577798864
 11.1136792754618074  5.8342626825323558 18.7669360287171081
 12.0467174419461731  6.8986745940398402 18.6939159240033668
 12.3271872937173068  7.4954537900167191 17.4256552855121178
 12.6460269931855986  8.8633859739798204 17.3335820308814341
 12.5328703545676969  9.5109257308816861 16.0878016686941123
 11.3509258065422340 11.5271141740874867 33.1402144257098996
 10.8323584971475171 11.9289104731897062 31.8799457002021391
  9.5115169016867380 12.4622486658897138 31.8066725716642829
  8.8590169062982458 12.5322937194417445 30.5462901647384264
  7.4550651026954098 12.2923395339981401 30.4729031829070998
  6.8631490271765925 12.0098096987526208 29.2124038044402852
  5.7938921491752886 11.0680612568107684 29.1398425726583596
  5.4382557024183011 10.5163550806228585 27.8800102033899790
  5.0207193526098406  9.1545269285773614 27.8072495958692301
  5.0071055286067772  8.4980540451078515 26.5473512675960208
  5.3669662164723642  7.1198812584404880 26.4739870991618211
  5.6994533390269666  6.5536074986364392 25.2142143269218657
  6.7270734310404858  5.5669795314059032 25.1416719947447120
  7.3063071234506411  5.2581902236765501 23.8814822042872201
  8.6983035231814121  4.9575081841275122 23.8078168831928707
  9.3524514823955247  5.0041180110090577 22.5462489901975012
 10.6915483024571110  5.4882582241555600 22.4730502773422245
 11.2178122350693794  5.8857200231686404 21.2132918711647562
 12.1058390198534553  6.9970126360980558 21.1442204407834744
 12.3765204479444932  7.6178485827945606 19.8875535225649713
 12.6451081273956181  8.9981626235980539 19.8353604347363444
 12.8187667429171626  9.7373203138299438 18.5431909988628405
 11.2541327696166071 11.6147700294466958 35.5851088684219476
 10.7220607667807286 11.9984526755140184 34.3247344906998464
  9.3835765763025183 12.4855337263010568 34.2516366068406199
  8.7291357542936741 12.5328600112360711 32.9913131161315363
  7.3341649376200992 12.2444637737926634 32.9177552649633114
  6.7520624658931503 11.9415573366949719 31.6576463951480669
  5.7156410110830569 10.9642140780918105 31.5849321297411301
  5.3793166513689643 10.4008639651483712 30.3246343511088803
  5.0086984650601432  9.0254689563074049 30.2517785356561824
  5.0171960297275131  8.3691046416660839 28.9919768265090880
  5.4236111913397220  7.0037663017263654 28.9189372545182195
  5.7758076355129173  6.4494484275684139 27.6591155507163649
  6.8372132287918435  5.4997436327498859 27.5867136394328867
  7.4268913270102725  5.2107143492126538 26.3267240800973461
  8.8285139729841013  4.9578108975191295 26.2535159813232468
  9.4813139567876181  5.0211861473428758 24.9931475010946720
 10.8058536124078888  5.5451005208000819 24.9210428384118110
 11.3251265720349110  5.9476728568662427 23.6607415361068760
 12.1763205236782923  7.0873152704571183 23.5915554518678050
 12.4101006797703732  7.7054913228103432 22.3327642563717035
 12.5468060639767369  9.1194798163624977 22.2646260690735396
 12.4723085619966643  9.7682206783527068 21.0042367870579163
 11.1540328747939750 11.6982496087417456 38.0300165121282276
 10.6091051146794726 12.0636739941292142 36.7696438392073688
  9.2545880624336565 12.5043933616147722 36.6965161196514700
  8.5989887253727613 12.5291394058462213 35.4362575044570605
  7.2149338416092101 12.1926196889697778 35.3626626691317654
  6.6437202841189373 11.8696712950268086 34.1024781567259723
  5.6414171192203737 10.8575266224924967 34.0297415399647463
  5.3239775316998212 10.2832042540322295 32.7695456007979544
  5.0010819881548958  8.8957046701852516 32.6964570101627885
  5.0321966136494627  8.2401770823520977 31.4366165843927661
  5.4852392701164057  6.8897442617703684 31.3638686613207369
  5.8555721174003814  6.3479127996008460 30.1038147753026166
  6.9496076542775667  5.4358011781337314 30.0313055107906166
  7.5489679178271949  5.1680355732898047 28.7716623027882541
  8.9587595410971339  4.9652120231934260 28.6986809906318570
  9.6090597487612897  5.0507603502701794 27.4386535782287524
 10.9145843320395066  5.6192834026832346 27.3663388741922375
 11.4216342333175795  6.0338760092794317 26.1055839175419742
 12.2327323677316429  7.2045614761801513 26.0336221568904840
 12.4458080336521277  7.8247458454595122 24.7747020408630050
 12.5219864925327311  9.2475426110359535 24.7030696372111791
 12.3811034083591434  9.8896794218569770 23.4453943630220039
 11.0510492563130409 11.7777516413350014  0.0269852597445148
 10.4939839886053043 12.1245006205355050 39.2147047476803579
  9.1251348276621496 12.5183444146889400 39.1413928033367426
  8.4690199548252121 12.5207362569453267 37.8811540595677343
  7.0974084056385793 12.1367226066387843 37.8075500008685239
  6.5376767454308267 11.7943984617774689 36.5472877417584527
  5.5709986291165041 10.7481501830863717 36.4744298121439314
  5.2736495500822267 10.1632908052392423 35.2144104757040921
  4.9987697442969088  8.7656722005373968 35.1410451439268954
  5.0521705977716049  8.1116516529944231 33.8811143836825863
  5.5516186407725581  6.7777391435604741 33.8084692409335403
  5.9399975474461595  6.2490160884307224 32.5484913495091348
  7.0653497863737655  5.3757255308693033 32.4757293825044897
  7.6732554988555259  5.1295833485008089 31.2160059278152993
  9.0892425473591985  4.9767562155492877 31.1430167949353063
  9.7356994530963483  5.0855578118322180 29.8829720777893009
 11.0209415774765560  5.6990273588015681 29.8101673453123333
 11.5134149490996336  6.1304058550673837 28.5500767881684929
 12.2848655929141959  7.3278845240308437 28.4767004503521086
 12.4750787725356069  7.9542655646416831 27.2168507661547743
 12.5041533626058872  9.3780955513986104 27.1439155663281753
 12.3375860048836437 10.0124692389638277 25.8841186501337930
  8.3394081175127006 12.5073959370836683 40.3260026998311361
  6.9817471812581227 12.0764482647123046 40.2524542873964890
  6.4342176285791890 11.7152459755045637 38.9921418374664341
  5.5041137890467295 10.6363969855198945 38.9190148619606759
  5.2272829541658146 10.0415828567829646 37.6589841698874821
  5.0008935778260533  8.6353757838777732 37.5854316204564967
  5.0769903236591238  7.9837580147945948 36.3254895206497039
  5.6223415570343818  6.6678911106170871 36.2527860490187450
  6.0288122637905115  6.1531543628981105 34.9929047832134117
  7.1836032087609079  5.3193541314344994 34.9197469081522982
  7.7996740099651083  5.0947701281484479 33.6599295457679730
  9.2201675314540044  4.9911677570963215 33.5869110493155887
  9.8621734458441281  5.1231152309242889 32.3269568915679386
 11.1256882054269628  5.7805326342336691 32.2538268904577237
 11.6024656100254635  6.2297276244157453 30.9938638944590856
 12.3331951047506916  7.4522746535492876 30.9200663893884666
 12.5025647471598713  8.0848485403755088 29.6597697440813626
 12.4838526642146395  9.5091544043869209 29.5864516083117977
 12.2954056481099609 10.1369016950377926 28.3265152300897824
  5.1847127583585344  9.9183621552495769 40.1033770576648791
  5.0070358270678392  8.5050717743144855 40.0296642191676213
  5.1058553089548671  7.8564379723629827 38.7697631929620599
  5.6963670157346105  6.5601943906730575 38.6968548830118309
  6.1206445756800161  6.0598651702786874 37.4370206360827709
  7.3035605463332516  5.2663702581825884 37.3635442144419159
  7.9271752966543110  5.0633672589702128 36.1037633236048237
  9.3504986663955574  5.0089561907971794 36.0307854668878775
  9.9876338832325118  5.1634966800233357 34.7708379014050379
 11.2277890601478330  5.8641555797279947 34.6975288541483522
 11.6888173340310058  6.3301367203221535 33.4375727147481214
 12.3771788215390242  7.5771365079875999 33.3638092242703621
 12.5252263041806895  8.2155675341470094 32.1036380203627374
 12.4576735878445692  9.6384628585352488 32.0302665467163763
 12.2482265266652242 10.2598288101050130 30.7701164917208985
  6.2152387863674852  5.9698555260596127 39.8809829396682431
  7.4247833010320274  5.2175567168443155 39.8073219432862615
  8.0552381328413496  5.0360603781398741 38.5476414583164271
  9.4797050815975243  5.0308183466046819 38.4747291204849660
 10.1112999502050016  5.2076521840061085 37.2148453417468019
 11.3264410721785076  5.9508271837785225 37.1413825763620835
 11.7713589837576116  6.4325789518842678 35.8814552078945326
 12.4161291344684468  7.7026648898356047 35.8080115931728571
 12.5421946134076112  8.3462083393096620 34.5478177037602450
 12.4252973809673861  9.7658040868733966 34.4744904804713457
 12.1951597252508552 10.3797812391686257 33.2142469162896390
 10.2331068491738844  5.2554822208939553 39.6588314061554712
 11.4219333238483038  6.0402003358744238 39.5853149985076200
 11.8500359178649788  6.5373086636922775 38.3254887330189078
 12.4508663665220798  7.8287830003091088 38.2523603736059528
 12.5546101762514475  8.4765798331592013 36.9922134125694484
 12.3887964482748423  9.8913360535636077 36.9188881633773676
 12.1374991203348817 10.4973397928013590 35.6587795883570351
 12.5624656293336567  8.6067964385122551 39.4367435558590387
 12.3476967329028966 10.0149100068829338 39.3634128123318945
 12.0756499545297444 10.6120743425702990 38.1033824284663041
 13.8640640642209174 10.1293756147320071 18.5235355623690090
