 C  S 
 1.0000000000000000
    32.3722991942999982    0.0000000000000000    0.0000000000000000
     0.0000000000000000   19.9214134216000005    0.0000000000000000
     0.0000000000000000    0.0000000000000000   40.4480476378999967
 C   S  
 364   1
Cartesian
 12.0081034562879054 10.7260968376811050  0.0994427594448348
 11.9382386769959368 10.8365834478128829  2.5439900210597703
 10.9433294283561651 11.8559103649144912  2.4712511714143850
 10.3744211393294563 12.1822758520213501  1.2109130482192423
  8.9926323691880317 12.5275854039124965  1.1375571401848092
 11.8652835845679316 10.9449546785520901  4.9886422501969196
 10.8357373781596849 11.9293406863801650  4.9163281449734866
 10.2554873492423493 12.2356880741507812  3.6560388406426814
  8.8624618933548795 12.5326898740319059  3.5825687146024721
  8.2077344370307213 12.4890022120838822  2.3222773084996908
  6.8663196402776414 12.0100423822182858  2.2490934965661435
  6.3320530371719279 11.6294481876755569  0.9885856898808553
  5.4410302851396910 10.5180073631805673  0.9155350173353536
 11.7891464976802691 11.0502818295127661  7.4337273113627509
 10.7257173200399780 11.9979612361838690  7.3618992560311609
 10.1353474589229595 12.2846539344576851  6.1015165845676478
  8.7328372625884825 12.5332152766141665  6.0279136082888956
  8.0798407371381540 12.4670770857751911  4.7675380671697605
  6.7558454259644751 11.9418591558470180  4.6942338901742664
  6.2346290722229476 11.5429243267421118  3.4339061948917573
  5.3827116907593400 10.4013359007868793  3.3605913942703847
  5.1478217363349001  9.7888127806683762  2.1003676465923888
  5.0207364707035396  8.3699705507761433  2.0273636847049188
  5.1420896316445761  7.7255758349513783  0.7667825159984691
  5.7779564183352630  6.4508866251671622  0.6940234068094681
 11.7104913993047219 11.1512993145745494  9.8792912410029388
 10.6130862088505715 12.0595894853598224  9.8080548653197663
 10.0133426157080940 12.3273426644997599  8.5476276703782048
  8.6030515683526758 12.5275448391502326  8.4736646839971055
  7.9529181111037994 12.4402136476911700  7.2129050347167913
  6.6476596334799645 11.8700120884562477  7.1391017993272881
  6.1405306310992360 11.4534604092043768  5.8788551686555044
  5.3285530281909343 10.2831040715588937  5.8051440430429277
  5.1152423880354805  9.6624041763762474  4.5452753518561533
  5.0373407973977331  8.2400397795757705  4.4726453576739393
  5.1806000330055673  7.6001397001867801  3.2122068149743743
  5.8598614697568356  6.3480768950173001  3.1395943670194422
  6.3172456411907243  5.8788509323685378  1.8789315517325873
  7.5524951502728861  5.1695613294415343  1.8055141988265822
  8.1883978842804019  5.0108387051623691  0.5447072306757160
  9.6120168346629278  5.0562155338634502  0.4715742982911167
 12.0238081764737572 10.7158520940677331 13.5837807156447230
 11.6281879497208180 11.2452290160280235 12.3257167933689065
 10.4961646354226836 12.1105789130924304 12.2547092429317654
  9.8887721755456326 12.3608455118734408 10.9942505008380937
  8.4724607932295832 12.5137719077304510 10.9196925842119370
  7.8263129092006238 12.4069579958517959  9.6582918935747664
  6.5404983808126493 11.7942881034134661  9.5835955913189466
  6.0487716669029856 11.3608739029420640  8.3232145367201280
  5.2774288541861587 10.1634600884449888  8.2490351711759260
  5.0866974619697345  9.5353554559178413  6.9894994892077671
  5.0583951074355733  8.1112105616921752  6.9172755610392178
  5.2238137672200180  7.4763250078278540  5.6573781740580786
  5.9460706906528440  6.2484928992637192  5.5851110519533922
  6.4191912551542414  5.7952622549170760  4.3245315370150319
  7.6782453961475179  5.1291684667899125  4.2515209877692586
  8.3186886476958257  4.9924306462277350  2.9903765559113524
  9.7398692344800697  5.0872480401307616  2.9170200846897387
 10.3567915730811180  5.3077835056230240  1.6562437982476850
 11.5166211335721247  6.1345339193528314  1.5821852210479774
 11.9265982823039867  6.6461709350595752  0.3218096022938787
 12.4811630536287570  7.9580952065390296  0.2486851028313470
 11.9472802872392876 10.7962562147227548 16.0299401151574763
 11.5338644211588157 11.3174688194161348 14.7738924858345211
 10.3712972967863895 12.1422313647801143 14.7013950641281692
  9.7597732507955595 12.3808032034817135 13.4404895239809203
  8.3395641201783857 12.4926258112166018 13.3652680579930117
  7.6986636828446073 12.3674763276273740 12.1032747884606344
  6.4324464016496226 11.7150287108333924 12.0277377534503742
  5.9570752850518787 11.2658226229383338 10.7670054203903689
  5.2264762169814869 10.0431820430709156 10.6924670278348675
  5.0597321041349357  9.4083640919567344  9.4330622909423507
  5.0817919634797999  7.9841611927535796  9.3611839674498238
  5.2711054625101834  7.3549792968600727  8.1020978970337048
  6.0363189748365071  6.1534533839441448  8.0304921081721226
  6.5246790592904480  5.7161412187293204  6.7702198455229405
  7.8060616336768849  5.0939756154013605  6.6979637421665892
  8.4503055067031916  4.9788171157664243  5.4365093033789789
  9.8673271618032583  5.1228438978886555  5.3627608479505451
 10.4758664107155575  5.3643031158601628  4.1016435973487297
 11.6062719805358316  6.2307995563182708  4.0271604019974134
 11.9978221220121029  6.7562532378362272  2.7665571483979039
 12.5067390520304844  8.0865235437864325  2.6932844581256554
 12.5651404890399050  8.7396432479979929  1.4330851833054172
 12.3008506952380099 10.1392241092533624  1.3595479195540956
 11.8773877149584077 10.8948770968017641 18.4641199776531550
 11.4137415500346044 11.3698329128609323 17.2118883552790507
 10.2364224518302720 12.1609209568132872 17.1416644978604680
  9.6229137901570727 12.3902608059951795 15.8828147874951497
  8.2017474029104402 12.4680338948787153 15.8087766705473243
  7.5666411713775954 12.3248972914654509 14.5470851883830825
  6.3217348676573399 11.6331469580482167 14.4715893414721872
  5.8640485047658366 11.1680201524618194 13.2102988946356668
  5.1751016329779445  9.9216953697483827 13.1358071012732989
  5.0325888153337761  9.2813387049582534 11.8762133870690061
  5.1052177596281423  7.8588516320370640 11.8044910477199370
  5.3197660985275608  7.2364024318854474 10.5461423954315787
  6.1288060646073212  6.0639310376746058 10.4753046267710133
  6.6334751384694703  5.6430846141631887  9.2159446513352137
  7.9360680434760722  5.0663251351321152  9.1447299614056483
  8.5833614620248220  4.9716269087801992  7.8831093230751899
  9.9946149972126719  5.1641483320477475  7.8089663824465960
 10.5937116073376973  5.4256588432148538  6.5471982336530541
 11.6935663875944620  6.3305572665217911  6.4721832506534085
 12.0661176279925559  6.8690124652436930  5.2112907004025821
 12.5284562438226548  8.2161375728724835  5.1376208440013036
 12.5638294362502521  8.8707672654875900  3.8775050665547823
 12.2514878093712376 10.2604016469097470  3.8040630738569279
 11.8021160726494223 10.9886700464556739 20.9189026719124520
 11.3508305121532178 11.4605904941963423 19.6565102051649703
 10.1262525455195789 12.1976400006865973 19.5837205254397730
  9.4938915039647664 12.3941487316959389 18.3283232723363412
  8.0708618051705265 12.4341947431464224 18.2537001146074971
  7.4378922121731845 12.2747719749561934 16.9920350643144751
  6.2145232582354035 11.5465249340541369 16.9164642257157460
  5.7714014550338089 11.0679752231743613 15.6545951643718855
  5.1243982385936571  9.7989957350773356 15.5803828613622120
  5.0051754512732352  9.1543316519920381 14.3200164920941031
  5.1274281108639324  7.7353130356765076 14.2479210776852625
  5.3676869575574742  7.1207960575414901 12.9898879225147699
  6.2211794617335334  5.9800927912478716 12.9194411612965290
  6.7437248263508422  5.5776832226576891 11.6614400756613303
  8.0669334190402200  5.0493595741859378 11.5914281492267381
  8.7173821043716462  4.9737302703904218 10.3301206307223623
 10.1215707840331692  5.2130218310871186 10.2556715253772683
 10.7110028801287083  5.4923321654362018  8.9930900265058238
 11.7801125862643890  6.4334201247535345  8.9173024802070930
 12.1323859437117942  6.9842348454666361  7.6559111149963659
 12.5478815605483369  8.3465312839944161  7.5817029621103416
 12.5589608271435083  9.0020248141425334  6.3216831657110255
 12.1984176225100214 10.3799009305965804  6.2486705241067995
 11.7140247243401099 11.0933514197340273 23.3544110956825719
 11.2249474825236195 11.5282561712674099 22.0965545944334210
  9.9971267561416024 12.2400181828085479 22.0230201389829148
  9.3674358410350109 12.4103042921766509 20.7638299021233479
  7.9434437789183283 12.4050496476370267 20.6929066720202286
  7.3121888586700061 12.2234236277120782 19.4353552147393707
  6.1114569220365373 11.4570330699957843 19.3613273543355007
  5.6833241259076503 10.9635584918550641 18.1001056202335562
  5.0797477089992551  9.6737462424860450 18.0263687969843112
  4.9812237972791333  9.0259618886672666 16.7650686784236669
  5.1524111603516465  7.6119826636191696 16.6924391225774720
  5.4138965324912283  7.0070007860979082 15.4336738145318115
  6.3104541775960961  5.9000441397972230 15.3627728932120426
  6.8531568349319985  5.5197001987685868 14.1062111476313135
  8.1974166949726719  5.0473054005063807 14.0369889046228682
  8.8507490656246635  4.9892818172903990 12.7769381616169753
 10.2469043273967575  5.2728095644419168 12.7027874191490220
 10.8277332923134377  5.5658632426616936 11.4393945241080317
 11.8673071953453722  6.5394322377267162 11.3626674486028669
 12.1989812413838585  7.1013709916279950 10.1004437548728774
 12.5675791674093187  8.4770710176649562 10.0255446310997520
 12.5528375773373195  9.1328473695001513  8.7657392541611880
 12.1432044926167357 10.4970980774286158  8.6935044520264135
 11.6358494460151984 11.2289131962102928 25.8005570547222014
 11.1517307071873741 11.6543458019835882 24.5350965528713125
  9.8890458398674674 12.3156349029895491 24.4629795239118089
  9.2416519397901009 12.4468284176239017 23.2070179779377028
  7.8197240650304325 12.3834625333705333 23.1364651544475883
  7.1958508950982285 12.1716219157709649 21.8782524217707675
  6.0236309096928871 11.3634108540344361 21.8062215437303095
  5.6059672056095158 10.8562666263611902 20.5461580443559768
  5.0465963723953271  9.5461580957556329 20.4732599172345893
  4.9657244942275600  8.8964168399328614 19.2119398667130525
  5.1862196158892750  7.4890376283385871 19.1386547696087632
  5.4670387209856681  6.8948907084880178 17.8787563667826710
  6.4057875693566091  5.8243514651614339 17.8071556516464327
  6.9590358548337221  5.4660746699175728 16.5490448366422562
  8.3223498391832660  5.0572074229108148 16.4784404841003997
  8.9822817537710069  5.0258582196099351 15.2228074265755762
 10.3681493990370353  5.3588248833018364 15.1506202639743339
 10.9416157353253176  5.6522453124696064 13.8851141228815802
 11.9552365293807146  6.6507102756318961 13.8084418404214055
 12.2678892359653489  7.2205127453399127 12.5450606222150522
 12.5895983537770864  8.6074285491001099 12.4694171983345470
 12.5473038030380977  9.2629951768269390 11.2098671383075121
 12.0861135128717443 10.6106790325873028 11.1387166323721303
 11.5460267531674692 11.3388155983875283 28.2464927367554424
 11.0547651677217296 11.7657765499926139 26.9831468483537869
  9.7702330030556173 12.3819400697558315 26.9093432648608584
  9.1227658050321203 12.4858876188490218 25.6489574150207567
  7.7037647926132982 12.3567656246567648 25.5794733809188486
  7.0846300995966800 12.1212144495630465 24.3227754128993965
  5.9441459536863084 11.2676113383794263 24.2515946494493875
  5.5425462984287925 10.7454046500232661 22.9925736260120352
  5.0292836432369672  9.4168104954868888 22.9200940505189088
  4.9659404606673494  8.7647701274212029 21.6588871437040638
  5.2346415255653103  7.3662466765896042 21.5846447862033237
  5.5289558200141284  6.7827970610801920 20.3235417866295798
  6.5058321988801451  5.7461423797684725 20.2499732500486438
  7.0735313804436188  5.4155077982051596 18.9924830496980057
  8.4530100024524337  5.0625465317463130 18.9212554018568362
  9.1053418929266687  5.0738040401142035 17.6623044246040521
 10.4696841841595276  5.4642595797367211 17.5888362582940800
 11.0505125479348383  5.7659201426992954 16.3310511584414684
 12.0608475778598248  6.7733146584767621 16.2611699519454831
 12.3428796703416417  7.3426608554713262 14.9900160193040382
 12.6172322384741502  8.7349037320214507 14.9136728303301673
 12.5419933599361748  9.3903575775722636 13.6546519088326850
 11.4511128815769307 11.4373341033885421 30.6927456599101127
 10.9476228113738649 11.8530086687355265 29.4303936988328516
  9.6446350383305237 12.4285561712305075 29.3564166504991242
  8.9954917326472490 12.5149297806014523 28.0949185071957359
  7.5832203075058864 12.3267575549126231 28.0244196639458956
  6.9782008718827377 12.0648308020890909 26.7662513577623358
  5.8711859133975928 11.1681305208904629 26.6957554413729810
  5.4877808663016072 10.6316454496081718 25.4373477959628751
  5.0209469465384844  9.2860887741248508 25.3650605459817307
  4.9784390517975838  8.6320961163874532 24.1047199585957586
  5.2947984916059969  7.2433545863178601 24.0300071708743097
  5.6071111538017533  6.6708867460122079 22.7681527952701295
  6.6152988035739506  5.6655966850052533 22.6929602218563744
  7.1901274347538555  5.3562618894904581 21.4313994323032411
  8.5796434836051851  5.0471638592567887 21.3563286895212308
  9.2408727029049089  5.0834888383097212 20.1011243520150771
 10.6082484621258644  5.4992581412703769 20.0286615312584360
 11.1612839858238306  5.8464350271516574 18.7663016203888198
 12.2772404979739491  6.7363095887505269 18.6905694329718060
 12.5106738073538821  7.4360845887438227 17.4474596326134872
 12.7389932966244679  8.8623569362197809 17.3717216013603561
 12.5491915286060145  9.5030706249067851 16.1077645602661725
 11.3537784667567969 11.5293360003961016 33.1385773816943612
 10.8366961652365692 11.9301056886917181 31.8769818769115325
  9.5154818426493009 12.4621955446162520 31.8032994021516160
  8.8644368804691194 12.5293767718118527 30.5418390723366997
  7.4602451330386339 12.2892120021950451 30.4700793299150732
  6.8679959881021215 12.0053833647008563 29.2105260090070509
  5.7964301847789921 11.0668513345913819 29.1398059382394514
  5.4356770264194623 10.5166527272283439 27.8810624768437698
  5.0162719591168194  9.1555246333625018 27.8087944800943703
  4.9974358035952893  8.5001513827024091 26.5491083470982261
  5.3605806647273004  7.1232332114255126 26.4741975330978825
  5.6904121520018238  6.5605431802809964 25.2128163531890834
  6.7281652481762464  5.5851383273460273 25.1374976651130631
  7.3088353774897543  5.2912184078592626 23.8759508497179844
  8.7057652332319737  5.0188411308642493 23.8014409349898877
  9.3567060677195535  5.0917144476349563 22.5427657193679494
 10.6915918024339849  5.5711955302096161 22.4730602016070371
 11.2573547192274859  5.9187104435316273 21.2209411483593051
 12.3389747483874217  6.8461913646012649 21.1564771004488570
 12.9185696903537899  7.1026524060811438 19.8947530947347353
 13.1979586666834372  9.3399199589702633 19.7901254900322385
 12.6988895853401864  9.7306718380566046 18.5283263961651130
 11.2546022694075383 11.6167121901138248 35.5840792162643851
 10.7237456805875944 12.0004233802524940 34.3230818393923869
  9.3851025294200294 12.4869722601856079 34.2496389513877233
  8.7320841169424828 12.5333266479362813 32.9884712129028514
  7.3374241409387624 12.2436685720438234 32.9156839272864019
  6.7564792065595123 11.9399188665968072 31.6554309392409401
  5.7201022595221973 10.9625871179805188 31.5840215205949875
  5.3824073657570803 10.3997239201865828 30.3245812074252648
  5.0115672288699784  9.0245201193123439 30.2519452500968598
  5.0177112788814489  8.3689255971137388 28.9922709987531633
  5.4268985909341234  7.0047147575931046 28.9175003410148612
  5.7778269139354768  6.4533268985458339 27.6565250835915464
  6.8456380640589245  5.5105968207139924 27.5808680186135682
  7.4364117220829540  5.2327577107057843 26.3190432370176239
  8.8407416443543774  4.9934308432202252 26.2434145009342998
  9.4921520090703861  5.0758467346375022 24.9826689984360826
 10.8210044858238117  5.5914710785849078 24.9107367911509243
 11.3493569251911772  5.9963863481064790 23.6548987862164282
 12.2497659919607180  7.1027342937492968 23.5768692899972905
 12.5910210368007736  7.6777601821529959 22.3131565997514443
 12.7202954445891390  9.1164709591821982 22.2377298989744681
 12.6661085453398563  9.8524526059386002 20.9944851376737844
 11.1530092075859084 11.6997537659290067 38.0293031841330844
 10.6087252544099115 12.0651654007044851 36.7686581806532828
  9.2541224547458061 12.5052149559510077 36.6953250783199607
  8.5996064820044236 12.5297331143066586 35.4344637005260807
  7.2159631095333836 12.1917323331777379 35.3611406629232050
  6.6462487409890514 11.8684408282680405 34.1005756950534149
  5.6449948129261500 10.8551725712422424 34.0284939084704590
  5.3284945300269495 10.2808861161172196 32.7685032759216384
  5.0064388412710219  8.8933443027632055 32.6954216740722217
  5.0373656453376547  8.2383000739145658 31.4355703247636740
  5.4919674858399032  6.8884540456210877 31.3613749229357843
  5.8628542162269248  6.3486647036226511 30.1005945364648824
  6.9593353067820605  5.4396094492567837 30.0255016031209188
  7.5599460258950968  5.1784691528018332 28.7642191120949313
  8.9705220081919776  4.9797631907885567 28.6894016525899964
  9.6209759717059189  5.0746273452729014 27.4290613948856397
 10.9301791084624966  5.6368958196944723 27.3585626032584166
 11.4435968935783912  6.0540474539019211 26.1008686000223946
 12.2705677810871787  7.2124469411030896 26.0298507171425193
 12.5042001752161713  7.8302016313546403 24.7711381322434647
 12.5802684165427259  9.2472864102757821 24.6954827390372138
 12.4466366127008161  9.8690267691010547 23.4242836160516106
 11.0491851845534956 11.7792639278067437  0.0263095351378943
 10.4923313264164655 12.1256197505644678 39.2138785745214236
  9.1232925448317630 12.5185524949825666 39.1405496028406361
  8.4678626064420470 12.5205720316072036 37.8800014892945427
  7.0966731116730566 12.1350845904243094 37.8065330352295419
  6.5382798163909470 11.7923667749323364 36.5458771446182595
  5.5729000266706485 10.7449449066289446 36.4733326447328068
  5.2770880036949359 10.1600946915098298 35.2129988987868714
  5.0033705202383389  8.7622415781050069 35.1396152579940164
  5.0578453935461898  8.1086105261033214 33.8795145233761730
  5.5580105913258908  6.7749498073679044 33.8059226391602294
  5.9474881769380001  6.2473306140222569 32.5453006824417201
  7.0735490009694741  5.3749348528022844 32.4709128314057551
  7.6826167155056115  5.1317851744702336 31.2100790327572213
  9.0990552865369381  4.9804161935176783 31.1361513752479162
  9.7463147415681259  5.0939091667303078 29.8757044071898008
 11.0325283405507459  5.7062283289761453 29.8047652893342452
 11.5292628711056260  6.1393821833432147 28.5457742612317027
 12.3063970750510823  7.3331869560290874 28.4746037428500287
 12.5083087319353528  7.9591862390491697 27.2153949394327626
 12.5368553989633078  9.3826723711211226 27.1405966292906733
 12.3739713333674874 10.0125367614666381 25.8773643145775658
  8.3372486102044245 12.5067732494885622 40.3252115335877050
  6.9801648765249338 12.0742544737161719 40.2518735684092803
  6.4334934663740366 11.7125122632208072 38.9912365019701568
  5.5046921353145679 10.6324846347211555 38.9184166653363661
  5.2291218782055582 10.0377013394877945 37.6579872022302027
  5.0039664195163915  8.6311697538090453 37.5845587904923804
  5.0812988543648006  7.9799723560630778 36.3241656805258089
  5.6271782208030894  6.6643104847726446 36.2510590623405307
  6.0346051940338556  6.1501498065903446 34.9905000915465862
  7.1897154711176725  5.3166653300529987 34.9165737562846772
  7.8067162505855929  5.0932219078517900 33.6559681675366633
  9.2273842656504090  4.9905807710617180 33.5826181265870503
  9.8702138089163576  5.1246547244368372 32.3220749535911480
 11.1332955286677890  5.7831337867211978 32.2503250691111703
 11.6121168461679023  6.2337069930084619 30.9908644816892398
 12.3434143485634582  7.4561470952959112 30.9188413395285409
 12.5186809368932330  8.0891691995696604 29.6593559382588836
 12.4992485235600093  9.5133278313262846 29.5852814290318058
 12.3153836460686055 10.1402845032200801 28.3234140529103122
  5.1859003578990226  9.9138542837141301 40.1031973619431881
  5.0095806720888367  8.5003285665209098 40.0298953737055001
  5.1090472445548052  7.8521262164707997 38.7693566302780894
  5.7002702524912818  6.5561657363436092 38.6965079290563594
  6.1249426927099755  6.0563017322458652 37.4359257447779896
  7.3082180705289455  5.2632653179297515 37.3621965911252900
  7.9322970167112450  5.0608179129352484 36.1016583407089939
  9.3556574066304741  5.0074772355548278 36.0285867925121721
  9.9932639173607178  5.1628182412603083 34.7680606000490968
 11.2325453985744446  5.8651426278438237 34.6955383383964531
 11.6941418413795617  6.3321310044853201 33.4357095413717502
 12.3811168574741952  7.5798816974791752 33.3630936705519332
 12.5313483800742311  8.2188870095487427 32.1032834371563212
 12.4632649573050838  9.6415655027347142 32.0296190175145554
 12.2571249155414126 10.2629707749508547 30.7686983427181353
  6.2192941097357997  5.9660636768011814 39.8814592549676448
  7.4292659141612978  5.2144483375615067 39.8078384910142944
  8.0595082025722160  5.0335073122102658 38.5472161029194638
  9.4839134326462524  5.0295485661622479 38.4742481320941678
 10.1153626213291918  5.2069017650150169 37.2137055781739576
 11.3294969866030684  5.9516461549255295 37.1405272390937142
 11.7742436131670960  6.4339531584690421 35.8804151639577782
 12.4174708002056740  7.7047768002890793 35.8074878690355831
 12.5440326889504323  8.3486344318888168 34.5474564305681966
 12.4266847875329915  9.7681209281891199 34.4740347153733424
 12.1980393993934761 10.3822863216678076 33.2135556850482985
 10.2368445036003948  5.2550452368652465 39.6590399201119652
 11.4246136162208334  6.0412625142461902 39.5853739396745112
 11.8519632930641112  6.5386775294096173 38.3251227270423414
 12.4513472901322118  7.8307547268791922 38.2520767516169471
 12.5548244108628531  8.4785901443026752 36.9918947152178816
 12.3884444283822539  9.8931916048992292 36.9185017691445054
 12.1377934467917008 10.4992785759427658 35.6582845426861610
 12.5622022033631371  8.6088948898792133 39.4364680933263543
 12.3466340779318440 10.0168419395152917 39.3630067236900274
 12.0747446134974830 10.6137946236236509 38.1029113334341147
 14.4027004824472780  8.0534528870679445 19.8424126526202791
