Ge Se                                   
    1.000000000000000     
    12.4600964684533349    0.0000002483973462    0.0000012123850938
     0.0000002483973462   12.4601072668803372    0.0000057447434878
     0.0000013755470389    0.0000065178670822   10.9821395114190974
   Ge   Se
    36    36
Direct
  0.1024488252079152  0.0426389746714051  0.1433254226334029
  0.2242072209585402  0.8599536611487295  0.3691319419353150
  0.5671340635667548  0.2048632738496465  0.3667414199709498
  0.5574457609578403  0.5761922499039187  0.3281025327133520
  0.5716570522850262  0.8642992168426247  0.3840744863345833
  0.8992553966340466  0.2197900784401412  0.3808889359020213
  0.9063248870717260  0.5631557316831959  0.3458670837881641
  0.9183050908817805  0.8770673782191167  0.3781398957513673
  0.0953816113903443  0.1640411281041239  0.6649205887785428
  0.0342725333353968  0.4639832862973989  0.6463497581610298
  0.0522485353951723  0.8097288264095255  0.6598937079088500
  0.4177706795874130  0.1305474423629605  0.6370553665306673
  0.4140885340861971  0.4804078417396411  0.6269605533345413
  0.4060028338970056  0.7885745948978524  0.6310948940282231
  0.7215438810398496  0.1523103335417417  0.6366075498255128
  0.7227335638899390  0.4891604873830957  0.6352707495064323
  0.2148708261746677  0.5600795498060904  0.3728188665891494
  0.2188672360060906  0.1724799044562531  0.3294317496819090
  0.7363883067035459  0.8243097717256660  0.6230944470639983
  0.9086180837914597  0.6761694364794977  0.8773418519591303
  0.8851776848899604  0.9723629105902276  0.8964688648973933
  0.0709086587358598  0.3983608777748913  0.1481964062615617
  0.0713310128493134  0.7049725328291530  0.1339793298514564
  0.4043452849647480  0.0373697712686862  0.1370702524297229
  0.4106141595269506  0.3663512584253468  0.1267267914344643
  0.7773141455778543  0.0399781243951978  0.0836501828914464
  0.7063993784894080  0.3562312077808443  0.1334931136083668
  0.4505627520898514  0.7270657611288129  0.1305378189649105
  0.2167097783063667  0.3167376533607538  0.8796926926645412
  0.2433559334163107  0.6460760450315490  0.8743581376863574
  0.2181209748539530  0.9837539336681829  0.8890849015952682
  0.5846168509561807  0.3545610460149646  0.8909712170925062
  0.5814098910274197  0.6726561286293133  0.8756355086845744
  0.5490457013484047  0.9433357114646057  0.8944922218515146
  0.9122007535991159  0.3262217216851155  0.8651819510236294
  0.7526798821396525  0.6791203425505472  0.1491037090709781
  0.9218850009865349  0.0300181017874550  0.6295057823308809
  0.2308126290100034  0.3318937077587378  0.6403225599402091
  0.2424405724476912  0.6627039910019903  0.6541418842014508
  0.5909507970420833  0.0072312779153521  0.6541027047301924
  0.5462835319594035  0.3362524296714255  0.6584060990240417
  0.5417535730790064  0.6701500500251214  0.6245351053179249
  0.9054231618247002  0.3030093924232560  0.6563538071260808
  0.7554051839767908  0.0002568736649167  0.3430408601898023
  0.0753961502420779  0.0091124045892457  0.3113680043540867
  0.0586878504157511  0.3468159451714357  0.3735607043780647
  0.0729523345044996  0.6731484167925288  0.3670343986407190
  0.4013963341452538  0.0043288774644310  0.3403423723640842
  0.4055254897511347  0.3506219965311033  0.3924697739295553
  0.3958941554122575  0.7072034625496713  0.3653400750884828
  0.2443443205836715  0.0121666791196446  0.6141523148220998
  0.9090612588424349  0.6995889610574224  0.5973728203882089
  0.9038037298819859  0.8405566161963591  0.1399947340813625
  0.2133545724424408  0.1799975712778945  0.1410484710034297
  0.9182423631004255  0.2089823811443026  0.1485131685927712
  0.7315554978589276  0.3625290166997033  0.3621929194067377
  0.0653830181652779  0.1796055693474301  0.8579855726277614
  0.0882773021296472  0.4735855892966825  0.8534099658938530
  0.0376015615549576  0.8365769137320953  0.8632933086593013
  0.4029219521935516  0.1934344306731361  0.8642839818130881
  0.3587051439911804  0.4930974803265116  0.8866300113207828
  0.4276098325571525  0.8458639412463995  0.8298933223130263
  0.7706202032404477  0.1437981453804795  0.8636213918440987
  0.7348150708954506  0.5145485683979345  0.8364689161480356
  0.7290306890136549  0.8611094224194744  0.8487493492271980
  0.2332710879969326  0.5008025088859043  0.1492220125215127
  0.2333901462067374  0.8279158136967339  0.1433499612212472
  0.5682691244604072  0.1824982927991314  0.1082779629513055
  0.5563771545948342  0.5208727012914522  0.1564412415881336
  0.5744552940763370  0.8495821782592188  0.1529078361335650
  0.8935610014186466  0.5218404362606393  0.1046150875526592
  0.7486172902280117  0.6866047920576932  0.3777460165617725
 
  0.00000000E+00  0.00000000E+00  0.00000000E+00
  0.00000000E+00  0.00000000E+00  0.00000000E+00
  0.00000000E+00  0.00000000E+00  0.00000000E+00
  0.00000000E+00  0.00000000E+00  0.00000000E+00
  0.00000000E+00  0.00000000E+00  0.00000000E+00
  0.00000000E+00  0.00000000E+00  0.00000000E+00
  0.00000000E+00  0.00000000E+00  0.00000000E+00
  0.00000000E+00  0.00000000E+00  0.00000000E+00
  0.00000000E+00  0.00000000E+00  0.00000000E+00
  0.00000000E+00  0.00000000E+00  0.00000000E+00
  0.00000000E+00  0.00000000E+00  0.00000000E+00
  0.00000000E+00  0.00000000E+00  0.00000000E+00
  0.00000000E+00  0.00000000E+00  0.00000000E+00
  0.00000000E+00  0.00000000E+00  0.00000000E+00
  0.00000000E+00  0.00000000E+00  0.00000000E+00
  0.00000000E+00  0.00000000E+00  0.00000000E+00
  0.00000000E+00  0.00000000E+00  0.00000000E+00
  0.00000000E+00  0.00000000E+00  0.00000000E+00
  0.00000000E+00  0.00000000E+00  0.00000000E+00
  0.00000000E+00  0.00000000E+00  0.00000000E+00
  0.00000000E+00  0.00000000E+00  0.00000000E+00
  0.00000000E+00  0.00000000E+00  0.00000000E+00
  0.00000000E+00  0.00000000E+00  0.00000000E+00
  0.00000000E+00  0.00000000E+00  0.00000000E+00
  0.00000000E+00  0.00000000E+00  0.00000000E+00
  0.00000000E+00  0.00000000E+00  0.00000000E+00
  0.00000000E+00  0.00000000E+00  0.00000000E+00
  0.00000000E+00  0.00000000E+00  0.00000000E+00
  0.00000000E+00  0.00000000E+00  0.00000000E+00
  0.00000000E+00  0.00000000E+00  0.00000000E+00
  0.00000000E+00  0.00000000E+00  0.00000000E+00
  0.00000000E+00  0.00000000E+00  0.00000000E+00
  0.00000000E+00  0.00000000E+00  0.00000000E+00
  0.00000000E+00  0.00000000E+00  0.00000000E+00
  0.00000000E+00  0.00000000E+00  0.00000000E+00
  0.00000000E+00  0.00000000E+00  0.00000000E+00
  0.00000000E+00  0.00000000E+00  0.00000000E+00
  0.00000000E+00  0.00000000E+00  0.00000000E+00
  0.00000000E+00  0.00000000E+00  0.00000000E+00
  0.00000000E+00  0.00000000E+00  0.00000000E+00
  0.00000000E+00  0.00000000E+00  0.00000000E+00
  0.00000000E+00  0.00000000E+00  0.00000000E+00
  0.00000000E+00  0.00000000E+00  0.00000000E+00
  0.00000000E+00  0.00000000E+00  0.00000000E+00
  0.00000000E+00  0.00000000E+00  0.00000000E+00
  0.00000000E+00  0.00000000E+00  0.00000000E+00
  0.00000000E+00  0.00000000E+00  0.00000000E+00
  0.00000000E+00  0.00000000E+00  0.00000000E+00
  0.00000000E+00  0.00000000E+00  0.00000000E+00
  0.00000000E+00  0.00000000E+00  0.00000000E+00
  0.00000000E+00  0.00000000E+00  0.00000000E+00
  0.00000000E+00  0.00000000E+00  0.00000000E+00
  0.00000000E+00  0.00000000E+00  0.00000000E+00
  0.00000000E+00  0.00000000E+00  0.00000000E+00
  0.00000000E+00  0.00000000E+00  0.00000000E+00
  0.00000000E+00  0.00000000E+00  0.00000000E+00
  0.00000000E+00  0.00000000E+00  0.00000000E+00
  0.00000000E+00  0.00000000E+00  0.00000000E+00
  0.00000000E+00  0.00000000E+00  0.00000000E+00
  0.00000000E+00  0.00000000E+00  0.00000000E+00
  0.00000000E+00  0.00000000E+00  0.00000000E+00
  0.00000000E+00  0.00000000E+00  0.00000000E+00
  0.00000000E+00  0.00000000E+00  0.00000000E+00
  0.00000000E+00  0.00000000E+00  0.00000000E+00
  0.00000000E+00  0.00000000E+00  0.00000000E+00
  0.00000000E+00  0.00000000E+00  0.00000000E+00
  0.00000000E+00  0.00000000E+00  0.00000000E+00
  0.00000000E+00  0.00000000E+00  0.00000000E+00
  0.00000000E+00  0.00000000E+00  0.00000000E+00
  0.00000000E+00  0.00000000E+00  0.00000000E+00
  0.00000000E+00  0.00000000E+00  0.00000000E+00
  0.00000000E+00  0.00000000E+00  0.00000000E+00
