Ge Se                                   
    1.000000000000000     
    12.4748482331007864    0.0000043952046068   -0.0000026723668768
     0.0000043961949606   12.4776495964644418    0.0000025423046684
    -0.0000030336652211    0.0000028853687290   11.0011296867338171
   Ge   Se
    36    36
Direct
  0.0851093248191717  0.0262734114115020  0.1314159196389539
  0.2399262816969880  0.8811074328674025  0.3688188668204830
  0.5787245729719217  0.2055033454372506  0.3714822294634459
  0.5493398569424102  0.5235370493011970  0.3897731772261110
  0.5806450639771015  0.9108014398149109  0.3907359304112532
  0.9021338050095480  0.2541988103731683  0.4224539546931325
  0.9304170704551282  0.5393226909344619  0.3632263415967003
  0.9271931279369667  0.8738173468435377  0.3843007901474920
  0.0754060373007164  0.1657334229629228  0.6238167282267426
  0.1002514623530928  0.5065785060772825  0.6400661077342775
  0.1122340059723257  0.8210662164666545  0.6328986941142674
  0.4022471905504403  0.1386913291671945  0.6099339121432195
  0.3967955479805809  0.4783652428949523  0.6399139520118382
  0.3971003203322212  0.8044945988409253  0.6187447177534438
  0.7311947313864167  0.1571746789405850  0.5979446267440522
  0.7903797263593759  0.4964912123515077  0.5896947583703067
  0.2187409490554302  0.5294965678261434  0.3615591555331221
  0.2316578417467312  0.2020351986584501  0.3780758924828405
  0.7363199486881058  0.8235059447735367  0.6132125265384971
  0.8872135811216566  0.6469485381113884  0.8932597129623474
  0.9120514158577251  0.9589625445988545  0.8755431667699014
  0.0902774506845390  0.3915833374838726  0.1014182954854732
  0.0471389758877478  0.6985651023896224  0.1091581925357943
  0.3928550452519843  0.0453585325731964  0.1437335508797020
  0.3887148313348732  0.3485054719708884  0.1107682841879338
  0.7259799156432649  0.0489530804973555  0.1306266077022116
  0.7482983598694801  0.3671913071403168  0.1242467882778513
  0.4522846380562626  0.6974068332347940  0.1727425688584106
  0.2473892682221077  0.3256764406602741  0.8830491591422529
  0.3514904906006251  0.7184094702999460  0.9409368214394718
  0.2383889934676020  0.0050740711589583  0.8668589337648527
  0.5632364947749906  0.3270148444635836  0.8565114857957568
  0.5757760621756276  0.6485953978690020  0.8642953597754897
  0.5965397656738816  0.9865628161621487  0.8791546058670932
  0.9034890046114725  0.2457315995836282  0.9335687783110060
  0.7203361021532402  0.6980716135659151  0.1341093292898989
  0.9002803801894785  0.0092347289877921  0.6267776003143055
  0.2149830452662655  0.3424508285991479  0.6563097754644431
  0.2432447538529914  0.6569159896733510  0.6681283117127919
  0.5434569407072516  0.0160594863778272  0.6207791446621869
  0.5549429087251809  0.3141844492744781  0.6280565902299315
  0.5529515406436900  0.6730236775402076  0.6404556289671817
  0.8896317949909545  0.2931192534743374  0.6334808184116696
  0.7397304692966031  0.0274818102037671  0.3527375908250860
  0.0751457355147096  0.0332602311228385  0.3737422834135913
  0.0747150791470403  0.3477094704739301  0.3361612279744151
  0.0709337074973320  0.6832803073251057  0.3698288969815877
  0.3860706647554082  0.0229877609243800  0.3767280757832268
  0.4055209831977606  0.3636188614481171  0.3464487191203887
  0.4006384133169405  0.6782715699099313  0.4050373754131229
  0.2177548842117076  0.9902138241778999  0.6282743454113842
  0.8890733024632880  0.7104394313622251  0.6404199007201044
  0.9078097887449132  0.8599661856989940  0.1340648542790959
  0.2290565529542192  0.2014125572702667  0.1495433452171611
  0.8855490091792788  0.1682921085584255  0.1375279409016343
  0.7218637073811180  0.3606991418287180  0.3637236997527751
  0.0804655524126545  0.1695702246363595  0.8556241758669429
  0.0457596546470498  0.4997561450579653  0.8702146535606303
  0.0385654838643532  0.8105535318233734  0.8660681503865248
  0.3667158882474766  0.1657083706209335  0.8658359243642764
  0.4200809098863658  0.4786567141241846  0.8757087409483972
  0.4035239815381217  0.8685570771579449  0.8230784262084683
  0.7155810275536965  0.1788322779452471  0.8180426813416801
  0.7036126626601558  0.4897247829291729  0.8156357886091357
  0.7285244766856493  0.8422455644926714  0.8660849753289455
  0.2200530397685014  0.5324006037320501  0.1233428242733012
  0.2413094278374786  0.8753644307854742  0.1443877130507474
  0.5691963394911070  0.1897599738167912  0.1112720960742877
  0.5596605840428310  0.5242125525501464  0.1418624461471865
  0.5790797969435744  0.8489258015091181  0.1482129417726910
  0.9010848978846511  0.5094514810698456  0.1311631909535222
  0.7540487495647170  0.6721449209058932  0.3589634899035516
 
  0.00000000E+00  0.00000000E+00  0.00000000E+00
  0.00000000E+00  0.00000000E+00  0.00000000E+00
  0.00000000E+00  0.00000000E+00  0.00000000E+00
  0.00000000E+00  0.00000000E+00  0.00000000E+00
  0.00000000E+00  0.00000000E+00  0.00000000E+00
  0.00000000E+00  0.00000000E+00  0.00000000E+00
  0.00000000E+00  0.00000000E+00  0.00000000E+00
  0.00000000E+00  0.00000000E+00  0.00000000E+00
  0.00000000E+00  0.00000000E+00  0.00000000E+00
  0.00000000E+00  0.00000000E+00  0.00000000E+00
  0.00000000E+00  0.00000000E+00  0.00000000E+00
  0.00000000E+00  0.00000000E+00  0.00000000E+00
  0.00000000E+00  0.00000000E+00  0.00000000E+00
  0.00000000E+00  0.00000000E+00  0.00000000E+00
  0.00000000E+00  0.00000000E+00  0.00000000E+00
  0.00000000E+00  0.00000000E+00  0.00000000E+00
  0.00000000E+00  0.00000000E+00  0.00000000E+00
  0.00000000E+00  0.00000000E+00  0.00000000E+00
  0.00000000E+00  0.00000000E+00  0.00000000E+00
  0.00000000E+00  0.00000000E+00  0.00000000E+00
  0.00000000E+00  0.00000000E+00  0.00000000E+00
  0.00000000E+00  0.00000000E+00  0.00000000E+00
  0.00000000E+00  0.00000000E+00  0.00000000E+00
  0.00000000E+00  0.00000000E+00  0.00000000E+00
  0.00000000E+00  0.00000000E+00  0.00000000E+00
  0.00000000E+00  0.00000000E+00  0.00000000E+00
  0.00000000E+00  0.00000000E+00  0.00000000E+00
  0.00000000E+00  0.00000000E+00  0.00000000E+00
  0.00000000E+00  0.00000000E+00  0.00000000E+00
  0.00000000E+00  0.00000000E+00  0.00000000E+00
  0.00000000E+00  0.00000000E+00  0.00000000E+00
  0.00000000E+00  0.00000000E+00  0.00000000E+00
  0.00000000E+00  0.00000000E+00  0.00000000E+00
  0.00000000E+00  0.00000000E+00  0.00000000E+00
  0.00000000E+00  0.00000000E+00  0.00000000E+00
  0.00000000E+00  0.00000000E+00  0.00000000E+00
  0.00000000E+00  0.00000000E+00  0.00000000E+00
  0.00000000E+00  0.00000000E+00  0.00000000E+00
  0.00000000E+00  0.00000000E+00  0.00000000E+00
  0.00000000E+00  0.00000000E+00  0.00000000E+00
  0.00000000E+00  0.00000000E+00  0.00000000E+00
  0.00000000E+00  0.00000000E+00  0.00000000E+00
  0.00000000E+00  0.00000000E+00  0.00000000E+00
  0.00000000E+00  0.00000000E+00  0.00000000E+00
  0.00000000E+00  0.00000000E+00  0.00000000E+00
  0.00000000E+00  0.00000000E+00  0.00000000E+00
  0.00000000E+00  0.00000000E+00  0.00000000E+00
  0.00000000E+00  0.00000000E+00  0.00000000E+00
  0.00000000E+00  0.00000000E+00  0.00000000E+00
  0.00000000E+00  0.00000000E+00  0.00000000E+00
  0.00000000E+00  0.00000000E+00  0.00000000E+00
  0.00000000E+00  0.00000000E+00  0.00000000E+00
  0.00000000E+00  0.00000000E+00  0.00000000E+00
  0.00000000E+00  0.00000000E+00  0.00000000E+00
  0.00000000E+00  0.00000000E+00  0.00000000E+00
  0.00000000E+00  0.00000000E+00  0.00000000E+00
  0.00000000E+00  0.00000000E+00  0.00000000E+00
  0.00000000E+00  0.00000000E+00  0.00000000E+00
  0.00000000E+00  0.00000000E+00  0.00000000E+00
  0.00000000E+00  0.00000000E+00  0.00000000E+00
  0.00000000E+00  0.00000000E+00  0.00000000E+00
  0.00000000E+00  0.00000000E+00  0.00000000E+00
  0.00000000E+00  0.00000000E+00  0.00000000E+00
  0.00000000E+00  0.00000000E+00  0.00000000E+00
  0.00000000E+00  0.00000000E+00  0.00000000E+00
  0.00000000E+00  0.00000000E+00  0.00000000E+00
  0.00000000E+00  0.00000000E+00  0.00000000E+00
  0.00000000E+00  0.00000000E+00  0.00000000E+00
  0.00000000E+00  0.00000000E+00  0.00000000E+00
  0.00000000E+00  0.00000000E+00  0.00000000E+00
  0.00000000E+00  0.00000000E+00  0.00000000E+00
  0.00000000E+00  0.00000000E+00  0.00000000E+00
