Ge Se                                   
    1.000000000000000     
     4.5499999999999989    0.0000000000000000    0.0000000000000000
     0.0000000000000000    4.5499999999999989    0.0000000000000000
     0.0000000000000000    0.0000000000000000   11.1422209999999993
   Ge   Se
     4     4
Selective dynamics
Direct
  0.0000000000000000  0.2500000000000000  0.1460177262672886   T   T   T
  0.5000000000000000  0.7500000000000000  0.3539822737327114   T   T   T
  0.0000000000000000  0.7500000000000000  0.8539822737327114   T   T   T
  0.5000000000000000  0.2500000000000000  0.6460177262672886   T   T   T
  0.0000000000000000  0.2500000000000000  0.3643416135641573   T   T   T
  0.5000000000000000  0.7500000000000000  0.1356583864358427   T   T   T
  0.0000000000000000  0.7500000000000000  0.6356583864358427   T   T   T
  0.5000000000000000  0.2500000000000000  0.8643416135641573   T   T   T
 
  0.00000000E+00  0.00000000E+00  0.00000000E+00
  0.00000000E+00  0.00000000E+00  0.00000000E+00
  0.00000000E+00  0.00000000E+00  0.00000000E+00
  0.00000000E+00  0.00000000E+00  0.00000000E+00
  0.00000000E+00  0.00000000E+00  0.00000000E+00
  0.00000000E+00  0.00000000E+00  0.00000000E+00
  0.00000000E+00  0.00000000E+00  0.00000000E+00
  0.00000000E+00  0.00000000E+00  0.00000000E+00
