Ge Se
 1.0000000000000000
     4.1500000000000004    0.0000000000000000    0.0000000000000000
     0.0000000000000000    4.3499999999999996    0.0000000000000000
     0.0000000000000000    0.0000000000000000   11.1422209999999993
 Ge  Se 
   4   4
Selective dynamics
Cartesian
  1.0375000000000001  0.4498302748386582  1.4465286241994739   T   T   T
  3.1125000000000003  2.6248302748386583  4.1245818758005264   T   T   T
  3.1125000000000003  3.9001697251613403  9.6956923758005225   T   T   T
  1.0375000000000001  1.7251697251613425  7.0176391241994711   T   T   T
  1.0375000000000001 -0.0540653731066498  3.9610568634783894   T   T   T
  3.1125000000000003  2.1209346268933498  1.6100536365216118   T   T   T
  3.1125000000000003  4.4040653731066497  7.1811641365216108   T   T   T
  1.0375000000000001  2.2290653731066494  9.5321673634783863   T   T   T
