 C  S  O                                
    1.000000000000000     
    32.3722991942999982    0.0000000000000000    0.0000000000000000
     0.0000000000000000   19.9214134216000005    0.0000000000000000
     0.0000000000000000    0.0000000000000000   40.4480476378999967
   C    S    O 
   364     1     3
Selective dynamics
Direct
  0.3709927326737782  0.5383239205776538  0.0024688201285946   T   T   T
  0.3687884462105456  0.5438463069968092  0.0629407374666844   T   T   T
  0.3380358227396011  0.5949887966894341  0.0611193503129892   T   T   T
  0.3204881413554727  0.6113731891008016  0.0299471706850740   T   T   T
  0.2778023961551213  0.6287096639672808  0.0281236452351888   T   T   T
  0.3664100772283200  0.5492543250680132  0.1234059595767307   T   T   T
  0.3346009426735507  0.5986577501724896  0.1215704490340253   T   T   T
  0.3167391802311954  0.6140382923870292  0.0903946616995347   T   T   T
  0.2737105459419029  0.6289679853328025  0.0885524849418696   T   T   T
  0.2535244798057877  0.6268010818975707  0.0573930597625988   T   T   T
  0.2120710155391806  0.6028404143703595  0.0555764815365346   T   T   T
  0.1955717971706080  0.5837663030498799  0.0244249988268574   T   T   T
  0.1680015103719741  0.5280441651731022  0.0226157972391871   T   T   T
  0.3638471055838090  0.5545399570143216  0.1838631281534039   T   T   T
  0.3310358102039545  0.6021743390770594  0.1820125414884336   T   T   T
  0.3128907789237811  0.6165338267017210  0.1508315582281483   T   T   T
  0.2695747560768404  0.6290590279036112  0.1489769323080193   T   T   T
  0.2494684259848782  0.6257250329653963  0.1178135425551720   T   T   T
  0.2085534799053874  0.5994418445855014  0.1159960496575956   T   T   T
  0.1924898666639274  0.5794421535790230  0.0848417144227193   T   T   T
  0.1661270581654588  0.5222021465460940  0.0830277536828678   T   T   T
  0.1588894579021759  0.4914579898254677  0.0518842117761000   T   T   T
  0.1549372887247199  0.4202497201268889  0.0500715535617510   T   T   T
  0.1587134406920813  0.3878830363364587  0.0189298087648384   T   T   T
  0.1783687157143461  0.3239162836487799  0.0171259285219444   T   T   T
  0.3611341288127500  0.5597175299972628  0.2443076514305603   T   T   T
  0.3273748945248029  0.6055636341100951  0.2424438507514532   T   T   T
  0.3089512067960462  0.6188891008520662  0.2112594396887222   T   T   T
  0.2654010723525273  0.6290107335985486  0.2093994440676058   T   T   T
  0.2453957714104762  0.6244972864670923  0.1782311118692466   T   T   T
  0.2050722045928657  0.5958959973942719  0.1764169941295510   T   T   T
  0.1894651201952374  0.5749729989785650  0.1452620357206436   T   T   T
  0.1643508515400022  0.5162660559653198  0.1434469176128586   T   T   T
  0.1577923737147575  0.4851255095287119  0.1122991703571071   T   T   T
  0.1553582633475296  0.4137366162607356  0.1104911730234641   T   T   T
  0.1598323988916104  0.3816051442095839  0.0793442138667404   T   T   T
  0.1808278230908404  0.3187731637986869  0.0775378601632919   T   T   T
  0.1950181004113474  0.2952182168668632  0.0464000422214366   T   T   T
  0.2331846317577241  0.2596434220837079  0.0445869573423071   T   T   T
  0.2528661971333153  0.2516720281349509  0.0134432654618888   T   T   T
  0.2968453709417753  0.2539138868593802  0.0116439989701478   T   T   T
  0.3701134997610221  0.5382304406235060  0.3359196726848694   T   T   T
  0.3583013609446646  0.5648020937976890  0.3047375794935052   T   T   T
  0.3236555486959690  0.6088622728994204  0.3028667117452535   T   T   T
  0.3049612263777379  0.6211263558451035  0.2716828196890377   T   T   T
  0.2612209894567539  0.6288234202960707  0.2698249984335734   T   T   T
  0.2413258850352912  0.6231289283225911  0.2386545526932955   T   T   T
  0.2016539267379558  0.5922127919152849  0.2368445476174640   T   T   T
  0.1865264618354349  0.5703616912365539  0.2056891080391478   T   T   T
  0.1627187322001430  0.5102346410305271  0.2038763382322313   T   T   T
  0.1568287612855477  0.4787388085461802  0.1727251977990203   T   T   T
  0.1559186411614580  0.4072548500851313  0.1709217847005887   T   T   T
  0.1610588701131958  0.3753937648451027  0.1397692514209239   T   T   T
  0.1833648503909438  0.3137634125030259  0.1379561435008815   T   T   T
  0.1980603771743587  0.2910248302624646  0.1068171325076160   T   T   T
  0.2369570591883967  0.2576035881137436  0.1050110489933669   T   T   T
  0.2568165522886657  0.2507492258180560  0.0738721394030976   T   T   T
  0.3007231747005390  0.2554568180410386  0.0720843765663987   T   T   T
  0.3198379703343436  0.2665048518839526  0.0409362883997187   T   T   T
  0.3557092854203387  0.3079165181016016  0.0391280590924134   T   T   T
  0.3684167292068189  0.3335753956578617  0.0079619251097481   T   T   T
  0.3855986762999649  0.3994024613612022  0.0061584506520037   T   T   T
  0.3677372696080740  0.5438368917941658  0.3963205338152830   T   T   T
  0.3553859975476247  0.5697829974153744  0.3651521325498345   T   T   T
  0.3198877322165700  0.6120204374444524  0.3632897958712618   T   T   T
  0.3009451808560273  0.6232541940728503  0.3321068072851591   T   T   T
  0.2570658274854913  0.6284862697819383  0.3302610710355050   T   T   T
  0.2373004790001688  0.6215984375175786  0.2990895440379385   T   T   T
  0.1983467869412101  0.5883556400336026  0.2972825905855559   T   T   T
  0.1836997778096219  0.5656229036938673  0.2661283213723379   T   T   T
  0.1612462981389710  0.5041292842108641  0.2643205754490356   T   T   T
  0.1560259358615162  0.4723140305186279  0.2331653422568472   T   T   T
  0.1566422038586914  0.4008203985556753  0.2313632591221861   T   T   T
  0.1624322935290001  0.3692631016930283  0.2002061576027400   T   T   T
  0.1860000351498311  0.3088841249887769  0.1983844390066612   T   T   T
  0.2011573422248790  0.2869749484203066  0.1672394646688395   T   T   T
  0.2407264152363625  0.2557106717698293  0.1654394937380756   T   T   T
  0.2607391148349103  0.2500010190358071  0.1343036303032827   T   T   T
  0.3045184032522849  0.2571675065490857  0.1325229711011554   T   T   T
  0.3234145098214859  0.2693020316656041  0.1013867567592793   T   T   T
  0.3583846999781788  0.3127055577263731  0.0995944719802268   T   T   T
  0.3705630445073102  0.3390711946569298  0.0684354240944851   T   T   T
  0.3863387757801652  0.4058218519514319  0.0666426780468563   T   T   T
  0.3881900007251546  0.4386083910858737  0.0354669025545305   T   T   T
  0.3800267940931866  0.5088693984609487  0.0336434030371175   T   T   T
  0.3652744589489658  0.5492228786403855  0.4567031092350679   T   T   T
  0.3524144275848537  0.5745845361699973  0.4255501717691070   T   T   T
  0.3160993074805191  0.6149281343673761  0.4237150198147436   T   T   T
  0.2969096710743867  0.6251763073579945  0.3925391788087123   T   T   T
  0.2529442196276180  0.6279269616541251  0.3907114498322584   T   T   T
  0.2333297675349821  0.6198883225818942  0.3595376480817601   T   T   T
  0.1951583533823257  0.5843154314516529  0.3577309258705711   T   T   T
  0.1810274617291903  0.5607082334918988  0.3265766368511748   T   T   T
  0.1599676228737857  0.4979281828705907  0.3247742647153152   T   T   T
  0.1554136156000385  0.4658406949759072  0.2936139888712149   T   T   T
  0.1575330458523727  0.3944213914047411  0.2918112343360664   T   T   T
  0.1639503821506433  0.3631994340868360  0.2606477444548844   T   T   T
  0.1887257489711131  0.3041106012818947  0.2588184557231677   T   T   T
  0.2043253862902359  0.2830472406511493  0.2276673570656655   T   T   T
  0.2445132445189706  0.2539367042462518  0.2258702548686634   T   T   T
  0.2646433455299373  0.2493849918578309  0.1947347828945133   T   T   T
  0.3082439398899364  0.2590189358188182  0.1929598179959760   T   T   T
  0.3268808106066319  0.2722635164526503  0.1618334953828053   T   T   T
  0.3608951208952131  0.3176332713383002  0.1600599733862648   T   T   T
  0.3725344330976311  0.3446797915723201  0.1289090408577852   T   T   T
  0.3868677415879121  0.4122839667523857  0.1271214343582352   T   T   T
  0.3880604132009084  0.4451547616126765  0.0959499354761193   T   T   T
  0.3784150292473842  0.5149189073073462  0.0941191204671793   T   T   T
  0.3629131596368664  0.5545477442450384  0.5171421619753808   T   T   T
  0.3493768661158129  0.5790348865023450  0.4859855040472246   T   T   T
  0.3123024584383955  0.6174574782490927  0.4841635441275928   T   T   T
  0.2928887303629448  0.6267055046576715  0.4529875366184259   T   T   T
  0.2488931166780763  0.6269878111391903  0.4511771035562661   T   T   T
  0.2294431942536964  0.6178977789971482  0.4200014146073702   T   T   T
  0.1921045415534195  0.5800623520014190  0.4181906833930740   T   T   T
  0.1785031084984455  0.5556407513740904  0.3870324933973217   T   T   T
  0.1588488893892472  0.4916643133072263  0.3852329505942317   T   T   T
  0.1549815988632310  0.4593337255534858  0.3540712304972707   T   T   T
  0.1585853892458459  0.3880703018014099  0.3522647442567630   T   T   T
  0.1656134108819098  0.3572115499756940  0.3210965881248306   T   T   T
  0.1915470593930386  0.2994467816463253  0.3192629530527017   T   T   T
  0.2075522027318316  0.2792355129793466  0.2881035835214600   T   T   T
  0.2483130672393091  0.2522996117414329  0.2863064335586858   T   T   T
  0.2685347586408805  0.2489006532160051  0.2551711720959617   T   T   T
  0.3119008905397418  0.2610214354848733  0.2533965519008732   T   T   T
  0.3302505217263053  0.2753625540886513  0.2222774317201283   T   T   T
  0.3632417455581276  0.3226871881064046  0.2205205929103712   T   T   T
  0.3743106163392374  0.3503951965466992  0.1893790939076580   T   T   T
  0.3871745731330992  0.4187782835695151  0.1875929975284474   T   T   T
  0.3877065875963023  0.4516947825761085  0.1564257407732024   T   T   T
  0.3765942484230989  0.5208777660481604  0.1545903347018915   T   T   T
  0.3606109091284166  0.5597724087051243  0.5775330616616118   T   T   T
  0.3465130460683194  0.5835767693522652  0.5464268907231308   T   T   T
  0.3085495743174478  0.6197114391070423  0.5446210759099137   T   T   T
  0.2889014013330320  0.6278793077993299  0.5134688078646682   T   T   T
  0.2449238400953713  0.6256613443437399  0.5116631285637606   T   T   T
  0.2256672908759432  0.6155070452083524  0.4804828767026239   T   T   T
  0.1891691133824294  0.5755712612925314  0.4786609505353140   T   T   T
  0.1761134351041058  0.5504035344992012  0.4474931054971679   T   T   T
  0.1578757592920556  0.4853338825951742  0.4456918985076673   T   T   T
  0.1547079797550757  0.4528029624861031  0.4145288262154848   T   T   T
  0.1597936224495372  0.3817800591773944  0.4127181130667318   T   T   T
  0.1674272180141398  0.3513057781680752  0.3815495636782734   T   T   T
  0.1944777326130088  0.2949096795253579  0.3797187538118599   T   T   T
  0.2108636917362096  0.2755544428048464  0.3485488518367107   T   T   T
  0.2521469408228706  0.2508205218509142  0.3467484764459211   T   T   T
  0.2724264493454453  0.2485730409838362  0.3156109273766919   T   T   T
  0.3155012182536696  0.2631869594623827  0.3138339550706656   T   T   T
  0.3335200966928534  0.2786264451747515  0.2827185761724468   T   T   T
  0.3654205424021028  0.3278831467597421  0.2809704485129526   T   T   T
  0.3758973493623893  0.3562169682573946  0.2498402280670640   T   T   T
  0.3872651691160117  0.4252935664302874  0.2480507670455523   T   T   T
  0.3871347527504331  0.4582160934167248  0.2168891585689517   T   T   T
  0.3745870772981146  0.5267455125414202  0.2150507386882960   T   T   T
  0.3582157835131236  0.5646990830965506  0.6379406015282614   T   T   T
  0.3435679763838526  0.5877046119444213  0.6068349343882805   T   T   T
  0.3048099686185138  0.6215627772839809  0.6050624157641002   T   T   T
  0.2849550911409746  0.6287004411278364  0.5739262079402493   T   T   T
  0.2410512466785692  0.6239505998912362  0.5721300345571072   T   T   T
  0.2219719929772201  0.6128314791704076  0.5409638302157226   T   T   T
  0.1863443132412211  0.5708635177449563  0.5391329188834953   T   T   T
  0.1738309353913172  0.5449978381663604  0.5079602397242283   T   T   T
  0.1569824222284786  0.4789453976929200  0.5061520054649141   T   T   T
  0.1545428258469339  0.4462634878191184  0.4749864531716530   T   T   T
  0.1610924157467275  0.3755579018632125  0.4731714954027956   T   T   T
  0.1693664798921019  0.3455116255768347  0.4420062747055062   T   T   T
  0.1975248465056023  0.2905685144325493  0.4401863645413960   T   T   T
  0.2142640247427360  0.2720459448614222  0.4090095916540931   T   T   T
  0.2560287931589848  0.2495259233178904  0.4072017488546864   T   T   T
  0.2763285692836298  0.2484223422909237  0.3760568776237536   T   T   T
  0.3190552319796495  0.2655429356441837  0.3742734942835283   T   T   T
  0.3367124884450666  0.2820534026780913  0.3431556372738301   T   T   T
  0.3674706424369731  0.3331956751181245  0.3414061876667835   T   T   T
  0.3773011835153453  0.3621456218054578  0.3102858127218360   T   T   T
  0.3871554548013487  0.4318279232817300  0.3084888345311692   T   T   T
  0.3863555593618060  0.4647213571887436  0.2773350069454750   T   T   T
  0.3724164743908863  0.5325320437539369  0.2754947975317973   T   T   T
  0.3557472299156307  0.5694789450345958  0.6983679752511059   T   T   T
  0.3405680698637024  0.5915636884692042  0.6672573623331547   T   T   T
  0.3010717617985799  0.6230861299603676  0.6655028128415017   T   T   T
  0.2810537967952262  0.6290887431643534  0.6343764567015860   T   T   T
  0.2372741615029202  0.6218741578453120  0.6325872173041263   T   T   T
  0.2184111934567737  0.6097713858917836  0.6014282988141293   T   T   T
  0.1836383366397197  0.5659489728106426  0.5995976708595646   T   T   T
  0.1716415568058201  0.5394520202693969  0.5684220149764763   T   T   T
  0.1561623985982036  0.4725232683759581  0.5666086141274299   T   T   T
  0.1544325137735031  0.4397205696421548  0.5354441332234031   T   T   T
  0.1624748536434598  0.3694249566348729  0.5336274887948962   T   T   T
  0.1713887187085218  0.3398421199978732  0.5024676052653599   T   T   T
  0.2006809712748324  0.2864758176727345  0.5006618603061478   T   T   T
  0.2177765501077927  0.2688216174022907  0.4694869025983732   T   T   T
  0.2599835242683046  0.2485811011140087  0.4676741861164614   T   T   T
  0.2802602891776586  0.2485255291080380  0.4365093884605263   T   T   T
  0.3225730799447865  0.2681367518875689  0.4347108211025008   T   T   T
  0.3398328406346564  0.2856588578330126  0.4035897629089408   T   T   T
  0.3694089394198284  0.3386300021448562  0.4018261816969491   T   T   T
  0.3785732257826560  0.3681573286134066  0.3707082470672939   T   T   T
  0.3868782495539705  0.4383585696266889  0.3688975624264455   T   T   T
  0.3854063434213164  0.4711957697162884  0.3377562895533366   T   T   T
  0.3531634347704695  0.5741360864631715  0.7588102085510688   T   T   T
  0.3375046439903718  0.5952767875338383  0.7276905470456834   T   T   T
  0.2973232477707357  0.6244304055911712  0.7259405540813378   T   T   T
  0.2771774438552641  0.6292410161846327  0.6948181224862684   T   T   T
  0.2335778978944751  0.6195952699104446  0.6930294532066104   T   T   T
  0.2149502885939125  0.6064779499934481  0.6618817883757072   T   T   T
  0.1810702928334220  0.5608565853714935  0.6600571560761035   T   T   T
  0.1695840231988169  0.5337605701168280  0.6288830136130495   T   T   T
  0.1554508579883801  0.4660492946416789  0.6270651898628544   T   T   T
  0.1544122311708504  0.4331741485970582  0.5958997647317462   T   T   T
  0.1639488230595725  0.3633716249705684  0.5940843947670225   T   T   T
  0.1735152777353010  0.3343169559943744  0.5629283591903493   T   T   T
  0.2039545008053061  0.2826819342713888  0.5611345040798706   T   T   T
  0.2214044870148998  0.2659512690127365  0.5299651281317904   T   T   T
  0.2640204341779617  0.2481296990598898  0.5281464798265935   T   T   T
  0.2842480992107673  0.2490317556913723  0.4969743143848792   T   T   T
  0.3261220649275815  0.2710342497842257  0.4951571483929726   T   T   T
  0.3429031911473675  0.2895169173964003  0.4640191048698223   T   T   T
  0.3711971122967596  0.3442651218256375  0.4622332914315674   T   T   T
  0.3796789985805988  0.3742731662990280  0.4310987537777908   T   T   T
  0.3864377967542416  0.4448827631847548  0.4292499976889020   T   T   T
  0.3843024283861500  0.4776257804532398  0.3981415728887098   T   T   T
  0.3504287384463496  0.5786396371128427  0.8192629211211311   T   T   T
  0.3343342662311353  0.5988450938964479  0.7881311145015956   T   T   T
  0.2935347340884703  0.6256264766805016  0.7863757180537614   T   T   T
  0.2733052558054735  0.6292400896268555  0.7552529288713303   T   T   T
  0.2299364216069820  0.6171620387257827  0.7534628658534712   T   T   T
  0.2115880101651002  0.6030202106310566  0.7223234836204296   T   T   T
  0.1786329774646695  0.5556436973634202  0.7205089518675373   T   T   T
  0.1676690407235059  0.5279558342672462  0.6893418389319279   T   T   T
  0.1548917742075759  0.4595369061564422  0.6875207557370850   T   T   T
  0.1545167621650439  0.4266258526762854  0.6563565636224583   T   T   T
  0.1655553729535941  0.3574121460824032  0.6545424605491139   T   T   T
  0.1757528232715052  0.3289353879460621  0.6233872384543022   T   T   T
  0.2073437932532540  0.2791591019425142  0.6215981268086600   T   T   T
  0.2251393488453099  0.2634370463557330  0.5904365418473028   T   T   T
  0.2681250908375000  0.2481510292391817  0.5886100204672975   T   T   T
  0.2882962678888641  0.2501362492431252  0.5574345245503995   T   T   T
  0.3296647772200550  0.2744735182930747  0.5555970022084585   T   T   T
  0.3460096085577513  0.2937163824649407  0.5244187022177804   T   T   T
  0.3731193711987049  0.3500080236449464  0.5225893370297328   T   T   T
  0.3807971741573299  0.3803364206886810  0.4914804302709802   T   T   T
  0.3865976426216861  0.4514558042298475  0.4896617143732759   T   T   T
  0.3831525962030392  0.4840192347037597  0.4584641270387124   T   T   T
  0.3475527274875004  0.5829967579450449  0.8797252775772705   T   T   T
  0.3310589630931345  0.6022598684452034  0.8485792693734557   T   T   T
  0.2897013523814277  0.6266783247707151  0.8468123727604588   T   T   T
  0.2694219375068718  0.6290990096283749  0.8156841997354977   T   T   T
  0.2263344579274943  0.6145993279850972  0.8138889977587689   T   T   T
  0.2082928105829111  0.5994302808928446  0.7827546005579892   T   T   T
  0.1763105687547303  0.5503231570176614  0.7809496179558260   T   T   T
  0.1659009413008152  0.5220606850810287  0.7497916013463309   T   T   T
  0.1545208849963377  0.4529948321610043  0.7479706461202116   T   T   T
  0.1548036421827143  0.4200845822160567  0.7168094691617752   T   T   T
  0.1673374511021705  0.3515459212143723  0.7149982443685780   T   T   T
  0.1781440012933634  0.3236968713966983  0.6838407867039513   T   T   T
  0.2108557266210307  0.2758711036229357  0.6820469893981017   T   T   T
  0.2289824484715627  0.2612348140085937  0.6508886322097854   T   T   T
  0.2722757319129768  0.2485096498768561  0.6490526143314411   T   T   T
  0.2923688592662610  0.2516202853688349  0.6178730551868941   T   T   T
  0.3332111208033984  0.2782033868649599  0.6160198278330461   T   T   T
  0.3491438547458111  0.2982637850091485  0.5848357561184419   T   T   T
  0.3751879030109432  0.3559074808832844  0.5829840763927846   T   T   T
  0.3821167964749388  0.3867548904650421  0.5518483963623400   T   T   T
  0.3859014430108540  0.4579596885813529  0.5500734442121646   T   T   T
  0.3821562557739859  0.4903809639430459  0.5189824426825678   T   T   T
  0.3445218334231387  0.5871712709079375  0.9401913264515971   T   T   T
  0.3276540130425734  0.6054926191318684  0.9090342359300463   T   T   T
  0.2858004998891545  0.6275625148231785  0.9072496063092877   T   T   T
  0.2655060611344894  0.6288144690017405  0.8761125513875589   T   T   T
  0.2227548458008138  0.6119090950004260  0.8743110996345528   T   T   T
  0.2050580587483000  0.5957244655190800  0.8431767773801018   T   T   T
  0.1741049642162640  0.5449064049683588  0.8413778271476068   T   T   T
  0.1642718052576495  0.5160823450390072  0.8102308874955341   T   T   T
  0.1543271072118531  0.4464334076996290  0.8084091652896684   T   T   T
  0.1552816902801276  0.4135531149200090  0.7772536014724900   T   T   T
  0.1692885283764674  0.3457726462009585  0.7754458630934308   T   T   T
  0.1806884172715454  0.3185846566360887  0.7442863543581792   T   T   T
  0.2144557407964801  0.2727452216325935  0.7424811386897364   T   T   T
  0.2328974149941539  0.2592350222557459  0.7113235540910073   T   T   T
  0.2764466885849276  0.2490563180936789  0.7094818070427306   T   T   T
  0.2964541805292902  0.2533325486598008  0.6783039367305604   T   T   T
  0.3367346589773026  0.2820894897313485  0.6764467654380566   T   T   T
  0.3522354341654002  0.3030056590197956  0.6452560622708110   T   T   T
  0.3771461397776824  0.3619364960047932  0.6433910262788384   T   T   T
  0.3834779379655436  0.3931152084346555  0.6122285947780400   T   T   T
  0.3858221731260413  0.4644965690702670  0.6104249959162378   T   T   T
  0.3812603420656219  0.4966561258124301  0.5793136066535477   T   T   T
  0.3413464596497696  0.5911626019342272  0.0006582958507378   T   T   T
  0.3241321043658549  0.6085364597225790  0.9694919675462739   T   T   T
  0.2818361609943252  0.6282500847276257  0.9676873050072355   T   T   T
  0.2615528718683750  0.6283595784296134  0.9365419193529811   T   T   T
  0.2191838709773615  0.6090738740059101  0.9347334249090029   T   T   T
  0.2018629543267176  0.5918947994923940  0.9035951950707772   T   T   T
  0.1719982969636839  0.5393876191027572  0.9017968400911421   T   T   T
  0.1627838433899867  0.5100299868939853  0.8706564735129640   T   T   T
  0.1543063967185455  0.4398750329606034  0.8688350930920872   T   T   T
  0.1559420782490073  0.4070578940916372  0.8376872510862533   T   T   T
  0.1713979438733522  0.3401188361083025  0.8358808615745510   T   T   T
  0.1833737689823018  0.3136033827955962  0.8047235902550390   T   T   T
  0.2181405162626762  0.2697805420787460  0.8029084909119565   T   T   T
  0.2368653304715464  0.2573963643658220  0.7717490860069366   T   T   T
  0.2806085798469217  0.2497322587418686  0.7699080537570505   T   T   T
  0.3005107821930365  0.2551898025430241  0.7387303010921763   T   T   T
  0.3401821820107790  0.2860934082400886  0.7368728459017554   T   T   T
  0.3552656578088983  0.3078386736783578  0.7056841250026490   T   T   T
  0.3790049968466014  0.3680322301509382  0.7038154402904010   T   T   T
  0.3847240667015183  0.3995238701429888  0.6726428250658866   T   T   T
  0.3855908803952553  0.4710076453608993  0.6708370151285715   T   T   T
  0.3803283176734473  0.5028768534637119  0.6397076253814813   T   T   T
  0.2575603457909545  0.6276862518061217  0.9969692328397100   T   T   T
  0.2156255835102875  0.6060452706425080  0.9951558607441758   T   T   T
  0.1987041444138683  0.5879118726543616  0.9640106892015653   T   T   T
  0.1699682414833422  0.5337676900769329  0.9622079745064018   T   T   T
  0.1613994838674589  0.5039074271708588  0.9310706114833909   T   T   T
  0.1544172599848348  0.4333199278856631  0.9292510821824458   T   T   T
  0.1567621646776463  0.4006154487483689  0.8981078088047675   T   T   T
  0.1736413709384265  0.3345913379284353  0.8963038836040199   T   T   T
  0.1861862272678795  0.3087799693955809  0.8651512160035203   T   T   T
  0.2218777967741651  0.2669736124623001  0.8633288273609550   T   T   T
  0.2408724810549273  0.2557082964141832  0.8321695903133584   T   T   T
  0.2847525959988352  0.2505300335389062  0.8303351969198172   T   T   T
  0.3045320416671801  0.2571424356944228  0.7991583896400979   T   T   T
  0.3435466587413230  0.2901867926657466  0.7973067882557634   T   T   T
  0.3581870268604087  0.3127601399081041  0.7661219273826527   T   T   T
  0.3807018160186580  0.3741881535412252  0.7642598838918775   T   T   T
  0.3858014427635879  0.4059795333912146  0.7330831952687399   T   T   T
  0.3851812304379706  0.4774769173515884  0.7312799699626510   T   T   T
  0.3792514142256737  0.5090267495200336  0.7001362106609634   T   T   T
  0.1601040004666512  0.4977144521253610  0.9914769454342468   T   T   T
  0.1546297083191428  0.4267740914680092  0.9896599280637810   T   T   T
  0.1576919653638992  0.3942151581128628  0.9585194111432648   T   T   T
  0.1759690540347276  0.3291815600918648  0.9567168572687395   T   T   T
  0.1890768786030637  0.3040918243278962  0.9255700509179116   T   T   T
  0.2256423389378382  0.2643243032593516  0.9237460517769689   T   T   T
  0.2448842999053656  0.2541613685849845  0.8925909525165564   T   T   T
  0.2888509705317534  0.2514655549145661  0.8907667179563228   T   T   T
  0.3084928059250833  0.2592166506809944  0.8595938313323358   T   T   T
  0.3467973487577676  0.2943976966276773  0.8577510428915158   T   T   T
  0.3609786906454500  0.3177877276355530  0.8265694849191887   T   T   T
  0.3822166862086741  0.3804081094376180  0.8247207774189343   T   T   T
  0.3866878218979919  0.4124696697834658  0.7935410848836356   T   T   T
  0.3845626643736296  0.4838918285444858  0.7917378169192957   T   T   T
  0.3779951192477466  0.5151003761422609  0.7605869322301435   T   T   T
  0.1920283574822235  0.2995762721732323  0.9859858940725095   T   T   T
  0.2294165734637179  0.2618822203391099  0.9841657405992885   T   T   T
  0.2488858238915038  0.2528046138569108  0.9530157176286416   T   T   T
  0.2928863509003385  0.2525810051510310  0.9512047073610255   T   T   T
  0.3123715733680374  0.2614586328569769  0.9200381914190383   T   T   T
  0.3499090761109971  0.2987605670822992  0.9182040509751970   T   T   T
  0.3636168135187927  0.3229305708041277  0.8870270746386971   T   T   T
  0.3835300054834601  0.3866900704933965  0.8851940283447928   T   T   T
  0.3873623757906009  0.4189888125039327  0.8540125091853298   T   T   T
  0.3837223536075789  0.4902490200786207  0.8522081663510827   T   T   T
  0.3765290850986268  0.5210659605592365  0.8210484437351858   T   T   T
  0.3161640623532163  0.2638689652375104  0.9804867206323746   T   T   T
  0.3528911767001460  0.3032545649615568  0.9786639534685760   T   T   T
  0.3660991656553251  0.3281917124110010  0.9474924095978787   T   T   T
  0.3846626111262076  0.3930183470201264  0.9456746838441197   T   T   T
  0.3878361051353115  0.4255209914732691  0.9144936329312908   T   T   T
  0.3826895964915914  0.4965369227798628  0.9126844255183879   T   T   T
  0.3748733914908732  0.5269401868053958  0.8815194745592568   T   T   T
  0.3881146051847643  0.4320620112715409  0.9749793579444401   T   T   T
  0.3814545490270819  0.5027432750242764  0.9731631632045278   T   T   T
  0.3730271498766564  0.5326934249292417  0.9419941235137804   T   T   T
  0.4800288119538284  0.4553741764716677  0.4899068229011923   T   T   T
  0.4807476032619342  0.3832302638466201  0.4898303930935709   T   T   T
  0.4815804704720897  0.4912445185166994  0.5207133006425956   T   T   T
  0.4817835870897750  0.4915491235087834  0.4591943470246805   T   T   T
 
  0.00000000E+00  0.00000000E+00  0.00000000E+00
  0.00000000E+00  0.00000000E+00  0.00000000E+00
  0.00000000E+00  0.00000000E+00  0.00000000E+00
  0.00000000E+00  0.00000000E+00  0.00000000E+00
  0.00000000E+00  0.00000000E+00  0.00000000E+00
  0.00000000E+00  0.00000000E+00  0.00000000E+00
  0.00000000E+00  0.00000000E+00  0.00000000E+00
  0.00000000E+00  0.00000000E+00  0.00000000E+00
  0.00000000E+00  0.00000000E+00  0.00000000E+00
  0.00000000E+00  0.00000000E+00  0.00000000E+00
  0.00000000E+00  0.00000000E+00  0.00000000E+00
  0.00000000E+00  0.00000000E+00  0.00000000E+00
  0.00000000E+00  0.00000000E+00  0.00000000E+00
  0.00000000E+00  0.00000000E+00  0.00000000E+00
  0.00000000E+00  0.00000000E+00  0.00000000E+00
  0.00000000E+00  0.00000000E+00  0.00000000E+00
  0.00000000E+00  0.00000000E+00  0.00000000E+00
  0.00000000E+00  0.00000000E+00  0.00000000E+00
  0.00000000E+00  0.00000000E+00  0.00000000E+00
  0.00000000E+00  0.00000000E+00  0.00000000E+00
  0.00000000E+00  0.00000000E+00  0.00000000E+00
  0.00000000E+00  0.00000000E+00  0.00000000E+00
  0.00000000E+00  0.00000000E+00  0.00000000E+00
  0.00000000E+00  0.00000000E+00  0.00000000E+00
  0.00000000E+00  0.00000000E+00  0.00000000E+00
  0.00000000E+00  0.00000000E+00  0.00000000E+00
  0.00000000E+00  0.00000000E+00  0.00000000E+00
  0.00000000E+00  0.00000000E+00  0.00000000E+00
  0.00000000E+00  0.00000000E+00  0.00000000E+00
  0.00000000E+00  0.00000000E+00  0.00000000E+00
  0.00000000E+00  0.00000000E+00  0.00000000E+00
  0.00000000E+00  0.00000000E+00  0.00000000E+00
  0.00000000E+00  0.00000000E+00  0.00000000E+00
  0.00000000E+00  0.00000000E+00  0.00000000E+00
  0.00000000E+00  0.00000000E+00  0.00000000E+00
  0.00000000E+00  0.00000000E+00  0.00000000E+00
  0.00000000E+00  0.00000000E+00  0.00000000E+00
  0.00000000E+00  0.00000000E+00  0.00000000E+00
  0.00000000E+00  0.00000000E+00  0.00000000E+00
  0.00000000E+00  0.00000000E+00  0.00000000E+00
  0.00000000E+00  0.00000000E+00  0.00000000E+00
  0.00000000E+00  0.00000000E+00  0.00000000E+00
  0.00000000E+00  0.00000000E+00  0.00000000E+00
  0.00000000E+00  0.00000000E+00  0.00000000E+00
  0.00000000E+00  0.00000000E+00  0.00000000E+00
  0.00000000E+00  0.00000000E+00  0.00000000E+00
  0.00000000E+00  0.00000000E+00  0.00000000E+00
  0.00000000E+00  0.00000000E+00  0.00000000E+00
  0.00000000E+00  0.00000000E+00  0.00000000E+00
  0.00000000E+00  0.00000000E+00  0.00000000E+00
  0.00000000E+00  0.00000000E+00  0.00000000E+00
  0.00000000E+00  0.00000000E+00  0.00000000E+00
  0.00000000E+00  0.00000000E+00  0.00000000E+00
  0.00000000E+00  0.00000000E+00  0.00000000E+00
  0.00000000E+00  0.00000000E+00  0.00000000E+00
  0.00000000E+00  0.00000000E+00  0.00000000E+00
  0.00000000E+00  0.00000000E+00  0.00000000E+00