 C  S  O                                
    1.000000000000000     
    32.3722991942999982    0.0000000000000000    0.0000000000000000
     0.0000000000000000   19.9214134216000005    0.0000000000000000
     0.0000000000000000    0.0000000000000000   40.4480476378999967
   C    S    O 
   364     1     3
Direct
  0.3710241356110257  0.5383193807580728  0.0024678803695800
  0.3688518238000515  0.5438386846337301  0.0629347018679477
  0.3381056874438973  0.5949899222424050  0.0611158221512246
  0.3205477274155917  0.6113955228528798  0.0299490260506530
  0.2778651223302657  0.6287544859311019  0.0281262882581537
  0.3665309429022285  0.5492344237552872  0.1234017494030521
  0.3347089222930406  0.5986179899897467  0.1215665903262670
  0.3168265629967904  0.6140235731767829  0.0903968696763856
  0.2737981210324333  0.6289626345090156  0.0885551958483568
  0.2535970114245997  0.6268308749535342  0.0573987241072524
  0.2121419153636104  0.6028700449135659  0.0555797886834969
  0.1956356991869597  0.5838027377108346  0.0244284216979397
  0.1680751319990322  0.5280637887157569  0.0226171544838060
  0.3640221205573297  0.5545013605016177  0.1838695248626406
  0.3311748646509546  0.6020733790665682  0.1820092251461651
  0.3130101028268733  0.6164487494364356  0.1508329399922177
  0.2696921247463198  0.6289665878304491  0.1489756854939439
  0.2495691799002905  0.6256872794552755  0.1178172849286140
  0.2086476379755756  0.5994261263730193  0.1159962268492807
  0.1925696701861684  0.5794523296493443  0.0848430233697445
  0.1662063238452912  0.5222116382049438  0.0830249522035511
  0.1589689732830692  0.4914675566777155  0.0518826438163273
  0.1550198325650787  0.4202559517387811  0.0500694692899511
  0.1587950830356764  0.3878873558408587  0.0189293628407603
  0.1784404981618042  0.3239090041680018  0.0171267316282194
  0.3613096454981216  0.5596713270159668  0.2443269141018723
  0.3275085616510600  0.6054393059253050  0.2424373903994079
  0.3090826085482695  0.6187384915145107  0.2112535336696700
  0.2655304936374474  0.6288379862249456  0.2093852323061475
  0.2455176630338968  0.6243728281870533  0.1782240774970861
  0.2051807455499390  0.5958283246386816  0.1764076731643856
  0.1895576244522022  0.5749483961000161  0.1452551480202607
  0.1644237268982958  0.5162658012743409  0.1434368019123702
  0.1578673816382332  0.4851289538121318  0.1122913056434933
  0.1554340290950635  0.4137407854063942  0.1104832728353766
  0.1599137702621694  0.3816070250716119  0.0793399325915720
  0.1809061503265021  0.3187712229324536  0.0775374396122488
  0.1950883186036418  0.2952038469612547  0.0464010768947569
  0.2332505458270324  0.2596109353089764  0.0445909087695135
  0.2529246592664789  0.2516240101938912  0.0134452052427444
  0.2969041086433736  0.2538664307850454  0.0116457863241076
  0.3700613377341418  0.5382670521297541  0.3359833888886405
  0.3583785217195143  0.5648104767495425  0.3047642128920466
  0.3237284500206410  0.6088645514268168  0.3028512907549476
  0.3050612454766396  0.6210137168748112  0.2716563975906571
  0.2613235364899790  0.6286748497133727  0.2697874815929174
  0.2414429422656898  0.6229602229579649  0.2386260079149951
  0.2017530890870428  0.5921162310466467  0.2368202326799236
  0.1866145550169066  0.5703069804343331  0.2056702930795690
  0.1627659758935268  0.5102279248670503  0.2038590777124301
  0.1568809554558083  0.4787397555528729  0.1727093249038708
  0.1559707778103369  0.4072599031187207  0.1709069641770036
  0.1611306888174102  0.3753989801363382  0.1397597120635776
  0.1834521175073172  0.3137836035577238  0.1379516923725723
  0.1981471382494488  0.2910345272680128  0.1068174626088491
  0.2370467884643186  0.2576207435500090  0.1050165577203134
  0.2568926405331844  0.2507346136070956  0.0738761875145721
  0.3007994284471570  0.2554439950626049  0.0720890861344038
  0.3199005554873761  0.2664743741152917  0.0409369295553864
  0.3557632737144997  0.3079029998499343  0.0391264539560483
  0.3684557649871351  0.3335641316592817  0.0079608070754664
  0.3856231465029599  0.3993956816760438  0.0061564590670016
  0.3673341451870696  0.5439904294981237  0.3963766416154322
  0.3552620513126706  0.5699871593011169  0.3651655806774542
  0.3198554195955688  0.6124156077483436  0.3632580656647226
  0.3009688744757311  0.6234248743845321  0.3320511554676621
  0.2570913480207607  0.6285758201379877  0.3301983276220064
  0.2373694863154344  0.6215223775019008  0.2990352049684653
  0.1984145974064321  0.5882976074652498  0.2972439393031303
  0.1837673602113058  0.5655679213458266  0.2660983306576516
  0.1612674533018497  0.5041267024205316  0.2643000333189661
  0.1560429771177162  0.4723196057879065  0.2331452769016503
  0.1566615304881065  0.4008304511280385  0.2313451940548236
  0.1624811477747279  0.3692780610394782  0.2001912100773729
  0.1860884792199409  0.3089447230743588  0.1983720208085255
  0.2012600440726198  0.2870359792557781  0.1672348239130439
  0.2408422299311528  0.2558167188168908  0.1654393376457961
  0.2608439874554567  0.2500667521623725  0.1343063267624862
  0.3046244703241524  0.2572274643963464  0.1325283183992165
  0.3235048831439121  0.2693180197404278  0.1013861418963843
  0.3584777460221180  0.3127125091053342  0.0995922214561318
  0.3706305237320080  0.3390670512370310  0.0684277221683404
  0.3864009539565096  0.4058166467740891  0.0666328664156535
  0.3882251912077246  0.4386022844474912  0.0354597789290077
  0.3800655715406864  0.5088601518798708  0.0336366743595403
  0.3644721263369949  0.5494229382548574  0.4567141823318587
  0.3520277334076874  0.5750533145181518  0.4255328343395033
  0.3159377002597497  0.6158739807643181  0.4236752305564387
  0.2968255962807283  0.6258905028568224  0.3924669691876037
  0.2528589343777503  0.6284493690723968  0.3906418001511074
  0.2333166203375698  0.6200834008468477  0.3594684564265305
  0.1952006582013960  0.5843705357389530  0.3576872515337475
  0.1810840771637895  0.5606985323768202  0.3265439378841799
  0.1600069419787111  0.4979374770526522  0.3247583770521066
  0.1554239771241581  0.4658553432387951  0.2935991895690608
  0.1575485243927110  0.3944398538799861  0.2917969308038563
  0.1639790765383097  0.3632285893812793  0.2606310380622364
  0.1888062580245140  0.3042047739012581  0.2587961849359185
  0.2044313823634113  0.2831653205647160  0.2276526009165405
  0.2446364584388298  0.2541254080521634  0.2258548636752979
  0.2647703117924325  0.2495511732224261  0.1947291527900309
  0.3083723029215804  0.2591591745273328  0.1929597995190974
  0.3270057809229784  0.2723463485803809  0.1618315915311111
  0.3610460733920007  0.3176656148740025  0.1600616707072145
  0.3726634755744984  0.3446863717091606  0.1289013654537810
  0.3870099878742259  0.4122824483904024  0.1271131261546005
  0.3881580728138768  0.4451493733674139  0.0959381858146854
  0.3785083558561047  0.5149089411058033  0.0941079997045599
  0.3621313200315457  0.5547933177101381  0.5171312832806305
  0.3488279214687177  0.5796087731987072  0.4859827163983579
  0.3120658988214358  0.6186976457451322  0.4841577143070842
  0.2927128326119991  0.6279005639050305  0.4529438465769617
  0.2487251498709524  0.6278683176210759  0.4511382184730789
  0.2293529606455898  0.6184299091690574  0.4199471001104766
  0.1921487739164397  0.5802460813875456  0.4181595490790403
  0.1785861889643385  0.5557026436693620  0.3870095233839089
  0.1589760365703958  0.4916906129331726  0.3852274101096199
  0.1550569792128241  0.4593575833997144  0.3540670103439988
  0.1586617288161304  0.3880973031476541  0.3522591673185757
  0.1656601085075728  0.3572485512390465  0.3210821621579461
  0.1916171082151689  0.2995193606533670  0.3192331285415133
  0.2076418895673579  0.2793574773643540  0.2880735954680947
  0.2484063102457404  0.2524600903985581  0.2862675839857763
  0.2686541192725424  0.2491010874452981  0.2551471432280349
  0.3120247481676338  0.2611675076637423  0.2533829586246326
  0.3303944735991837  0.2754865751136143  0.2222740222460257
  0.3634358667791639  0.3227269805036307  0.2205334851717907
  0.3745092980536828  0.3504088124541730  0.1893832991990743
  0.3874058735201689  0.4187800468428358  0.1876016923074949
  0.3878955142205704  0.4516897675026975  0.1564231773159872
  0.3767591941210205  0.5208644337069411  0.1545853588013387
  0.3602532840780813  0.5600229447363810  0.5774924411091831
  0.3461485813305013  0.5841657867934942  0.5464521986513874
  0.3083704307042646  0.6207686952063503  0.5446609808464520
  0.2887093745454484  0.6291095951876465  0.5135014469616380
  0.2447453833874622  0.6265478311298701  0.5116867154707216
  0.2255530054078216  0.6161718600572581  0.4804763989994286
  0.1892374356718251  0.5758003411819433  0.4786575120836433
  0.1762497699288987  0.5505149718767886  0.4474841432368378
  0.1581171666410266  0.4853716258813884  0.4456919215784171
  0.1549065346213096  0.4528319551290887  0.4145319721304888
  0.1599783795365170  0.3818068079760192  0.4127192481103955
  0.1675417533008342  0.3513312267058321  0.3815392267664157
  0.1945408554711353  0.2948752809763799  0.3796882647656598
  0.2109141350042112  0.2755571292203579  0.3485052291182296
  0.2521671412883332  0.2507178029672124  0.3466869908889889
  0.2724912140198775  0.2486026602966045  0.3155644397937263
  0.3155764710643460  0.2631435120239420  0.3138022447439069
  0.3336413349935476  0.2786814249254028  0.2827133874410418
  0.3655810619330656  0.3278834341179551  0.2810003465898036
  0.3761097323650608  0.3562206304058811  0.2498704810138408
  0.3875094362647912  0.4252970565072894  0.2480945149167007
  0.3873869146291086  0.4582106751209482  0.2169142611608589
  0.3747968218679366  0.5267292232917072  0.2150656143806595
  0.3581800840133781  0.5647983308582079  0.6379016293372294
  0.3434595841246250  0.5880284526786226  0.6068456089558109
  0.3047596832584025  0.6220790495013029  0.6051103777154379
  0.2848379170461813  0.6295207025282905  0.5740007578162625
  0.2409457191088464  0.6245103888476566  0.5721921557138289
  0.2218780823155680  0.6133700112726719  0.5410057051414668
  0.1864157556361735  0.5710395209949635  0.5391558330291404
  0.1739919629722351  0.5451029103709342  0.5079667367107024
  0.1572523810711717  0.4789792281859343  0.5061538394122724
  0.1548329204917539  0.4462911248046844  0.4749888205181664
  0.1613520299268049  0.3755787775160955  0.4731731637454391
  0.1695599369764438  0.3455091893563332  0.4420005114087538
  0.1975836071961775  0.2903860794692433  0.4401668448795205
  0.2142647772476284  0.2718115488127649  0.4089675284237417
  0.2559543761181634  0.2489351598920750  0.4071391703673787
  0.2763008355309164  0.2479892154585798  0.3759974732845298
  0.3190391182109956  0.2650425382532460  0.3742268845747397
  0.3367479013137174  0.2818425339341107  0.3431500615360066
  0.3674598304713333  0.3330826494718470  0.3414486344673166
  0.3773859478282445  0.3621124386581188  0.3103515530985909
  0.3872273962628261  0.4318242987382446  0.3085766000310636
  0.3865380081435144  0.4647134145854349  0.2774004506596439
  0.3725684313556045  0.5325185962225152  0.2755381566418021
  0.3558790951650891  0.5694723441005644  0.6983460321864390
  0.3406360291911794  0.5916181694810150  0.6672596769604605
  0.3011310785032248  0.6231323600403932  0.6655413346970562
  0.2810527315554672  0.6293292063917408  0.6344467979871334
  0.2372835127346866  0.6220061558932628  0.6326512949020048
  0.2183932406218292  0.6099875756318506  0.6014883471301774
  0.1837014671299579  0.5660088965899429  0.5996318969783061
  0.1717654076932939  0.5395083322309449  0.5684375913785308
  0.1563500908951662  0.4725442111937853  0.5666106510937681
  0.1546842712686778  0.4397427909227560  0.5354424026164900
  0.1627009826941631  0.3694392127895642  0.5336278633900606
  0.1715990691752913  0.3398202161783360  0.5024701311354373
  0.2007269549874519  0.2862079625296230  0.5006668051192094
  0.2177428690185752  0.2683811624856008  0.4694733851885541
  0.2598468319215661  0.2475798333789510  0.4676517439299262
  0.2801364228514648  0.2475043846594793  0.4364648527926777
  0.3224501676675468  0.2670816141862567  0.4346681765143506
  0.3397254990366880  0.2849899442209352  0.4035875461521487
  0.3690563507340989  0.3383477081056272  0.4018659452863929
  0.3783131967697106  0.3680653718153495  0.3707973000789512
  0.3864867597338931  0.4383240273181493  0.3690085115078736
  0.3852932303043215  0.4711798585146277  0.3378551656855466
  0.3533388398401325  0.5740977390811046  0.7588065333887629
  0.3376505008491673  0.5952120226086794  0.7276909900300119
  0.2974449979121483  0.6242854329849644  0.7259642083150682
  0.2772655804442526  0.6291397525195588  0.6948622439468768
  0.2336709461815425  0.6194849857069796  0.6930739162765168
  0.2150098705492040  0.6064402167192821  0.6619344895951976
  0.1811314105779902  0.5608302660876507  0.6600903858262457
  0.1696572267022584  0.5337633401786673  0.6289055339786105
  0.1555251438111686  0.4660563512485831  0.6270736764968485
  0.1545462700932964  0.4331911578257261  0.5959012590320665
  0.1640733687454942  0.3633842892323251  0.5940912638862794
  0.1736611630302411  0.3343024715344663  0.5629415499533499
  0.2039867391218126  0.2824869996960428  0.5611653276524156
  0.2213615966239936  0.2654991711086735  0.5299933108950098
  0.2638913992469814  0.2471419119946908  0.5281847824070062
  0.2840866181213800  0.2477469066976823  0.4969833032531498
  0.3259532658044497  0.2697507959310812  0.4951622533685882
  0.3426217462480911  0.2885041703567832  0.4640235563523007
  0.3703478299418834  0.3439452822289648  0.4622528887110496
  0.3788157061575307  0.3741448480384202  0.4311632839704869
  0.3852212071601742  0.4447901869561304  0.4293151690072320
  0.3835756695208309  0.4775794947715771  0.3982312576919969
  0.3505714139441017  0.5786097030468192  0.8192691440936127
  0.3344834427657850  0.5987737263498563  0.7881308573954809
  0.2936675196730691  0.6254946917538787  0.7863858626100905
  0.2734328267496211  0.6290722487414652  0.7552716328488616
  0.2300629849873822  0.6170183565066234  0.7534854453119585
  0.2116934239467390  0.6028981520443349  0.7223574608378872
  0.1787019582383217  0.5555984535916749  0.7205349700684137
  0.1677159914307449  0.5279363315126786  0.6893675924080442
  0.1549027988483028  0.4595404219753916  0.6875382556903791
  0.1545481714655420  0.4266384280634092  0.6563683576446024
  0.1656025378291075  0.3574351563994518  0.6545602880487119
  0.1758246329594345  0.3289541814523405  0.6234103828283517
  0.2073836380144227  0.2791294671193329  0.6216426343162498
  0.2251262445612998  0.2632027667743498  0.5904912733516648
  0.2680667251260494  0.2475996085451024  0.5886815320856114
  0.2881912134741437  0.2491730369409110  0.5574894251891759
  0.3295451040574348  0.2735398371932842  0.5556396311408381
  0.3457131386238914  0.2927797119146290  0.5244187750558715
  0.3722304463140935  0.3497275034463848  0.5225644910486437
  0.3793949884376774  0.3802026460321978  0.4914793520473047
  0.3850679538346725  0.4513331644837922  0.4896581748702131
  0.3816260953896477  0.4838768833223753  0.4584675792848806
  0.3476433056084590  0.5829895689350866  0.8797333768265634
  0.3311715097151605  0.6022283971422154  0.8485808774254344
  0.2898100227703196  0.6266307644064272  0.8468157868958470
  0.2695435782683585  0.6290035172215467  0.8156878333399333
  0.2264532204982612  0.6145283366687033  0.8138971445033296
  0.2084075399624560  0.5993450023590450  0.7827711500830453
  0.1763910176964002  0.5503017711811607  0.7809673638779107
  0.1659535709529213  0.5220488765040417  0.7498155486872885
  0.1545383442988687  0.4530036284735462  0.7479919379373804
  0.1548080879764544  0.4200973282061365  0.7168301875424139
  0.1673706234130652  0.3515777268678249  0.7150221015045886
  0.1781923782200710  0.3237478933625652  0.6838674814410067
  0.2109275435298168  0.2759746946979645  0.6820873319118508
  0.2290284050364145  0.2612591883813484  0.6509407339935567
  0.2723057971178455  0.2484437750372171  0.6491136560333579
  0.2923591969025819  0.2512598233528066  0.6179287438267405
  0.3331978738901991  0.2778346088897956  0.6160483613400125
  0.3490109295513759  0.2977453491705869  0.5848223613652326
  0.3747807034799879  0.3557196572582125  0.5829232794239552
  0.3812009279197456  0.3866497287972273  0.5517717539824273
  0.3846897102827548  0.4578463650448824  0.5500022334401543
  0.3806390715145721  0.4902335953338045  0.5189730794665903
  0.3445762432235904  0.5871822765039736  0.9401967009977491
  0.3277267782255523  0.6055007952694578  0.9090363030935977
  0.2858768528940931  0.6275865329335837  0.9072513999097197
  0.2655986123692417  0.6288105294450924  0.8761110887396939
  0.2228447187545139  0.6119158807276064  0.8743132693168175
  0.2051571692127225  0.5957088707948797  0.8431826338659216
  0.1741896723376418  0.5449143424134330  0.8413884856907904
  0.1643412160787341  0.5160883274630542  0.8102481622485181
  0.1543802506328894  0.4464486770751733  0.8084276304327324
  0.1553164578816311  0.4135680490576466  0.7772749798768300
  0.1693480132402883  0.3458063322317141  0.7754662692347225
  0.1807541822571861  0.3186452938754239  0.7443081412718848
  0.2145587174557327  0.2728877774074435  0.7425060025070298
  0.2329960663642316  0.2593973630278791  0.7113559863042285
  0.2765411214512868  0.2492346194005026  0.7095144175964060
  0.2965259649762787  0.2533961759744973  0.6783384664377358
  0.3368217769282466  0.2820911133159817  0.6764538442109020
  0.3522620091137157  0.3028904052516763  0.6452348648170968
  0.3771147123632207  0.3618936172795289  0.6433208457063072
  0.3831809328069257  0.3930660007011424  0.6121208090390239
  0.3854377449973505  0.4644659366576008  0.6103107188575256
  0.3805692411242329  0.4966196145863640  0.5792290460453089
  0.3413944007289847  0.5911781215863513  0.0006584831749153
  0.3241852314203215  0.6085645792563210  0.9694935368556622
  0.2818943422499172  0.6283045769511145  0.9676893199978243
  0.2616185092839580  0.6284095635791518  0.9365414750286871
  0.2192488289289590  0.6091214607742100  0.9347352940473620
  0.2019388561008400  0.5919258937194308  0.9035968879721800
  0.1720775826991869  0.5394111823949393  0.9018026681711809
  0.1628641825231370  0.5100473232184014  0.8706663309328828
  0.1543854494879463  0.4398931595833530  0.8688468586422035
  0.1560126602235455  0.4070742009577434  0.8377019637321530
  0.1714811040100923  0.3401453440830564  0.8358924662285084
  0.1834621743282806  0.3136517363677596  0.8047362695550060
  0.2182529374907775  0.2698844812990558  0.8029169046391066
  0.2369868129191559  0.2575593214571851  0.7717614396273531
  0.2807311653517481  0.2499241598763143  0.7699166862420662
  0.3006301628662211  0.2553851317559767  0.7387440228858762
  0.3403246127443459  0.2862077207582056  0.7368691483351412
  0.3554023962473360  0.3078957534099642  0.7056662310460399
  0.3791792305371819  0.3680534099015890  0.7037637343071473
  0.3848045954776567  0.3995200953551209  0.6725598904897652
  0.3856571464195645  0.4710254542454391  0.6707479435044188
  0.3802280597473579  0.5028862436962741  0.6396197536450011
  0.2576178779185126  0.6277458423337406  0.9969723281900872
  0.2156831233989892  0.6060980847843325  0.9951589110108195
  0.1987654024713497  0.5879572701055382  0.9640128274723824
  0.1700400263434195  0.5337938745061175  0.9622113137197970
  0.1614783684753030  0.5039273759215656  0.9310752924058316
  0.1545020607689613  0.4333355122711019  0.9292564480326254
  0.1568471180265947  0.4006294854718431  0.8981152744803894
  0.1737254544433472  0.3346042547760842  0.8963079499475315
  0.1862774584512710  0.3088034789788537  0.8651556536918140
  0.2219754239727577  0.2670097593869089  0.8633274571577522
  0.2409856635496484  0.2557941384577349  0.8321705800230681
  0.2848669979765266  0.2506273862068260  0.8303317598559339
  0.3046581836646587  0.2572842341244995  0.7991605571156385
  0.3436907953528568  0.2902744948431421  0.7973019654341443
  0.3583568373932470  0.3128360499359560  0.7661149354540988
  0.3809258697166576  0.3742186777508688  0.7642381407781876
  0.3860309758870197  0.4059955366278124  0.7330424388970596
  0.3854132232292664  0.4775052143580532  0.7312367982583946
  0.3794196750725113  0.5090407785776644  0.7000801153019153
  0.1601808184928677  0.4977303626090291  0.9914787931495426
  0.1547127852068433  0.4267853893877118  0.9896614275225180
  0.1577755147985942  0.3942247444342834  0.9585220002976831
  0.1760439038386289  0.3291805159299732  0.9567177021547403
  0.1891538438122465  0.3040898617655882  0.9255709713050427
  0.2257147449677304  0.2643071461989659  0.9237432018910218
  0.2449703805671994  0.2541669696885323  0.8925883498209223
  0.2889380482657537  0.2514716994236307  0.8907615255526656
  0.3085964712328881  0.2592611767490644  0.8595935503760919
  0.3469084323111080  0.2944277189097095  0.8577503054625523
  0.3611204574332684  0.3178293037633156  0.8265733973676467
  0.3823871855743551  0.3804262916956657  0.8247218098403586
  0.3869060592455298  0.4124850177113288  0.7935342714841419
  0.3847826687338296  0.4839115390059346  0.7917308977710025
  0.3782256838057020  0.5151109906776040  0.7605660171388653
  0.1920949222889002  0.2995601696385855  0.9859862947053382
  0.2294756009962300  0.2618415001317422  0.9841657301264842
  0.2489479851025645  0.2527642382447505  0.9530146624849952
  0.2929499586797127  0.2525389760703419  0.9512031132214942
  0.3124451494725524  0.2614384874531427  0.9200386281203428
  0.3499781908607724  0.2987522052339158  0.9182065550935521
  0.3637064186728539  0.3229375481218960  0.8870351100024451
  0.3836203229470694  0.3866942025315281  0.8852036727465563
  0.3874967480517607  0.4189952763169431  0.8540230587386930
  0.3838559397585299  0.4902550774081950  0.8522185555700729
  0.3766992039611607  0.5210677209143944  0.8210503181609723
  0.3162204088456928  0.2638255693385773  0.9804875799062508
  0.3529371560373448  0.3032332375786628  0.9786652991383230
  0.3661478538218100  0.3281815355311298  0.9474975342364035
  0.3846983338548824  0.3930147366083238  0.9456817232483361
  0.3878922501794655  0.4255209116515486  0.9145052939433934
  0.3827469371695516  0.4965321597963737  0.9126959627751047
  0.3749642814066216  0.5269369265560772  0.8815287031793785
  0.3881353717153237  0.4320575209808682  0.9749822712203471
  0.3814792546218240  0.5027344573023022  0.9731664629779266
  0.3730669490506258  0.5326888763683905  0.9420001655223645
  0.4728683847879288  0.4540822052623867  0.4898190205007181
  0.4741858579740648  0.3819455295452316  0.4908003524768434
  0.4750038941019741  0.4918169797954487  0.5200844481680923
  0.4752663409031432  0.4883837915864503  0.4586022927943222
 
  0.00000000E+00  0.00000000E+00  0.00000000E+00
  0.00000000E+00  0.00000000E+00  0.00000000E+00
  0.00000000E+00  0.00000000E+00  0.00000000E+00
  0.00000000E+00  0.00000000E+00  0.00000000E+00
  0.00000000E+00  0.00000000E+00  0.00000000E+00
  0.00000000E+00  0.00000000E+00  0.00000000E+00
  0.00000000E+00  0.00000000E+00  0.00000000E+00
  0.00000000E+00  0.00000000E+00  0.00000000E+00
  0.00000000E+00  0.00000000E+00  0.00000000E+00
  0.00000000E+00  0.00000000E+00  0.00000000E+00
  0.00000000E+00  0.00000000E+00  0.00000000E+00
  0.00000000E+00  0.00000000E+00  0.00000000E+00
  0.00000000E+00  0.00000000E+00  0.00000000E+00
  0.00000000E+00  0.00000000E+00  0.00000000E+00
  0.00000000E+00  0.00000000E+00  0.00000000E+00
  0.00000000E+00  0.00000000E+00  0.00000000E+00
  0.00000000E+00  0.00000000E+00  0.00000000E+00
  0.00000000E+00  0.00000000E+00  0.00000000E+00
  0.00000000E+00  0.00000000E+00  0.00000000E+00
  0.00000000E+00  0.00000000E+00  0.00000000E+00
  0.00000000E+00  0.00000000E+00  0.00000000E+00
  0.00000000E+00  0.00000000E+00  0.00000000E+00
  0.00000000E+00  0.00000000E+00  0.00000000E+00
  0.00000000E+00  0.00000000E+00  0.00000000E+00
  0.00000000E+00  0.00000000E+00  0.00000000E+00
  0.00000000E+00  0.00000000E+00  0.00000000E+00
  0.00000000E+00  0.00000000E+00  0.00000000E+00
  0.00000000E+00  0.00000000E+00  0.00000000E+00
  0.00000000E+00  0.00000000E+00  0.00000000E+00
  0.00000000E+00  0.00000000E+00  0.00000000E+00
  0.00000000E+00  0.00000000E+00  0.00000000E+00
  0.00000000E+00  0.00000000E+00  0.00000000E+00
  0.00000000E+00  0.00000000E+00  0.00000000E+00
  0.00000000E+00  0.00000000E+00  0.00000000E+00
  0.00000000E+00  0.00000000E+00  0.00000000E+00
  0.00000000E+00  0.00000000E+00  0.00000000E+00
  0.00000000E+00  0.00000000E+00  0.00000000E+00
  0.00000000E+00  0.00000000E+00  0.00000000E+00
  0.00000000E+00  0.00000000E+00  0.00000000E+00
  0.00000000E+00  0.00000000E+00  0.00000000E+00
  0.00000000E+00  0.00000000E+00  0.00000000E+00
  0.00000000E+00  0.00000000E+00  0.00000000E+00
  0.00000000E+00  0.00000000E+00  0.00000000E+00
  0.00000000E+00  0.00000000E+00  0.00000000E+00
  0.00000000E+00  0.00000000E+00  0.00000000E+00
  0.00000000E+00  0.00000000E+00  0.00000000E+00
  0.00000000E+00  0.00000000E+00  0.00000000E+00
  0.00000000E+00  0.00000000E+00  0.00000000E+00
  0.00000000E+00  0.00000000E+00  0.00000000E+00
  0.00000000E+00  0.00000000E+00  0.00000000E+00
  0.00000000E+00  0.00000000E+00  0.00000000E+00
  0.00000000E+00  0.00000000E+00  0.00000000E+00
  0.00000000E+00  0.00000000E+00  0.00000000E+00
  0.00000000E+00  0.00000000E+00  0.00000000E+00
  0.00000000E+00  0.00000000E+00  0.00000000E+00
  0.00000000E+00  0.00000000E+00  0.00000000E+00
  0.00000000E+00  0.00000000E+00  0.00000000E+00
  0.00000000E+00  0.00000000E+00  0.00000000E+00
  0.00000000E+00  0.00000000E+00  0.00000000E+00
  0.00000000E+00  0.00000000E+00  0.00000000E+00
  0.00000000E+00  0.00000000E+00  0.00000000E+00
  0.00000000E+00  0.00000000E+00  0.00000000E+00
  0.00000000E+00  0.00000000E+00  0.00000000E+00
  0.00000000E+00  0.00000000E+00  0.00000000E+00
  0.00000000E+00  0.00000000E+00  0.00000000E+00
  0.00000000E+00  0.00000000E+00  0.00000000E+00
  0.00000000E+00  0.00000000E+00  0.00000000E+00
  0.00000000E+00  0.00000000E+00  0.00000000E+00
  0.00000000E+00  0.00000000E+00  0.00000000E+00
  0.00000000E+00  0.00000000E+00  0.00000000E+00
  0.00000000E+00  0.00000000E+00  0.00000000E+00
  0.00000000E+00  0.00000000E+00  0.00000000E+00
  0.00000000E+00  0.00000000E+00  0.00000000E+00
  0.00000000E+00  0.00000000E+00  0.00000000E+00
  0.00000000E+00  0.00000000E+00  0.00000000E+00
  0.00000000E+00  0.00000000E+00  0.00000000E+00
  0.00000000E+00  0.00000000E+00  0.00000000E+00
  0.00000000E+00  0.00000000E+00  0.00000000E+00
  0.00000000E+00  0.00000000E+00  0.00000000E+00
  0.00000000E+00  0.00000000E+00  0.00000000E+00
  0.00000000E+00  0.00000000E+00  0.00000000E+00
  0.00000000E+00  0.00000000E+00  0.00000000E+00
  0.00000000E+00  0.00000000E+00  0.00000000E+00
  0.00000000E+00  0.00000000E+00  0.00000000E+00
  0.00000000E+00  0.00000000E+00  0.00000000E+00
  0.00000000E+00  0.00000000E+00  0.00000000E+00
  0.00000000E+00  0.00000000E+00  0.00000000E+00
  0.00000000E+00  0.00000000E+00  0.00000000E+00
  0.00000000E+00  0.00000000E+00  0.00000000E+00
  0.00000000E+00  0.00000000E+00  0.00000000E+00
  0.00000000E+00  0.00000000E+00  0.00000000E+00
  0.00000000E+00  0.00000000E+00  0.00000000E+00
  0.00000000E+00  0.00000000E+00  0.00000000E+00
  0.00000000E+00  0.00000000E+00  0.00000000E+00
  0.00000000E+00  0.00000000E+00  0.00000000E+00
  0.00000000E+00  0.00000000E+00  0.00000000E+00
  0.00000000E+00  0.00000000E+00  0.00000000E+00
  0.00000000E+00  0.00000000E+00  0.00000000E+00
  0.00000000E+00  0.00000000E+00  0.00000000E+00
  0.00000000E+00  0.00000000E+00  0.00000000E+00
  0.00000000E+00  0.00000000E+00  0.00000000E+00
  0.00000000E+00  0.00000000E+00  0.00000000E+00
  0.00000000E+00  0.00000000E+00  0.00000000E+00
  0.00000000E+00  0.00000000E+00  0.00000000E+00
  0.00000000E+00  0.00000000E+00  0.00000000E+00
  0.00000000E+00  0.00000000E+00  0.00000000E+00
  0.00000000E+00  0.00000000E+00  0.00000000E+00
  0.00000000E+00  0.00000000E+00  0.00000000E+00
  0.00000000E+00  0.00000000E+00  0.00000000E+00
  0.00000000E+00  0.00000000E+00  0.00000000E+00
  0.00000000E+00  0.00000000E+00  0.00000000E+00
  0.00000000E+00  0.00000000E+00  0.00000000E+00
  0.00000000E+00  0.00000000E+00  0.00000000E+00
  0.00000000E+00  0.00000000E+00  0.00000000E+00
  0.00000000E+00  0.00000000E+00  0.00000000E+00
  0.00000000E+00  0.00000000E+00  0.00000000E+00
  0.00000000E+00  0.00000000E+00  0.00000000E+00
  0.00000000E+00  0.00000000E+00  0.00000000E+00
  0.00000000E+00  0.00000000E+00  0.00000000E+00
  0.00000000E+00  0.00000000E+00  0.00000000E+00
  0.00000000E+00  0.00000000E+00  0.00000000E+00
  0.00000000E+00  0.00000000E+00  0.00000000E+00
  0.00000000E+00  0.00000000E+00  0.00000000E+00
  0.00000000E+00  0.00000000E+00  0.00000000E+00
  0.00000000E+00  0.00000000E+00  0.00000000E+00
  0.00000000E+00  0.00000000E+00  0.00000000E+00
  0.00000000E+00  0.00000000E+00  0.00000000E+00
  0.00000000E+00  0.00000000E+00  0.00000000E+00
  0.00000000E+00  0.00000000E+00  0.00000000E+00
  0.00000000E+00  0.00000000E+00  0.00000000E+00
  0.00000000E+00  0.00000000E+00  0.00000000E+00
  0.00000000E+00  0.00000000E+00  0.00000000E+00
  0.00000000E+00  0.00000000E+00  0.00000000E+00
  0.00000000E+00  0.00000000E+00  0.00000000E+00
  0.00000000E+00  0.00000000E+00  0.00000000E+00
  0.00000000E+00  0.00000000E+00  0.00000000E+00
  0.00000000E+00  0.00000000E+00  0.00000000E+00
  0.00000000E+00  0.00000000E+00  0.00000000E+00
  0.00000000E+00  0.00000000E+00  0.00000000E+00
  0.00000000E+00  0.00000000E+00  0.00000000E+00
  0.00000000E+00  0.00000000E+00  0.00000000E+00
  0.00000000E+00  0.00000000E+00  0.00000000E+00
  0.00000000E+00  0.00000000E+00  0.00000000E+00
  0.00000000E+00  0.00000000E+00  0.00000000E+00
  0.00000000E+00  0.00000000E+00  0.00000000E+00
  0.00000000E+00  0.00000000E+00  0.00000000E+00
  0.00000000E+00  0.00000000E+00  0.00000000E+00