 C  S  O                                
    1.000000000000000     
    32.3722991942999982    0.0000000000000000    0.0000000000000000
     0.0000000000000000   19.9214134216000005    0.0000000000000000
     0.0000000000000000    0.0000000000000000   40.4480476378999967
   C    S    O 
   364     1     3
Selective dynamics
Direct
  0.3710241356110231  0.5383193807580753  0.0024678803695792   F   F   F
  0.3688518238000498  0.5438386846337266  0.0629347018679454   F   F   F
  0.3381056874438997  0.5949899222424051  0.0611158221512227   F   F   F
  0.3205477274155939  0.6113955228528809  0.0299490260506516   F   F   F
  0.2778651223302688  0.6287544859311041  0.0281262882581572   F   F   F
  0.3665309429022301  0.5492344237552871  0.1234017494030510   F   F   F
  0.3347089222930393  0.5986179899897479  0.1215665903262675   F   F   F
  0.3168265629967877  0.6140235731767802  0.0903968696763826   F   F   F
  0.2737981210324349  0.6289626345090156  0.0885551958483575   F   F   F
  0.2535970114246027  0.6268308749535336  0.0573987241072516   F   F   F
  0.2121419153636097  0.6028700449135656  0.0555797886834952   F   F   F
  0.1956356991869583  0.5838027377108332  0.0244284216979409   F   F   F
  0.1680751319990321  0.5280637887157553  0.0226171544838039   F   F   F
  0.3640221205573297  0.5545013605016180  0.1838695248626436   F   F   F
  0.3311748646509542  0.6020733790665673  0.1820092251461674   F   F   F
  0.3130101028268726  0.6164487494364366  0.1508329399922204   F   F   F
  0.2696921247463209  0.6289665878304476  0.1489756854939444   F   F   F
  0.2495691799002913  0.6256872794552777  0.1178172849286128   F   F   F
  0.2086476379755737  0.5994261263730181  0.1159962268492833   F   F   F
  0.1925696701861668  0.5794523296493423  0.0848430233697428   F   F   F
  0.1662063238452944  0.5222116382049435  0.0830249522035515   F   F   F
  0.1589689732830664  0.4914675566777120  0.0518826438163273   F   F   F
  0.1550198325650811  0.4202559517387812  0.0500694692899515   F   F   F
  0.1587950830356775  0.3878873558408600  0.0189293628407583   F   F   F
  0.1784404981618053  0.3239090041680015  0.0171267316282169   F   F   F
  0.3613096454981246  0.5596713270159697  0.2443269141018689   F   F   F
  0.3275085616510580  0.6054393059253016  0.2424373903994095   F   F   F
  0.3090826085482661  0.6187384915145131  0.2112535336696695   F   F   F
  0.2655304936374492  0.6288379862249442  0.2093852323061469   F   F   F
  0.2455176630338940  0.6243728281870560  0.1782240774970845   F   F   F
  0.2051807455499386  0.5958283246386813  0.1764076731643840   F   F   F
  0.1895576244521990  0.5749483961000195  0.1452551480202615   F   F   F
  0.1644237268982991  0.5162658012743435  0.1434368019123724   F   F   F
  0.1578673816382334  0.4851289538121293  0.1122913056434953   F   F   F
  0.1554340290950620  0.4137407854063966  0.1104832728353742   F   F   F
  0.1599137702621718  0.3816070250716095  0.0793399325915729   F   F   F
  0.1809061503264999  0.3187712229324546  0.0775374396122501   F   F   F
  0.1950883186036450  0.2952038469612575  0.0464010768947603   F   F   F
  0.2332505458270333  0.2596109353089773  0.0445909087695142   F   F   F
  0.2529246592664762  0.2516240101938934  0.0134452052427463   F   F   F
  0.2969041086433748  0.2538664307850453  0.0116457863241095   F   F   F
  0.3700613377341426  0.5382670521297541  0.3359833888886428   F   F   F
  0.3583785217195157  0.5648104767495425  0.3047642128920458   F   F   F
  0.3237284500206385  0.6088645514268194  0.3028512907549441   F   F   F
  0.3050612454766366  0.6210137168748133  0.2716563975906539   F   F   F
  0.2613235364899822  0.6286748497133701  0.2697874815929140   F   F   F
  0.2414429422656923  0.6229602229579640  0.2386260079149949   F   F   F
  0.2017530890870418  0.5921162310466457  0.2368202326799249   F   F   F
  0.1866145550169094  0.5703069804343315  0.2056702930795709   F   F   F
  0.1627659758935280  0.5102279248670527  0.2038590777124298   F   F   F
  0.1568809554558115  0.4787397555528727  0.1727093249038703   F   F   F
  0.1559707778103387  0.4072599031187210  0.1709069641770071   F   F   F
  0.1611306888174084  0.3753989801363389  0.1397597120635794   F   F   F
  0.1834521175073149  0.3137836035577237  0.1379516923725745   F   F   F
  0.1981471382494462  0.2910345272680104  0.1068174626088521   F   F   F
  0.2370467884643190  0.2576207435500066  0.1050165577203117   F   F   F
  0.2568926405331808  0.2507346136070936  0.0738761875145713   F   F   F
  0.3007994284471565  0.2554439950626062  0.0720890861344046   F   F   F
  0.3199005554873793  0.2664743741152904  0.0409369295553859   F   F   F
  0.3557632737145013  0.3079029998499365  0.0391264539560510   F   F   F
  0.3684557649871323  0.3335641316592799  0.0079608070754631   F   F   F
  0.3856231465029580  0.3993956816760402  0.0061564590670002   F   F   F
  0.3673341451870726  0.5439904294981233  0.3963766416154328   F   F   F
  0.3552620513126712  0.5699871593011139  0.3651655806774556   F   F   F
  0.3198554195955694  0.6124156077483462  0.3632580656647235   F   F   F
  0.3009688744757284  0.6234248743845328  0.3320511554676600   F   F   F
  0.2570913480207579  0.6285758201379892  0.3301983276220071   F   F   F
  0.2373694863154370  0.6215223775019041  0.2990352049684688   F   F   F
  0.1984145974064333  0.5882976074652504  0.2972439393031294   F   F   F
  0.1837673602113057  0.5655679213458242  0.2660983306576483   F   F   F
  0.1612674533018463  0.5041267024205283  0.2643000333189676   F   F   F
  0.1560429771177141  0.4723196057879093  0.2331452769016522   F   F   F
  0.1566615304881083  0.4008304511280372  0.2313451940548248   F   F   F
  0.1624811477747272  0.3692780610394806  0.2001912100773708   F   F   F
  0.1860884792199400  0.3089447230743616  0.1983720208085273   F   F   F
  0.2012600440726189  0.2870359792557764  0.1672348239130415   F   F   F
  0.2408422299311539  0.2558167188168881  0.1654393376457932   F   F   F
  0.2608439874554591  0.2500667521623754  0.1343063267624842   F   F   F
  0.3046244703241499  0.2572274643963439  0.1325283183992170   F   F   F
  0.3235048831439116  0.2693180197404246  0.1013861418963842   F   F   F
  0.3584777460221176  0.3127125091053315  0.0995922214561347   F   F   F
  0.3706305237320109  0.3390670512370306  0.0684277221683374   F   F   F
  0.3864009539565103  0.4058166467740918  0.0666328664156524   F   F   F
  0.3882251912077237  0.4386022844474908  0.0354597789290096   F   F   F
  0.3800655715406833  0.5088601518798725  0.0336366743595420   F   F   F
  0.3644721263369917  0.5494229382548568  0.4567141823318579   F   F   F
  0.3520277334076880  0.5750533145181507  0.4255328343395064   F   F   F
  0.3159377002597523  0.6158739807643201  0.4236752305564409   F   F   F
  0.2968255962807262  0.6258905028568194  0.3924669691876019   F   F   F
  0.2528589343777483  0.6284493690723991  0.3906418001511085   F   F   F
  0.2333166203375683  0.6200834008468448  0.3594684564265336   F   F   F
  0.1952006582013937  0.5843705357389553  0.3576872515337470   F   F   F
  0.1810840771637885  0.5606985323768185  0.3265439378841819   F   F   F
  0.1600069419787076  0.4979374770526519  0.3247583770521061   F   F   F
  0.1554239771241583  0.4658553432387933  0.2935991895690577   F   F   F
  0.1575485243927091  0.3944398538799874  0.2917969308038550   F   F   F
  0.1639790765383111  0.3632285893812792  0.2606310380622361   F   F   F
  0.1888062580245133  0.3042047739012617  0.2587961849359175   F   F   F
  0.2044313823634099  0.2831653205647129  0.2276526009165423   F   F   F
  0.2446364584388263  0.2541254080521611  0.2258548636752948   F   F   F
  0.2647703117924323  0.2495511732224287  0.1947291527900319   F   F   F
  0.3083723029215832  0.2591591745273334  0.1929597995190946   F   F   F
  0.3270057809229812  0.2723463485803777  0.1618315915311115   F   F   F
  0.3610460733920036  0.3176656148740022  0.1600616707072149   F   F   F
  0.3726634755744982  0.3446863717091588  0.1289013654537783   F   F   F
  0.3870099878742224  0.4122824483903997  0.1271131261545975   F   F   F
  0.3881580728138800  0.4451493733674141  0.0959381858146884   F   F   F
  0.3785083558561055  0.5149089411058014  0.0941079997045620   F   F   F
  0.3621313200315441  0.5547933177101356  0.5171312832806336   F   F   F
  0.3488279214687182  0.5796087731987072  0.4859827163983610   F   F   F
  0.3120658988214373  0.6186976457451294  0.4841577143070808   F   F   F
  0.2927128326119970  0.6279005639050297  0.4529438465769644   F   F   F
  0.2487251498709497  0.6278683176210791  0.4511382184730763   F   F   F
  0.2293529606455920  0.6184299091690590  0.4199471001104769   F   F   F
  0.1921487739164363  0.5802460813875427  0.4181595490790428   F   F   F
  0.1785861889643385  0.5557026436693633  0.3870095233839095   F   F   F
  0.1589760365703938  0.4916906129331693  0.3852274101096214   F   F   F
  0.1550569792128229  0.4593575833997150  0.3540670103439965   F   F   F
  0.1586617288161278  0.3880973031476529  0.3522591673185786   F   F   F
  0.1656601085075735  0.3572485512390458  0.3210821621579427   F   F   F
  0.1916171082151692  0.2995193606533704  0.3192331285415122   F   F   F
  0.2076418895673555  0.2793574773643570  0.2880735954680915   F   F   F
  0.2484063102457412  0.2524600903985572  0.2862675839857758   F   F   F
  0.2686541192725400  0.2491010874452968  0.2551471432280366   F   F   F
  0.3120247481676373  0.2611675076637425  0.2533829586246341   F   F   F
  0.3303944735991848  0.2754865751136109  0.2222740222460260   F   F   F
  0.3634358667791631  0.3227269805036315  0.2205334851717922   F   F   F
  0.3745092980536811  0.3504088124541695  0.1893832991990720   F   F   F
  0.3874058735201658  0.4187800468428335  0.1876016923074957   F   F   F
  0.3878955142205669  0.4516897675026996  0.1564231773159861   F   F   F
  0.3767591941210213  0.5208644337069401  0.1545853588013415   F   F   F
  0.3602532840780839  0.5600229447363816  0.5774924411091860   F   F   F
  0.3461485813305032  0.5841657867934913  0.5464521986513873   F   F   F
  0.3083704307042652  0.6207686952063511  0.5446609808464515   F   F   F
  0.2887093745454479  0.6291095951876500  0.5135014469616408   F   F   F
  0.2447453833874604  0.6265478311298693  0.5116867154707236   F   F   F
  0.2255530054078250  0.6161718600572570  0.4804763989994285   F   F   F
  0.1892374356718278  0.5758003411819459  0.4786575120836432   F   F   F
  0.1762497699289014  0.5505149718767868  0.4474841432368351   F   F   F
  0.1581171666410270  0.4853716258813918  0.4456919215784154   F   F   F
  0.1549065346213112  0.4528319551290920  0.4145319721304901   F   F   F
  0.1599783795365184  0.3818068079760195  0.4127192481103990   F   F   F
  0.1675417533008314  0.3513312267058311  0.3815392267664137   F   F   F
  0.1945408554711321  0.2948752809763775  0.3796882647656616   F   F   F
  0.2109141350042094  0.2755571292203598  0.3485052291182313   F   F   F
  0.2521671412883322  0.2507178029672090  0.3466869908889905   F   F   F
  0.2724912140198796  0.2486026602966049  0.3155644397937252   F   F   F
  0.3155764710643467  0.2631435120239445  0.3138022447439042   F   F   F
  0.3336413349935441  0.2786814249254022  0.2827133874410421   F   F   F
  0.3655810619330637  0.3278834341179575  0.2810003465898063   F   F   F
  0.3761097323650588  0.3562206304058790  0.2498704810138435   F   F   F
  0.3875094362647928  0.4252970565072900  0.2480945149167013   F   F   F
  0.3873869146291113  0.4582106751209452  0.2169142611608592   F   F   F
  0.3747968218679389  0.5267292232917100  0.2150656143806629   F   F   F
  0.3581800840133766  0.5647983308582099  0.6379016293372288   F   F   F
  0.3434595841246235  0.5880284526786212  0.6068456089558083   F   F   F
  0.3047596832584034  0.6220790495013020  0.6051103777154410   F   F   F
  0.2848379170461826  0.6295207025282892  0.5740007578162647   F   F   F
  0.2409457191088435  0.6245103888476535  0.5721921557138288   F   F   F
  0.2218780823155697  0.6133700112726714  0.5410057051414654   F   F   F
  0.1864157556361761  0.5710395209949652  0.5391558330291417   F   F   F
  0.1739919629722380  0.5451029103709359  0.5079667367106993   F   F   F
  0.1572523810711743  0.4789792281859349  0.5061538394122707   F   F   F
  0.1548329204917565  0.4462911248046879  0.4749888205181634   F   F   F
  0.1613520299268032  0.3755787775160968  0.4731731637454359   F   F   F
  0.1695599369764409  0.3455091893563349  0.4420005114087573   F   F   F
  0.1975836071961794  0.2903860794692434  0.4401668448795206   F   F   F
  0.2142647772476280  0.2718115488127637  0.4089675284237444   F   F   F
  0.2559543761181615  0.2489351598920777  0.4071391703673797   F   F   F
  0.2763008355309182  0.2479892154585812  0.3759974732845279   F   F   F
  0.3190391182109948  0.2650425382532475  0.3742268845747390   F   F   F
  0.3367479013137142  0.2818425339341104  0.3431500615360079   F   F   F
  0.3674598304713328  0.3330826494718480  0.3414486344673193   F   F   F
  0.3773859478282446  0.3621124386581158  0.3103515530985916   F   F   F
  0.3872273962628228  0.4318242987382419  0.3085766000310670   F   F   F
  0.3865380081435177  0.4647134145854324  0.2774004506596413   F   F   F
  0.3725684313556030  0.5325185962225163  0.2755381566418009   F   F   F
  0.3558790951650863  0.5694723441005678  0.6983460321864357   F   F   F
  0.3406360291911810  0.5916181694810163  0.6672596769604624   F   F   F
  0.3011310785032251  0.6231323600403940  0.6655413346970533   F   F   F
  0.2810527315554694  0.6293292063917377  0.6344467979871311   F   F   F
  0.2372835127346846  0.6220061558932599  0.6326512949020042   F   F   F
  0.2183932406218290  0.6099875756318482  0.6014883471301786   F   F   F
  0.1837014671299571  0.5660088965899419  0.5996318969783090   F   F   F
  0.1717654076932931  0.5395083322309446  0.5684375913785331   F   F   F
  0.1563500908951667  0.4725442111937852  0.5666106510937681   F   F   F
  0.1546842712686782  0.4397427909227574  0.5354424026164892   F   F   F
  0.1627009826941617  0.3694392127895654  0.5336278633900591   F   F   F
  0.1715990691752936  0.3398202161783388  0.5024701311354391   F   F   F
  0.2007269549874522  0.2862079625296232  0.5006668051192094   F   F   F
  0.2177428690185721  0.2683811624856034  0.4694733851885573   F   F   F
  0.2598468319215641  0.2475798333789498  0.4676517439299275   F   F   F
  0.2801364228514629  0.2475043846594787  0.4364648527926747   F   F   F
  0.3224501676675473  0.2670816141862602  0.4346681765143501   F   F   F
  0.3397254990366889  0.2849899442209320  0.4035875461521456   F   F   F
  0.3690563507340983  0.3383477081056299  0.4018659452863957   F   F   F
  0.3783131967697102  0.3680653718153479  0.3707973000789480   F   F   F
  0.3864867597338915  0.4383240273181528  0.3690085115078716   F   F   F
  0.3852932303043204  0.4711798585146312  0.3378551656855464   F   F   F
  0.3533388398401343  0.5740977390811040  0.7588065333887641   F   F   F
  0.3376505008491648  0.5952120226086777  0.7276909900300126   F   F   F
  0.2974449979121516  0.6242854329849621  0.7259642083150695   F   F   F
  0.2772655804442508  0.6291397525195563  0.6948622439468792   F   F   F
  0.2336709461815403  0.6194849857069826  0.6930739162765178   F   F   F
  0.2150098705492027  0.6064402167192853  0.6619344895951969   F   F   F
  0.1811314105779900  0.5608302660876490  0.6600903858262441   F   F   F
  0.1696572267022560  0.5337633401786661  0.6289055339786103   F   F   F
  0.1555251438111682  0.4660563512485822  0.6270736764968490   F   F   F
  0.1545462700932987  0.4331911578257248  0.5959012590320683   F   F   F
  0.1640733687454912  0.3633842892323216  0.5940912638862770   F   F   F
  0.1736611630302392  0.3343024715344640  0.5629415499533508   F   F   F
  0.2039867391218095  0.2824869996960402  0.5611653276524180   F   F   F
  0.2213615966239928  0.2654991711086723  0.5299933108950086   F   F   F
  0.2638913992469796  0.2471419119946887  0.5281847824070027   F   F   F
  0.2840866181213784  0.2477469066976852  0.4969833032531525   F   F   F
  0.3259532658044506  0.2697507959310812  0.4951622533685907   F   F   F
  0.3426217462480921  0.2885041703567808  0.4640235563523021   F   F   F
  0.3703478299418848  0.3439452822289653  0.4622528887110491   F   F   F
  0.3788157061575319  0.3741448480384193  0.4311632839704842   F   F   F
  0.3852212071601713  0.4447901869561335  0.4293151690072321   F   F   F
  0.3835756695208303  0.4775794947715752  0.3982312576919966   F   F   F
  0.3505714139441025  0.5786097030468227  0.8192691440936102   F   F   F
  0.3344834427657872  0.5987737263498545  0.7881308573954797   F   F   F
  0.2936675196730718  0.6254946917538788  0.7863858626100892   F   F   F
  0.2734328267496196  0.6290722487414655  0.7552716328488600   F   F   F
  0.2300629849873843  0.6170183565066267  0.7534854453119593   F   F   F
  0.2116934239467412  0.6028981520443324  0.7223574608378840   F   F   F
  0.1787019582383209  0.5555984535916778  0.7205349700684138   F   F   F
  0.1677159914307467  0.5279363315126773  0.6893675924080469   F   F   F
  0.1549027988483047  0.4595404219753902  0.6875382556903773   F   F   F
  0.1545481714655423  0.4266384280634057  0.6563683576446024   F   F   F
  0.1656025378291091  0.3574351563994540  0.6545602880487138   F   F   F
  0.1758246329594328  0.3289541814523389  0.6234103828283537   F   F   F
  0.2073836380144201  0.2791294671193327  0.6216426343162524   F   F   F
  0.2251262445613023  0.2632027667743486  0.5904912733516667   F   F   F
  0.2680667251260473  0.2475996085451015  0.5886815320856087   F   F   F
  0.2881912134741427  0.2491730369409098  0.5574894251891749   F   F   F
  0.3295451040574378  0.2735398371932831  0.5556396311408349   F   F   F
  0.3457131386238927  0.2927797119146263  0.5244187750558709   F   F   F
  0.3722304463140915  0.3497275034463883  0.5225644910486409   F   F   F
  0.3793949884376744  0.3802026460321954  0.4914793520473069   F   F   F
  0.3850679538346711  0.4513331644837919  0.4896581748702147   F   F   F
  0.3816260953896489  0.4838768833223739  0.4584675792848785   F   F   F
  0.3476433056084574  0.5829895689350835  0.8797333768265645   F   F   F
  0.3311715097151620  0.6022283971422127  0.8485808774254338   F   F   F
  0.2898100227703182  0.6266307644064284  0.8468157868958457   F   F   F
  0.2695435782683617  0.6290035172215482  0.8156878333399362   F   F   F
  0.2264532204982643  0.6145283366687053  0.8138971445033292   F   F   F
  0.2084075399624581  0.5993450023590441  0.7827711500830432   F   F   F
  0.1763910176964032  0.5503017711811609  0.7809673638779131   F   F   F
  0.1659535709529223  0.5220488765040443  0.7498155486872875   F   F   F
  0.1545383442988708  0.4530036284735459  0.7479919379373783   F   F   F
  0.1548080879764555  0.4200973282061398  0.7168301875424135   F   F   F
  0.1673706234130634  0.3515777268678235  0.7150221015045872   F   F   F
  0.1781923782200678  0.3237478933625653  0.6838674814410055   F   F   F
  0.2109275435298201  0.2759746946979647  0.6820873319118519   F   F   F
  0.2290284050364164  0.2612591883813451  0.6509407339935578   F   F   F
  0.2723057971178449  0.2484437750372166  0.6491136560333572   F   F   F
  0.2923591969025807  0.2512598233528038  0.6179287438267380   F   F   F
  0.3331978738901995  0.2778346088897976  0.6160483613400132   F   F   F
  0.3490109295513761  0.2977453491705901  0.5848223613652337   F   F   F
  0.3747807034799848  0.3557196572582129  0.5829232794239516   F   F   F
  0.3812009279197426  0.3866497287972308  0.5517717539824289   F   F   F
  0.3846897102827569  0.4578463650448796  0.5500022334401535   F   F   F
  0.3806390715145724  0.4902335953338053  0.5189730794665905   F   F   F
  0.3445762432235924  0.5871822765039738  0.9401967009977525   F   F   F
  0.3277267782255535  0.6055007952694567  0.9090363030936004   F   F   F
  0.2858768528940914  0.6275865329335844  0.9072513999097183   F   F   F
  0.2655986123692387  0.6288105294450901  0.8761110887396910   F   F   F
  0.2228447187545157  0.6119158807276079  0.8743132693168150   F   F   F
  0.2051571692127254  0.5957088707948799  0.8431826338659221   F   F   F
  0.1741896723376399  0.5449143424134348  0.8413884856907927   F   F   F
  0.1643412160787321  0.5160883274630521  0.8102481622485200   F   F   F
  0.1543802506328902  0.4464486770751748  0.8084276304327318   F   F   F
  0.1553164578816322  0.4135680490576448  0.7772749798768288   F   F   F
  0.1693480132402883  0.3458063322317173  0.7754662692347196   F   F   F
  0.1807541822571892  0.3186452938754272  0.7443081412718868   F   F   F
  0.2145587174557306  0.2728877774074405  0.7425060025070280   F   F   F
  0.2329960663642296  0.2593973630278796  0.7113559863042269   F   F   F
  0.2765411214512881  0.2492346194005037  0.7095144175964094   F   F   F
  0.2965259649762757  0.2533961759744940  0.6783384664377365   F   F   F
  0.3368217769282467  0.2820911133159782  0.6764538442109043   F   F   F
  0.3522620091137156  0.3028904052516737  0.6452348648170982   F   F   F
  0.3771147123632232  0.3618936172795273  0.6433208457063060   F   F   F
  0.3831809328069227  0.3930660007011397  0.6121208090390269   F   F   F
  0.3854377449973470  0.4644659366576036  0.6103107188575265   F   F   F
  0.3805692411242347  0.4966196145863648  0.5792290460453060   F   F   F
  0.3413944007289871  0.5911781215863527  0.0006584831749166   F   F   F
  0.3241852314203229  0.6085645792563241  0.9694935368556656   F   F   F
  0.2818943422499203  0.6283045769511162  0.9676893199978238   F   F   F
  0.2616185092839558  0.6284095635791545  0.9365414750286902   F   F   F
  0.2192488289289614  0.6091214607742117  0.9347352940473641   F   F   F
  0.2019388561008384  0.5919258937194343  0.9035968879721779   F   F   F
  0.1720775826991883  0.5394111823949359  0.9018026681711788   F   F   F
  0.1628641825231369  0.5100473232184015  0.8706663309328846   F   F   F
  0.1543854494879469  0.4398931595833560  0.8688468586422005   F   F   F
  0.1560126602235457  0.4070742009577444  0.8377019637321510   F   F   F
  0.1714811040100912  0.3401453440830551  0.8358924662285077   F   F   F
  0.1834621743282838  0.3136517363677598  0.8047362695550078   F   F   F
  0.2182529374907745  0.2698844812990586  0.8029169046391047   F   F   F
  0.2369868129191559  0.2575593214571867  0.7717614396273547   F   F   F
  0.2807311653517459  0.2499241598763149  0.7699166862420697   F   F   F
  0.3006301628662200  0.2553851317559790  0.7387440228858750   F   F   F
  0.3403246127443467  0.2862077207582061  0.7368691483351384   F   F   F
  0.3554023962473352  0.3078957534099658  0.7056662310460382   F   F   F
  0.3791792305371828  0.3680534099015915  0.7037637343071452   F   F   F
  0.3848045954776538  0.3995200953551219  0.6725598904897652   F   F   F
  0.3856571464195611  0.4710254542454422  0.6707479435044164   F   F   F
  0.3802280597473597  0.5028862436962740  0.6396197536450003   F   F   F
  0.2576178779185128  0.6277458423337379  0.9969723281900897   F   F   F
  0.2156831233989891  0.6060980847843354  0.9951589110108188   F   F   F
  0.1987654024713521  0.5879572701055409  0.9640128274723807   F   F   F
  0.1700400263434219  0.5337938745061166  0.9622113137197985   F   F   F
  0.1614783684753007  0.5039273759215632  0.9310752924058292   F   F   F
  0.1545020607689622  0.4333355122710998  0.9292564480326249   F   F   F
  0.1568471180265973  0.4006294854718462  0.8981152744803893   F   F   F
  0.1737254544433497  0.3346042547760817  0.8963079499475342   F   F   F
  0.1862774584512721  0.3088034789788523  0.8651556536918150   F   F   F
  0.2219754239727578  0.2670097593869087  0.8633274571577516   F   F   F
  0.2409856635496510  0.2557941384577376  0.8321705800230674   F   F   F
  0.2848669979765290  0.2506273862068227  0.8303317598559374   F   F   F
  0.3046581836646567  0.2572842341244979  0.7991605571156413   F   F   F
  0.3436907953528561  0.2902744948431391  0.7973019654341442   F   F   F
  0.3583568373932451  0.3128360499359530  0.7661149354540981   F   F   F
  0.3809258697166555  0.3742186777508678  0.7642381407781897   F   F   F
  0.3860309758870173  0.4059955366278132  0.7330424388970584   F   F   F
  0.3854132232292642  0.4775052143580538  0.7312367982583936   F   F   F
  0.3794196750725121  0.5090407785776634  0.7000801153019154   F   F   F
  0.1601808184928686  0.4977303626090261  0.9914787931495397   F   F   F
  0.1547127852068400  0.4267853893877103  0.9896614275225204   F   F   F
  0.1577755147985940  0.3942247444342826  0.9585220002976840   F   F   F
  0.1760439038386323  0.3291805159299699  0.9567177021547408   F   F   F
  0.1891538438122495  0.3040898617655898  0.9255709713050422   F   F   F
  0.2257147449677319  0.2643071461989663  0.9237432018910212   F   F   F
  0.2449703805671959  0.2541669696885336  0.8925883498209188   F   F   F
  0.2889380482657558  0.2514716994236323  0.8907615255526622   F   F   F
  0.3085964712328888  0.2592611767490638  0.8595935503760899   F   F   F
  0.3469084323111105  0.2944277189097093  0.8577503054625524   F   F   F
  0.3611204574332660  0.3178293037633182  0.8265733973676461   F   F   F
  0.3823871855743519  0.3804262916956631  0.8247218098403550   F   F   F
  0.3869060592455327  0.4124850177113260  0.7935342714841411   F   F   F
  0.3847826687338269  0.4839115390059376  0.7917308977710036   F   F   F
  0.3782256838057023  0.5151109906776057  0.7605660171388635   F   F   F
  0.1920949222889021  0.2995601696385890  0.9859862947053415   F   F   F
  0.2294756009962313  0.2618415001317445  0.9841657301264846   F   F   F
  0.2489479851025678  0.2527642382447510  0.9530146624849962   F   F   F
  0.2929499586797135  0.2525389760703405  0.9512031132214958   F   F   F
  0.3124451494725520  0.2614384874531410  0.9200386281203450   F   F   F
  0.3499781908607744  0.2987522052339173  0.9182065550935548   F   F   F
  0.3637064186728551  0.3229375481218995  0.8870351100024436   F   F   F
  0.3836203229470669  0.3866942025315296  0.8852036727465560   F   F   F
  0.3874967480517597  0.4189952763169416  0.8540230587386901   F   F   F
  0.3838559397585328  0.4902550774081931  0.8522185555700759   F   F   F
  0.3766992039611594  0.5210677209143952  0.8210503181609710   F   F   F
  0.3162204088456946  0.2638255693385787  0.9804875799062529   F   F   F
  0.3529371560373420  0.3032332375786595  0.9786652991383207   F   F   F
  0.3661478538218077  0.3281815355311295  0.9474975342364047   F   F   F
  0.3846983338548853  0.3930147366083219  0.9456817232483345   F   F   F
  0.3878922501794619  0.4255209116515459  0.9145052939433924   F   F   F
  0.3827469371695500  0.4965321597963737  0.9126959627751035   F   F   F
  0.3749642814066192  0.5269369265560755  0.8815287031793773   F   F   F
  0.3881353717153218  0.4320575209808695  0.9749822712203482   F   F   F
  0.3814792546218229  0.5027344573023029  0.9731664629779289   F   F   F
  0.3730669490506244  0.5326888763683897  0.9420001655223658   F   F   F
  0.4790234501157281  0.4552506825964807  0.4898484639347708   T   T   T
  0.4794813699740390  0.3831012779546717  0.4898633945332193   T   T   T
  0.4806451282747769  0.4912893327067311  0.5206059901153396   T   T   T
  0.4809033923629702  0.4912449287555058  0.4590854145998576   T   T   T
 
  0.00000000E+00  0.00000000E+00  0.00000000E+00
  0.00000000E+00  0.00000000E+00  0.00000000E+00
  0.00000000E+00  0.00000000E+00  0.00000000E+00
  0.00000000E+00  0.00000000E+00  0.00000000E+00
  0.00000000E+00  0.00000000E+00  0.00000000E+00
  0.00000000E+00  0.00000000E+00  0.00000000E+00
  0.00000000E+00  0.00000000E+00  0.00000000E+00
  0.00000000E+00  0.00000000E+00  0.00000000E+00
  0.00000000E+00  0.00000000E+00  0.00000000E+00
  0.00000000E+00  0.00000000E+00  0.00000000E+00
  0.00000000E+00  0.00000000E+00  0.00000000E+00
  0.00000000E+00  0.00000000E+00  0.00000000E+00
  0.00000000E+00  0.00000000E+00  0.00000000E+00
  0.00000000E+00  0.00000000E+00  0.00000000E+00
  0.00000000E+00  0.00000000E+00  0.00000000E+00
  0.00000000E+00  0.00000000E+00  0.00000000E+00
  0.00000000E+00  0.00000000E+00  0.00000000E+00
  0.00000000E+00  0.00000000E+00  0.00000000E+00
  0.00000000E+00  0.00000000E+00  0.00000000E+00
  0.00000000E+00  0.00000000E+00  0.00000000E+00
  0.00000000E+00  0.00000000E+00  0.00000000E+00
  0.00000000E+00  0.00000000E+00  0.00000000E+00
  0.00000000E+00  0.00000000E+00  0.00000000E+00
  0.00000000E+00  0.00000000E+00  0.00000000E+00
  0.00000000E+00  0.00000000E+00  0.00000000E+00
  0.00000000E+00  0.00000000E+00  0.00000000E+00
  0.00000000E+00  0.00000000E+00  0.00000000E+00
  0.00000000E+00  0.00000000E+00  0.00000000E+00
  0.00000000E+00  0.00000000E+00  0.00000000E+00
  0.00000000E+00  0.00000000E+00  0.00000000E+00
  0.00000000E+00  0.00000000E+00  0.00000000E+00
  0.00000000E+00  0.00000000E+00  0.00000000E+00
  0.00000000E+00  0.00000000E+00  0.00000000E+00
  0.00000000E+00  0.00000000E+00  0.00000000E+00
  0.00000000E+00  0.00000000E+00  0.00000000E+00
  0.00000000E+00  0.00000000E+00  0.00000000E+00
  0.00000000E+00  0.00000000E+00  0.00000000E+00
  0.00000000E+00  0.00000000E+00  0.00000000E+00
  0.00000000E+00  0.00000000E+00  0.00000000E+00
  0.00000000E+00  0.00000000E+00  0.00000000E+00
  0.00000000E+00  0.00000000E+00  0.00000000E+00
  0.00000000E+00  0.00000000E+00  0.00000000E+00
  0.00000000E+00  0.00000000E+00  0.00000000E+00
  0.00000000E+00  0.00000000E+00  0.00000000E+00
  0.00000000E+00  0.00000000E+00  0.00000000E+00
  0.00000000E+00  0.00000000E+00  0.00000000E+00
  0.00000000E+00  0.00000000E+00  0.00000000E+00
  0.00000000E+00  0.00000000E+00  0.00000000E+00
  0.00000000E+00  0.00000000E+00  0.00000000E+00
  0.00000000E+00  0.00000000E+00  0.00000000E+00
  0.00000000E+00  0.00000000E+00  0.00000000E+00
  0.00000000E+00  0.00000000E+00  0.00000000E+00
  0.00000000E+00  0.00000000E+00  0.00000000E+00
  0.00000000E+00  0.00000000E+00  0.00000000E+00
  0.00000000E+00  0.00000000E+00  0.00000000E+00
  0.00000000E+00  0.00000000E+00  0.00000000E+00
  0.00000000E+00  0.00000000E+00  0.00000000E+00