 C  S  O 
 1.0000000000000000
    32.3722991942999982    0.0000000000000000    0.0000000000000000
     0.0000000000000000   19.9214134216000005    0.0000000000000000
     0.0000000000000000    0.0000000000000000   40.4480476378999967
 C   S   O  
 364   1   3
Cartesian
 12.0098275189999999 10.7247662580000007  0.0995669280000000
 11.9398151469999991 10.8347072480000008  2.5425671730000001
 10.9447246679999992 11.8541439860000004  2.4697980290000001
 10.3757256899999994 12.1811824850000008  1.2103658580000001
  8.9939449039999992 12.5272290230000003  1.1372314640000001
 11.8658250289999998 10.9421665539999999  4.9857715620000000
 10.8361523809999998 11.9266412289999995  4.9129514880000000
 10.2562466820000004 12.2337823189999995  3.6535183369999999
  8.8632842150000002 12.5316794310000006  3.5800795679999999
  8.2084274869999998 12.4890039599999998  2.3207420999999999
  6.8664174029999998 12.0115338319999996  2.2476720459999999
  6.3315153159999999 11.6314276599999999  0.9882078560000001
  5.4393951889999999 10.5208584859999998  0.9150903379999999
 11.7876516700000007 11.0469435039999997  7.4294587319999996
 10.7246944670000008 11.9952556450000003  7.3565527700000004
 10.1349182090000003 12.2821632889999997  6.0968782289999996
  8.7325174000000008 12.5318278569999997  6.0233032440000001
  8.0797050200000005 12.4664491300000009  4.7638191630000000
  6.7549918089999998 11.9429479139999994  4.6908459980000003
  6.2334855490000001 11.5447753179999992  3.4312742209999998
  5.3802258629999997 10.4041884499999995  3.3580123510000002
  5.1451442900000002  9.7916042660000002  2.0985764880000000
  5.0172963870000000  8.3728312710000008  2.0252627840000001
  5.1389403390000004  7.7279412560000003  0.7658819200000000
  5.7747172979999997  6.4531457310000002  0.6928764330000000
 11.7059810209999995 11.1490309730000003  9.8737314470000008
 10.6109770630000000 12.0600240440000004  9.8006838450000000
 10.0116650210000007 12.3264286999999992  8.5407055320000005
  8.6016203420000004 12.5277039860000006  8.4670817270000001
  7.9516130299999999 12.4398060519999998  7.2072408340000003
  6.6457552770000001 11.8708650769999995  7.1343541589999999
  6.1383872349999997 11.4549585310000008  5.8746404410000004
  5.3249763970000004 10.2855936240000005  5.8012034799999999
  5.1114198010000003  9.6652105390000003  4.5416178409999999
  5.0325575960000002  8.2429115339999992  4.4684599399999998
  5.1763926979999999  7.6026791300000003  3.2088426580000000
  5.8555828470000000  6.3505577689999999  3.1357326740000002
  6.3139111630000002  5.8808889170000000  1.8764095199999999
  7.5491082179999998  5.1712975910000001  1.8028493029999999
  8.1858055679999993  5.0120173909999997  0.5435839730000001
  9.6096136510000001  5.0563148629999999  0.4706465940000000
 12.0096943809999992 10.7204619010000002 13.5793934499999995
 11.6209095589999993 11.2484087759999998 12.3187057319999997
 10.4952529380000001 12.1212278409999996 12.2454315059999992
  9.8871296550000007 12.3665203699999999 10.9851259139999993
  8.4709673710000004 12.5191083340000002 10.9115744360000004
  7.8244631370000004 12.4088598050000005  9.6513550329999998
  6.5389600960000003 11.7953173810000003  9.5784340029999999
  6.0465633499999996 11.3619001179999994  8.3184773869999997
  5.2742893270000000 10.1650550109999998  8.2448921570000007
  5.0822538479999997  9.5377333019999995  6.9851187689999996
  5.0525456950000001  8.1136134060000007  6.9120753859999997
  5.2180350530000004  7.4788015229999996  5.6522640270000002
  5.9400489160000003  6.2508854889999999  5.5789289259999997
  6.4143919269999996  5.7974734500000000  4.3194092849999999
  7.6733599420000003  5.1311192410000004  4.2459684060000003
  8.3150933899999995  4.9938506309999999  2.9865301330000000
  9.7365184920000001  5.0873667899999999  2.9135536520000000
 10.3547515969999999  5.3073372330000002  1.6542292930000000
 11.5157043179999992  6.1327294109999997  1.5806641029999999
 11.9267454120000007  6.6444099730000001  0.3213770370000000
 12.4824469689999997  7.9559753920000000  0.2485513880000000
 11.9396028980000004 10.8307341780000002 16.0252609700000015
 11.5325887520000006 11.3447669970000007 14.7643695309999998
 10.3776253220000001 12.1783338909999994 14.6908518049999994
  9.7615330409999999 12.4025665380000003 13.4302424410000008
  8.3409665840000002 12.5061347059999992 13.3568621360000002
  7.6987275970000004 12.3734928340000003 12.0962624150000000
  6.4352024920000002 11.7159771020000001 12.0232075809999994
  5.9578802719999997 11.2661142279999993 10.7629586449999994
  5.2275317630000000 10.0431805619999999 10.6893203739999993
  5.0574293590000003  9.4095976470000000  9.4292546660000003
  5.0771410509999999  7.9853406050000002  9.3562667340000001
  5.2644617000000000  7.3566486260000001  8.0962570790000008
  6.0283253429999997  6.1543889350000001  8.0227086140000008
  6.5176690759999998  5.7175828070000003  6.7628809810000003
  7.7987693910000004  5.0949994529999998  6.6896145909999998
  8.4448230770000006  4.9800936099999999  5.4298671199999999
  9.8620813389999995  5.1226209559999996  5.3567562329999996
 10.4725065629999996  5.3636613740000003  4.0973288080000003
 11.6043965609999997  6.2285004590000002  4.0237788360000000
 11.9975025859999995  6.7539888039999996  2.7643752190000002
 12.5078290950000000  8.0839091879999998  2.6916202390000001
 12.5668016070000004  8.7376032450000007  1.4321932669999999
 12.3027383530000005 10.1374204460000001  1.3588768499999999
 11.8657343409999996 10.9386162020000004 18.4714684250000012
 11.4416061459999998 11.4384962960000003 17.2104383610000014
 10.2585245030000003 12.2317150399999992 17.1367603099999997
  9.6348771099999997 12.4343962179999998 15.8759436090000001
  8.2115784250000008 12.4886738600000005 15.8027284510000001
  7.5742346800000000 12.3340589890000008 14.5418575049999994
  6.3342914400000003 11.6330698469999998 14.4685881009999999
  5.8730630269999997 11.1668658529999991 13.2080173110000008
  5.1854186010000003  9.9194953150000007 13.1344706539999994
  5.0371402520000004  9.2806622720000007 11.8739697799999995
  5.1060590579999996  7.8579470799999998 11.8009920939999997
  5.3149292849999998  7.2361575089999999 10.5407094049999994
  6.1198134890000002  6.0609576750000000 10.4670397929999996
  6.6239572710000001  5.6412888250000002  9.2069427439999991
  7.9256597600000003  5.0630308470000003  9.1338222120000001
  8.5750476899999999  4.9705275479999997  7.8736992450000001
  9.9864903209999998  5.1619562459999999  7.8004660049999996
 10.5879904600000003  5.4241135419999997  6.5407595189999999
 11.6894217139999999  6.3274282340000001  6.4673532969999998
 12.0643563020000002  6.8660024169999998  5.2077034680000001
 12.5283536049999995  8.2127477889999998  5.1348457229999998
 12.5649801219999997  8.8679973519999997  3.8753785189999999
 12.2528298509999996 10.2578771290000006  3.8019078060000000
 11.7882208849999994 11.0437553120000000 20.9177530300000001
 11.3469361899999992 11.5286360580000000 19.6567482789999985
 10.1373484640000004 12.2806445929999999 19.5830159839999993
  9.5072419390000000 12.4617208680000005 18.3220329309999990
  8.0828897249999994 12.4667162969999996 18.2490082330000014
  7.4515072919999996 12.2900144359999999 16.9879781680000015
  6.2366514410000002 11.5465029979999994 16.9144749079999990
  5.7917734610000000 11.0648223179999992 15.6536690560000000
  5.1473000679999998  9.7946375010000004 15.5802646419999995
  5.0211979150000001  9.1510951949999999 14.3194250370000002
  5.1390787830000004  7.7316067869999996 14.2463328340000004
  5.3694981060000000  7.1175994930000002 12.9857704819999995
  6.2143893800000001  5.9708446300000002 12.9120803780000006
  6.7325348649999999  5.5687636789999999 11.6516253100000000
  8.0533981620000006  5.0356569190000000 11.5786223100000001
  8.7055858540000006  4.9655327130000000 10.3182576509999997
 10.1095515200000001  5.2057852850000002 10.2448243070000000
 10.7014946500000008  5.4883921349999998  8.9847362969999995
 11.7710383360000002  6.4292295370000003  8.9115410280000003
 12.1270132700000008  6.9803534440000004  7.6515277570000002
 12.5441970529999995  8.3423184280000005  7.5785223459999997
 12.5581128910000004  8.9983041840000002  6.3188568450000000
 12.1980309330000001 10.3764980779999991  6.2453578040000002
 11.7074484360000000 11.1462951839999995 23.3639689230000016
 11.2497906350000001 11.6157930490000005 22.1030702519999984
 10.0148921760000000 12.3255761410000009 22.0294464470000015
  9.3787490869999992 12.4846319210000001 20.7684175879999984
  7.9551421570000000 12.4402917019999997 20.6954037379999995
  7.3301136969999998 12.2419671270000006 19.4343700569999989
  6.1415526450000000 11.4570079990000000 19.3607076780000007
  5.7137911270000004 10.9601510480000002 18.0997427070000008
  5.1135755789999999  9.6685168790000002 18.0265154940000016
  5.0098416109999997  9.0210478120000008 16.7654492650000009
  5.1768292569999996  7.6065382079999999 16.6921533420000010
  5.4279568789999999  7.0008142780000000 15.4313583390000009
  6.3120018839999998  5.8840153639999997 15.3577634639999996
  6.8436261660000000  5.5001825100000001 14.0969756939999993
  8.1819956919999992  5.0129584129999998 14.0239714880000008
  8.8361085819999996  4.9653109640000004 12.7633669459999997
 10.2309012169999995  5.2538504049999997 12.6897768929999994
 10.8127007590000002  5.5567001989999998 11.4294062069999995
 11.8491017109999994  6.5339358360000004 11.3563911520000005
 12.1857021410000002  7.0968708979999997 10.0959939460000001
 12.5554983650000000  8.4724085579999997 10.0228215810000005
 12.5467643050000000  9.1283189139999994  8.7627890219999998
 12.1392870700000000 10.4932156100000000  8.6893828000000006
 11.6230397700000001 11.2460137719999995 25.8098979210000010
 11.1492490899999996 11.6992144519999997 24.5491656009999986
  9.8905333619999993 12.3657521169999995 24.4757611869999998
  9.2494689819999998 12.5029666989999999 23.2147492040000003
  7.8282556469999998 12.4094333230000000 23.1416967800000002
  7.2106520539999996 12.1895382800000007 21.8807402479999986
  6.0498908399999998 11.3640992000000001 21.8070175960000014
  5.6393538379999999 10.8528449170000005 20.5460345440000012
  5.0840608620000003  9.5412872160000006 20.4729459570000003
  5.0027312579999998  8.8906857650000006 19.2118266889999987
  5.2182728679999997  7.4827781550000001 19.1383149900000014
  5.4905410070000000  6.8862756410000001 17.8774030589999988
  6.4124884360000003  5.8005826799999998 17.8039660980000001
  6.9570333959999999  5.4353571159999996 16.5429191570000000
  8.3114060399999996  4.9946052290000003 16.4697956119999986
  8.9666313090000003  4.9695995880000003 15.2089969929999995
 10.3505924749999991  5.3061456680000001 15.1353635440000005
 10.9214071490000002  5.6288685290000000 13.8746770309999992
 11.9232761000000007  6.6413440840000000 13.8017584119999999
 12.2403158239999996  7.2154461310000002 12.5411261439999997
 12.5622498240000002  8.6029398100000005 12.4677193200000005
 12.5308195569999992  9.2580177930000005 11.2073401950000004
 12.0765259070000006 10.6079561069999997 11.1340852570000006
 11.5354232460000006 11.3428612060000003 28.2553616169999984
 11.0460187330000004 11.7793087360000008 26.9948920840000000
  9.7650341899999997 12.4021070110000000 26.9217384029999991
  9.1195309049999995 12.5168783809999997 25.6609048259999994
  7.7023536840000002 12.3743679550000003 25.5877029269999987
  7.0926544490000003 12.1333394109999997 24.3269175669999989
  5.9608643050000003 11.2685472279999992 24.2532961729999990
  5.5685001869999997 10.7432755849999992 22.9923348189999999
  5.0586531690000003  9.4133967609999996 22.9193306129999996
  5.0000221849999997  8.7602827530000003 21.6583403280000013
  5.2640121170000000  7.3606786919999996 21.5846731269999985
  5.5565134059999997  6.7737965640000004 20.3237117719999993
  6.5155272870000003  5.7207021300000003 20.2504857640000004
  7.0723166219999998  5.3743593340000002 18.9893363599999994
  8.4410894180000007  4.9805777759999996 18.9160464640000008
  9.0968028610000005  4.9781928649999996 17.6550995750000013
 10.4683619120000007  5.3622091730000001 17.5814986729999987
 11.0276717069999997  5.7046020549999996 16.3205722760000000
 11.9938654049999993  6.7511140879999996 16.2476391920000012
 12.2906613650000001  7.3358339440000000 14.9868224909999999
 12.5644514279999999  8.7335541810000006 14.9132095350000000
 12.5103751219999992  9.3870713150000000 13.6525543640000002
 11.4447387529999993 11.4369051679999991 30.7002105350000001
 10.9402683970000005 11.8560996490000008 29.4400351309999984
  9.6385200809999994 12.4343142869999994 29.3671032519999997
  8.9891471050000007 12.5267030009999996 28.1065975560000005
  7.5777054389999998 12.3354933790000008 28.0332654689999998
  6.9765883129999997 12.0732660260000007 26.7727163769999983
  5.8754204410000002 11.1698415000000004 26.6993360720000013
  5.5011288719999998 10.6314240540000000 25.4384807970000004
  5.0374648970000004  9.2847107419999997 25.3654163180000012
  5.0015045540000003  8.6298743970000000 24.1046213149999993
  5.3137894100000000  7.2402475380000002 24.0309131290000018
  5.6265590630000002  6.6638294499999997 22.7700337449999992
  6.6212573629999998  5.6443279979999996 22.6969861430000002
  7.1897879450000000  5.3176486909999996 21.4359042439999996
  8.5712426389999994  4.9711464850000002 21.3624226819999983
  9.2266396369999999  4.9913493539999996 20.1014155199999998
 10.5840860370000005  5.4223769570000000 20.0279773540000008
 11.1312609590000005  5.7837131639999999 18.7668532640000016
 12.0607065789999996  6.8630564559999998 18.6938092789999999
 12.3370117960000005  7.4577843870000002 17.4329274840000004
 12.5623366529999991  8.8641531160000007 17.3592470230000018
 12.4857310449999996  9.5152883080000006 16.0983387080000000
 11.3506351169999995 11.5275293930000000 33.1444061010000013
 10.8319286189999993 11.9292333419999999 31.8845489350000015
  9.5109649849999993 12.4620972769999998 31.8117255460000017
  8.8586176240000007 12.5319762830000005 30.5516586329999988
  7.4545820129999996 12.2921078369999996 30.4782590400000011
  6.8627671960000001 12.0094214309999998 29.2180040769999998
  5.7934878569999997 11.0683786069999996 29.1448817379999987
  5.4378665110000002 10.5172677619999995 27.8842988930000004
  5.0208221369999997  9.1553484930000000 27.8110921719999986
  5.0074706899999999  8.4996144680000008 26.5505045059999993
  5.3676824099999996  7.1216212460000001 26.4768493599999992
  5.7001608609999996  6.5562662449999998 25.2161218620000014
  6.7292970969999999  5.5715160920000004 25.1431586409999994
  7.3088549970000001  5.2645062109999996 23.8823178310000017
  8.7015405749999992  4.9660896079999999 23.8086843819999991
  9.3559178119999995  5.0089372530000000 22.5478001759999991
 10.6977320480000007  5.4865641189999996 22.4745669359999987
 11.2321276309999991  5.8664031230000004 21.2133934229999994
 12.1235883379999994  6.9772501509999998 21.1401119649999991
 12.3790998739999996  7.5811840630000003 19.8791795409999992
 12.5556054550000002  8.9945086320000005 19.8055472980000005
 12.4567310330000005  9.6427192359999996 18.5445208490000013
 11.2537674150000004 11.6149452390000008 35.5881845839999968
 10.7214624890000003 11.9985970129999995 34.3285685070000000
  9.3827731409999995 12.4854607320000000 34.2557378850000021
  8.7282444350000006 12.5327089140000005 32.9960663580000002
  7.3333350629999998 12.2442837620000002 32.9225655079999981
  6.7512904699999998 11.9412950410000001 31.6627228070000015
  5.7150313380000002 10.9639365069999997 31.5897668190000012
  5.3787700259999998 10.4008292709999992 30.3294901579999987
  5.0088729819999998  9.0253230769999995 30.2561363730000004
  5.0179403699999998  8.3695219630000004 28.9958307809999987
  5.4253071390000001  7.0046537640000004 28.9223660950000010
  5.7773564249999998  6.4512120360000003 27.6618314679999990
  6.8399397810000000  5.5026653820000000 27.5888176190000003
  7.4297391929999996  5.2157506130000000 26.3282709369999992
  8.8319282349999995  4.9656900449999997 26.2546374890000003
  9.4844125930000001  5.0311008309999998 24.9939244559999985
 10.8088744820000002  5.5549440219999999 24.9208527450000012
 11.3299263349999997  5.9529788779999997 23.6598841580000006
 12.1827557340000006  7.0937877909999996 23.5863640220000015
 12.4170915399999995  7.7059884429999999 22.3254171329999984
 12.5447836329999998  9.1245548280000008 22.2519620899999993
 12.4232882559999993  9.7688980409999999 20.9908801909999987
 11.1537343050000004 11.6984461989999993 38.0316086650000003
 10.6084213880000000 12.0637643810000004 36.7721131329999977
  9.2537332639999992 12.5042087290000001 36.6992294719999990
  8.5978982609999992 12.5288925829999993 35.4397725130000012
  7.2138425479999997 12.1922503219999996 35.3662764859999967
  6.6425585130000000 11.8692656369999998 34.1067303239999973
  5.6404715239999996 10.8568346110000000 34.0338466629999985
  5.3234023749999997 10.2823650600000001 32.7740256599999995
  5.0012976110000000  8.8948381340000005 32.7004934690000013
  5.0329579750000004  8.2395962889999996 31.4405229910000017
  5.4870692830000003  6.8895356710000000 31.3672873400000007
  5.8578992589999999  6.3485261130000001 30.1069962129999986
  6.9526195749999999  5.4371993810000001 30.0338208340000001
  7.5522606029999997  5.1710767329999996 28.7736189099999997
  8.9623101060000003  4.9698456780000004 28.6999999270000004
  9.6123362310000005  5.0577878439999999 27.4395737910000008
 10.9179600269999995  5.6270541690000000 27.3665551190000009
 11.4249146649999993  6.0428485040000002 26.1058710169999983
 12.2381335149999995  7.2122484399999998 26.0322134600000012
 12.4513717370000006  7.8322758959999996 24.7714811399999988
 12.5299676649999991  9.2544537850000008 24.6982310230000017
 12.3862324160000004  9.8941334510000001 23.4372166290000017
 11.0506698869999997 11.7780916419999997  0.0267581060000000
 10.4932809480000007 12.1247069490000001 39.2153274670000016
  9.1241830250000007 12.5182154029999992 39.1423497810000001
  8.4677894190000007 12.5204643549999997 37.8830061339999986
  7.0961155610000004 12.1362236269999997 37.8096210080000006
  6.5362833419999999 11.7936514470000002 36.5502122669999991
  5.5698513470000002 10.7471251649999999 36.4773261950000034
  5.2727741559999997 10.1620283059999998 35.2178499500000015
  4.9986589659999998  8.7642593850000008 35.1442116790000014
  5.0526879979999997  8.1103141900000004 33.8845980130000015
  5.5530489180000000  6.7767009659999999 33.8115359459999993
  5.9422003529999996  6.2485860720000002 32.5515871659999974
  7.0679997600000002  5.3758815919999998 32.4782333810000026
  7.6763208210000000  5.1306484330000002 31.2183062990000018
  9.0925414730000007  4.9784359870000001 31.1448271470000009
  9.7390799559999994  5.0889745409999998 29.8846445110000012
 11.0243307099999992  5.7028571570000004 29.8115438690000012
 11.5167674939999998  6.1360494059999997 28.5512840839999988
 12.2892383299999999  7.3327573680000002 28.4775879520000004
 12.4810789250000003  7.9597216670000002 27.2170991330000014
 12.5106799889999998  9.3837786300000001 27.1440394759999997
 12.3448756339999992 10.0181072380000007 25.8832999239999992
  8.3379970219999997 12.5070834459999993 40.3259166960000002
  6.9804223079999996 12.0758248920000000 40.2527172080000000
  6.4326714180000000 11.7143016679999992 38.9933156999999966
  5.5028760700000001 10.6351002720000007 38.9203404249999991
  5.2261825330000002 10.0400149299999999 37.6610691050000028
  5.0004915460000001  8.6335583329999999 37.5874404790000014
  5.0771989370000004  7.9819309609999998 36.3280606690000027
  5.6233048950000004  6.6663396319999997 36.2551239679999995
  6.0304372239999999  6.1519535589999998 34.9954572620000022
  7.1856297869999999  5.3185968370000003 34.9219540019999997
  7.8021841930000004  5.0945909850000000 33.6622993510000015
  9.2228017829999995  4.9912359569999998 33.5890395899999987
  9.8651271170000001  5.1240862189999996 32.3290667010000021
 11.1285933709999991  5.7817230669999997 32.2559081980000002
 11.6056025229999999  6.2319451319999999 30.9959811159999994
 12.3362872540000001  7.4546704080000001 30.9223765979999996
 12.5063771159999995  8.0881102400000007 29.6622204819999986
 12.4870489199999994  9.5123637199999997 29.5892934240000010
 12.2993163140000004 10.1406478230000001 28.3288865749999985
  5.1836506609999997  9.9164608919999999 40.1038711770000020
  5.0066733069999998  8.5029890829999992 40.0303486290000023
  5.1059235080000001  7.8542862990000000 38.7710652550000034
  5.6971662150000002  6.5582931520000001 38.6981478410000008
  6.1218588010000001  6.0581625150000002 37.4387246360000034
  7.3051686120000001  5.2650625120000001 37.3651466379999988
  7.9291527090000002  5.0624697960000002 36.1056872690000006
  9.3525652370000003  5.0083120819999998 36.0326565430000016
  9.9900126950000008  5.1632517089999999 34.7729102779999977
 11.2301102979999996  5.8641601080000001 34.6996601609999971
 11.6913194160000007  6.3307387290000001 33.4400127420000004
 12.3792040690000000  7.5780754269999999 33.3665697539999968
 12.5273193719999991  8.2171726679999999 32.1066884789999989
 12.4589210599999998  9.6399614790000001 32.0337421349999971
 12.2498236289999998 10.2617801419999992 30.7737837110000001
  6.2165282739999999  5.9678962940000000 39.8816689499999981
  7.4264715179999996  5.2160124369999998 39.8080547879999997
  8.0570604279999998  5.0348085149999999 38.5487400729999976
  9.4815800289999999  5.0299092669999999 38.4758636440000004
 10.1133401700000007  5.2070017860000002 37.2163078390000024
 11.3283634079999995  5.9504449470000003 37.1429299449999988
 11.7733798319999998  6.4325786239999996 35.8834729869999975
 12.4177292529999992  7.7029338340000004 35.8102349250000032
 12.5436606410000007  8.3468816399999994 34.5505875059999994
 12.4259770690000000  9.7664935390000007 34.4775591909999974
 12.1955678760000001 10.3806801310000001 33.2179190049999988
 10.2352368919999996  5.2547421490000001 39.6593558220000020
 11.4239286710000005  6.0397695530000002 39.5858501499999988
 11.8519593590000003  6.5371798370000000 38.3265354349999967
 12.4523992170000000  7.8288520029999997 38.2535288179999995
 12.5559064629999995  8.4769753320000003 36.9940139979999998
 12.3894103680000001  9.8916986690000002 36.9208820149999966
 12.1376961649999995 10.4978203810000004 35.6615287249999966
 12.5637895959999994  8.6072453549999999 39.4371174309999972
 12.3483574879999995 10.0153750109999997 39.3639565169999983
 12.0758852999999995 10.6125644410000000 38.1046779650000005
 14.2642704750000000  8.9945181309999995 19.8053869730000009
 14.2642704750000000  7.5810938200000004 19.8790011349999993
 14.2642704750000000  9.7688636070000001 20.9909187650000000
 14.2642704750000000  9.6427607949999992 18.5446209009999983
