Ge Se
 1.0000000000000000
     3.8499999999999996    0.0000000000000000    0.0000000000000000
     0.0000000000000000    4.7500000000000000    0.0000000000000000
     0.0000000000000000    0.0000000000000000   11.1422209999999993
 Ge  Se 
   4   4
Selective dynamics
Cartesian
  0.9624999999999998  0.5518656583440503  1.3849433195914636   T   T   T
  2.8874999999999997  2.9268656583440502  4.1861671804085354   T   T   T
  2.8874999999999997  4.1981343416559502  9.7572776804085350   T   T   T
  0.9624999999999998  1.8231343416559493  6.9560538195914638   T   T   T
  0.9624999999999998 -0.1073739002110740  3.8990181919513756   T   T   T
  2.8874999999999997  2.2676260997889264  1.6720923080486245   T   T   T
  2.8874999999999997  4.8573739002110745  7.2432028080486228   T   T   T
  0.9624999999999998  2.4823739002110736  9.4701286919513770   T   T   T
