Ge Se                                   
    1.000000000000000     
     4.3999999999999995    0.0000000000000000    0.0000000000000000
     0.0000000000000000    4.2999999999999998    0.0000000000000000
     0.0000000000000000    0.0000000000000000   11.1422209999999993
   Ge   Se
     4     4
Selective dynamics
Direct
  0.1036790987352276  0.2500000000000000  0.1319413596645092   T   T   T
  0.6036790987352276  0.7500000000000000  0.3680586403354908   T   T   T
  0.8963209012647724  0.7500000000000000  0.8680586403354908   T   T   T
  0.3963209012647724  0.2500000000000000  0.6319413596645092   T   T   T
  0.9749298316366577  0.2500000000000000  0.3550948121916377   T   T   T
  0.4749298316366577  0.7500000000000000  0.1449051878083623   T   T   T
  0.0250701683633423  0.7500000000000000  0.6449051878083623   T   T   T
  0.5250701683633423  0.2500000000000000  0.8550948121916377   T   T   T
 
  0.00000000E+00  0.00000000E+00  0.00000000E+00
  0.00000000E+00  0.00000000E+00  0.00000000E+00
  0.00000000E+00  0.00000000E+00  0.00000000E+00
  0.00000000E+00  0.00000000E+00  0.00000000E+00
  0.00000000E+00  0.00000000E+00  0.00000000E+00
  0.00000000E+00  0.00000000E+00  0.00000000E+00
  0.00000000E+00  0.00000000E+00  0.00000000E+00
  0.00000000E+00  0.00000000E+00  0.00000000E+00
