 C  S  O  H                             
    1.000000000000000     
    32.3722991942999982    0.0000000000000000    0.0000000000000000
     0.0000000000000000   19.9214134216000005    0.0000000000000000
     0.0000000000000000    0.0000000000000000   40.4480476378999967
   C    S    O    H 
   364     1     2     1
Selective dynamics
Direct
  0.3706797906162837  0.5385160461746401  0.0024440118278708   T   T   T
  0.3684717113905213  0.5440344661883993  0.0628842626867299   T   T   T
  0.3377582841638509  0.5952341866627981  0.0610813445994302   T   T   T
  0.3202112327232666  0.6116379152472640  0.0299189265713503   T   T   T
  0.2775255777360954  0.6289752281322540  0.0281006934572069   T   T   T
  0.3661390245177273  0.5494515607250061  0.1233154790394354   T   T   T
  0.3343599748695592  0.5989155510345395  0.1215214238452231   T   T   T
  0.3164846374597322  0.6143201117380430  0.0903621574645284   T   T   T
  0.2734526723982814  0.6292537804347768  0.0885396726132270   T   T   T
  0.2532575004282389  0.6270467530151145  0.0573801524187613   T   T   T
  0.2118269802348503  0.6029862267574249  0.0555625078560918   T   T   T
  0.1953449899210197  0.5838575553887074  0.0244033341589017   T   T   T
  0.1678400295920783  0.5280522871852790  0.0225871615981887   T   T   T
  0.3636834651576934  0.5547467268336437  0.1837448750754355   T   T   T
  0.3308826949059769  0.6024208569878855  0.1819672084944668   T   T   T
  0.3126888603067138  0.6167987059835208  0.1508077601419411   T   T   T
  0.2693732207168296  0.6293072929972376  0.1489882075681543   T   T   T
  0.2492417123948860  0.6259680099630700  0.1178216091094874   T   T   T
  0.2083561945303432  0.5995616346977136  0.1160018747478858   T   T   T
  0.1922951651671402  0.5795312614250657  0.0848408279849748   T   T   T
  0.1660000348657805  0.5221981633666033  0.0830133086425097   T   T   T
  0.1587714054269087  0.4914484033375344  0.0518648583634229   T   T   T
  0.1548444832689924  0.4202304982166544  0.0500434398960082   T   T   T
  0.1586090810840856  0.3878687035116641  0.0188951821842889   T   T   T
  0.1782354567096989  0.3238793483664855  0.0170887564426838   T   T   T
  0.3611651010557798  0.5599171810412428  0.2441626638366771   T   T   T
  0.3273702057992143  0.6056625667313449  0.2424137711582480   T   T   T
  0.3088613947256910  0.6190480885338534  0.2112629685559956   T   T   T
  0.2652902510180750  0.6290523663667977  0.2094450853689929   T   T   T
  0.2452497683766059  0.6246379023650518  0.1782801534413576   T   T   T
  0.2049436167353932  0.5959089443354052  0.1764482415021681   T   T   T
  0.1893310019459856  0.5750054370840776  0.1452850397077475   T   T   T
  0.1642696972705426  0.5162317754905371  0.1434423799529578   T   T   T
  0.1577174553103776  0.4850940198675806  0.1122884213956971   T   T   T
  0.1552974331021273  0.4137086365200596  0.1104681856054192   T   T   T
  0.1597461629781095  0.3815816817685899  0.0793162134171713   T   T   T
  0.1807075400357737  0.3187170187402500  0.0775080071422308   T   T   T
  0.1948676453206373  0.2951451860988568  0.0463657881078418   T   T   T
  0.2330181558383727  0.2595147220754632  0.0445503283190842   T   T   T
  0.2526965777915393  0.2515530040194494  0.0134054472224161   T   T   T
  0.2966730668625494  0.2538297062380883  0.0116044456745388   T   T   T
  0.3710379964692113  0.5386238633690388  0.3356631053501823   T   T   T
  0.3587782746964082  0.5650329125487497  0.3045995961137924   T   T   T
  0.3238357293079968  0.6085961683127633  0.3028619891864812   T   T   T
  0.3050304799696401  0.6209359488248777  0.2717635195000160   T   T   T
  0.2612179480289863  0.6283478582947696  0.2699252995476422   T   T   T
  0.2412893986857207  0.6228944655381857  0.2387562874477384   T   T   T
  0.2016077969621181  0.5919834175580438  0.2369009537981238   T   T   T
  0.1864528405290800  0.5702594670352784  0.2057206812388983   T   T   T
  0.1626446745069995  0.5101452142405052  0.2038643613803022   T   T   T
  0.1567642103913688  0.4786763585028306  0.1727069230133051   T   T   T
  0.1558570858790697  0.4071873503635166  0.1708895542880825   T   T   T
  0.1609919925248860  0.3753413806483827  0.1397428756594165   T   T   T
  0.1832648591422265  0.3136706748736444  0.1379336658596544   T   T   T
  0.1979323715251889  0.2909225431162025  0.1067916137424476   T   T   T
  0.2368082104659481  0.2574456165477006  0.1049844332406107   T   T   T
  0.2566518307639294  0.2505948499278602  0.0738356865782915   T   T   T
  0.3005545489812975  0.2553527252637963  0.0720373458292426   T   T   T
  0.3196569538391869  0.2664508242319239  0.0408925926947618   T   T   T
  0.3554811603248718  0.3079753684115698  0.0390759108149986   T   T   T
  0.3681653030047751  0.3336894034215987  0.0079264695104033   T   T   T
  0.3852891352954030  0.3995567900827552  0.0061245080895138   T   T   T
  0.3697895304090085  0.5444565279517199  0.3960496118262340   T   T   T
  0.3565042112795405  0.5697481102199919  0.3652242793536132   T   T   T
  0.3201277892529220  0.6106088911693244  0.3633856674850170   T   T   T
  0.3011083587661472  0.6219970463906270  0.3322843643903939   T   T   T
  0.2571878789172475  0.6270262532649559  0.3304082762796471   T   T   T
  0.2373778208738752  0.6206916379886217  0.2992061197405926   T   T   T
  0.1983190891894559  0.5877934260849658  0.2973331556548390   T   T   T
  0.1836158642083515  0.5653488869970980  0.2661502009550565   T   T   T
  0.1610382217582689  0.5039577534048250  0.2642854472859328   T   T   T
  0.1558768753600518  0.4721915704038233  0.2331303157999267   T   T   T
  0.1564864718798616  0.4006922167033116  0.2313155163921832   T   T   T
  0.1623450983762451  0.3691623509541331  0.2001708865222982   T   T   T
  0.1859166742655913  0.3087964635679027  0.1983664303652927   T   T   T
  0.2010600040308065  0.2868703088288409  0.1672210924861852   T   T   T
  0.2406247378454023  0.2555932483986478  0.1654260222701621   T   T   T
  0.2606037278365150  0.2498393900415011  0.1342783911148023   T   T   T
  0.3043838707004282  0.2570682334436772  0.1324772208224183   T   T   T
  0.3232478808796580  0.2692417293208968  0.1013345974578542   T   T   T
  0.3581613532268235  0.3127574880552425  0.0995167402570701   T   T   T
  0.3703015464471855  0.3391766888828153  0.0683684325962738   T   T   T
  0.3860116676118314  0.4059635568819702  0.0665682307140494   T   T   T
  0.3878562141150799  0.4387710446908087  0.0354156834805726   T   T   T
  0.3796967620796367  0.5090362574379131  0.0335993861908270   T   T   T
  0.3667769336031754  0.5497228931365327  0.4566423990580839   T   T   T
  0.3530494325160011  0.5727206066465350  0.4257880327049353   T   T   T
  0.3159618390971483  0.6113192529677990  0.4238057160414542   T   T   T
  0.2969297869986712  0.6222785109887549  0.3926380618273709   T   T   T
  0.2530006802672416  0.6256004788918030  0.3907885172272616   T   T   T
  0.2333742981638981  0.6183664495362254  0.3596151140762529   T   T   T
  0.1949078895655824  0.5835423044908945  0.3577486335044887   T   T   T
  0.1807674089641058  0.5602499666494650  0.3265779028391052   T   T   T
  0.1594543490322456  0.4976932497009403  0.3247190984788173   T   T   T
  0.1550305435020458  0.4656443792770474  0.2935497746098908   T   T   T
  0.1571830456156068  0.3942473663987126  0.2917404997814314   T   T   T
  0.1637536234181493  0.3630625037490375  0.2605963186310501   T   T   T
  0.1886446953000893  0.3040963620588276  0.2587987568080664   T   T   T
  0.2042652766636660  0.2830238535396028  0.2276649841211647   T   T   T
  0.2444845813384594  0.2539976229665543  0.2258818472072376   T   T   T
  0.2645711204008510  0.2493528786579414  0.1947336074705591   T   T   T
  0.3081632500314978  0.2590391724109618  0.1929261609890766   T   T   T
  0.3267535032360106  0.2722522861002305  0.1617737342860204   T   T   T
  0.3607095411772472  0.3177188983083352  0.1599494604425801   T   T   T
  0.3722960470704226  0.3447839849846306  0.1288050773491380   T   T   T
  0.3865666879668077  0.4124269835657001  0.1269971252175578   T   T   T
  0.3877268905748927  0.4453131118531744  0.0958548898990978   T   T   T
  0.3780982412562475  0.5150844975909825  0.0940385977971400   T   T   T
  0.3648909030774941  0.5548946256594846  0.5172501995870362   T   T   T
  0.3500687228158091  0.5768721602919317  0.4856776031910074   T   T   T
  0.3122106845163643  0.6135916138181780  0.4840055058864753   T   T   T
  0.2928210196355179  0.6230340951906135  0.4529813553090652   T   T   T
  0.2487358977737745  0.6245719207575564  0.4511673232481607   T   T   T
  0.2293049452625880  0.6160301407975685  0.4200412062354186   T   T   T
  0.1915803485921865  0.5792351650995462  0.4181918584238621   T   T   T
  0.1779354024992173  0.5551076888080730  0.3870017762078593   T   T   T
  0.1579898778064907  0.4914025652746115  0.3851656777791438   T   T   T
  0.1542315538229036  0.4591145138506580  0.3539901104887190   T   T   T
  0.1579485677388326  0.3878506071772264  0.3521801600705281   T   T   T
  0.1652244114373218  0.3570652325813883  0.3210437274271697   T   T   T
  0.1914207307239614  0.2995925536071388  0.3192464765515736   T   T   T
  0.2075368395356401  0.2794468481445266  0.2881193499072192   T   T   T
  0.2483666844326039  0.2528059323569277  0.2863492761437923   T   T   T
  0.2685462924240216  0.2492221464843476  0.2551935492255885   T   T   T
  0.3118993688569632  0.2613725820421338  0.2533740710470265   T   T   T
  0.3302010432359242  0.2755017260846775  0.2222184285416091   T   T   T
  0.3631819835146296  0.3228571410523305  0.2203774362620828   T   T   T
  0.3741606105609805  0.3505426048595215  0.1892339827656644   T   T   T
  0.3869939464707999  0.4189323690952721  0.1874080598972839   T   T   T
  0.3874384046462951  0.4518626555746804  0.1562721287396032   T   T   T
  0.3763508670400339  0.5210469954294776  0.1544645114575745   T   T   T
  0.3616034418616711  0.5601238671442939  0.5776510709132004   T   T   T
  0.3475828513340282  0.5830752602609448  0.5462405685105590   T   T   T
  0.3088572911434547  0.6176433476554967  0.5444279990998456   T   T   T
  0.2889911628618473  0.6245730675270500  0.5133258594855773   T   T   T
  0.2450264181021582  0.6231746019905292  0.5115600457892258   T   T   T
  0.2255176667351777  0.6136440439932755  0.4804328909650056   T   T   T
  0.1885913178672277  0.5747337014331640  0.4786248422573492   T   T   T
  0.1752875775081822  0.5499599981961770  0.4474710528620687   T   T   T
  0.1567357202667972  0.4850439224455705  0.4456507038201444   T   T   T
  0.1536344280849997  0.4525598017785420  0.4144801414809824   T   T   T
  0.1588732451017745  0.3815510022713294  0.4126598308483048   T   T   T
  0.1668135668445590  0.3511923606287826  0.3815017792467897   T   T   T
  0.1942678471843726  0.2953348507935515  0.3796972763347637   T   T   T
  0.2108522895426246  0.2761469824463001  0.3485659144072419   T   T   T
  0.2522859244806923  0.2520682740703604  0.3467973208609754   T   T   T
  0.2725271120636086  0.2495382110455880  0.3156609375534942   T   T   T
  0.3156076931582825  0.2641504741498393  0.3138326813103545   T   T   T
  0.3335951338274382  0.2791434823594464  0.2826728219889151   T   T   T
  0.3655891656686602  0.3282133352446643  0.2808035165549772   T   T   T
  0.3759531247219989  0.3564476564755450  0.2496374514794606   T   T   T
  0.3873460927285132  0.4254830067565057  0.2477822128063567   T   T   T
  0.3870732727952036  0.4584030757264164  0.2166643264412170   T   T   T
  0.3745160829861832  0.5269449988452665  0.2148755757122313   T   T   T
  0.3586621128138686  0.5649829533732117  0.6380319087042239   T   T   T
  0.3441103881956034  0.5877423958279078  0.6068356832289001   T   T   T
  0.3050671899325664  0.6207772890843620  0.6049449051580544   T   T   T
  0.2852577987972084  0.6268462631994073  0.5736875539922477   T   T   T
  0.2413154987633190  0.6221059883798232  0.5719478943029449   T   T   T
  0.2220518219919666  0.6111116603545130  0.5408755711870382   T   T   T
  0.1859914626209634  0.5700547538539269  0.5390903026000804   T   T   T
  0.1731296373632666  0.5444443309777758  0.5079589935073057   T   T   T
  0.1559416168648436  0.4786431592157155  0.5061585800971755   T   T   T
  0.1533922642546362  0.4459919805103539  0.4749680786017768   T   T   T
  0.1601652970095271  0.3753506703035229  0.4731455197572035   T   T   T
  0.1685846227028686  0.3454494048411543  0.4419676994621962   T   T   T
  0.1972650678223630  0.2912131539912752  0.4401450239548839   T   T   T
  0.2142201007468017  0.2730574529232760  0.4090202546502313   T   T   T
  0.2562188362432004  0.2517073031621162  0.4072306062652334   T   T   T
  0.2765151498737594  0.2504915000238346  0.3761250039167512   T   T   T
  0.3191751538194225  0.2678672946553101  0.3743148095462923   T   T   T
  0.3368785838330013  0.2834281846202271  0.3431034946324441   T   T   T
  0.3678974519817089  0.3339778090396955  0.3411903802288274   T   T   T
  0.3777523419775874  0.3624978982405982  0.3100282928793909   T   T   T
  0.3877213251655491  0.4321664220776100  0.3081227204622752   T   T   T
  0.3866655904227110  0.4649990353112448  0.2770335300803206   T   T   T
  0.3726944593922166  0.5327967459353478  0.2752882875464042   T   T   T
  0.3558748668602456  0.5697460528235000  0.6984488021173937   T   T   T
  0.3407547897522974  0.5916846225783567  0.6672846049252208   T   T   T
  0.3011766835262522  0.6228627631648455  0.6654129225376271   T   T   T
  0.2812453110631693  0.6283938190666859  0.6341958403908138   T   T   T
  0.2374363936099414  0.6209695974963811  0.6324198481591924   T   T   T
  0.2185967330084699  0.6085874126573034  0.6012929584744550   T   T   T
  0.1835554943506155  0.5653264136868809  0.5995300590247485   T   T   T
  0.1712222346145339  0.5389666174666840  0.5684076093938737   T   T   T
  0.1554297159938871  0.4722274018597941  0.5666236155863512   T   T   T
  0.1534753485725052  0.4394342298163854  0.5354688866057057   T   T   T
  0.1617199631564150  0.3691879137660745  0.5336413558311106   T   T   T
  0.1707392172054593  0.3397940124995474  0.5024656470759965   T   T   T
  0.2005093727191480  0.2872052199996328  0.5006456738777926   T   T   T
  0.2177908125877417  0.2701575821740226  0.4694573437614779   T   T   T
  0.2601673094387106  0.2514677009799164  0.4676374532557929   T   T   T
  0.2804794485440906  0.2518879506632897  0.4365144141695497   T   T   T
  0.3225573581532800  0.2723392128616966  0.4346978525409921   T   T   T
  0.3398638266391664  0.2889175623563928  0.4035533021557700   T   T   T
  0.3698191465100024  0.3411590760634232  0.4016492091619784   T   T   T
  0.3793921539045340  0.3691612000285497  0.3704184834135124   T   T   T
  0.3882946151256313  0.4389587866295069  0.3684220620458203   T   T   T
  0.3863341641167328  0.4717115674953671  0.3373207272509648   T   T   T
  0.3530967796801636  0.5744042748875563  0.7588687703470796   T   T   T
  0.3375011226815799  0.5954948942843040  0.7277144455233726   T   T   T
  0.2972886571403475  0.6245267748361474  0.7258770972964457   T   T   T
  0.2772124238255770  0.6290954908092991  0.6947035394058220   T   T   T
  0.2336184731147650  0.6193034410908247  0.6928994591608132   T   T   T
  0.2150619443131782  0.6059388638089640  0.6617365570517302   T   T   T
  0.1810782610733435  0.5604975397104562  0.6599700789643874   T   T   T
  0.1694174777085936  0.5334225224912317  0.6288480464200266   T   T   T
  0.1550649089259772  0.4658131660689508  0.6270706141029364   T   T   T
  0.1538314261805201  0.4328966746173560  0.5959299868065664   T   T   T
  0.1635217778622620  0.3631702728257984  0.5940978246805122   T   T   T
  0.1731092852137650  0.3342586563104452  0.5629173016583872   T   T   T
  0.2039623359625022  0.2832923426892949  0.5610803283941912   T   T   T
  0.2215114107095240  0.2671388590733311  0.5298938581601365   T   T   T
  0.2642984184150321  0.2504818822708824  0.5280470686404126   T   T   T
  0.2845159242938497  0.2524551492199469  0.4968943089518790   T   T   T
  0.3261428555113788  0.2751334836741887  0.4950787056893972   T   T   T
  0.3429819091170782  0.2943970208550432  0.4639701511402871   T   T   T
  0.3719961772345784  0.3476487170138374  0.4621839480921885   T   T   T
  0.3809291604380277  0.3774019304517868  0.4308042602667582   T   T   T
  0.3908910978092706  0.4459559575729126  0.4285114670637287   T   T   T
  0.3874029910115945  0.4783375448926640  0.3976689723236044   T   T   T
  0.3502512379279413  0.5789099354731664  0.8192981501829207   T   T   T
  0.3342053680404513  0.5991186222289711  0.7881515895675250   T   T   T
  0.2934018046379518  0.6258706384122434  0.7863363114465531   T   T   T
  0.2732231107767885  0.6293637502133879  0.7551754338304464   T   T   T
  0.2298693472770883  0.6171755462769603  0.7533617159506367   T   T   T
  0.2115904544903534  0.6028944043293781  0.7222017692849163   T   T   T
  0.1786257413883567  0.5554960668282571  0.7204225555276593   T   T   T
  0.1676289794853546  0.5277550764903974  0.6892862424133115   T   T   T
  0.1547656308011464  0.4593821082113835  0.6875006882451132   T   T   T
  0.1542583500594254  0.4264214598731009  0.6563576473895686   T   T   T
  0.1653948986267049  0.3572547922221866  0.6545275917703652   T   T   T
  0.1755977768051081  0.3288672014276873  0.6233647305093096   T   T   T
  0.2074578265091200  0.2795438802941884  0.6215268420662801   T   T   T
  0.2253491658683203  0.2643163411695428  0.5903446371762364   T   T   T
  0.2684086704330504  0.2496870950564007  0.5884904616482073   T   T   T
  0.2885754798331858  0.2524009507013989  0.5573068602575142   T   T   T
  0.3299004864507217  0.2768721680779811  0.5554984395572552   T   T   T
  0.3461469767722770  0.2968956481184833  0.5243769786766369   T   T   T
  0.3737134042692148  0.3524645216122970  0.5226696644680310   T   T   T
  0.3821579389392899  0.3834758005654423  0.4916307314843996   T   T   T
  0.3915626369735783  0.4527432765039045  0.4903459027976722   T   T   T
  0.3961544460957369  0.4899420418194573  0.4583352707656123   T   T   T
  0.3473152540078593  0.5832528442337208  0.8797405875039768   T   T   T
  0.3308519937392805  0.6025410191256972  0.8485899552862360   T   T   T
  0.2894988574025115  0.6269627842991607  0.8467841540158805   T   T   T
  0.2692564312511550  0.6293413208010886  0.8156320279985780   T   T   T
  0.2261804640075533  0.6147388710000868  0.8138135645431015   T   T   T
  0.2082011583587649  0.5994780328256683  0.7826620911250148   T   T   T
  0.1762650758977748  0.5502859920440397  0.7808705453471528   T   T   T
  0.1658865531337738  0.5219713389407173  0.7497188264542690   T   T   T
  0.1545122878033396  0.4528998720574135  0.7479218545291871   T   T   T
  0.1547435520177020  0.4199506320399526  0.7167824767005767   T   T   T
  0.1673175365936636  0.3514273966984526  0.7149601731221145   T   T   T
  0.1781411225445119  0.3236212014946521  0.6838013503159788   T   T   T
  0.2109769474732880  0.2760399984206610  0.6819688802466273   T   T   T
  0.2291748038648991  0.2617219270401466  0.6507906518577738   T   T   T
  0.2725049867004416  0.2493384824879691  0.6489413127178250   T   T   T
  0.2926259163159217  0.2528805012301586  0.6177715892324092   T   T   T
  0.3335025176918502  0.2793456373200565  0.6159865554617157   T   T   T
  0.3495358912581824  0.2997203930559659  0.5848527610821364   T   T   T
  0.3760243058793893  0.3567443704182023  0.5831712191326534   T   T   T
  0.3833649110153000  0.3878217075861923  0.5520903109033602   T   T   T
  0.3877490296087214  0.4588385621701752  0.5504591001277587   T   T   T
  0.3854304051569141  0.4914291674004347  0.5193287021210923   T   T   T
  0.3442500183512287  0.5874095022963768  0.9401874290015458   T   T   T
  0.3274031932002505  0.6057599586440714  0.9090322025804796   T   T   T
  0.2855520121040265  0.6278393950383382  0.9072257632811752   T   T   T
  0.2652802862756686  0.6290736238925743  0.8760763160367413   T   T   T
  0.2225446776536511  0.6120725261975497  0.8742555463479424   T   T   T
  0.2048998410487313  0.5958254922462854  0.8431045457975531   T   T   T
  0.1740104712910854  0.5449063133346899  0.8413061349970136   T   T   T
  0.1642307055924294  0.5160480112116888  0.8101557687664300   T   T   T
  0.1543271779961106  0.4463741037522517  0.8083465408996148   T   T   T
  0.1552933716716012  0.4134690293740024  0.7772039480702139   T   T   T
  0.1693028136958739  0.3456941605998944  0.7753900611720997   T   T   T
  0.1807188440682201  0.3185051024864099  0.7442317147646286   T   T   T
  0.2145261965241379  0.2727459692815006  0.7424054491304954   T   T   T
  0.2330223420600001  0.2594010654527283  0.7112413339706847   T   T   T
  0.2765879852468067  0.2493826843912948  0.7094028923990158   T   T   T
  0.2966368203822182  0.2539416836751046  0.6782342426213798   T   T   T
  0.3369291158932198  0.2826406845214576  0.6764473139872665   T   T   T
  0.3525529324108221  0.3036778836155682  0.6452959196710093   T   T   T
  0.3776596000807690  0.3624004985847186  0.6435572679695901   T   T   T
  0.3843533378048541  0.3936326132654223  0.6124674792811828   T   T   T
  0.3867734230062313  0.4650422398205811  0.6107374702460443   T   T   T
  0.3825066399094722  0.4973786310319608  0.5796618180150929   T   T   T
  0.3410622913239909  0.5914001160215421  0.0006361862487500   T   T   T
  0.3238558137107667  0.6087907681827194  0.9694765752862736   T   T   T
  0.2815626734835238  0.6285108488353692  0.9676640796674575   T   T   T
  0.2612910627571187  0.6285996876688016  0.9365117826089725   T   T   T
  0.2189397178626564  0.6092229152629609  0.9346907236139027   T   T   T
  0.2016581366814349  0.5920001978182532  0.9035394002097819   T   T   T
  0.1718542989608529  0.5393962680145858  0.9017364992784218   T   T   T
  0.1626964022450108  0.5100120613948999  0.8705890474934890   T   T   T
  0.1542652331444496  0.4398401386506708  0.8687713248070058   T   T   T
  0.1559333122929785  0.4070113625761289  0.8376251219601577   T   T   T
  0.1713788475084222  0.3400646203361131  0.8358173896246265   T   T   T
  0.1833720189257594  0.3135280987978297  0.8046653220322371   T   T   T
  0.2181368647494972  0.2696955346041657  0.8028438955729923   T   T   T
  0.2369069409182384  0.2573752760981953  0.7716846767427873   T   T   T
  0.2806544130380046  0.2497849991018292  0.7698559250619568   T   T   T
  0.3005965832996708  0.2553941339333907  0.7386869384265397   T   T   T
  0.3402557020299548  0.2863520536806871  0.7368882405522704   T   T   T
  0.3554190645563853  0.3081865852889079  0.7057405433138659   T   T   T
  0.3791924974104555  0.3683577408275480  0.7039601265436902   T   T   T
  0.3851059990025066  0.3999132637670858  0.6728421756470716   T   T   T
  0.3860020844787697  0.4713867493734415  0.6710717012459581   T   T   T
  0.3809366694943559  0.5033338704240431  0.6399481121406496   T   T   T
  0.2572849696782807  0.6279249416990126  0.9969448908810857   T   T   T
  0.2153667487764342  0.6061903569109628  0.9951254756825031   T   T   T
  0.1984747976020876  0.5880058952725544  0.9639718316764934   T   T   T
  0.1697988522109593  0.5337772748553880  0.9621632169415838   T   T   T
  0.1612731509032630  0.5038972416318772  0.9310158315811800   T   T   T
  0.1543321917661975  0.4332981027932229  0.9291949522908295   T   T   T
  0.1567013673020194  0.4005907187066773  0.8980483809045712   T   T   T
  0.1735669654962010  0.3345524285655229  0.8962446856673586   T   T   T
  0.1861271923810986  0.3087167103774909  0.8650953376886487   T   T   T
  0.2218018591160168  0.2668705332298494  0.8632744056100863   T   T   T
  0.2408300438246072  0.2556079137198988  0.8321193083722612   T   T   T
  0.2847138582616182  0.2504751715074089  0.8302990298737479   T   T   T
  0.3045279649159873  0.2571639123194343  0.7991350212831252   T   T   T
  0.3435112372736346  0.2903164170692240  0.7973272423674711   T   T   T
  0.3581886471732622  0.3129764094314403  0.7661728204661941   T   T   T
  0.3806649852029974  0.3744399443636960  0.7643697647927640   T   T   T
  0.3858666263911771  0.4062825255608336  0.7332309769299239   T   T   T
  0.3852441821584752  0.4777789698597360  0.7314428040143911   T   T   T
  0.3794531327638325  0.5093772661295550  0.7003144946766436   T   T   T
  0.1599643598266124  0.4977093274582636  0.9914392562514562   T   T   T
  0.1545253273880245  0.4267573289448294  0.9896174299228787   T   T   T
  0.1575928810835935  0.3942006719694529  0.9584716293154402   T   T   T
  0.1758505936968476  0.3291474225078284  0.9566678757407959   T   T   T
  0.1889639219430601  0.3040395726281727  0.9255206104795274   T   T   T
  0.2255119092425549  0.2642295390063105  0.9236993842423393   T   T   T
  0.2447763335615396  0.2540511435191845  0.8925492543503321   T   T   T
  0.2887445690744757  0.2513935843775476  0.8907368855269897   T   T   T
  0.3084119311926190  0.2591909984373650  0.8595766361559839   T   T   T
  0.3466777758537705  0.2944861724583268  0.8577625660876814   T   T   T
  0.3608731939152712  0.3179407739881082  0.8266046203997437   T   T   T
  0.3820492837585009  0.3806190679272919  0.8247920668144874   T   T   T
  0.3865625126579178  0.4127219173922188  0.7936438023911716   T   T   T
  0.3844195796901284  0.4841405255920090  0.7918459981367717   T   T   T
  0.3779297623695366  0.5153865512534260  0.7607085636303470   T   T   T
  0.1918819796731303  0.2995221644536941  0.9859433901854339   T   T   T
  0.2292549996870050  0.2617866302973907  0.9841234741543995   T   T   T
  0.2487341288730185  0.2527000759699211  0.9529770309027878   T   T   T
  0.2927355875177707  0.2525106012934665  0.9511722008288237   T   T   T
  0.3122349306573984  0.2614293777547327  0.9200164770911329   T   T   T
  0.3497325443076423  0.2988376318960692  0.9181987000891219   T   T   T
  0.3634402753692145  0.3230635116918740  0.8870416577138630   T   T   T
  0.3832881353876088  0.3868772341105056  0.8852292737375281   T   T   T
  0.3871307920285961  0.4192091652352146  0.8540721296591793   T   T   T
  0.3834778625687613  0.4904655329703200  0.8522694263276110   T   T   T
  0.3763283325651769  0.5213124583242027  0.8211231493737712   T   T   T
  0.3159933564969953  0.2638358385985634  0.9804545485461493   T   T   T
  0.3526755754158277  0.3033263361935958  0.9786367905652835   T   T   T
  0.3658732370179080  0.3283152820290959  0.9474824102021497   T   T   T
  0.3843745239084376  0.3931902214571895  0.9456752944207918   T   T   T
  0.3875502042471380  0.4257177947158537  0.9145154856189025   T   T   T
  0.3823987070555490  0.4967337046017223  0.9127076429192355   T   T   T
  0.3746074770193171  0.5271637276471508  0.8815573422313542   T   T   T
  0.3877976721156779  0.4322410342376588  0.9749656874100524   T   T   T
  0.3811376086846698  0.5029206016076803  0.9731532877879504   T   T   T
  0.3727299323883598  0.5328976495138061  0.9419989640536336   T   T   T
  0.4802227324820917  0.4308717018622776  0.4997669145103537   T   T   T
  0.4873970809138395  0.3776084998370198  0.4757434856799697   T   T   T
  0.4877312136701558  0.4998896532653593  0.4891077329838220   T   T   T
  0.4282884584199984  0.5106468326805005  0.4576271539243710   T   T   T
 
  0.00000000E+00  0.00000000E+00  0.00000000E+00
  0.00000000E+00  0.00000000E+00  0.00000000E+00
  0.00000000E+00  0.00000000E+00  0.00000000E+00
  0.00000000E+00  0.00000000E+00  0.00000000E+00
  0.00000000E+00  0.00000000E+00  0.00000000E+00
  0.00000000E+00  0.00000000E+00  0.00000000E+00
  0.00000000E+00  0.00000000E+00  0.00000000E+00
  0.00000000E+00  0.00000000E+00  0.00000000E+00
  0.00000000E+00  0.00000000E+00  0.00000000E+00
  0.00000000E+00  0.00000000E+00  0.00000000E+00
  0.00000000E+00  0.00000000E+00  0.00000000E+00
  0.00000000E+00  0.00000000E+00  0.00000000E+00
  0.00000000E+00  0.00000000E+00  0.00000000E+00
  0.00000000E+00  0.00000000E+00  0.00000000E+00
  0.00000000E+00  0.00000000E+00  0.00000000E+00
  0.00000000E+00  0.00000000E+00  0.00000000E+00
  0.00000000E+00  0.00000000E+00  0.00000000E+00
  0.00000000E+00  0.00000000E+00  0.00000000E+00
  0.00000000E+00  0.00000000E+00  0.00000000E+00
  0.00000000E+00  0.00000000E+00  0.00000000E+00
  0.00000000E+00  0.00000000E+00  0.00000000E+00
  0.00000000E+00  0.00000000E+00  0.00000000E+00
  0.00000000E+00  0.00000000E+00  0.00000000E+00
  0.00000000E+00  0.00000000E+00  0.00000000E+00
  0.00000000E+00  0.00000000E+00  0.00000000E+00
  0.00000000E+00  0.00000000E+00  0.00000000E+00
  0.00000000E+00  0.00000000E+00  0.00000000E+00
  0.00000000E+00  0.00000000E+00  0.00000000E+00
  0.00000000E+00  0.00000000E+00  0.00000000E+00
  0.00000000E+00  0.00000000E+00  0.00000000E+00
  0.00000000E+00  0.00000000E+00  0.00000000E+00
  0.00000000E+00  0.00000000E+00  0.00000000E+00
  0.00000000E+00  0.00000000E+00  0.00000000E+00
  0.00000000E+00  0.00000000E+00  0.00000000E+00
  0.00000000E+00  0.00000000E+00  0.00000000E+00
  0.00000000E+00  0.00000000E+00  0.00000000E+00
  0.00000000E+00  0.00000000E+00  0.00000000E+00
  0.00000000E+00  0.00000000E+00  0.00000000E+00
  0.00000000E+00  0.00000000E+00  0.00000000E+00
  0.00000000E+00  0.00000000E+00  0.00000000E+00
  0.00000000E+00  0.00000000E+00  0.00000000E+00
  0.00000000E+00  0.00000000E+00  0.00000000E+00
  0.00000000E+00  0.00000000E+00  0.00000000E+00
  0.00000000E+00  0.00000000E+00  0.00000000E+00
  0.00000000E+00  0.00000000E+00  0.00000000E+00
  0.00000000E+00  0.00000000E+00  0.00000000E+00
  0.00000000E+00  0.00000000E+00  0.00000000E+00
  0.00000000E+00  0.00000000E+00  0.00000000E+00
  0.00000000E+00  0.00000000E+00  0.00000000E+00
  0.00000000E+00  0.00000000E+00  0.00000000E+00
  0.00000000E+00  0.00000000E+00  0.00000000E+00
  0.00000000E+00  0.00000000E+00  0.00000000E+00
  0.00000000E+00  0.00000000E+00  0.00000000E+00
  0.00000000E+00  0.00000000E+00  0.00000000E+00
  0.00000000E+00  0.00000000E+00  0.00000000E+00
  0.00000000E+00  0.00000000E+00  0.00000000E+00