 C  S  O  H                             
    1.000000000000000     
    32.3722991942999982    0.0000000000000000    0.0000000000000000
     0.0000000000000000   19.9214134216000005    0.0000000000000000
     0.0000000000000000    0.0000000000000000   40.4480476378999967
   C    S    O    H 
   364     1     2     1
Direct
  0.3709772241156706  0.5383403143989711  0.0024612616605498
  0.3688168750478676  0.5438610297351981  0.0628846871240303
  0.3380843628336582  0.5950307497699969  0.0610788424620343
  0.3205108258588701  0.6114441488197088  0.0299352528852867
  0.2778287655505012  0.6288128666996026  0.0281191961367635
  0.3665442242984905  0.5492551582044204  0.1233090268556914
  0.3347373658622189  0.5986723882191647  0.1215030662974151
  0.3168266790419781  0.6140894984214348  0.0903608396242013
  0.2737955392174765  0.6290442841314930  0.0885358854103443
  0.2535718480938019  0.6268969035673656  0.0573962885487345
  0.2121168552615028  0.6029342300301521  0.0555822353875409
  0.1955990919560341  0.5838559157001296  0.0244356244550432
  0.1680419814956060  0.5281126447227866  0.0226232384535427
  0.3641345998700840  0.5544911037511199  0.1837520682621540
  0.3312972634753155  0.6020995553893137  0.1819375671492864
  0.3130788758851018  0.6165100769700969  0.1507835625040509
  0.2697642583502983  0.6290552866233053  0.1489561722948747
  0.2495990558113705  0.6257772244131306  0.1178114771287407
  0.2086769177616163  0.5995015488218539  0.1159993940449911
  0.1925705110729277  0.5795224400565760  0.0848568403882671
  0.1662102152685506  0.5222630261670058  0.0830362326555971
  0.1589513574024043  0.4915212715811683  0.0518960066539028
  0.1549973355161117  0.4203044495814106  0.0500776420729116
  0.1587564796952383  0.3879375984970928  0.0189333226522377
  0.1783898814978242  0.3239493422975097  0.0171258797783381
  0.3615639556677174  0.5595583110671488  0.2442089976444365
  0.3277596805584885  0.6052942383031068  0.2423597706582879
  0.3092693770278419  0.6187100020976097  0.2112080007448369
  0.2657054082701176  0.6288318051885347  0.2093669117763130
  0.2456391080608214  0.6244532132414600  0.1782260649258420
  0.2052881452714039  0.5958836046606546  0.1764159615025580
  0.1896284926402904  0.5750145751328560  0.1452737219556257
  0.1644955606450290  0.5163150144340998  0.1434500065727459
  0.1579057478600217  0.4851815394786233  0.1123079636832074
  0.1554621456103686  0.4137904157717002  0.1104922335826877
  0.1599046028120548  0.3816564063036148  0.0793450196589330
  0.1808803368713780  0.3188029973966579  0.0775326552547568
  0.1950366098817023  0.2952265526950468  0.0463935043313749
  0.2331905419015688  0.2596035496343236  0.0445733729873209
  0.2528585744720949  0.2516115395647039  0.0134334959484093
  0.2968375953442317  0.2538337694478626  0.0116294405198939
  0.3704640340776383  0.5380933769528788  0.3358550879104502
  0.3588372702835353  0.5646936217758169  0.3046675432004045
  0.3240658121269276  0.6086446652610520  0.3027580121440656
  0.3053660914190379  0.6207891659663536  0.2716400096890523
  0.2615746407567176  0.6283957346147209  0.2697682226402965
  0.2416652261716189  0.6228384217635665  0.2386377956058366
  0.2019461487501549  0.5920529582598603  0.2368271584723562
  0.1867659577600261  0.5703179525597402  0.2056774473538545
  0.1629059177317117  0.5102546014914474  0.2038585147690918
  0.1569847942036302  0.4787818740460337  0.1727135011235496
  0.1560607190121948  0.4072963780184639  0.1709032459122076
  0.1611753614928050  0.3754376622757995  0.1397597636293931
  0.1834702565148415  0.3137897665359968  0.1379377134304670
  0.1981307880584676  0.2910359193445938  0.1068009220647197
  0.2370152513653297  0.2575829541059123  0.1049811180929236
  0.2568450611662667  0.2506968382276256  0.0738403513424436
  0.3007496117033765  0.2553920502734236  0.0720368446913386
  0.3198489234568932  0.2664304706136262  0.0408990431455661
  0.3557112027820570  0.3078637322522688  0.0390819627474727
  0.3684054532790539  0.3335424158900164  0.0079422678811955
  0.3855725907713185  0.3993763997436197  0.0061404623257759
  0.3672832626452048  0.5438543640588412  0.3962086683421336
  0.3556857058549935  0.5700250133663607  0.3651822118873053
  0.3200420728075877  0.6124924139318432  0.3632045545507593
  0.3012378225439539  0.6230767569157570  0.3320328666840286
  0.2573277848358504  0.6280378556024633  0.3301605750291023
  0.2376401517202369  0.6210683071339129  0.2990125282808683
  0.1986318036011063  0.5880398518024663  0.2972205811027247
  0.1839450405134997  0.5654831906060800  0.2660808591604552
  0.1613838221601714  0.5040985191516472  0.2642718470296138
  0.1561676415407840  0.4723231318832752  0.2331277840208790
  0.1567701541640221  0.4008357376681452  0.2313214605290062
  0.1625822664263626  0.3692922425108955  0.2001750540747090
  0.1861613771654301  0.3089398274585356  0.1983465464898524
  0.2012957198026216  0.2870143459157726  0.1672049369026154
  0.2408638803648602  0.2557606070633787  0.1653836049518164
  0.2608363222459423  0.2499893255686708  0.1342482859004398
  0.3046178727847587  0.2571444584985065  0.1324398146504479
  0.3234817092350688  0.2692549435641508  0.1013104198059286
  0.3584454530475396  0.3126605024365702  0.0994958082973837
  0.3705896478126779  0.3390436324745520  0.0683571142336016
  0.3863541279416950  0.4057923137699820  0.0665594862272314
  0.3881788941648089  0.4386007943782274  0.0354180590971927
  0.3800228821071164  0.5088638198571269  0.0336020394203488
  0.3626513888407928  0.5493431541038611  0.4565534504210360
  0.3509381954608707  0.5740757147435855  0.4256088800711554
  0.3154235030636904  0.6159617017788341  0.4236300535768304
  0.2967370465451418  0.6259704452761041  0.3923135922490948
  0.2528151518895351  0.6283199464965669  0.3905363979566152
  0.2334440046023030  0.6196882665146528  0.3593813151890709
  0.1952971810217753  0.5840359699559197  0.3576330750864943
  0.1812024328685307  0.5604874131256921  0.3265069909708016
  0.1600044814208305  0.4978516103255984  0.3247132516575999
  0.1554744592963054  0.4658081859801349  0.2935550311815373
  0.1576092355485575  0.3944202557516298  0.2917517989012773
  0.1640798309165428  0.3632315378097891  0.2605928249403062
  0.1889326215395064  0.3042400001517673  0.2587577452428576
  0.2045226694315375  0.2831652692747046  0.2276099297312486
  0.2447318747266001  0.2541215904302079  0.2257847662179354
  0.2648256375648330  0.2494949074157311  0.1946504005498076
  0.3084251203334415  0.2591062570896975  0.1928437951608626
  0.3270318932268602  0.2722805728221036  0.1617089395435395
  0.3610554778397994  0.3176148899441728  0.1599121161287644
  0.3726528789499881  0.3446519870499691  0.1287725940110732
  0.3869900016152518  0.4122544652278938  0.1269808801378282
  0.3881241775297582  0.4451450881722010  0.0958432194746100
  0.3784890196060451  0.5149121148600010  0.0940257525115640
  0.3621838767124423  0.5546283767948780  0.5170517908270876
  0.3480097540241559  0.5786696259286408  0.4856488097393678
  0.3116585806371036  0.6188104444042128  0.4840243826621909
  0.2924438150056156  0.6286652815226650  0.4528818642558449
  0.2484001639824837  0.6283062287579981  0.4511087607229568
  0.2292662950941924  0.6183691202473454  0.4198991865544571
  0.1921732454877683  0.5799375590793244  0.4181388417939017
  0.1786335856795900  0.5554467306661500  0.3869653427421957
  0.1588660264009764  0.4916059119059550  0.3851837858260210
  0.1549537322724410  0.4593142370805031  0.3540160553085278
  0.1586230638876401  0.3880594861677557  0.3522069059961552
  0.1657193528722283  0.3572725929218713  0.3210413372693831
  0.1918056278651104  0.2996853998196303  0.3191918281543010
  0.2078108489299519  0.2795111412536219  0.2880283075585909
  0.2485818600341440  0.2526838479744925  0.2861858706150465
  0.2687853690101531  0.2492096751268356  0.2550414369164569
  0.3121432068835341  0.2612545112136085  0.2532184280349613
  0.3304905109085923  0.2754717334622844  0.2221022128114922
  0.3635526290723599  0.3226840532096578  0.2203279815148424
  0.3745749056211639  0.3503727359913773  0.1891918638689049
  0.3874878968049091  0.4187286482076715  0.1874152831296610
  0.3879129458151194  0.4516756655418495  0.1562649914475504
  0.3768026726989948  0.5208495916561893  0.1544600338671684
  0.3608648015709632  0.5599746902336464  0.5774812804063358
  0.3466837118658779  0.5841388004702825  0.5462981885106463
  0.3086804567382359  0.6206469174310409  0.5446155885854096
  0.2887056781903756  0.6290424442675914  0.5135235862304246
  0.2448041962889471  0.6261454960334654  0.5117246532612247
  0.2255023209571860  0.6160213888558632  0.4804710187331084
  0.1892847807708835  0.5754204193557160  0.4786590631531557
  0.1762134843741140  0.5503342796559004  0.4474667421272496
  0.1578777618637119  0.4852893876619477  0.4456722731974129
  0.1546707002377121  0.4527920316772766  0.4145040425844407
  0.1598471246514558  0.3817777703669669  0.4126878695142737
  0.1675746125651537  0.3514026069782175  0.3815069989338569
  0.1948240813055643  0.2952800176927786  0.3796540140458509
  0.2111899559061651  0.2759791913617822  0.3484587629980658
  0.2524340627193338  0.2511822978653220  0.3465857774917900
  0.2727011122421292  0.2488823638534384  0.3154351010363604
  0.3158120287356294  0.2631180091275972  0.3135692426389349
  0.3338566860119088  0.2786881753650732  0.2824998807155248
  0.3658962542954360  0.3277039665189466  0.2807368653012369
  0.3763477294741394  0.3561423330555909  0.2496201848869381
  0.3878195670714589  0.4251745205560172  0.2478533425203746
  0.3875867652545191  0.4581462911931940  0.2167064136045933
  0.3749865511506824  0.5266762005403869  0.2149077960436144
  0.3588521289230888  0.5645966474928550  0.6379534387351212
  0.3441184867267743  0.5878341733461021  0.6068573406332647
  0.3052632349125363  0.6214831936793899  0.6051317975913342
  0.2852737021167821  0.6287983043608574  0.5739734184035316
  0.2413784369855664  0.6235147656765804  0.5721901904094592
  0.2221496461410470  0.6125845552826139  0.5410466187695336
  0.1865751343505725  0.5705310760088430  0.5391819483189408
  0.1740169871981698  0.5447695386467348  0.5079786878391334
  0.1569988906090407  0.4788815905561221  0.5061658620523344
  0.1545148522142309  0.4462320772782732  0.4749722680327447
  0.1612068119116240  0.3755648430635678  0.4731601072149317
  0.1695771114141114  0.3456403414915544  0.4419748583675791
  0.1979721410111035  0.2910114786890194  0.4401355693757568
  0.2146635633972627  0.2725076231855318  0.4089339680777820
  0.2563141674971307  0.2494990049052452  0.4070508247049007
  0.2766054205377907  0.2482290403711359  0.3758723917437140
  0.3194216226432726  0.2644796612326620  0.3739838948058573
  0.3371550547353425  0.2813997859900805  0.3428870520334517
  0.3679473435900505  0.3323909520000620  0.3410927872901738
  0.3778838358286641  0.3617225550151340  0.3100846227921236
  0.3876949324196288  0.4315614470310361  0.3082983024072530
  0.3869775667544241  0.4645595696114990  0.2771912967523619
  0.3729537564060168  0.5323819660259727  0.2753920570128073
  0.3563126893719639  0.5693363444738085  0.6984461273429425
  0.3411210733485129  0.5912954589557214  0.6673151719778151
  0.3015691053907812  0.6225638837780879  0.6655529376033734
  0.2815312932320881  0.6285758948073270  0.6344199072747538
  0.2377464748307467  0.6212477153048421  0.6326230242751723
  0.2188416930946908  0.6091335448119470  0.6014856603572600
  0.1839687657026740  0.5655982806044972  0.5996367102607896
  0.1718406829592402  0.5392030885797102  0.5684613737620157
  0.1561543113832935  0.4724353978304757  0.5666384198776248
  0.1543791020783689  0.4396646435720538  0.5354640747214544
  0.1625648480900121  0.3694056057192900  0.5336460396039634
  0.1716544146792951  0.3399784046421473  0.5024769717718371
  0.2011439099578275  0.2869357150739725  0.5006849392945654
  0.2182482589261477  0.2693183423382263  0.4694657829297744
  0.2602299051791865  0.2483503847553590  0.4676390056693417
  0.2805052899522154  0.2478519235851084  0.4363868398148810
  0.3228492995463045  0.2666188116303205  0.4345077386703448
  0.3401310007713213  0.2841895444597207  0.4033571255083783
  0.3690478415905279  0.3379484424258822  0.4015020042562913
  0.3785405902714734  0.3673980823523196  0.3705219755438243
  0.3861685214328149  0.4377051371777003  0.3686317487299478
  0.3854723359800404  0.4708749116149872  0.3375867097220748
  0.3535369967078258  0.5740813275459956  0.7589189582986458
  0.3379358614456417  0.5950995989396594  0.7277655123281802
  0.2977241208146031  0.6241168141404122  0.7259832895400220
  0.2776232207293594  0.6287676629269491  0.6948493227244205
  0.2340218228039738  0.6191967169073159  0.6930441638028960
  0.2154049049617486  0.6060109583191826  0.6619001017881837
  0.1814048610815817  0.5606501927246519  0.6600772743636080
  0.1698102997286254  0.5335979148089507  0.6289235034439916
  0.1554875059904948  0.4660043054543154  0.6271093952059491
  0.1543873718346270  0.4331212796184726  0.5959457411200518
  0.1640377415249150  0.3633752495592096  0.5941272978930621
  0.1737221825365085  0.3344583846727155  0.5629617875062235
  0.2043740977199622  0.2831601873762538  0.5611862445408857
  0.2218384987893098  0.2664260156209087  0.5300148402705036
  0.2643198681050004  0.2478984343130286  0.5282488795874055
  0.2844978997427497  0.2480999954949979  0.4970158771741841
  0.3264090606512779  0.2692486591418909  0.4952089548858113
  0.3429936105473077  0.2883828355321691  0.4639686397415737
  0.3699576458990537  0.3441822547561111  0.4621599042390517
  0.3778529634883480  0.3747411345778395  0.4308052704500994
  0.3845408412708707  0.4439090417113680  0.4284964285276484
  0.3830755406434869  0.4766820518001568  0.3978177387494509
  0.3506296410000713  0.5786450136107516  0.8193662323427472
  0.3346085047162059  0.5988051270343983  0.7882049340561870
  0.2938023584403348  0.6255519521911607  0.7864251208545531
  0.2736397103397872  0.6290458588470136  0.7552704116012517
  0.2302670440693985  0.6170213953088856  0.7534709307771721
  0.2119625401298566  0.6028401905915568  0.7223203133737908
  0.1789202196273283  0.5555958166964733  0.7205187375992187
  0.1679152882111387  0.5279081092728314  0.6893661332325838
  0.1550225515933868  0.4595583697760849  0.6875624226081138
  0.1545783629325403  0.4266296686216105  0.6564015150145234
  0.1656973072980709  0.3574637703192023  0.6545931497007662
  0.1759393869906340  0.3290834973726932  0.6234386358946776
  0.2077058900044104  0.2796004698991117  0.6216632317968489
  0.2255412343295746  0.2640099605214439  0.5905239603277181
  0.2684685772714427  0.2484855760334405  0.5887631820187584
  0.2886158565551367  0.2497084658725048  0.5575783570720163
  0.3301059699364375  0.2732995522250696  0.5557908014197083
  0.3461631877712532  0.2922488776218743  0.5244777894215699
  0.3720817951937073  0.3497359123529223  0.5226284448577664
  0.3783944939371047  0.3809760265043765  0.4914828037018723
  0.3854138693701716  0.4508738055424142  0.4900605385808452
  0.3887918461137900  0.4873198363513866  0.4580446458222336
  0.3476335861725041  0.5830284798573244  0.8797982567748407
  0.3311930368481708  0.6022899894653677  0.8486476858557553
  0.2898450935949249  0.6267250216386093  0.8468534531651313
  0.2696260898311426  0.6290987048182328  0.8157020811892917
  0.2265362088186095  0.6146220852266084  0.8138954063270830
  0.2085495640367774  0.5994191564821596  0.7827462147784277
  0.1765322432984243  0.5503632255164576  0.7809500838059755
  0.1661321673990312  0.5220979723280983  0.7497956724285386
  0.1547027301844850  0.4530555818146977  0.7479911570993476
  0.1549528152381328  0.4201298423680830  0.7168407261417020
  0.1675252036482762  0.3516139973378349  0.7150381130426111
  0.1783676095399194  0.3238290385409092  0.6838852741722307
  0.2111811462584161  0.2762054659591373  0.6820997112637908
  0.2293470114319428  0.2617626207975727  0.6509612975644973
  0.2726442794899652  0.2491426637121989  0.6491628236968801
  0.2927431677240653  0.2520170134583232  0.6180190271833179
  0.3336936162515226  0.2781378626146992  0.6162015576835757
  0.3496868909797918  0.2975927485460204  0.5849540994721519
  0.3756398620015771  0.3553240131173617  0.5830817207648198
  0.3815031496161972  0.3862931393619954  0.5517936215901538
  0.3844534916568482  0.4574944573267443  0.5500937165436145
  0.3801450214074155  0.4896223344335360  0.5190264931952475
  0.3445377032727411  0.5872160308147361  0.9402281136887839
  0.3276983970400660  0.6055542569553539  0.9090831475506800
  0.2858549209613492  0.6276626881893448  0.9072770691387192
  0.2655989018769691  0.6289026123399765  0.8761337489423607
  0.2228483833468800  0.6120035286225837  0.8743172534851001
  0.2052004449866703  0.5957932160316336  0.8431714803894104
  0.1742469633230736  0.5449786562204090  0.8413733654211837
  0.1644438701393875  0.5161533058192865  0.8102241837678242
  0.1544894236421372  0.4464989486146407  0.8084108542102876
  0.1554582417390968  0.4136126483384683  0.7772662660568128
  0.1694768551537153  0.3458417899023306  0.7754633326297454
  0.1809113535986032  0.3186808161182488  0.7443106751695845
  0.2147266053028670  0.2729373488861665  0.7425131298169014
  0.2332207936172408  0.2595739475184114  0.7113707083690739
  0.2767831483621748  0.2495012572479301  0.7095520627621940
  0.2968200436376395  0.2538933159887806  0.6784153798960281
  0.3371605674287712  0.2824327407722109  0.6765733340438206
  0.3527766215525432  0.3031141494885773  0.6453869186043861
  0.3778991793917418  0.3618525129505595  0.6434761981944890
  0.3841363012890209  0.3928402525605620  0.6122150133788884
  0.3863101290738615  0.4643699641979012  0.6104051698618852
  0.3810003810389543  0.4964402709752170  0.5792927311256100
  0.3413533372045811  0.5912132800193680  0.0006565553985255
  0.3241391169225803  0.6086087816761078  0.9695084955232324
  0.2818511536913522  0.6283619737913451  0.9677012038655538
  0.2615798907665459  0.6284751846117157  0.9365571175595975
  0.2192121307979017  0.6091845560022197  0.9347405795639904
  0.2019217677891483  0.5919938883180087  0.9035947589700796
  0.1720695108598590  0.5394628812099937  0.9017929210796292
  0.1628911533874680  0.5101008237420911  0.8706483023072805
  0.1544185306097695  0.4399400590478011  0.8688304609633001
  0.1560816708313677  0.4071214003072450  0.8376856345734237
  0.1715359017505250  0.3401758708028677  0.8358812572059406
  0.1835463774777817  0.3136670989694698  0.8047333345599331
  0.2183258841586379  0.2698587196524510  0.8029253318598758
  0.2371087380400969  0.2575553117419171  0.7717796949504087
  0.2808583183502610  0.2499174777654022  0.7699647825149074
  0.3008153604733091  0.2554907546293304  0.7388133435794929
  0.3405211682671135  0.2863038613560563  0.7369797789229902
  0.3557090406441947  0.3080394091646172  0.7058295671921437
  0.3796046409272983  0.3680880116194839  0.7039352785258179
  0.3854885171034145  0.3995000885541273  0.6727500089048684
  0.3864213226544697  0.4710197714763410  0.6709091293853569
  0.3810896181815632  0.5028241918475893  0.6397220398842062
  0.2575730148619620  0.6278035584961000  0.9969762785388709
  0.2156369241960545  0.6061532366663912  0.9951629262925170
  0.1987233253319379  0.5880102840921905  0.9640153843978782
  0.1700015888210710  0.5338404023748894  0.9622102278224027
  0.1614565168190683  0.5039759331822747  0.9310664893946612
  0.1544823883100473  0.4333813827051965  0.9292471461524064
  0.1568460591743704  0.4006772321562794  0.8981014241794600
  0.1737135471994450  0.3346367544828742  0.8962999596474767
  0.1862842517189791  0.3088204477044363  0.8651542964211162
  0.2219695683910036  0.2669836251828082  0.8633373414232053
  0.2410106642162604  0.2557424295322719  0.8321930383773161
  0.2848959290029806  0.2505548529597809  0.8303804223502226
  0.3047347412824337  0.2572247451807927  0.7992282482921312
  0.3437638050470517  0.2902401748842390  0.7974125705535555
  0.3584940193363322  0.3128505225249889  0.7662577581375731
  0.3810729453146365  0.3742175524133970  0.7644104926888284
  0.3863306332283224  0.4060039444532931  0.7332470601611875
  0.3857540931206001  0.4774996493046517  0.7314152694219931
  0.3799501784441127  0.5090218513520373  0.7002504306295128
  0.1601428004873175  0.4977804795402211  0.9914812028831111
  0.1546745634970377  0.4268323526293810  0.9896610701486699
  0.1577373827259994  0.3942738838414921  0.9585185528249484
  0.1759964064901562  0.3292181661821454  0.9567145565009446
  0.1891121780047691  0.3041155494506652  0.9255704491220061
  0.2256626230177583  0.2643045225104590  0.9237503168866738
  0.2449337548643639  0.2541329483182275  0.8926085854851129
  0.2889040072504399  0.2514187175365902  0.8907970585520362
  0.3085918541871998  0.2591940956268480  0.8596517700327042
  0.3468998964123992  0.2943800131251337  0.8578350783907022
  0.3611452465171603  0.3177984534969938  0.8266841885616697
  0.3823958438426512  0.3804078511907271  0.8248611676925054
  0.3869744164840951  0.4124839158108963  0.7936970826714803
  0.3848627996081793  0.4838996516766416  0.7918928817162134
  0.3784117733325989  0.5151091770571691  0.7607288958536443
  0.1920348800220961  0.2995910403777807  0.9859842482070702
  0.2294077483331947  0.2618500426787798  0.9841629328362694
  0.2488842393973345  0.2527515728676866  0.9530215359061153
  0.2928872140938919  0.2525066554787855  0.9512169523950078
  0.3123989561202747  0.2613949438574813  0.9200737112622817
  0.3499313096461122  0.2987137177014883  0.9182516496874475
  0.3636758110134789  0.3229085294114930  0.8871107692486579
  0.3835790111272117  0.3866746647495753  0.8852903481273519
  0.3874710241809360  0.4189926386201732  0.8541389863255852
  0.3838367108769831  0.4902483566506302  0.8523318367550028
  0.3767231009594499  0.5210743384995600  0.8211738987894941
  0.3161611784393542  0.2637930959101122  0.9804873814847596
  0.3528777417222352  0.3031989463773457  0.9786696169767074
  0.3660984345166851  0.3281592651299419  0.9475277284943774
  0.3846455805960348  0.3929979760018502  0.9457165371636119
  0.3878436886813448  0.4255211820752703  0.9145724576005866
  0.3827038265953959  0.4965340358733921  0.9127563560063420
  0.3749328077910736  0.5269545774204547  0.8816146660013695
  0.3880841414959240  0.4320592380859404  0.9749940333760513
  0.3814314097753708  0.5027379496424732  0.9731814312856104
  0.3730197404087843  0.5327108846093129  0.9420402095550874
  0.4658779278808529  0.4489749568281753  0.4936562346561838
  0.4683550646863280  0.4117442289157465  0.4625243333613477
  0.4662921016652073  0.5223981740258038  0.4905861508964316
  0.4209129436499897  0.5074337142580353  0.4563683451287152
 
  0.00000000E+00  0.00000000E+00  0.00000000E+00
  0.00000000E+00  0.00000000E+00  0.00000000E+00
  0.00000000E+00  0.00000000E+00  0.00000000E+00
  0.00000000E+00  0.00000000E+00  0.00000000E+00
  0.00000000E+00  0.00000000E+00  0.00000000E+00
  0.00000000E+00  0.00000000E+00  0.00000000E+00
  0.00000000E+00  0.00000000E+00  0.00000000E+00
  0.00000000E+00  0.00000000E+00  0.00000000E+00
  0.00000000E+00  0.00000000E+00  0.00000000E+00
  0.00000000E+00  0.00000000E+00  0.00000000E+00
  0.00000000E+00  0.00000000E+00  0.00000000E+00
  0.00000000E+00  0.00000000E+00  0.00000000E+00
  0.00000000E+00  0.00000000E+00  0.00000000E+00
  0.00000000E+00  0.00000000E+00  0.00000000E+00
  0.00000000E+00  0.00000000E+00  0.00000000E+00
  0.00000000E+00  0.00000000E+00  0.00000000E+00
  0.00000000E+00  0.00000000E+00  0.00000000E+00
  0.00000000E+00  0.00000000E+00  0.00000000E+00
  0.00000000E+00  0.00000000E+00  0.00000000E+00
  0.00000000E+00  0.00000000E+00  0.00000000E+00
  0.00000000E+00  0.00000000E+00  0.00000000E+00
  0.00000000E+00  0.00000000E+00  0.00000000E+00
  0.00000000E+00  0.00000000E+00  0.00000000E+00
  0.00000000E+00  0.00000000E+00  0.00000000E+00
  0.00000000E+00  0.00000000E+00  0.00000000E+00
  0.00000000E+00  0.00000000E+00  0.00000000E+00
  0.00000000E+00  0.00000000E+00  0.00000000E+00
  0.00000000E+00  0.00000000E+00  0.00000000E+00
  0.00000000E+00  0.00000000E+00  0.00000000E+00
  0.00000000E+00  0.00000000E+00  0.00000000E+00
  0.00000000E+00  0.00000000E+00  0.00000000E+00
  0.00000000E+00  0.00000000E+00  0.00000000E+00
  0.00000000E+00  0.00000000E+00  0.00000000E+00
  0.00000000E+00  0.00000000E+00  0.00000000E+00
  0.00000000E+00  0.00000000E+00  0.00000000E+00
  0.00000000E+00  0.00000000E+00  0.00000000E+00
  0.00000000E+00  0.00000000E+00  0.00000000E+00
  0.00000000E+00  0.00000000E+00  0.00000000E+00
  0.00000000E+00  0.00000000E+00  0.00000000E+00
  0.00000000E+00  0.00000000E+00  0.00000000E+00
  0.00000000E+00  0.00000000E+00  0.00000000E+00
  0.00000000E+00  0.00000000E+00  0.00000000E+00
  0.00000000E+00  0.00000000E+00  0.00000000E+00
  0.00000000E+00  0.00000000E+00  0.00000000E+00
  0.00000000E+00  0.00000000E+00  0.00000000E+00
  0.00000000E+00  0.00000000E+00  0.00000000E+00
  0.00000000E+00  0.00000000E+00  0.00000000E+00
  0.00000000E+00  0.00000000E+00  0.00000000E+00
  0.00000000E+00  0.00000000E+00  0.00000000E+00
  0.00000000E+00  0.00000000E+00  0.00000000E+00
  0.00000000E+00  0.00000000E+00  0.00000000E+00
  0.00000000E+00  0.00000000E+00  0.00000000E+00
  0.00000000E+00  0.00000000E+00  0.00000000E+00
  0.00000000E+00  0.00000000E+00  0.00000000E+00
  0.00000000E+00  0.00000000E+00  0.00000000E+00
  0.00000000E+00  0.00000000E+00  0.00000000E+00
  0.00000000E+00  0.00000000E+00  0.00000000E+00
  0.00000000E+00  0.00000000E+00  0.00000000E+00
  0.00000000E+00  0.00000000E+00  0.00000000E+00
  0.00000000E+00  0.00000000E+00  0.00000000E+00
  0.00000000E+00  0.00000000E+00  0.00000000E+00
  0.00000000E+00  0.00000000E+00  0.00000000E+00
  0.00000000E+00  0.00000000E+00  0.00000000E+00
  0.00000000E+00  0.00000000E+00  0.00000000E+00
  0.00000000E+00  0.00000000E+00  0.00000000E+00
  0.00000000E+00  0.00000000E+00  0.00000000E+00
  0.00000000E+00  0.00000000E+00  0.00000000E+00
  0.00000000E+00  0.00000000E+00  0.00000000E+00
  0.00000000E+00  0.00000000E+00  0.00000000E+00
  0.00000000E+00  0.00000000E+00  0.00000000E+00
  0.00000000E+00  0.00000000E+00  0.00000000E+00
  0.00000000E+00  0.00000000E+00  0.00000000E+00
  0.00000000E+00  0.00000000E+00  0.00000000E+00
  0.00000000E+00  0.00000000E+00  0.00000000E+00
  0.00000000E+00  0.00000000E+00  0.00000000E+00
  0.00000000E+00  0.00000000E+00  0.00000000E+00
  0.00000000E+00  0.00000000E+00  0.00000000E+00
  0.00000000E+00  0.00000000E+00  0.00000000E+00
  0.00000000E+00  0.00000000E+00  0.00000000E+00
  0.00000000E+00  0.00000000E+00  0.00000000E+00
  0.00000000E+00  0.00000000E+00  0.00000000E+00
  0.00000000E+00  0.00000000E+00  0.00000000E+00
  0.00000000E+00  0.00000000E+00  0.00000000E+00
  0.00000000E+00  0.00000000E+00  0.00000000E+00
  0.00000000E+00  0.00000000E+00  0.00000000E+00
  0.00000000E+00  0.00000000E+00  0.00000000E+00
  0.00000000E+00  0.00000000E+00  0.00000000E+00
  0.00000000E+00  0.00000000E+00  0.00000000E+00
  0.00000000E+00  0.00000000E+00  0.00000000E+00
  0.00000000E+00  0.00000000E+00  0.00000000E+00
  0.00000000E+00  0.00000000E+00  0.00000000E+00
  0.00000000E+00  0.00000000E+00  0.00000000E+00
  0.00000000E+00  0.00000000E+00  0.00000000E+00
  0.00000000E+00  0.00000000E+00  0.00000000E+00
  0.00000000E+00  0.00000000E+00  0.00000000E+00
  0.00000000E+00  0.00000000E+00  0.00000000E+00
  0.00000000E+00  0.00000000E+00  0.00000000E+00
  0.00000000E+00  0.00000000E+00  0.00000000E+00
  0.00000000E+00  0.00000000E+00  0.00000000E+00
  0.00000000E+00  0.00000000E+00  0.00000000E+00
  0.00000000E+00  0.00000000E+00  0.00000000E+00
  0.00000000E+00  0.00000000E+00  0.00000000E+00
  0.00000000E+00  0.00000000E+00  0.00000000E+00
  0.00000000E+00  0.00000000E+00  0.00000000E+00
  0.00000000E+00  0.00000000E+00  0.00000000E+00
  0.00000000E+00  0.00000000E+00  0.00000000E+00
  0.00000000E+00  0.00000000E+00  0.00000000E+00
  0.00000000E+00  0.00000000E+00  0.00000000E+00
  0.00000000E+00  0.00000000E+00  0.00000000E+00
  0.00000000E+00  0.00000000E+00  0.00000000E+00
  0.00000000E+00  0.00000000E+00  0.00000000E+00
  0.00000000E+00  0.00000000E+00  0.00000000E+00
  0.00000000E+00  0.00000000E+00  0.00000000E+00
  0.00000000E+00  0.00000000E+00  0.00000000E+00
  0.00000000E+00  0.00000000E+00  0.00000000E+00
  0.00000000E+00  0.00000000E+00  0.00000000E+00
  0.00000000E+00  0.00000000E+00  0.00000000E+00
  0.00000000E+00  0.00000000E+00  0.00000000E+00
  0.00000000E+00  0.00000000E+00  0.00000000E+00
  0.00000000E+00  0.00000000E+00  0.00000000E+00
  0.00000000E+00  0.00000000E+00  0.00000000E+00
  0.00000000E+00  0.00000000E+00  0.00000000E+00
  0.00000000E+00  0.00000000E+00  0.00000000E+00
  0.00000000E+00  0.00000000E+00  0.00000000E+00
  0.00000000E+00  0.00000000E+00  0.00000000E+00
  0.00000000E+00  0.00000000E+00  0.00000000E+00
  0.00000000E+00  0.00000000E+00  0.00000000E+00
  0.00000000E+00  0.00000000E+00  0.00000000E+00
  0.00000000E+00  0.00000000E+00  0.00000000E+00
  0.00000000E+00  0.00000000E+00  0.00000000E+00
  0.00000000E+00  0.00000000E+00  0.00000000E+00
  0.00000000E+00  0.00000000E+00  0.00000000E+00
  0.00000000E+00  0.00000000E+00  0.00000000E+00
  0.00000000E+00  0.00000000E+00  0.00000000E+00
  0.00000000E+00  0.00000000E+00  0.00000000E+00
  0.00000000E+00  0.00000000E+00  0.00000000E+00
  0.00000000E+00  0.00000000E+00  0.00000000E+00
  0.00000000E+00  0.00000000E+00  0.00000000E+00
  0.00000000E+00  0.00000000E+00  0.00000000E+00
  0.00000000E+00  0.00000000E+00  0.00000000E+00
  0.00000000E+00  0.00000000E+00  0.00000000E+00
  0.00000000E+00  0.00000000E+00  0.00000000E+00
  0.00000000E+00  0.00000000E+00  0.00000000E+00
  0.00000000E+00  0.00000000E+00  0.00000000E+00
  0.00000000E+00  0.00000000E+00  0.00000000E+00
  0.00000000E+00  0.00000000E+00  0.00000000E+00
  0.00000000E+00  0.00000000E+00  0.00000000E+00