 C  S  O  H                             
    1.000000000000000     
    32.3722991942999982    0.0000000000000000    0.0000000000000000
     0.0000000000000000   19.9214134216000005    0.0000000000000000
     0.0000000000000000    0.0000000000000000   40.4480476378999967
   C    S    O    H 
   364     1     2     1
Selective dynamics
Direct
  0.3710166944525465  0.5383387004335454  0.0024567929958915   T   T   T
  0.3688301646567810  0.5438510554630445  0.0629174664059336   T   T   T
  0.3381016317355065  0.5950234046369375  0.0610991354374238   T   T   T
  0.3205466645968826  0.6114290788751404  0.0299351853144998   F   F   F
  0.2778652959233483  0.6287982267619086  0.0281101280405380   F   F   F
  0.3664838275197131  0.5492469164395261  0.1233742920639440   T   T   T
  0.3346938017454881  0.5986842616629523  0.1215447175519336   T   T   T
  0.3168251103544988  0.6140797467670760  0.0903795616762793   T   T   T
  0.2737964754215056  0.6290011563161855  0.0885399193123035   F   F   F
  0.2535965720010935  0.6268735965474832  0.0573837674731337   F   F   F
  0.2121406320581229  0.6029226674611792  0.0555597896229472   F   F   F
  0.1956330395356787  0.5838658718417307  0.0244048081891464   F   F   F
  0.1680676258428448  0.5281359880586010  0.0225881754132828   F   F   F
  0.3639163453019279  0.5545177997685946  0.1838328376729776   T   T   T
  0.3311355963769220  0.6022084132137344  0.1819925424258901   T   T   T
  0.3129933897551279  0.6165445351870100  0.1508140757802653   T   T   T
  0.2696874009615229  0.6290005594977899  0.1489613122688098   F   F   F
  0.2495682989437569  0.6257208761078701  0.1178027399905588   F   F   F
  0.2086494897250120  0.5994505964657222  0.1159751060599348   F   F   F
  0.1925686408837848  0.5795002966773168  0.0848225023399678   F   F   F
  0.1661995112684309  0.5222592437950269  0.0829967547147916   F   F   F
  0.1589543672041174  0.4915362129461016  0.0518533111993946   F   F   F
  0.1549878074736384  0.4203256730589686  0.0500321157375652   F   F   F
  0.1587592596659633  0.3879631911661150  0.0188918861513514   F   F   F
  0.1783879617703406  0.3239739677906925  0.0170851638109255   F   F   F
  0.3611203192225405  0.5596951585079716  0.2442695656318941   T   T   T
  0.3274358847365738  0.6056241008234190  0.2424295180084116   T   T   T
  0.3090512512257435  0.6189181968034122  0.2112403273940419   T   T   T
  0.2655010402170461  0.6288840057791418  0.2093697564603261   F   F   F
  0.2455094261379713  0.6244117599953043  0.1782153903851409   F   F   F
  0.2051723242381769  0.5958145136347781  0.1763852511493198   F   F   F
  0.1895606860473933  0.5749508658032312  0.1452369906755209   F   F   F
  0.1644205394987779  0.5162704743160020  0.1434087358074052   F   F   F
  0.1578580306133262  0.4851622057415881  0.1122604080569332   F   F   F
  0.1554014588290471  0.4137808824696236  0.1104434436163899   F   F   F
  0.1598682914826881  0.3816621152257653  0.0792964577315232   F   F   F
  0.1808427672806943  0.3188119466853863  0.0774865327491767   F   F   F
  0.1950218759775879  0.2952453250143350  0.0463538357218098   F   F   F
  0.2331790432631493  0.2596314952611181  0.0445401101550686   F   F   F
  0.2528613554525450  0.2516463747708428  0.0134045726884437   F   F   F
  0.2968409507916547  0.2538734636154985  0.0116083894327588   F   F   F
  0.3700233079848563  0.5383053188288820  0.3358268811784179   T   T   T
  0.3582661848705980  0.5648904679827227  0.3047013969856467   T   T   T
  0.3235966541290731  0.6089955018889325  0.3028567049183117   T   T   T
  0.3050033073840177  0.6212262744364703  0.2716954888919630   T   T   T
  0.2612252513767146  0.6287251287038558  0.2697891254293836   F   F   F
  0.2414006382895906  0.6229637703352537  0.2386270215294743   F   F   F
  0.2017236104346409  0.5920628554037535  0.2367962073880179   F   F   F
  0.1866130988756183  0.5702529738164870  0.2056427973022608   F   F   F
  0.1627674556846088  0.5101792286916620  0.2038231562952433   F   F   F
  0.1568721075409769  0.4787264521777601  0.1726725587438551   F   F   F
  0.1559413330715387  0.4072430541897916  0.1708628579968590   F   F   F
  0.1610805782966480  0.3754097101544716  0.1397136150823073   F   F   F
  0.1833783120218371  0.3137685651732198  0.1378944156773798   F   F   F
  0.1980702599906650  0.2910377855783111  0.1067610757279454   F   F   F
  0.2369597505899463  0.2576030550549362  0.1049505921102920   F   F   F
  0.2568148798103138  0.2507318918559918  0.0738170855640732   F   F   F
  0.3007176233407363  0.2554222679503887  0.0720264259328401   T   T   T
  0.3198342044473308  0.2664688798282613  0.0408907140706292   T   T   T
  0.3556995372672241  0.3078985724076696  0.0390855693262477   T   T   T
  0.3684056301264718  0.3335732945790457  0.0079352158950001   T   T   T
  0.3855877389545968  0.3993984871480901  0.0061379975930850   T   T   T
  0.3680682294859511  0.5442056116686139  0.3961612370726889   T   T   T
  0.3554134901224120  0.5698271333100348  0.3652802917055016   T   T   T
  0.3195308655949939  0.6117810416303401  0.3633525659705793   T   T   T
  0.3007797679970671  0.6231176265520142  0.3321714238616988   T   T   T
  0.2568876516619980  0.6284822973039752  0.3302286840996302   F   F   F
  0.2372464040422813  0.6214832508990469  0.2990238996752126   F   F   F
  0.1982975800781901  0.5882630979411871  0.2972024016260519   F   F   F
  0.1837091882141451  0.5655143261454114  0.2660547932768083   F   F   F
  0.1612301862407080  0.5040353675246791  0.2642508749973089   F   F   F
  0.1560291820577007  0.4722480342889526  0.2331054967593502   F   F   F
  0.1566421671406246  0.4007518371946333  0.2313019436426984   F   F   F
  0.1624459111865733  0.3692291901997677  0.2001457112162726   F   F   F
  0.1860248588073148  0.3088758830626830  0.1983148102501033   F   F   F
  0.2011773364074614  0.2869800152896289  0.1671701177577063   F   F   F
  0.2407461060334910  0.2557380291318694  0.1653565352879625   F   F   F
  0.2607507337405224  0.2500038609905317  0.1342304946085875   F   F   F
  0.3045307949679139  0.2571161788556061  0.1324423485463356   T   T   T
  0.3234210466684537  0.2692573027595777  0.1013192735838225   T   T   T
  0.3583862883480700  0.3126634875370975  0.0995306274942367   T   T   T
  0.3705544494760273  0.3390547400296404  0.0683853645814871   T   T   T
  0.3863294482021556  0.4057997462839071  0.0666007552664316   T   T   T
  0.3881863994584763  0.4385984436008031  0.0354391222381181   T   T   T
  0.3800445251635364  0.5088665277641882  0.0336204649630241   T   T   T
  0.3646363292565623  0.5496446993060884  0.4566294598690707   T   T   T
  0.3514658056886690  0.5732246768128475  0.4257720278200108   T   T   T
  0.3150957301473398  0.6135695603618947  0.4237689260111401   T   T   T
  0.2963092679018051  0.6245716183766520  0.3925225283394135   T   T   T
  0.2523767905512315  0.6283650511527341  0.3906318471258032   F   F   F
  0.2329554837199410  0.6202171217729671  0.3594317731553716   F   F   F
  0.1947988749198544  0.5845214406468102  0.3576285033227649   F   F   F
  0.1808610791308922  0.5607081510803695  0.3264902090274688   F   F   F
  0.1598799459186893  0.4978579556658858  0.3247027809057172   F   F   F
  0.1553916174028060  0.4657453459489531  0.2935504394361175   F   F   F
  0.1575701806262586  0.3943479752159718  0.2917532954042485   F   F   F
  0.1639792571407099  0.3631422914562137  0.2605853245049943   F   F   F
  0.1887926484461744  0.3041041642522231  0.2587427012272272   F   F   F
  0.2043662933955233  0.2830459130678804  0.2275900684385661   F   F   F
  0.2445524245424622  0.2539326920385037  0.2257669112029319   F   F   F
  0.2646757280818406  0.2493960972225011  0.1946429571255308   F   F   F
  0.3082705324618745  0.2589196189387906  0.1928556448771465   T   T   T
  0.3269062822515514  0.2721818429316568  0.1617395070145561   T   T   T
  0.3609098329361412  0.3175517396108171  0.1599706962308272   T   T   T
  0.3725418222800516  0.3446280887080353  0.1288375569266114   T   T   T
  0.3868689638363306  0.4122424119411926  0.1270617334077346   T   T   T
  0.3880676583768380  0.4451263264038474  0.0959074304371505   T   T   T
  0.3784572600043340  0.5149047321478282  0.0940858382725717   T   T   T
  0.3632360645916573  0.5548729525268622  0.5171084449690833   T   T   T
  0.3485146050191696  0.5776708140967728  0.4856390049941389   T   T   T
  0.3113253180107236  0.6164098320295963  0.4839932790861354   F   F   F
  0.2920566941426088  0.6265127767351117  0.4529442404638289   F   F   F
  0.2479742471103208  0.6279878242685442  0.4511261385717731   F   F   F
  0.2286916711902194  0.6187589219648899  0.4199441112721161   F   F   F
  0.1914785891810808  0.5805810994119511  0.4181299272697458   F   F   F
  0.1781274334813361  0.5558557775477411  0.3869519617325707   F   F   F
  0.1587519507748070  0.4916772331821804  0.3851688078490128   F   F   F
  0.1549631596897143  0.4592904855598690  0.3540134568030382   F   F   F
  0.1587076855050356  0.3880350940635680  0.3522107615556322   F   F   F
  0.1657159744956402  0.3571776995929170  0.3210460241542847   F   F   F
  0.1916689828195217  0.2994265612814218  0.3191932185620772   F   F   F
  0.2076426433715142  0.2792218392221955  0.2880246401410034   F   F   F
  0.2483638315902255  0.2521788796101063  0.2861962771755842   F   F   F
  0.2685815549015871  0.2488119015590300  0.2550530964754785   F   F   F
  0.3119445601654860  0.2608147560690952  0.2532556492459008   F   F   F
  0.3302954650961580  0.2751751704845142  0.2221594278959628   T   T   T
  0.3632741334296400  0.3225361073226310  0.2204074944359083   T   T   T
  0.3743232711811706  0.3503059717337780  0.1892933509829141   T   T   T
  0.3871607809760490  0.4187025945122612  0.1875204061229691   T   T   T
  0.3877073260657172  0.4516426870537716  0.1563681674581767   T   T   T
  0.3766412377638447  0.5208357772994918  0.1545507876046790   T   T   T
  0.3606315468319831  0.5600673299494897  0.5774910928533693   T   T   T
  0.3465527078946128  0.5835640850062609  0.5461797838019999   T   T   T
  0.3082810700925862  0.6195046927645355  0.5444687996448909   T   T   T
  0.2883344085442161  0.6275870115963258  0.5134095446680362   F   F   F
  0.2443673170917151  0.6261189515286034  0.5116480773752698   F   F   F
  0.2249098976577315  0.6163993863981858  0.4804645747084635   F   F   F
  0.1885622288014659  0.5760511061825255  0.4786403507411450   F   F   F
  0.1756088555530155  0.5508023808440043  0.4474616775246147   F   F   F
  0.1577620146096947  0.4853685907614675  0.4456537853474245   F   F   F
  0.1547378893142550  0.4528087596555039  0.4144983535225677   F   F   F
  0.1599861536092604  0.3818039309252299  0.4126795370883656   F   F   F
  0.1676272418793516  0.3513248416533159  0.3815078487128574   F   F   F
  0.1946308890420667  0.2948907344848521  0.3796561067676620   F   F   F
  0.2109839369317683  0.2754794320714069  0.3484677895300266   F   F   F
  0.2522073051191853  0.2505053959275187  0.3466380004591727   F   F   F
  0.2724743984716582  0.2482128640326806  0.3154874966011008   F   F   F
  0.3155809928500659  0.2626239808522968  0.3136780177369047   F   F   F
  0.3335932994171058  0.2782353522300031  0.2826007870592311   T   T   T
  0.3654192996759925  0.3276205861442924  0.2808465930143932   T   T   T
  0.3758630818841671  0.3560742853974840  0.2497341770023629   T   T   T
  0.3871514306593210  0.4251696330309326  0.2479458672310254   T   T   T
  0.3870905709397972  0.4581177270547973  0.2168145652478839   T   T   T
  0.3745857266194233  0.5266886025109494  0.2150083992963172   T   T   T
  0.3583181160389426  0.5648436237974744  0.6378913297837157   T   T   T
  0.3436447187895754  0.5879505617539096  0.6067714398354399   T   T   T
  0.3048237473627448  0.6217086018308843  0.6050038749206228   T   T   T
  0.2848815136605296  0.6286545094656759  0.5738267474173000   F   F   F
  0.2409363268893898  0.6239117710853463  0.5721045874113244   F   F   F
  0.2216182984775443  0.6131163608496735  0.5410025314060718   F   F   F
  0.1860257751465042  0.5710128454309782  0.5391631983277136   F   F   F
  0.1735035561284661  0.5451521233264884  0.5079768158797293   F   F   F
  0.1569523480690833  0.4789225655973013  0.5061479107139419   F   F   F
  0.1546242326490912  0.4462534059488306  0.4749608308078237   F   F   F
  0.1613437729869887  0.3755950397557015  0.4731390441103684   F   F   F
  0.1695888351168051  0.3455617668916489  0.4419660700107499   F   F   F
  0.1976760582208641  0.2905140985808856  0.4401254417044242   F   F   F
  0.2143637697341063  0.2718900739271035  0.4089508200185819   F   F   F
  0.2560873611213523  0.2491286758587137  0.4071196698302444   F   F   F
  0.2763850665611187  0.2479384019448574  0.3759726077392997   F   F   F
  0.3190410807582461  0.2655346612704472  0.3742008585409180   T   T   T
  0.3367121878416520  0.2817885150134801  0.3430349372068870   T   T   T
  0.3673122258361730  0.3330503929173608  0.3412300727244935   T   T   T
  0.3772030688282742  0.3619363831785121  0.3101484622376335   T   T   T
  0.3868904793452472  0.4317368805040624  0.3083126349727667   T   T   T
  0.3861683782947302  0.4646228068614706  0.2772270426069585   T   T   T
  0.3723212020195788  0.5324925486644294  0.2754555170419286   T   T   T
  0.3559623425213915  0.5695345092006423  0.6983456619314774   T   T   T
  0.3407275440005045  0.5916304089056579  0.6672327458614269   T   T   T
  0.3012179400477305  0.6230424451709551  0.6654677148308156   T   T   T
  0.2811676012950173  0.6290486004215765  0.6343251384770241   F   F   F
  0.2373616741115896  0.6216736484751237  0.6325765859170716   F   F   F
  0.2184245653617225  0.6096023759119333  0.6014454447803672   F   F   F
  0.1836352854828505  0.5658277972319468  0.5996226820326100   F   F   F
  0.1715292825344079  0.5394067522843216  0.5684467611290458   F   F   F
  0.1561642123962912  0.4724149012428569  0.5666116388201274   F   F   F
  0.1545069499987264  0.4396485892386934  0.5354382567561942   F   F   F
  0.1626779012715645  0.3693832244651389  0.5336154106037228   F   F   F
  0.1716420157894802  0.3398550012908075  0.5024577007457438   F   F   F
  0.2008403715895071  0.2863984706984297  0.5006593481400330   F   F   F
  0.2178966593950804  0.2686845041096859  0.4694579117288669   F   F   F
  0.2600096262859992  0.2483763142082793  0.4676337498469891   F   F   F
  0.2803113192524265  0.2483988036596827  0.4364510370616088   F   F   F
  0.3223335711581400  0.2694302278241446  0.4346520538074692   T   T   T
  0.3395104143726402  0.2866938822892255  0.4035183478201946   T   T   T
  0.3687990551955608  0.3399619962469778  0.4016705780473779   T   T   T
  0.3782440949325528  0.3684131538229630  0.3705193604853972   T   T   T
  0.3865887500795162  0.4383992088378623  0.3685767277225204   T   T   T
  0.3850552725862021  0.4712287608373456  0.3375094607518666   T   T   T
  0.3533974093155479  0.5741599506474867  0.7588100736641233   T   T   T
  0.3377341747952760  0.5952606961262812  0.7276753826012509   T   T   T
  0.2975285348596302  0.6242490016686943  0.7259124613489405   F   F   F
  0.2773654259840086  0.6290404243561696  0.6947897708022097   F   F   F
  0.2337672131475514  0.6193449988469695  0.6930158896584828   F   F   F
  0.2151132535308022  0.6062166799552458  0.6618712511159686   F   F   F
  0.1811965254464880  0.5606669028012305  0.6600591313328508   F   F   F
  0.1696292862446001  0.5336207747884885  0.6288991541243334   F   F   F
  0.1554620062043597  0.4659224611418651  0.6270716126650200   F   F   F
  0.1544643494434652  0.4330473680020361  0.5959038832011672   F   F   F
  0.1640959975259548  0.3632926273851211  0.5940831696922189   F   F   F
  0.1737241478920808  0.3342834164286614  0.5629245634131408   F   F   F
  0.2041560067077981  0.2826399446121357  0.5611398976128399   F   F   F
  0.2215469802006425  0.2657723763672308  0.5299679355706672   F   F   F
  0.2641348047328194  0.2477613680240935  0.5281463394598092   F   F   F
  0.2843320019123183  0.2488966098005108  0.4969495604630723   F   F   F
  0.3258810563368414  0.2723186223226610  0.4951039376453870   T   T   T
  0.3424998812111043  0.2920289972648085  0.4639688182015048   T   T   T
  0.3707419238300777  0.3464088488256966  0.4621826100321210   T   T   T
  0.3792846254633190  0.3765212737755498  0.4308304154249580   T   T   T
  0.3883913564626154  0.4453309654092139  0.4285514632893964   T   T   T
  0.3851722490427938  0.4777520669423077  0.3977849039132394   T   T   T
  0.3506041000875388  0.5786704406132438  0.8192683683419392   T   T   T
  0.3345399086583061  0.5988427212932387  0.7881226114476784   T   T   T
  0.2937265482392846  0.6255216549112959  0.7863519394148000   F   F   F
  0.2735074378658950  0.6290542437400646  0.7552209675125496   F   F   F
  0.2301425836169813  0.6169835399776318  0.7534342659238860   F   F   F
  0.2117887837192001  0.6028240985567237  0.7222981255842811   F   F   F
  0.1787819001684312  0.5555230438056924  0.7204947466855387   F   F   F
  0.1677771213286690  0.5278285954899715  0.6893449578141428   F   F   F
  0.1549308001289447  0.4594526953008682  0.6875243900687238   F   F   F
  0.1545443137704225  0.4265215498942609  0.6563600489118784   F   F   F
  0.1656557576213373  0.3573438052876696  0.6545444597990198   F   F   F
  0.1759105849581033  0.3288984610074195  0.6233946505959338   F   F   F
  0.2075509163818623  0.2792037436090169  0.6216175965898785   F   F   F
  0.2253447351171545  0.2634078592939986  0.5904660356876761   F   F   F
  0.2682961815466953  0.2479427665907039  0.5886476467979875   F   F   F
  0.2884341496763696  0.2497816075182868  0.5574412602275274   F   F   F
  0.3296664363406521  0.2748135731816170  0.5555530648829824   T   T   T
  0.3456738804928212  0.2949466221422176  0.5243608495093233   T   T   T
  0.3725552070979775  0.3514551215459494  0.5225773692814066   T   T   T
  0.3805918458013309  0.3826365759136333  0.4915492193844012   T   T   T
  0.3893572307775306  0.4522191157939304  0.4902199087132463   T   T   T
  0.3935136738600341  0.4894139773096808  0.4582357660135234   T   T   T
  0.3476562947975584  0.5830379615096154  0.8797288431457103   T   T   T
  0.3311979395379153  0.6022890264586547  0.8485728835163506   T   T   T
  0.2898418250179020  0.6266852031417969  0.8467905097505266   F   F   F
  0.2695914268446487  0.6290457214286533  0.8156507647940003   F   F   F
  0.2265011538900481  0.6145616769945192  0.8138537179463299   F   F   F
  0.2084731016458150  0.5993496737333359  0.7827233717849467   F   F   F
  0.1764567881797916  0.5503000764928103  0.7809260656632446   F   F   F
  0.1660272488689714  0.5220156858486149  0.7497799086413224   F   F   F
  0.1545978441263145  0.4529741526544200  0.7479640038008881   F   F   F
  0.1548497265642794  0.4200333470565667  0.7168143442787667   F   F   F
  0.1674236088821388  0.3515146582975319  0.7150033801660314   F   F   F
  0.1782753953509371  0.3236916021283562  0.6838522181421851   F   F   F
  0.2110462791195786  0.2759939622242271  0.6820674020815574   F   F   F
  0.2291910838384723  0.2613539218068937  0.6509179683746211   F   F   F
  0.2724708159501077  0.2485890402200894  0.6490952014590121   F   F   F
  0.2925598675132122  0.2514789979138001  0.6179149103393229   F   F   F
  0.3333821537257053  0.2781612266167064  0.6160363403615796   T   T   T
  0.3491942757910702  0.2984448098207945  0.5848267326728882   T   T   T
  0.3751801446887471  0.3560885350382990  0.5830366275659250   T   T   T
  0.3819847589152549  0.3872493386748900  0.5519200762069398   T   T   T
  0.3859071098181587  0.4583274557029465  0.5502338050001926   T   T   T
  0.3832170158677981  0.4909287756292675  0.5191349691848849   T   T   T
  0.3445776866663967  0.5872179456302089  0.9401874333263449   T   T   T
  0.3277357700370159  0.6055500345382726  0.9090263423181411   T   T   T
  0.2858874696579434  0.6276484359567291  0.9072311819588137   F   F   F
  0.2656206121316274  0.6288750928619109  0.8760851767512605   F   F   F
  0.2228667373024180  0.6119793295506781  0.8742790489535892   F   F   F
  0.2051943070406494  0.5957563845113896  0.8431423611208899   F   F   F
  0.1742308008694735  0.5449568412351766  0.8413484850074369   F   F   F
  0.1643932870624951  0.5161139130528554  0.8102090614013733   F   F   F
  0.1544268172772618  0.4464685473704435  0.8083938267177473   F   F   F
  0.1553672788884342  0.4135597263901118  0.7772521684236509   F   F   F
  0.1693882171230214  0.3457925481151278  0.7754437869441233   F   F   F
  0.1808075789181700  0.3186103008994436  0.7442907044554659   F   F   F
  0.2146220375432080  0.2728736599535111  0.7424893514277571   F   F   F
  0.2330909403876831  0.2594117406294600  0.7113431611252565   F   F   F
  0.2766382240025607  0.2492684515448857  0.7095141685865940   F   F   F
  0.2966592907283641  0.2534705178310617  0.6783445449704999   F   F   F
  0.3369486032629596  0.2821226701417583  0.6764747403923409   T   T   T
  0.3524300193484252  0.3030014667439693  0.6452604242281572   T   T   T
  0.3772962669392863  0.3619779724202664  0.6434123921259747   T   T   T
  0.3835555271430263  0.3932095993145763  0.6122595412215525   T   T   T
  0.3857929816247239  0.4646374628659881  0.6104822836620167   T   T   T
  0.3811380874741475  0.4969482705124827  0.5794299204798914   T   T   T
  0.3413918249366960  0.5912089050293539  0.0006458075612093   T   T   T
  0.3241849907689090  0.6086032916730679  0.9694819292205751   T   T   T
  0.2818962926047703  0.6283590604351517  0.9676729047053882   F   F   F
  0.2616253706367644  0.6284723318075294  0.9365202766415379   F   F   F
  0.2192552205862270  0.6091886077483935  0.9347073734109230   F   F   F
  0.2019535689593042  0.5919958460783121  0.9035631742869015   F   F   F
  0.1720917373363307  0.5394771782918255  0.9017664651421313   F   F   F
  0.1628898010698165  0.5101050463300396  0.8706287966228956   F   F   F
  0.1544051032865212  0.4399495848520800  0.8688124343170287   F   F   F
  0.1560416863974083  0.4071121791454857  0.8376717801242819   F   F   F
  0.1714956797624438  0.3401727706359168  0.8358658026096961   F   F   F
  0.1834840849479065  0.3136503041486165  0.8047173520096180   F   F   F
  0.2182709016508539  0.2698686059107587  0.8029028200660520   F   F   F
  0.2370276148168671  0.2575444258525366  0.7717540351949452   F   F   F
  0.2807713252827995  0.2499168092641852  0.7699216749129363   F   F   F
  0.3006924465264366  0.2553575574956208  0.7387553609445991   T   T   T
  0.3403813572681544  0.2861735153053085  0.7368950433589745   T   T   T
  0.3554882643931181  0.3078771446420774  0.7057057406403099   T   T   T
  0.3792186737872623  0.3680813125505691  0.7038370688439931   T   T   T
  0.3848883257849758  0.3995878617541169  0.6726588436513045   T   T   T
  0.3857377031418274  0.4710723323603046  0.6708552767716391   T   T   T
  0.3803866747351535  0.5029853097909026  0.6397286787400709   T   T   T
  0.2576193871116033  0.6278029243132579  0.9969541918921436   F   F   F
  0.2156814123412119  0.6061617699258619  0.9951356557304507   F   F   F
  0.1987669247870230  0.5880283026741111  0.9639855129326946   F   F   F
  0.1700366170574483  0.5338702644283941  0.9621796490310004   F   F   F
  0.1614811497496689  0.5040029167910873  0.9310403508393037   F   F   F
  0.1544967103840378  0.4334132702635074  0.9292211601335296   F   F   F
  0.1568460579225359  0.4006963305028393  0.8980813427478367   F   F   F
  0.1737113806481076  0.3346581400181208  0.8962779123537459   F   F   F
  0.1862701798927304  0.3088332494180506  0.8651330773312580   F   F   F
  0.2219592897425642  0.2670162618032137  0.8633108539432399   F   F   F
  0.2409843966444853  0.2557809553243331  0.8321619819069426   F   F   F
  0.2848662563080708  0.2506140341734664  0.8303326663315715   F   F   F
  0.3046739209439019  0.2572526767221732  0.7991719373550801   T   T   T
  0.3436995175272087  0.2902548302843649  0.7973245092418932   T   T   T
  0.3583736187521639  0.3128266027195865  0.7661473178614232   T   T   T
  0.3809015212942538  0.3742369116776181  0.7642861187490617   T   T   T
  0.3860147880295463  0.4060297639327909  0.7331015890936714   T   T   T
  0.3854117331927585  0.4775277398798378  0.7312940262773595   T   T   T
  0.3794703557505172  0.5090854289124375  0.7001444233713275   T   T   T
  0.1601689098821026  0.4978126908618918  0.9914465793822416   F   F   F
  0.1546904048903599  0.4268674139433912  0.9896247465391639   F   F   F
  0.1577516574713016  0.3943039663329984  0.9584872311347254   F   F   F
  0.1760065187475490  0.3292465495565082  0.9566831031133631   F   F   F
  0.1891218938577097  0.3041406197286420  0.9255421879593584   F   F   F
  0.2256740581997221  0.2643371420319838  0.9237192695077212   F   F   F
  0.2449407555362413  0.2541741757748781  0.8925731698671342   F   F   F
  0.2889089823007609  0.2514707086190100  0.8907540073269615   F   F   F
  0.3085823068256062  0.2592551504524252  0.8595973492372337   F   F   F
  0.3468878889203124  0.2944327011681528  0.8577609129163948   T   T   T
  0.3611061857532654  0.3178350255940604  0.8265920062040949   T   T   T
  0.3823542336277104  0.3804435431056946  0.8247463190104445   T   T   T
  0.3868707179801045  0.4125073914965793  0.7935687729466010   T   T   T
  0.3847660488824436  0.4839296478368623  0.7917619831078994   T   T   T
  0.3782338688755169  0.5151423882019405  0.7606028252558718   T   T   T
  0.1920435928595055  0.2996164760311757  0.9859488111234640   F   F   F
  0.2294178857776643  0.2618801251533256  0.9841295000803072   F   F   F
  0.2488987755310816  0.2527871548935607  0.9529883237582411   F   F   F
  0.2929018957571756  0.2525478861187267  0.9511827501056445   F   F   F
  0.3124090775095268  0.2614493500185038  0.9200287324031645   T   T   T
  0.3499405982638775  0.2987682091698681  0.9182016491788012   T   T   T
  0.3636773903494643  0.3229556389148439  0.8870395633771353   T   T   T
  0.3835907562848159  0.3867118688506531  0.8852111242097862   T   T   T
  0.3874659478918576  0.4190175509932997  0.8540383871289174   T   T   T
  0.3838417157338240  0.4902758412512613  0.8522311689856609   T   T   T
  0.3766993851523766  0.5210990189747503  0.8210671925433662   T   T   T
  0.3161691370849138  0.2638409465240688  0.9804610024860507   T   T   T
  0.3528864568038890  0.3032481690635616  0.9786434727455831   T   T   T
  0.3661088697711689  0.3282004646223761  0.9474863957484864   T   T   T
  0.3846699251473638  0.3930287456690187  0.9456749910118786   T   T   T
  0.3878706681914141  0.4255408149461647  0.9145059596533590   T   T   T
  0.3827396058589539  0.4965559371355143  0.9126959503541158   T   T   T
  0.3749626905854672  0.5269695595161573  0.8815335895957849   T   T   T
  0.3881130197722844  0.4320703515048768  0.9749715184028300   T   T   T
  0.3814701688245379  0.5027508344612915  0.9731579276781495   T   T   T
  0.3730635076987265  0.5327165922947713  0.9419953827182779   T   T   T
  0.4781070209588568  0.4433724382298521  0.4960917420412544   T   T   T
  0.4829954071916048  0.4034276505827139  0.4661226700422804   T   T   T
  0.4816209312823297  0.5161217946323474  0.4925819365353387   T   T   T
  0.4254768223274131  0.5106171265003117  0.4571178851224012   T   T   T
 
  0.00000000E+00  0.00000000E+00  0.00000000E+00
  0.00000000E+00  0.00000000E+00  0.00000000E+00
  0.00000000E+00  0.00000000E+00  0.00000000E+00
  0.00000000E+00  0.00000000E+00  0.00000000E+00
  0.00000000E+00  0.00000000E+00  0.00000000E+00
  0.00000000E+00  0.00000000E+00  0.00000000E+00
  0.00000000E+00  0.00000000E+00  0.00000000E+00
  0.00000000E+00  0.00000000E+00  0.00000000E+00
  0.00000000E+00  0.00000000E+00  0.00000000E+00
  0.00000000E+00  0.00000000E+00  0.00000000E+00
  0.00000000E+00  0.00000000E+00  0.00000000E+00
  0.00000000E+00  0.00000000E+00  0.00000000E+00
  0.00000000E+00  0.00000000E+00  0.00000000E+00
  0.00000000E+00  0.00000000E+00  0.00000000E+00
  0.00000000E+00  0.00000000E+00  0.00000000E+00
  0.00000000E+00  0.00000000E+00  0.00000000E+00
  0.00000000E+00  0.00000000E+00  0.00000000E+00
  0.00000000E+00  0.00000000E+00  0.00000000E+00
  0.00000000E+00  0.00000000E+00  0.00000000E+00
  0.00000000E+00  0.00000000E+00  0.00000000E+00
  0.00000000E+00  0.00000000E+00  0.00000000E+00
  0.00000000E+00  0.00000000E+00  0.00000000E+00
  0.00000000E+00  0.00000000E+00  0.00000000E+00
  0.00000000E+00  0.00000000E+00  0.00000000E+00
  0.00000000E+00  0.00000000E+00  0.00000000E+00
  0.00000000E+00  0.00000000E+00  0.00000000E+00
  0.00000000E+00  0.00000000E+00  0.00000000E+00
  0.00000000E+00  0.00000000E+00  0.00000000E+00
  0.00000000E+00  0.00000000E+00  0.00000000E+00
  0.00000000E+00  0.00000000E+00  0.00000000E+00
  0.00000000E+00  0.00000000E+00  0.00000000E+00
  0.00000000E+00  0.00000000E+00  0.00000000E+00
  0.00000000E+00  0.00000000E+00  0.00000000E+00
  0.00000000E+00  0.00000000E+00  0.00000000E+00
  0.00000000E+00  0.00000000E+00  0.00000000E+00
  0.00000000E+00  0.00000000E+00  0.00000000E+00
  0.00000000E+00  0.00000000E+00  0.00000000E+00
  0.00000000E+00  0.00000000E+00  0.00000000E+00
  0.00000000E+00  0.00000000E+00  0.00000000E+00
  0.00000000E+00  0.00000000E+00  0.00000000E+00
  0.00000000E+00  0.00000000E+00  0.00000000E+00
  0.00000000E+00  0.00000000E+00  0.00000000E+00
  0.00000000E+00  0.00000000E+00  0.00000000E+00
  0.00000000E+00  0.00000000E+00  0.00000000E+00
  0.00000000E+00  0.00000000E+00  0.00000000E+00
  0.00000000E+00  0.00000000E+00  0.00000000E+00
  0.00000000E+00  0.00000000E+00  0.00000000E+00
  0.00000000E+00  0.00000000E+00  0.00000000E+00
  0.00000000E+00  0.00000000E+00  0.00000000E+00
  0.00000000E+00  0.00000000E+00  0.00000000E+00
  0.00000000E+00  0.00000000E+00  0.00000000E+00
  0.00000000E+00  0.00000000E+00  0.00000000E+00
  0.00000000E+00  0.00000000E+00  0.00000000E+00
  0.00000000E+00  0.00000000E+00  0.00000000E+00
  0.00000000E+00  0.00000000E+00  0.00000000E+00
  0.00000000E+00  0.00000000E+00  0.00000000E+00