 C  S  O  H                             
    1.000000000000000     
    32.3722991942999982    0.0000000000000000    0.0000000000000000
     0.0000000000000000   19.9214134216000005    0.0000000000000000
     0.0000000000000000    0.0000000000000000   40.4480476378999967
   C    S    O    H 
   364     1     2     1
Selective dynamics
Direct
  0.3708173131168309  0.5384652127032155  0.0024474716911485   F   F   F
  0.3685881613291784  0.5439874390341615  0.0628972004698483   F   F   F
  0.3378653038968054  0.5951707057938336  0.0610845675976819   F   F   F
  0.3203253664917440  0.6115590635247727  0.0299171283213582   F   F   F
  0.2776383350480458  0.6288856524939774  0.0280935455971232   F   F   F
  0.3662112752811595  0.5494069836640278  0.1233354554112935   F   F   F
  0.3344334578199124  0.5988729468339358  0.1215264487260654   F   F   F
  0.3165762017572433  0.6142602890728668  0.0903599130276262   F   F   F
  0.2735440559615370  0.6291905604676984  0.0885273260802819   F   F   F
  0.2533603374048852  0.6269725331013021  0.0573672157487550   F   F   F
  0.2119249050645848  0.6029394008697508  0.0555483269274362   F   F   F
  0.1954418711148236  0.5838201463379065  0.0243917238230793   F   F   F
  0.1679120700663290  0.5280481550812084  0.0225779554385994   F   F   F
  0.3636864013076462  0.5547097636008402  0.1837700769665389   F   F   F
  0.3309070318295255  0.6024206561627707  0.1819719536711091   F   F   F
  0.3127424703123154  0.6167831247223035  0.1508019534838283   F   F   F
  0.2694315052289085  0.6293050984654300  0.1489691579420906   F   F   F
  0.2493167599032589  0.6259352557124060  0.1178002844875294   F   F   F
  0.2084276643795491  0.5995453536452402  0.1159799833525952   F   F   F
  0.1923740159962009  0.5795096473895853  0.0848222948925823   F   F   F
  0.1660610145002153  0.5221990461332027  0.0829996889505864   F   F   F
  0.1588265424662936  0.4914520429614200  0.0518532290000238   F   F   F
  0.1548856841747863  0.4202384612846970  0.0500334624264411   F   F   F
  0.1586515036490823  0.3878750783128311  0.0188875298587732   F   F   F
  0.1782873943679775  0.3238939994922845  0.0170803451242563   F   F   F
  0.3610828923163467  0.5599001618707646  0.2441870070454328   F   F   F
  0.3273392059178164  0.6057377825564174  0.2424149510241733   F   F   F
  0.3088689557911835  0.6191141796424802  0.2112520611993034   F   F   F
  0.2653020507533981  0.6291601850351611  0.2094188118209459   F   F   F
  0.2452843689933886  0.6246883682668880  0.1782516364728082   F   F   F
  0.2049815294631046  0.5959512022818885  0.1764209431334578   F   F   F
  0.1893846254721367  0.5750150633017768  0.1452604857194544   F   F   F
  0.1643214491898277  0.5162446263816278  0.1434256507598590   F   F   F
  0.1577667919079957  0.4851043981724104  0.1122744479970166   F   F   F
  0.1553384370134907  0.4137177288307186  0.1104570878016986   F   F   F
  0.1597853922258423  0.3815894221252307  0.0793058668201923   F   F   F
  0.1807515859215698  0.3187303885122219  0.0774954483509518   F   F   F
  0.1949215776494313  0.2951674337924430  0.0463550682358829   F   F   F
  0.2330793231388881  0.2595576475924020  0.0445386674930361   F   F   F
  0.2527663134180855  0.2516088247888106  0.0133980124401560   F   F   F
  0.2967439920481780  0.2538792410008597  0.0115994422354788   F   F   F
  0.3707751722834303  0.5385886500257229  0.3356910078827795   F   F   F
  0.3586105219104638  0.5650466116051476  0.3046188828057268   F   F   F
  0.3237502055033801  0.6087800360642177  0.3028603136163781   F   F   F
  0.3049875786477330  0.6211265712468901  0.2717483636317937   F   F   F
  0.2611824949067270  0.6286073427096497  0.2698954986685465   F   F   F
  0.2412772114504591  0.6230718793749688  0.2387222193059628   F   F   F
  0.2016126071173758  0.5921084656694902  0.2368701806538951   F   F   F
  0.1864845349500328  0.5703198029258587  0.2056942726218267   F   F   F
  0.1627032474684640  0.5101739620806356  0.2038489550590654   F   F   F
  0.1568215128634947  0.4786949749618046  0.1726945885162934   F   F   F
  0.1559135142123580  0.4072053496030037  0.1708806312299203   F   F   F
  0.1610346938540062  0.3753537656711856  0.1397319953056098   F   F   F
  0.1833011262094857  0.3136794235563016  0.1379183496566441   F   F   F
  0.1979733055563599  0.2909357167050359  0.1067769880450840   F   F   F
  0.2368515526393793  0.2574635316801235  0.1049673325295544   F   F   F
  0.2567070052761053  0.2506316289452428  0.0738235898222683   F   F   F
  0.3006096655423676  0.2553802986703886  0.0720302556271832   F   F   F
  0.3197245606287851  0.2664793170992610  0.0408899268404568   F   F   F
  0.3555657846509845  0.3079675023809045  0.0390804863516721   F   F   F
  0.3682696374252501  0.3336667132807989  0.0079302868769631   F   F   F
  0.3854206096185848  0.3995166899565206  0.0061307199104732   F   F   F
  0.3694663100604672  0.5444427276627977  0.3960658494951304   F   F   F
  0.3562693182961212  0.5698051279567267  0.3652365486204943   F   F   F
  0.3199995351914851  0.6109114648310054  0.3633814325363787   F   F   F
  0.3010224051880428  0.6223345658456694  0.3322678539955319   F   F   F
  0.2571070237476363  0.6274516976616198  0.3303801702304341   F   F   F
  0.2373213159054899  0.6210195208534515  0.2991729685284454   F   F   F
  0.1982970987105261  0.5880067991091806  0.2973046777161414   F   F   F
  0.1836339055987963  0.5654678088332048  0.2661264226034348   F   F   F
  0.1611256140852859  0.5040093410264035  0.2642737800921111   F   F   F
  0.1559654558230434  0.4722238086454524  0.2331211638875246   F   F   F
  0.1565811183035564  0.4007246953454455  0.2313095360561022   F   F   F
  0.1624083123469262  0.3691864399336495  0.2001627408172695   F   F   F
  0.1859531722398131  0.3087880565082202  0.1983513848812990   F   F   F
  0.2010885796789381  0.2868581107148884  0.1672036337419769   F   F   F
  0.2406433443997145  0.2555547397799529  0.1654037615585153   F   F   F
  0.2606359784980015  0.2498284793382837  0.1342602808331108   F   F   F
  0.3044172611800704  0.2570468412991858  0.1324663622377429   F   F   F
  0.3232960083342036  0.2692409331530143  0.1013321990370244   F   F   F
  0.3582221424814378  0.3127349277610278  0.0995267999220388   F   F   F
  0.3703860140561019  0.3391496357238211  0.0683805181612414   F   F   F
  0.3861192398780133  0.4059232741222658  0.0665867093660069   F   F   F
  0.3879864295944984  0.4387263610538739  0.0354287294055737   F   F   F
  0.3798292473162235  0.5089931030846273  0.0336097506545272   F   F   F
  0.3664459190463205  0.5497459912207461  0.4566443288566902   F   F   F
  0.3527827658949931  0.5728347976596808  0.4257905254306564   F   F   F
  0.3158104114604896  0.6117161383869885  0.4238009454622613   F   F   F
  0.2968123250055612  0.6227482453081237  0.3926266438091375   F   F   F
  0.2528834435347704  0.6261622161459286  0.3907699121741430   F   F   F
  0.2332796891404385  0.6188318247392601  0.3595889459450277   F   F   F
  0.1948741818947610  0.5838329307517398  0.3577268293471789   F   F   F
  0.1807873593653468  0.5604257036110312  0.3265585875563204   F   F   F
  0.1595886733928182  0.4977632530172542  0.3247106692970121   F   F   F
  0.1551734734850001  0.4656956584141412  0.2935459027732108   F   F   F
  0.1573336013527182  0.3942946231173465  0.2917397450035111   F   F   F
  0.1638557942244319  0.3630927944101572  0.2605907997508154   F   F   F
  0.1886841787236335  0.3040619181889639  0.2587844333093088   F   F   F
  0.2042816262014142  0.2829662259751515  0.2276443333551299   F   F   F
  0.2444786117754560  0.2538597259234123  0.2258547374265163   F   F   F
  0.2645771131676824  0.2492517165195878  0.1947106846227697   F   F   F
  0.3081713861031332  0.2589305033292533  0.1929125920283994   F   F   F
  0.3267765992415761  0.2721953245566482  0.1617700946332974   F   F   F
  0.3607300190128626  0.3176656995265361  0.1599636020435611   F   F   F
  0.3723426205680909  0.3447438840652453  0.1288248149319315   F   F   F
  0.3866241932596211  0.4123835149355486  0.1270267062802759   F   F   F
  0.3878198511584827  0.4452672388905725  0.0958806412767927   F   F   F
  0.3781961240230913  0.5150433199747155  0.0940606504054742   F   F   F
  0.3645689650327384  0.5549089430398624  0.5172360468264117   F   F   F
  0.3498079793100430  0.5770108900121969  0.4856710150439270   F   F   F
  0.3120562890662839  0.6140287570576319  0.4840033839724853   F   F   F
  0.2926888185571030  0.6235821378254940  0.4529782204522661   F   F   F
  0.2486030548715092  0.6252032745775153  0.4511610920088813   F   F   F
  0.2291881060528098  0.6165882664470104  0.4200267617426618   F   F   F
  0.1915453658626305  0.5795659964220903  0.4181797621360772   F   F   F
  0.1779680989844863  0.5553208709119488  0.3869902735929713   F   F   F
  0.1581729271161763  0.4914878749221145  0.3851620557517634   F   F   F
  0.1544357598365025  0.4591776664123159  0.3539888941577303   F   F   F
  0.1581555490070485  0.3879178250382225  0.3521805997383325   F   F   F
  0.1653714123869605  0.3571042744037598  0.3210396595778988   F   F   F
  0.1914677327602661  0.2995126718813808  0.3192335128364974   F   F   F
  0.2075433617493943  0.2793191402414124  0.2880998274493578   F   F   F
  0.2483389260991729  0.2525315781273463  0.2863224219209499   F   F   F
  0.2685279971847905  0.2489861258603838  0.2551674956655816   F   F   F
  0.3118793595566061  0.2611397769503014  0.2533579885448063   F   F   F
  0.3301913805844805  0.2753547815696180  0.2222133647519939   F   F   F
  0.3631454969188965  0.3227647405986005  0.2203935947649995   F   F   F
  0.3741455254924873  0.3504815860895576  0.1892611804432747   F   F   F
  0.3869669519823091  0.4188820705860934  0.1874475117157246   F   F   F
  0.3874604894620433  0.4518138294450011  0.1563091693066596   F   F   F
  0.3763833368601226  0.5210011136744868  0.1544954283812388   F   F   F
  0.3613549415580621  0.5601336712020242  0.5776260390634249   F   F   F
  0.3473592718201743  0.5832027145714420  0.5462309037515638   F   F   F
  0.3087282974613572  0.6180432890736896  0.5444319976474645   F   F   F
  0.2888658002627693  0.6251082313345293  0.5133308393022560   F   F   F
  0.2448988883621652  0.6237711049582160  0.5115684113071310   F   F   F
  0.2253981276557226  0.6142073123091407  0.4804338469084044   F   F   F
  0.1885669406904142  0.5750554421548060  0.4786248462246192   F   F   F
  0.1753371056488575  0.5501780046857832  0.4474662056701675   F   F   F
  0.1569568007656699  0.4851367284804411  0.4456474869781601   F   F   F
  0.1538899189647367  0.4526363990778819  0.4144781547779033   F   F   F
  0.1591232109996881  0.3816261485091417  0.4126587067356908   F   F   F
  0.1669984530809856  0.3512328766375035  0.3814997707977810   F   F   F
  0.1943188008655312  0.2952009790297438  0.3796886507126871   F   F   F
  0.2108525310424056  0.2759306301523523  0.3485484640347707   F   F   F
  0.2522388142042544  0.2516471251254373  0.3467743345698509   F   F   F
  0.2724859950925804  0.2491432806879743  0.3156354637999712   F   F   F
  0.3155645123368842  0.2637845819345017  0.3138164362604741   F   F   F
  0.3335496128717281  0.2788923555742642  0.2826684602278746   F   F   F
  0.3654779669384354  0.3280788387079454  0.2808203366265829   F   F   F
  0.3758523621542906  0.3563658742140419  0.2496680788403864   F   F   F
  0.3872026778518673  0.4254196492482052  0.2478259269738388   F   F   F
  0.3869903346060894  0.4583434250205372  0.2167080023518437   F   F   F
  0.3744570338116304  0.5268993067329006  0.2149111997478954   F   F   F
  0.3585191092241544  0.5649828562773536  0.6380022009397734   F   F   F
  0.3439622220770602  0.5878353631846807  0.6068233511136256   F   F   F
  0.3049820949308284  0.6210739610547620  0.6049525893207743   F   F   F
  0.2851600161067793  0.6272873774835261  0.5737042028301573   F   F   F
  0.2412146366160712  0.6225834161287551  0.5719698884373727   F   F   F
  0.2219471295985400  0.6115972500641718  0.5408913991101869   F   F   F
  0.1859819791459643  0.5703260389689717  0.5390999184668956   F   F   F
  0.1731940856852248  0.5446418279205005  0.5079594963725640   F   F   F
  0.1561692026185568  0.4787274612493491  0.5061549085243797   F   F   F
  0.1536698594142507  0.4460701533672733  0.4749646895307507   F   F   F
  0.1604202663825092  0.3754249165818493  0.4731429530990994   F   F   F
  0.1687865121405636  0.3454829985847425  0.4419644047200109   F   F   F
  0.1973121638785997  0.2910358969024855  0.4401397972706889   F   F   F
  0.2142107506234154  0.2727640011569008  0.4090087031639982   F   F   F
  0.2561643097277084  0.2511661052696397  0.4072159595588047   F   F   F
  0.2764599851146414  0.2499508918117002  0.3761071096951198   F   F   F
  0.3191131007554020  0.2673923363208459  0.3743028692187877   F   F   F
  0.3367991556981025  0.2830794967435111  0.3430996114013922   F   F   F
  0.3677100449117816  0.3338032005387674  0.3412037704620161   F   F   F
  0.3775496780496255  0.3623942059342866  0.3100565383237992   F   F   F
  0.3874437181331842  0.4320903298690908  0.3081632737860431   F   F   F
  0.3864528917477230  0.4649300582948541  0.2770774902235047   F   F   F
  0.3725300543177497  0.5327527777879624  0.2753241699856943   F   F   F
  0.3558316010428939  0.5697310139655016  0.6984196949455566   F   F   F
  0.3406904325396809  0.5917312767985692  0.6672716693297289   F   F   F
  0.3011461724298243  0.6230290548424762  0.6654227323045419   F   F   F
  0.2811909217458108  0.6286821443857846  0.6342164287229437   F   F   F
  0.2373819850578229  0.6212773528699032  0.6324475727290206   F   F   F
  0.2185300700127044  0.6089328735726625  0.6013173292585563   F   F   F
  0.1835618894894537  0.5655146526960237  0.5995453706519100   F   F   F
  0.1712883066778659  0.5391168770938890  0.5684137816681272   F   F   F
  0.1556257719750249  0.4722970955146053  0.5666207081671573   F   F   F
  0.1537298579406610  0.4395053901602068  0.5354622393103767   F   F   F
  0.1619427271524145  0.3692536490290621  0.5336354295114987   F   F   F
  0.1709218352692758  0.3398182838263750  0.5024621946825363   F   F   F
  0.2005464119969176  0.2870058615052642  0.5006459670704828   F   F   F
  0.2177764155887942  0.2698191612460406  0.4694560937007992   F   F   F
  0.2601119988058045  0.2508746719924133  0.4676359032082473   F   F   F
  0.2804220158746347  0.2512602341634320  0.4365056194128343   F   F   F
  0.3224830017776910  0.2717979299522639  0.4346912054096919   F   F   F
  0.3397568211666098  0.2885025267768029  0.4035495355549372   F   F   F
  0.3695692393315611  0.3409600990913262  0.4016562653161415   F   F   F
  0.3790968769916105  0.3690397232595615  0.3704384426786262   F   F   F
  0.3878929862905807  0.4388704716689702  0.3684519323968161   F   F   F
  0.3859897261024230  0.4716311656724059  0.3373578811896962   F   F   F
  0.3531316041238384  0.5743708634944795  0.7588460042053882   F   F   F
  0.3375096678103588  0.5954948396344832  0.7277020756383479   F   F   F
  0.2973117497145594  0.6245761232755882  0.7258851626280958   F   F   F
  0.2772091818997993  0.6292309510784051  0.6947238225909160   F   F   F
  0.2336141001850649  0.6194512596732338  0.6929263431280575   F   F   F
  0.2150389790781517  0.6061338559511427  0.6617650963544150   F   F   F
  0.1811006624010005  0.5606038925172641  0.6599889573282880   F   F   F
  0.1694781192627204  0.5335167825436642  0.6288572365164455   F   F   F
  0.1552094874844911  0.4658638104538255  0.6270688322519646   F   F   F
  0.1540271471088630  0.4329566470673569  0.5959231457695751   F   F   F
  0.1636861502113831  0.3632166185041115  0.5940928510931585   F   F   F
  0.1732520115000469  0.3342689818650229  0.5629164850342647   F   F   F
  0.2039832050461285  0.2831064055748840  0.5610876438446866   F   F   F
  0.2214916261744193  0.2668071160131404  0.5299011194058352   F   F   F
  0.2642461608461275  0.2499263135042895  0.5280557945004176   F   F   F
  0.2844586157237998  0.2518252097206073  0.4968965032009933   F   F   F
  0.3260712656968821  0.2745988550045837  0.4950772347311343   F   F   F
  0.3428643405992275  0.2939584276758112  0.4639667719810205   F   F   F
  0.3717274192112541  0.3474249232068516  0.4621813755218156   F   F   F
  0.3805847434708909  0.3772637196851818  0.4308100132827946   F   F   F
  0.3904421985715416  0.4458506106820934  0.4285218822979147   F   F   F
  0.3869630169328886  0.4782443772298137  0.3976925180449555   F   F   F
  0.3503379962571174  0.5788571439134174  0.8192807259302981   F   F   F
  0.3342705441253457  0.5990780454761406  0.7881400964620440   F   F   F
  0.2934671895627901  0.6258389473681234  0.7863410951363576   F   F   F
  0.2732665292250829  0.6293815922144645  0.7551915837525200   F   F   F
  0.2299110693211546  0.6172076881047630  0.7533841787623672   F   F   F
  0.2116105250982585  0.6029682359086763  0.7222269914495811   F   F   F
  0.1786642893797961  0.5555426198269942  0.7204395900800762   F   F   F
  0.1676830238058571  0.5278061130564993  0.6892970308601605   F   F   F
  0.1548581338094763  0.4594112966773949  0.6875016291274605   F   F   F
  0.1543876671608118  0.4264634188737872  0.6563545036596423   F   F   F
  0.1654988979974945  0.3572847026087516  0.6545268989542805   F   F   F
  0.1756923554368299  0.3288681759501628  0.6233663789284094   F   F   F
  0.2074665861124956  0.2794012160187691  0.6215388354673550   F   F   F
  0.2253267407625046  0.2640432235201331  0.5903599652377807   F   F   F
  0.2683673581282235  0.2492489328564318  0.5885085113658874   F   F   F
  0.2885270707042551  0.2518670832735737  0.5573186777925869   F   F   F
  0.3298312886880410  0.2764293906410060  0.5555013743962292   F   F   F
  0.3460312804727295  0.2964948321819350  0.5243707687948387   F   F   F
  0.3734441835760478  0.3522637133692257  0.5226534206934090   F   F   F
  0.3818092467527592  0.3833195754819982  0.4916193458224143   F   F   F
  0.3911006706319853  0.4526346535587180  0.4903389866249199   F   F   F
  0.3957473630179820  0.4898477825785861  0.4583379730254435   F   F   F
  0.3474301377700186  0.5831873546230568  0.8797292565425820   F   F   F
  0.3309514621865546  0.6024739977995424  0.8485815516101525   F   F   F
  0.2895953377411047  0.6268856573015285  0.8467862503886252   F   F   F
  0.2693362763966221  0.6292879506611229  0.8156416046294765   F   F   F
  0.2262597051173927  0.6147058708547064  0.8138277603495538   F   F   F
  0.2082591389598960  0.5994776619717896  0.7826813900718221   F   F   F
  0.1763172057958187  0.5502949265100838  0.7808843829781651   F   F   F
  0.1659368287386656  0.5219902960330742  0.7497311116326912   F   F   F
  0.1545693282009921  0.4529172475206877  0.7479263225886328   F   F   F
  0.1548188870541480  0.4199751931555653  0.7167830458760136   F   F   F
  0.1673770454388688  0.3514451589385672  0.7149631398254073   F   F   F
  0.1781965973505066  0.3236224357348050  0.6838068598729805   F   F   F
  0.2109865257509256  0.2759529032360177  0.6819843126546559   F   F   F
  0.2291611229228820  0.2615373039344391  0.6508105253988319   F   F   F
  0.2724807144046295  0.2490513079607410  0.6489626113529141   F   F   F
  0.2925913094337247  0.2524979467056880  0.6177872151419379   F   F   F
  0.3334483888965210  0.2790368672435122  0.6159891098280355   F   F   F
  0.3494325541519245  0.2994194532131758  0.5848442309089634   F   F   F
  0.3757921420166426  0.3566005593746482  0.5831468860981275   F   F   F
  0.3830243071986956  0.3877051197238046  0.5520630217552309   F   F   F
  0.3872954515315570  0.4587258189973085  0.5504260271360835   F   F   F
  0.3849463124915857  0.4913193926147059  0.5193061397974077   F   F   F
  0.3443767800465736  0.5873387786326276  0.9401818385508776   F   F   F
  0.3275209885695460  0.6056798224215001  0.9090262859501621   F   F   F
  0.2856665895716262  0.6277440147546258  0.9072247896861683   F   F   F
  0.2653863586474188  0.6289884853936698  0.8760799087660018   F   F   F
  0.2226462019490327  0.6120120416704609  0.8742625420601158   F   F   F
  0.2049838793127066  0.5957892932030902  0.8431173341250329   F   F   F
  0.1740766867065631  0.5449010289157670  0.8413156543285680   F   F   F
  0.1642827972940566  0.5160530898753919  0.8101658029989522   F   F   F
  0.1543688399254819  0.4463847178049107  0.8083518346757472   F   F   F
  0.1553387612817119  0.4134845255963953  0.7772079805333831   F   F   F
  0.1693439393503837  0.3457045363241207  0.7753961737463513   F   F   F
  0.1807568467972942  0.3185092522747652  0.7442399534314390   F   F   F
  0.2145468784676012  0.2727156198713843  0.7424212500739671   F   F   F
  0.2330270146888580  0.2593080465330218  0.7112592170161136   F   F   F
  0.2765862498007650  0.2492388465222319  0.7094205319377522   F   F   F
  0.2966222437667696  0.2537199207352572  0.6782483229627374   F   F   F
  0.3369041024907062  0.2824648641587899  0.6764455166762815   F   F   F
  0.3524838711352984  0.3034915633401596  0.6452823889416166   F   F   F
  0.3775063449738170  0.3623035394219656  0.6435228821202088   F   F   F
  0.3841015810191593  0.3935433499956389  0.6124253078379880   F   F   F
  0.3864708709453453  0.4649582117751621  0.6106884889460247   F   F   F
  0.3821423566953754  0.4972889641636442  0.5796236632526401   F   F   F
  0.3411862395332221  0.5913295012491773  0.0006356612253029   F   F   F
  0.3239791083380652  0.6087078497530172  0.9694730719114801   F   F   F
  0.2816835318891293  0.6284129802720173  0.9676602676319987   F   F   F
  0.2614093794844976  0.6285061909600174  0.9365104717844588   F   F   F
  0.2190529447333063  0.6091576507870755  0.9346909667916634   F   F   F
  0.2017584088679172  0.5919543348502287  0.9035438890657019   F   F   F
  0.1719314805134005  0.5393877006420098  0.9017398392874796   F   F   F
  0.1627563907438514  0.5100136366988579  0.8705952863046491   F   F   F
  0.1543068194973642  0.4398473653441002  0.8687752556507107   F   F   F
  0.1559711225730780  0.4070198098978324  0.8376298322239393   F   F   F
  0.1714197848203725  0.3400760022424407  0.8358235048306568   F   F   F
  0.1834116175183524  0.3135394769276729  0.8046724390490851   F   F   F
  0.2181767094089437  0.2697083589116005  0.8028555187398752   F   F   F
  0.2369335062076630  0.2573581507060467  0.7716984543932384   F   F   F
  0.2806809988367860  0.2497474668994784  0.7698678366057052   F   F   F
  0.3006108884844920  0.2553036978122449  0.7386956812795731   F   F   F
  0.3402644280923752  0.2862696957936137  0.7368814234716012   F   F   F
  0.3553967989247795  0.3080859240267912  0.7057221922088743   F   F   F
  0.3791336632128335  0.3682927946389825  0.7039212996614737   F   F   F
  0.3849736345976922  0.3998469352358285  0.6727955210481298   F   F   F
  0.3858493004575720  0.4713219738207783  0.6710199454556616   F   F   F
  0.3807231779822331  0.5032667099708021  0.6399005534431765   F   F   F
  0.2574023906613832  0.6278337675184460  0.9969382837319074   F   F   F
  0.2154788594265398  0.6061283941541191  0.9951186715905180   F   F   F
  0.1985794980918598  0.5879617432957787  0.9639684617525219   F   F   F
  0.1698772508109769  0.5337702722579252  0.9621602328152150   F   F   F
  0.1613375185057606  0.5038979188833892  0.9310166398812285   F   F   F
  0.1543772854248715  0.4333057222997567  0.9291949023234096   F   F   F
  0.1567424962002519  0.4005966754680728  0.8980500452756104   F   F   F
  0.1736153245415721  0.3345654803259137  0.8962471066483459   F   F   F
  0.1861773973276186  0.3087355060766512  0.8650997459909107   F   F   F
  0.2218613185154723  0.2669090265478431  0.8632809582823242   F   F   F
  0.2408817726629806  0.2556383227950860  0.8321273167423371   F   F   F
  0.2847642719909800  0.2504984589352688  0.8303045013933499   F   F   F
  0.3045680938706141  0.2571543976708099  0.7991373422494874   F   F   F
  0.3435563429480055  0.2902883419408653  0.7973164592311761   F   F   F
  0.3582143602315853  0.3129264420403928  0.7661537324535672   F   F   F
  0.3806888021031440  0.3743940756569302  0.7643346131195656   F   F   F
  0.3858430141421891  0.4062308530048568  0.7331868663632690   F   F   F
  0.3852176557864482  0.4777264284659211  0.7313946767698454   F   F   F
  0.3793761241015474  0.5093227635138931  0.7002684418031464   F   F   F
  0.1600264744649635  0.4977114172718373  0.9914332235767986   F   F   F
  0.1545701730693523  0.4267651399065286  0.9896119855342391   F   F   F
  0.1576370387223562  0.3942066358624174  0.9584686543132506   F   F   F
  0.1759043547136301  0.3291616877529151  0.9566649150220954   F   F   F
  0.1890235165508543  0.3040620149868261  0.9255203160489955   F   F   F
  0.2255820347124811  0.2642791894343759  0.9236997564365836   F   F   F
  0.2448447712040789  0.2541050889784984  0.8925512145598162   F   F   F
  0.2888127131703726  0.2514429616892357  0.8907370169759545   F   F   F
  0.3084742322246967  0.2592190157022429  0.8595751839954886   F   F   F
  0.3467526799450198  0.2944802931330273  0.8577528264969914   F   F   F
  0.3609408681607107  0.3179155134514389  0.8265878874684063   F   F   F
  0.3821326805954257  0.3805773576247873  0.8247640160820637   F   F   F
  0.3866217785425192  0.4126743692482364  0.7936067034699974   F   F   F
  0.3844835265889230  0.4840958769625985  0.7918078153043311   F   F   F
  0.3779573386261035  0.5153386527587358  0.7606704150062384   F   F   F
  0.1919436874244056  0.2995463500100684  0.9859376984048112   F   F   F
  0.2293262861026477  0.2618371303678444  0.9841177982510914   F   F   F
  0.2488088387352292  0.2527602306479722  0.9529742733235764   F   F   F
  0.2928110636918930  0.2525662201382914  0.9511696563369725   F   F   F
  0.3123109162183226  0.2614704815210587  0.9200135984058164   F   F   F
  0.3498244650623690  0.2988368366991168  0.9181923285411102   F   F   F
  0.3635349463730506  0.3230427512854348  0.8870300987467985   F   F   F
  0.3834077533054128  0.3868374236312420  0.8852111821424984   F   F   F
  0.3872420895547819  0.4191621918258122  0.8540471620889463   F   F   F
  0.3835929569728265  0.4904219000463002  0.8522436464002681   F   F   F
  0.3764210739269700  0.5212659096820573  0.8210950588273889   F   F   F
  0.3160708710977431  0.2638758335186466  0.9804515307955199   F   F   F
  0.3527718389726573  0.3033237556333077  0.9786357073235550   F   F   F
  0.3659822597925881  0.3282939454596843  0.9474781034221209   F   F   F
  0.3845121040306196  0.3931491596972805  0.9456690673609103   F   F   F
  0.3876893117235056  0.4256712263980802  0.9145027387799729   F   F   F
  0.3825396078544472  0.4966884313839799  0.9126945238845394   F   F   F
  0.3747353810331759  0.5271139199892900  0.8815398699596457   F   F   F
  0.3879429876774054  0.4321955912127322  0.9749657155917504   F   F   F
  0.3812839769769383  0.5028758277940710  0.9731522158166754   F   F   F
  0.3728715299308760  0.5328458875709501  0.9419922494735502   F   F   F
  0.4799317259260694  0.4320258239849086  0.5000590330715393   T   T   T
  0.4873702156604566  0.3800278031922729  0.4754228300317883   T   T   T
  0.4872721202761737  0.5015814095198858  0.4902281964912506   T   T   T
  0.4278945678906896  0.5104991099537578  0.4576234651958420   T   T   T
 
  0.00000000E+00  0.00000000E+00  0.00000000E+00
  0.00000000E+00  0.00000000E+00  0.00000000E+00
  0.00000000E+00  0.00000000E+00  0.00000000E+00
  0.00000000E+00  0.00000000E+00  0.00000000E+00
  0.00000000E+00  0.00000000E+00  0.00000000E+00
  0.00000000E+00  0.00000000E+00  0.00000000E+00
  0.00000000E+00  0.00000000E+00  0.00000000E+00
  0.00000000E+00  0.00000000E+00  0.00000000E+00
  0.00000000E+00  0.00000000E+00  0.00000000E+00
  0.00000000E+00  0.00000000E+00  0.00000000E+00
  0.00000000E+00  0.00000000E+00  0.00000000E+00
  0.00000000E+00  0.00000000E+00  0.00000000E+00
  0.00000000E+00  0.00000000E+00  0.00000000E+00
  0.00000000E+00  0.00000000E+00  0.00000000E+00
  0.00000000E+00  0.00000000E+00  0.00000000E+00
  0.00000000E+00  0.00000000E+00  0.00000000E+00
  0.00000000E+00  0.00000000E+00  0.00000000E+00
  0.00000000E+00  0.00000000E+00  0.00000000E+00
  0.00000000E+00  0.00000000E+00  0.00000000E+00
  0.00000000E+00  0.00000000E+00  0.00000000E+00
  0.00000000E+00  0.00000000E+00  0.00000000E+00
  0.00000000E+00  0.00000000E+00  0.00000000E+00
  0.00000000E+00  0.00000000E+00  0.00000000E+00
  0.00000000E+00  0.00000000E+00  0.00000000E+00
  0.00000000E+00  0.00000000E+00  0.00000000E+00
  0.00000000E+00  0.00000000E+00  0.00000000E+00
  0.00000000E+00  0.00000000E+00  0.00000000E+00
  0.00000000E+00  0.00000000E+00  0.00000000E+00
  0.00000000E+00  0.00000000E+00  0.00000000E+00
  0.00000000E+00  0.00000000E+00  0.00000000E+00
  0.00000000E+00  0.00000000E+00  0.00000000E+00
  0.00000000E+00  0.00000000E+00  0.00000000E+00
  0.00000000E+00  0.00000000E+00  0.00000000E+00
  0.00000000E+00  0.00000000E+00  0.00000000E+00
  0.00000000E+00  0.00000000E+00  0.00000000E+00
  0.00000000E+00  0.00000000E+00  0.00000000E+00
  0.00000000E+00  0.00000000E+00  0.00000000E+00
  0.00000000E+00  0.00000000E+00  0.00000000E+00
  0.00000000E+00  0.00000000E+00  0.00000000E+00
  0.00000000E+00  0.00000000E+00  0.00000000E+00
  0.00000000E+00  0.00000000E+00  0.00000000E+00
  0.00000000E+00  0.00000000E+00  0.00000000E+00
  0.00000000E+00  0.00000000E+00  0.00000000E+00
  0.00000000E+00  0.00000000E+00  0.00000000E+00
  0.00000000E+00  0.00000000E+00  0.00000000E+00
  0.00000000E+00  0.00000000E+00  0.00000000E+00
  0.00000000E+00  0.00000000E+00  0.00000000E+00
  0.00000000E+00  0.00000000E+00  0.00000000E+00
  0.00000000E+00  0.00000000E+00  0.00000000E+00
  0.00000000E+00  0.00000000E+00  0.00000000E+00
  0.00000000E+00  0.00000000E+00  0.00000000E+00
  0.00000000E+00  0.00000000E+00  0.00000000E+00
  0.00000000E+00  0.00000000E+00  0.00000000E+00
  0.00000000E+00  0.00000000E+00  0.00000000E+00
  0.00000000E+00  0.00000000E+00  0.00000000E+00
  0.00000000E+00  0.00000000E+00  0.00000000E+00