 C  S  O  H                             
    1.000000000000000     
    32.3722991942999982    0.0000000000000000    0.0000000000000000
     0.0000000000000000   19.9214134216000005    0.0000000000000000
     0.0000000000000000    0.0000000000000000   40.4480476378999967
   C    S    O    H 
   364     1     2     1
Selective dynamics
Direct
  0.3706797906162862  0.5385160461746423  0.0024440118278690   F   F   F
  0.3684717113905194  0.5440344661883998  0.0628842626867296   F   F   F
  0.3377582841638542  0.5952341866628004  0.0610813445994296   F   F   F
  0.3202112327232669  0.6116379152472646  0.0299189265713480   F   F   F
  0.2775255777360925  0.6289752281322549  0.0281006934572048   F   F   F
  0.3661390245177287  0.5494515607250037  0.1233154790394337   F   F   F
  0.3343599748695567  0.5989155510345370  0.1215214238452234   F   F   F
  0.3164846374597303  0.6143201117380457  0.0903621574645257   F   F   F
  0.2734526723982782  0.6292537804347802  0.0885396726132299   F   F   F
  0.2532575004282407  0.6270467530151151  0.0573801524187587   F   F   F
  0.2118269802348536  0.6029862267574231  0.0555625078560951   F   F   F
  0.1953449899210185  0.5838575553887040  0.0244033341589045   F   F   F
  0.1678400295920781  0.5280522871852824  0.0225871615981887   F   F   F
  0.3636834651576919  0.5547467268336419  0.1837448750754334   F   F   F
  0.3308826949059736  0.6024208569878837  0.1819672084944699   F   F   F
  0.3126888603067144  0.6167987059835198  0.1508077601419444   F   F   F
  0.2693732207168296  0.6293072929972396  0.1489882075681521   F   F   F
  0.2492417123948840  0.6259680099630671  0.1178216091094839   F   F   F
  0.2083561945303458  0.5995616346977144  0.1160018747478873   F   F   F
  0.1922951651671383  0.5795312614250676  0.0848408279849764   F   F   F
  0.1660000348657817  0.5221981633666033  0.0830133086425064   F   F   F
  0.1587714054269114  0.4914484033375359  0.0518648583634231   F   F   F
  0.1548444832689952  0.4202304982166538  0.0500434398960081   F   F   F
  0.1586090810840872  0.3878687035116641  0.0188951821842878   F   F   F
  0.1782354567097002  0.3238793483664821  0.0170887564426820   F   F   F
  0.3611651010557821  0.5599171810412429  0.2441626638366756   F   F   F
  0.3273702057992125  0.6056625667313469  0.2424137711582475   F   F   F
  0.3088613947256889  0.6190480885338516  0.2112629685559924   F   F   F
  0.2652902510180724  0.6290523663667997  0.2094450853689906   F   F   F
  0.2452497683766026  0.6246379023650519  0.1782801534413565   F   F   F
  0.2049436167353917  0.5959089443354060  0.1764482415021646   F   F   F
  0.1893310019459875  0.5750054370840800  0.1452850397077441   F   F   F
  0.1642696972705409  0.5162317754905388  0.1434423799529583   F   F   F
  0.1577174553103760  0.4850940198675815  0.1122884213956965   F   F   F
  0.1552974331021275  0.4137086365200631  0.1104681856054199   F   F   F
  0.1597461629781094  0.3815816817685871  0.0793162134171723   F   F   F
  0.1807075400357760  0.3187170187402515  0.0775080071422281   F   F   F
  0.1948676453206346  0.2951451860988570  0.0463657881078419   F   F   F
  0.2330181558383728  0.2595147220754654  0.0445503283190831   F   F   F
  0.2526965777915393  0.2515530040194491  0.0134054472224179   F   F   F
  0.2966730668625459  0.2538297062380863  0.0116044456745357   F   F   F
  0.3710379964692123  0.5386238633690397  0.3356631053501857   F   F   F
  0.3587782746964052  0.5650329125487517  0.3045995961137891   F   F   F
  0.3238357293079943  0.6085961683127650  0.3028619891864821   F   F   F
  0.3050304799696377  0.6209359488248793  0.2717635195000128   F   F   F
  0.2612179480289853  0.6283478582947666  0.2699252995476442   F   F   F
  0.2412893986857227  0.6228944655381881  0.2387562874477354   F   F   F
  0.2016077969621151  0.5919834175580405  0.2369009537981270   F   F   F
  0.1864528405290784  0.5702594670352781  0.2057206812389012   F   F   F
  0.1626446745069998  0.5101452142405023  0.2038643613803046   F   F   F
  0.1567642103913656  0.4786763585028311  0.1727069230133083   F   F   F
  0.1558570858790702  0.4071873503635146  0.1708895542880811   F   F   F
  0.1609919925248846  0.3753413806483792  0.1397428756594152   F   F   F
  0.1832648591422270  0.3136706748736415  0.1379336658596557   F   F   F
  0.1979323715251908  0.2909225431162028  0.1067916137424447   F   F   F
  0.2368082104659450  0.2574456165476988  0.1049844332406096   F   F   F
  0.2566518307639285  0.2505948499278574  0.0738356865782919   F   F   F
  0.3005545489812960  0.2553527252637977  0.0720373458292443   F   F   F
  0.3196569538391856  0.2664508242319243  0.0408925926947603   F   F   F
  0.3554811603248709  0.3079753684115687  0.0390759108150007   F   F   F
  0.3681653030047727  0.3336894034216016  0.0079264695104015   F   F   F
  0.3852891352954018  0.3995567900827552  0.0061245080895134   F   F   F
  0.3697895304090082  0.5444565279517235  0.3960496118262355   F   F   F
  0.3565042112795425  0.5697481102199902  0.3652242793536118   F   F   F
  0.3201277892529220  0.6106088911693277  0.3633856674850193   F   F   F
  0.3011083587661503  0.6219970463906250  0.3322843643903965   F   F   F
  0.2571878789172501  0.6270262532649582  0.3304082762796483   F   F   F
  0.2373778208738742  0.6206916379886209  0.2992061197405960   F   F   F
  0.1983190891894537  0.5877934260849642  0.2973331556548402   F   F   F
  0.1836158642083490  0.5653488869971000  0.2661502009550532   F   F   F
  0.1610382217582682  0.5039577534048263  0.2642854472859355   F   F   F
  0.1558768753600503  0.4721915704038224  0.2331303157999258   F   F   F
  0.1564864718798589  0.4006922167033125  0.2313155163921863   F   F   F
  0.1623450983762424  0.3691623509541344  0.2001708865223009   F   F   F
  0.1859166742655916  0.3087964635679015  0.1983664303652901   F   F   F
  0.2010600040308077  0.2868703088288385  0.1672210924861872   F   F   F
  0.2406247378454012  0.2555932483986467  0.1654260222701609   F   F   F
  0.2606037278365179  0.2498393900415010  0.1342783911148047   F   F   F
  0.3043838707004269  0.2570682334436754  0.1324772208224161   F   F   F
  0.3232478808796557  0.2692417293208962  0.1013345974578570   F   F   F
  0.3581613532268264  0.3127574880552402  0.0995167402570729   F   F   F
  0.3703015464471875  0.3391766888828158  0.0683684325962730   F   F   F
  0.3860116676118324  0.4059635568819715  0.0665682307140472   F   F   F
  0.3878562141150823  0.4387710446908102  0.0354156834805721   F   F   F
  0.3796967620796394  0.5090362574379128  0.0335993861908293   F   F   F
  0.3667769336031768  0.5497228931365328  0.4566423990580830   F   F   F
  0.3530494325160021  0.5727206066465342  0.4257880327049364   F   F   F
  0.3159618390971488  0.6113192529677960  0.4238057160414570   F   F   F
  0.2969297869986747  0.6222785109887568  0.3926380618273697   F   F   F
  0.2530006802672418  0.6256004788918048  0.3907885172272643   F   F   F
  0.2333742981638949  0.6183664495362251  0.3596151140762558   F   F   F
  0.1949078895655845  0.5835423044908978  0.3577486335044853   F   F   F
  0.1807674089641083  0.5602499666494651  0.3265779028391051   F   F   F
  0.1594543490322451  0.4976932497009372  0.3247190984788162   F   F   F
  0.1550305435020434  0.4656443792770446  0.2935497746098932   F   F   F
  0.1571830456156036  0.3942473663987158  0.2917404997814330   F   F   F
  0.1637536234181525  0.3630625037490347  0.2605963186310518   F   F   F
  0.1886446953000913  0.3040963620588286  0.2587987568080692   F   F   F
  0.2042652766636692  0.2830238535396035  0.2276649841211622   F   F   F
  0.2444845813384617  0.2539976229665513  0.2258818472072406   F   F   F
  0.2645711204008521  0.2493528786579446  0.1947336074705603   F   F   F
  0.3081632500314981  0.2590391724109651  0.1929261609890744   F   F   F
  0.3267535032360129  0.2722522861002332  0.1617737342860224   F   F   F
  0.3607095411772505  0.3177188983083354  0.1599494604425828   F   F   F
  0.3722960470704209  0.3447839849846304  0.1288050773491349   F   F   F
  0.3865666879668055  0.4124269835657017  0.1269971252175566   F   F   F
  0.3877268905748892  0.4453131118531743  0.0958548898991012   F   F   F
  0.3780982412562466  0.5150844975909834  0.0940385977971374   F   F   F
  0.3648909030774945  0.5548946256594860  0.5172501995870391   F   F   F
  0.3500687228158057  0.5768721602919342  0.4856776031910073   F   F   F
  0.3122106845163657  0.6135916138181798  0.4840055058864721   F   F   F
  0.2928210196355181  0.6230340951906115  0.4529813553090634   F   F   F
  0.2487358977737770  0.6245719207575533  0.4511673232481641   F   F   F
  0.2293049452625908  0.6160301407975695  0.4200412062354175   F   F   F
  0.1915803485921899  0.5792351650995471  0.4181918584238602   F   F   F
  0.1779354024992159  0.5551076888080715  0.3870017762078604   F   F   F
  0.1579898778064930  0.4914025652746119  0.3851656777791419   F   F   F
  0.1542315538229033  0.4591145138506576  0.3539901104887164   F   F   F
  0.1579485677388348  0.3878506071772279  0.3521801600705317   F   F   F
  0.1652244114373218  0.3570652325813910  0.3210437274271669   F   F   F
  0.1914207307239622  0.2995925536071411  0.3192464765515766   F   F   F
  0.2075368395356421  0.2794468481445236  0.2881193499072197   F   F   F
  0.2483666844326038  0.2528059323569281  0.2863492761437954   F   F   F
  0.2685462924240198  0.2492221464843496  0.2551935492255879   F   F   F
  0.3118993688569631  0.2613725820421351  0.2533740710470269   F   F   F
  0.3302010432359239  0.2755017260846770  0.2222184285416091   F   F   F
  0.3631819835146288  0.3228571410523315  0.2203774362620834   F   F   F
  0.3741606105609776  0.3505426048595197  0.1892339827656642   F   F   F
  0.3869939464708025  0.4189323690952733  0.1874080598972867   F   F   F
  0.3874384046462964  0.4518626555746792  0.1562721287396016   F   F   F
  0.3763508670400313  0.5210469954294794  0.1544645114575758   F   F   F
  0.3616034418616678  0.5601238671442914  0.5776510709131983   F   F   F
  0.3475828513340247  0.5830752602609479  0.5462405685105622   F   F   F
  0.3088572911434539  0.6176433476554948  0.5444279990998453   F   F   F
  0.2889911628618478  0.6245730675270522  0.5133258594855761   F   F   F
  0.2450264181021566  0.6231746019905273  0.5115600457892242   F   F   F
  0.2255176667351790  0.6136440439932755  0.4804328909650053   F   F   F
  0.1885913178672283  0.5747337014331606  0.4786248422573465   F   F   F
  0.1752875775081790  0.5499599981961794  0.4474710528620705   F   F   F
  0.1567357202667949  0.4850439224455698  0.4456507038201423   F   F   F
  0.1536344280849988  0.4525598017785413  0.4144801414809791   F   F   F
  0.1588732451017734  0.3815510022713298  0.4126598308483054   F   F   F
  0.1668135668445601  0.3511923606287795  0.3815017792467899   F   F   F
  0.1942678471843706  0.2953348507935516  0.3796972763347668   F   F   F
  0.2108522895426219  0.2761469824462992  0.3485659144072386   F   F   F
  0.2522859244806952  0.2520682740703606  0.3467973208609720   F   F   F
  0.2725271120636066  0.2495382110455893  0.3156609375534956   F   F   F
  0.3156076931582845  0.2641504741498366  0.3138326813103518   F   F   F
  0.3335951338274370  0.2791434823594443  0.2826728219889176   F   F   F
  0.3655891656686592  0.3282133352446621  0.2808035165549754   F   F   F
  0.3759531247219954  0.3564476564755452  0.2496374514794582   F   F   F
  0.3873460927285137  0.4254830067565081  0.2477822128063565   F   F   F
  0.3870732727952060  0.4584030757264159  0.2166643264412187   F   F   F
  0.3745160829861831  0.5269449988452664  0.2148755757122345   F   F   F
  0.3586621128138674  0.5649829533732103  0.6380319087042210   F   F   F
  0.3441103881956025  0.5877423958279095  0.6068356832289012   F   F   F
  0.3050671899325650  0.6207772890843586  0.6049449051580567   F   F   F
  0.2852577987972111  0.6268462631994041  0.5736875539922508   F   F   F
  0.2413154987633206  0.6221059883798219  0.5719478943029443   F   F   F
  0.2220518219919683  0.6111116603545099  0.5408755711870370   F   F   F
  0.1859914626209616  0.5700547538539240  0.5390903026000800   F   F   F
  0.1731296373632674  0.5444443309777753  0.5079589935073088   F   F   F
  0.1559416168648440  0.4786431592157143  0.5061585800971784   F   F   F
  0.1533922642546344  0.4459919805103567  0.4749680786017763   F   F   F
  0.1601652970095273  0.3753506703035256  0.4731455197572032   F   F   F
  0.1685846227028662  0.3454494048411547  0.4419676994621966   F   F   F
  0.1972650678223644  0.2912131539912721  0.4401450239548836   F   F   F
  0.2142201007468003  0.2730574529232754  0.4090202546502297   F   F   F
  0.2562188362431996  0.2517073031621138  0.4072306062652302   F   F   F
  0.2765151498737595  0.2504915000238341  0.3761250039167479   F   F   F
  0.3191751538194225  0.2678672946553107  0.3743148095462914   F   F   F
  0.3368785838329984  0.2834281846202273  0.3431034946324445   F   F   F
  0.3678974519817118  0.3339778090396948  0.3411903802288307   F   F   F
  0.3777523419775903  0.3624978982405977  0.3100282928793874   F   F   F
  0.3877213251655505  0.4321664220776071  0.3081227204622721   F   F   F
  0.3866655904227088  0.4649990353112443  0.2770335300803239   F   F   F
  0.3726944593922141  0.5327967459353502  0.2752882875464024   F   F   F
  0.3558748668602476  0.5697460528234970  0.6984488021173902   F   F   F
  0.3407547897522960  0.5916846225783559  0.6672846049252215   F   F   F
  0.3011766835262506  0.6228627631648465  0.6654129225376266   F   F   F
  0.2812453110631665  0.6283938190666873  0.6341958403908166   F   F   F
  0.2374363936099400  0.6209695974963836  0.6324198481591949   F   F   F
  0.2185967330084679  0.6085874126573003  0.6012929584744526   F   F   F
  0.1835554943506139  0.5653264136868827  0.5995300590247510   F   F   F
  0.1712222346145325  0.5389666174666843  0.5684076093938728   F   F   F
  0.1554297159938898  0.4722274018597972  0.5666236155863515   F   F   F
  0.1534753485725062  0.4394342298163849  0.5354688866057060   F   F   F
  0.1617199631564148  0.3691879137660763  0.5336413558311079   F   F   F
  0.1707392172054583  0.3397940124995458  0.5024656470759936   F   F   F
  0.2005093727191465  0.2872052199996347  0.5006456738777914   F   F   F
  0.2177908125877437  0.2701575821740221  0.4694573437614764   F   F   F
  0.2601673094387138  0.2514677009799158  0.4676374532557901   F   F   F
  0.2804794485440922  0.2518879506632885  0.4365144141695509   F   F   F
  0.3225573581532828  0.2723392128616950  0.4346978525409924   F   F   F
  0.3398638266391671  0.2889175623563958  0.4035533021557711   F   F   F
  0.3698191465100038  0.3411590760634198  0.4016492091619810   F   F   F
  0.3793921539045328  0.3691612000285502  0.3704184834135091   F   F   F
  0.3882946151256306  0.4389587866295059  0.3684220620458234   F   F   F
  0.3863341641167324  0.4717115674953689  0.3373207272509617   F   F   F
  0.3530967796801647  0.5744042748875557  0.7588687703470782   F   F   F
  0.3375011226815801  0.5954948942843075  0.7277144455233753   F   F   F
  0.2972886571403492  0.6245267748361485  0.7258770972964470   F   F   F
  0.2772124238255742  0.6290954908092985  0.6947035394058219   F   F   F
  0.2336184731147668  0.6193034410908211  0.6928994591608131   F   F   F
  0.2150619443131774  0.6059388638089658  0.6617365570517322   F   F   F
  0.1810782610733455  0.5604975397104539  0.6599700789643848   F   F   F
  0.1694174777085919  0.5334225224912288  0.6288480464200248   F   F   F
  0.1550649089259792  0.4658131660689477  0.6270706141029336   F   F   F
  0.1538314261805169  0.4328966746173535  0.5959299868065671   F   F   F
  0.1635217778622646  0.3631702728257977  0.5940978246805102   F   F   F
  0.1731092852137621  0.3342586563104462  0.5629173016583877   F   F   F
  0.2039623359625011  0.2832923426892933  0.5610803283941905   F   F   F
  0.2215114107095246  0.2671388590733343  0.5298938581601362   F   F   F
  0.2642984184150308  0.2504818822708827  0.5280470686404115   F   F   F
  0.2845159242938493  0.2524551492199478  0.4968943089518802   F   F   F
  0.3261428555113781  0.2751334836741890  0.4950787056893944   F   F   F
  0.3429819091170785  0.2943970208550439  0.4639701511402876   F   F   F
  0.3719961772345783  0.3476487170138398  0.4621839480921892   F   F   F
  0.3809291604380292  0.3774019304517893  0.4308042602667612   F   F   F
  0.3908910978092734  0.4459559575729131  0.4285114670637284   F   F   F
  0.3874029910115979  0.4783375448926606  0.3976689723236078   F   F   F
  0.3502512379279423  0.5789099354731633  0.8192981501829237   F   F   F
  0.3342053680404504  0.5991186222289713  0.7881515895675264   F   F   F
  0.2934018046379521  0.6258706384122448  0.7863363114465542   F   F   F
  0.2732231107767902  0.6293637502133862  0.7551754338304448   F   F   F
  0.2298693472770879  0.6171755462769610  0.7533617159506392   F   F   F
  0.2115904544903557  0.6028944043293762  0.7222017692849150   F   F   F
  0.1786257413883590  0.5554960668282547  0.7204225555276622   F   F   F
  0.1676289794853574  0.5277550764904007  0.6892862424133099   F   F   F
  0.1547656308011440  0.4593821082113863  0.6875006882451160   F   F   F
  0.1542583500594219  0.4264214598731044  0.6563576473895694   F   F   F
  0.1653948986267082  0.3572547922221858  0.6545275917703677   F   F   F
  0.1755977768051054  0.3288672014276841  0.6233647305093086   F   F   F
  0.2074578265091205  0.2795438802941916  0.6215268420662809   F   F   F
  0.2253491658683231  0.2643163411695397  0.5903446371762371   F   F   F
  0.2684086704330468  0.2496870950564016  0.5884904616482061   F   F   F
  0.2885754798331845  0.2524009507014000  0.5573068602575120   F   F   F
  0.3299004864507182  0.2768721680779791  0.5554984395572546   F   F   F
  0.3461469767722747  0.2968956481184861  0.5243769786766350   F   F   F
  0.3737134042692176  0.3524645216122977  0.5226696644680331   F   F   F
  0.3821579389392866  0.3834758005654422  0.4916307314843991   F   F   F
  0.3915626369735747  0.4527432765039023  0.4903459027976709   F   F   F
  0.3961544460957356  0.4899420418194538  0.4583352707656090   F   F   F
  0.3473152540078601  0.5832528442337193  0.8797405875039743   F   F   F
  0.3308519937392802  0.6025410191256952  0.8485899552862364   F   F   F
  0.2894988574025135  0.6269627842991596  0.8467841540158787   F   F   F
  0.2692564312511578  0.6293413208010890  0.8156320279985749   F   F   F
  0.2261804640075553  0.6147388710000854  0.8138135645431035   F   F   F
  0.2082011583587615  0.5994780328256653  0.7826620911250117   F   F   F
  0.1762650758977742  0.5502859920440386  0.7808705453471561   F   F   F
  0.1658865531337739  0.5219713389407161  0.7497188264542700   F   F   F
  0.1545122878033425  0.4528998720574151  0.7479218545291886   F   F   F
  0.1547435520176990  0.4199506320399493  0.7167824767005797   F   F   F
  0.1673175365936643  0.3514273966984547  0.7149601731221153   F   F   F
  0.1781411225445098  0.3236212014946531  0.6838013503159814   F   F   F
  0.2109769474732914  0.2760399984206643  0.6819688802466288   F   F   F
  0.2291748038649004  0.2617219270401492  0.6507906518577755   F   F   F
  0.2725049867004401  0.2493384824879712  0.6489413127178238   F   F   F
  0.2926259163159202  0.2528805012301589  0.6177715892324116   F   F   F
  0.3335025176918478  0.2793456373200556  0.6159865554617170   F   F   F
  0.3495358912581850  0.2997203930559635  0.5848527610821392   F   F   F
  0.3760243058793904  0.3567443704182054  0.5831712191326517   F   F   F
  0.3833649110152990  0.3878217075861912  0.5520903109033597   F   F   F
  0.3877490296087203  0.4588385621701718  0.5504591001277603   F   F   F
  0.3854304051569173  0.4914291674004332  0.5193287021210935   F   F   F
  0.3442500183512323  0.5874095022963743  0.9401874290015471   F   F   F
  0.3274031932002472  0.6057599586440716  0.9090322025804767   F   F   F
  0.2855520121040271  0.6278393950383361  0.9072257632811755   F   F   F
  0.2652802862756687  0.6290736238925732  0.8760763160367446   F   F   F
  0.2225446776536515  0.6120725261975508  0.8742555463479391   F   F   F
  0.2048998410487286  0.5958254922462842  0.8431045457975515   F   F   F
  0.1740104712910835  0.5449063133346925  0.8413061349970121   F   F   F
  0.1642307055924306  0.5160480112116872  0.8101557687664283   F   F   F
  0.1543271779961088  0.4463741037522482  0.8083465408996133   F   F   F
  0.1552933716716041  0.4134690293739993  0.7772039480702162   F   F   F
  0.1693028136958716  0.3456941605998978  0.7753900611720965   F   F   F
  0.1807188440682168  0.3185051024864123  0.7442317147646307   F   F   F
  0.2145261965241403  0.2727459692815017  0.7424054491304943   F   F   F
  0.2330223420600035  0.2594010654527281  0.7112413339706833   F   F   F
  0.2765879852468061  0.2493826843912927  0.7094028923990123   F   F   F
  0.2966368203822185  0.2539416836751016  0.6782342426213788   F   F   F
  0.3369291158932199  0.2826406845214606  0.6764473139872678   F   F   F
  0.3525529324108234  0.3036778836155705  0.6452959196710069   F   F   F
  0.3776596000807686  0.3624004985847193  0.6435572679695909   F   F   F
  0.3843533378048534  0.3936326132654244  0.6124674792811859   F   F   F
  0.3867734230062325  0.4650422398205833  0.6107374702460433   F   F   F
  0.3825066399094723  0.4973786310319639  0.5796618180150901   F   F   F
  0.3410622913239933  0.5914001160215392  0.0006361862487481   F   F   F
  0.3238558137107646  0.6087907681827218  0.9694765752862722   F   F   F
  0.2815626734835206  0.6285108488353686  0.9676640796674576   F   F   F
  0.2612910627571168  0.6285996876688031  0.9365117826089744   F   F   F
  0.2189397178626535  0.6092229152629614  0.9346907236139046   F   F   F
  0.2016581366814378  0.5920001978182512  0.9035394002097803   F   F   F
  0.1718542989608522  0.5393962680145847  0.9017364992784209   F   F   F
  0.1626964022450110  0.5100120613949031  0.8705890474934890   F   F   F
  0.1542652331444501  0.4398401386506734  0.8687713248070068   F   F   F
  0.1559333122929800  0.4070113625761280  0.8376251219601585   F   F   F
  0.1713788475084215  0.3400646203361148  0.8358173896246299   F   F   F
  0.1833720189257591  0.3135280987978319  0.8046653220322355   F   F   F
  0.2181368647494963  0.2696955346041676  0.8028438955729911   F   F   F
  0.2369069409182387  0.2573752760981947  0.7716846767427867   F   F   F
  0.2806544130380075  0.2497849991018271  0.7698559250619539   F   F   F
  0.3005965832996722  0.2553941339333932  0.7386869384265395   F   F   F
  0.3402557020299568  0.2863520536806874  0.7368882405522683   F   F   F
  0.3554190645563864  0.3081865852889081  0.7057405433138655   F   F   F
  0.3791924974104575  0.3683577408275482  0.7039601265436914   F   F   F
  0.3851059990025050  0.3999132637670826  0.6728421756470695   F   F   F
  0.3860020844787684  0.4713867493734440  0.6710717012459568   F   F   F
  0.3809366694943535  0.5033338704240435  0.6399481121406509   F   F   F
  0.2572849696782811  0.6279249416990140  0.9969448908810890   F   F   F
  0.2153667487764324  0.6061903569109646  0.9951254756825065   F   F   F
  0.1984747976020884  0.5880058952725520  0.9639718316764956   F   F   F
  0.1697988522109597  0.5337772748553888  0.9621632169415832   F   F   F
  0.1612731509032628  0.5038972416318757  0.9310158315811776   F   F   F
  0.1543321917661942  0.4332981027932234  0.9291949522908283   F   F   F
  0.1567013673020199  0.4005907187066740  0.8980483809045694   F   F   F
  0.1735669654961995  0.3345524285655230  0.8962446856673552   F   F   F
  0.1861271923811003  0.3087167103774888  0.8650953376886505   F   F   F
  0.2218018591160202  0.2668705332298487  0.8632744056100847   F   F   F
  0.2408300438246087  0.2556079137198992  0.8321193083722633   F   F   F
  0.2847138582616182  0.2504751715074107  0.8302990298737498   F   F   F
  0.3045279649159909  0.2571639123194345  0.7991350212831279   F   F   F
  0.3435112372736313  0.2903164170692207  0.7973272423674729   F   F   F
  0.3581886471732645  0.3129764094314424  0.7661728204661955   F   F   F
  0.3806649852029977  0.3744399443636937  0.7643697647927610   F   F   F
  0.3858666263911772  0.4062825255608331  0.7332309769299243   F   F   F
  0.3852441821584733  0.4777789698597346  0.7314428040143923   F   F   F
  0.3794531327638353  0.5093772661295546  0.7003144946766469   F   F   F
  0.1599643598266098  0.4977093274582671  0.9914392562514536   F   F   F
  0.1545253273880220  0.4267573289448308  0.9896174299228804   F   F   F
  0.1575928810835947  0.3942006719694504  0.9584716293154401   F   F   F
  0.1758505936968504  0.3291474225078304  0.9566678757407985   F   F   F
  0.1889639219430634  0.3040395726281702  0.9255206104795306   F   F   F
  0.2255119092425559  0.2642295390063083  0.9236993842423402   F   F   F
  0.2447763335615392  0.2540511435191846  0.8925492543503353   F   F   F
  0.2887445690744741  0.2513935843775457  0.8907368855269908   F   F   F
  0.3084119311926159  0.2591909984373615  0.8595766361559853   F   F   F
  0.3466777758537702  0.2944861724583276  0.8577625660876791   F   F   F
  0.3608731939152676  0.3179407739881057  0.8266046203997419   F   F   F
  0.3820492837584979  0.3806190679272916  0.8247920668144886   F   F   F
  0.3865625126579175  0.4127219173922185  0.7936438023911734   F   F   F
  0.3844195796901317  0.4841405255920108  0.7918459981367718   F   F   F
  0.3779297623695399  0.5153865512534281  0.7607085636303452   F   F   F
  0.1918819796731270  0.2995221644536912  0.9859433901854331   F   F   F
  0.2292549996870079  0.2617866302973937  0.9841234741544014   F   F   F
  0.2487341288730178  0.2527000759699192  0.9529770309027867   F   F   F
  0.2927355875177682  0.2525106012934657  0.9511722008288217   F   F   F
  0.3122349306573966  0.2614293777547303  0.9200164770911314   F   F   F
  0.3497325443076420  0.2988376318960704  0.9181987000891212   F   F   F
  0.3634402753692143  0.3230635116918705  0.8870416577138656   F   F   F
  0.3832881353876090  0.3868772341105071  0.8852292737375294   F   F   F
  0.3871307920285929  0.4192091652352161  0.8540721296591798   F   F   F
  0.3834778625687605  0.4904655329703189  0.8522694263276094   F   F   F
  0.3763283325651798  0.5213124583242035  0.8211231493737685   F   F   F
  0.3159933564969961  0.2638358385985669  0.9804545485461489   F   F   F
  0.3526755754158302  0.3033263361935923  0.9786367905652824   F   F   F
  0.3658732370179081  0.3283152820290951  0.9474824102021486   F   F   F
  0.3843745239084342  0.3931902214571892  0.9456752944207949   F   F   F
  0.3875502042471410  0.4257177947158510  0.9145154856188995   F   F   F
  0.3823987070555503  0.4967337046017235  0.9127076429192371   F   F   F
  0.3746074770193175  0.5271637276471495  0.8815573422313534   F   F   F
  0.3877976721156813  0.4322410342376557  0.9749656874100552   F   F   F
  0.3811376086846678  0.5029206016076770  0.9731532877879516   F   F   F
  0.3727299323883599  0.5328976495138065  0.9419989640536315   F   F   F
  0.4802940209224857  0.4305166027815516  0.4997015751763172   T   T   T
  0.4873938656654879  0.3770302270051448  0.4757797367982829   T   T   T
  0.4878713864340370  0.4994247986049918  0.4889048022889024   T   T   T
  0.4282970014635759  0.5106316917923109  0.4576297413211317   T   T   T
 
  0.00000000E+00  0.00000000E+00  0.00000000E+00
  0.00000000E+00  0.00000000E+00  0.00000000E+00
  0.00000000E+00  0.00000000E+00  0.00000000E+00
  0.00000000E+00  0.00000000E+00  0.00000000E+00
  0.00000000E+00  0.00000000E+00  0.00000000E+00
  0.00000000E+00  0.00000000E+00  0.00000000E+00
  0.00000000E+00  0.00000000E+00  0.00000000E+00
  0.00000000E+00  0.00000000E+00  0.00000000E+00
  0.00000000E+00  0.00000000E+00  0.00000000E+00
  0.00000000E+00  0.00000000E+00  0.00000000E+00
  0.00000000E+00  0.00000000E+00  0.00000000E+00
  0.00000000E+00  0.00000000E+00  0.00000000E+00
  0.00000000E+00  0.00000000E+00  0.00000000E+00
  0.00000000E+00  0.00000000E+00  0.00000000E+00
  0.00000000E+00  0.00000000E+00  0.00000000E+00
  0.00000000E+00  0.00000000E+00  0.00000000E+00
  0.00000000E+00  0.00000000E+00  0.00000000E+00
  0.00000000E+00  0.00000000E+00  0.00000000E+00
  0.00000000E+00  0.00000000E+00  0.00000000E+00
  0.00000000E+00  0.00000000E+00  0.00000000E+00
  0.00000000E+00  0.00000000E+00  0.00000000E+00
  0.00000000E+00  0.00000000E+00  0.00000000E+00
  0.00000000E+00  0.00000000E+00  0.00000000E+00
  0.00000000E+00  0.00000000E+00  0.00000000E+00
  0.00000000E+00  0.00000000E+00  0.00000000E+00
  0.00000000E+00  0.00000000E+00  0.00000000E+00
  0.00000000E+00  0.00000000E+00  0.00000000E+00
  0.00000000E+00  0.00000000E+00  0.00000000E+00
  0.00000000E+00  0.00000000E+00  0.00000000E+00
  0.00000000E+00  0.00000000E+00  0.00000000E+00
  0.00000000E+00  0.00000000E+00  0.00000000E+00
  0.00000000E+00  0.00000000E+00  0.00000000E+00
  0.00000000E+00  0.00000000E+00  0.00000000E+00
  0.00000000E+00  0.00000000E+00  0.00000000E+00
  0.00000000E+00  0.00000000E+00  0.00000000E+00
  0.00000000E+00  0.00000000E+00  0.00000000E+00
  0.00000000E+00  0.00000000E+00  0.00000000E+00
  0.00000000E+00  0.00000000E+00  0.00000000E+00
  0.00000000E+00  0.00000000E+00  0.00000000E+00
  0.00000000E+00  0.00000000E+00  0.00000000E+00
  0.00000000E+00  0.00000000E+00  0.00000000E+00
  0.00000000E+00  0.00000000E+00  0.00000000E+00
  0.00000000E+00  0.00000000E+00  0.00000000E+00
  0.00000000E+00  0.00000000E+00  0.00000000E+00
  0.00000000E+00  0.00000000E+00  0.00000000E+00
  0.00000000E+00  0.00000000E+00  0.00000000E+00
  0.00000000E+00  0.00000000E+00  0.00000000E+00
  0.00000000E+00  0.00000000E+00  0.00000000E+00
  0.00000000E+00  0.00000000E+00  0.00000000E+00
  0.00000000E+00  0.00000000E+00  0.00000000E+00
  0.00000000E+00  0.00000000E+00  0.00000000E+00
  0.00000000E+00  0.00000000E+00  0.00000000E+00
  0.00000000E+00  0.00000000E+00  0.00000000E+00
  0.00000000E+00  0.00000000E+00  0.00000000E+00
  0.00000000E+00  0.00000000E+00  0.00000000E+00
  0.00000000E+00  0.00000000E+00  0.00000000E+00