 C  S  O  H                             
    1.000000000000000     
    32.3722991942999982    0.0000000000000000    0.0000000000000000
     0.0000000000000000   19.9214134216000005    0.0000000000000000
     0.0000000000000000    0.0000000000000000   40.4480476378999967
   C    S    O    H 
   364     1     2     1
Direct
  0.3710099006021900  0.5383310792770131  0.0024563206039845
  0.3688368031804153  0.5438421702762114  0.0629165855837030
  0.3381031070987315  0.5950101418582620  0.0611006656459916
  0.3205466645968805  0.6114290788751414  0.0299351853144974
  0.2778652959233453  0.6287982267619059  0.0281101280405353
  0.3665157264749508  0.5492227740292108  0.1233774365717440
  0.3347026331164239  0.5986321075507964  0.1215483542287996
  0.3168277242640612  0.6140526008840268  0.0903839558887043
  0.2737964754215090  0.6290011563161858  0.0885399193123021
  0.2535965720010969  0.6268735965474830  0.0573837674731361
  0.2121406320581262  0.6029226674611819  0.0555597896229463
  0.1956330395356805  0.5838658718417280  0.0244048081891444
  0.1680676258428419  0.5281359880586033  0.0225881754132846
  0.3639737837178975  0.5544631796355831  0.1838426064121846
  0.3311514303913503  0.6020995188131778  0.1819965444707734
  0.3129992927589012  0.6164725502671015  0.1508209085058029
  0.2696874009615225  0.6290005594977913  0.1489613122688100
  0.2495682989437594  0.6257208761078712  0.1178027399905605
  0.2086494897250147  0.5994505964657190  0.1159751060599323
  0.1925686408837869  0.5795002966773157  0.0848225023399682
  0.1661995112684301  0.5222592437950255  0.0829967547147941
  0.1589543672041157  0.4915362129461013  0.0518533111993918
  0.1549878074736374  0.4203256730589686  0.0500321157375653
  0.1587592596659648  0.3879631911661177  0.0188918861513546
  0.1783879617703430  0.3239739677906935  0.0170851638109255
  0.3611759177858946  0.5596012782918484  0.2442844104623951
  0.3274540041919097  0.6054848288263408  0.2424310181342033
  0.3090600470225774  0.6188036003544316  0.2112435249253629
  0.2655010402170494  0.6288840057791426  0.2093697564603227
  0.2455094261379737  0.6244117599953064  0.1782153903851387
  0.2051723242381763  0.5958145136347810  0.1763852511493230
  0.1895606860473920  0.5749508658032283  0.1452369906755211
  0.1644205394987781  0.5162704743160006  0.1434087358074053
  0.1578580306133264  0.4851622057415861  0.1122604080569343
  0.1554014588290436  0.4137808824696246  0.1104434436163916
  0.1598682914826870  0.3816621152257684  0.0792964577315202
  0.1808427672806959  0.3188119466853889  0.0774865327491760
  0.1950218759775865  0.2952453250143384  0.0463538357218085
  0.2331790432631499  0.2596314952611158  0.0445401101550711
  0.2528613554525464  0.2516463747708408  0.0134045726884460
  0.2968409507916513  0.2538734636154995  0.0116083894327603
  0.3699031778763012  0.5381304487862634  0.3358593476210163
  0.3582587317049296  0.5647761189465055  0.3047145061715289
  0.3236077060850525  0.6089375530014077  0.3028502266010394
  0.3050127313659243  0.6211347869017615  0.2716869408437574
  0.2612252513767123  0.6287251287038584  0.2697891254293807
  0.2414006382895907  0.6229637703352555  0.2386270215294721
  0.2017236104346416  0.5920628554037559  0.2367962073880209
  0.1866130988756206  0.5702529738164841  0.2056427973022575
  0.1627674556846115  0.5101792286916614  0.2038231562952418
  0.1568721075409776  0.4787264521777588  0.1726725587438556
  0.1559413330715409  0.4072430541897886  0.1708628579968560
  0.1610805782966478  0.3754097101544734  0.1397136150823083
  0.1833783120218405  0.3137685651732201  0.1378944156773771
  0.1980702599906657  0.2910377855783077  0.1067610757279469
  0.2369597505899474  0.2576030550549373  0.1049505921102946
  0.2568148798103141  0.2507318918559924  0.0738170855640720
  0.3007204390885512  0.2554353998914956  0.0720294593541547
  0.3198354288459589  0.2664698397615108  0.0408914889032815
  0.3557039118411838  0.3078941681945438  0.0390873469206549
  0.3684075350006843  0.3335630488714378  0.0079351581700498
  0.3855848027659947  0.3993902956660931  0.0061383067845587
  0.3676885060835799  0.5439331198355172  0.3961722078939240
  0.3552798499364497  0.5697570281715658  0.3652753742000298
  0.3195240150460639  0.6119848176243096  0.3633353070134260
  0.3007850279055708  0.6232014000481318  0.3321479738915092
  0.2568876516619966  0.6284822973039729  0.3302286840996318
  0.2372464040422797  0.6214832508990442  0.2990238996752120
  0.1982975800781908  0.5882630979411865  0.2972024016260522
  0.1837091882141429  0.5655143261454117  0.2660547932768074
  0.1612301862407051  0.5040353675246783  0.2642508749973064
  0.1560291820577021  0.4722480342889521  0.2331054967593493
  0.1566421671406246  0.4007518371946318  0.2313019436426985
  0.1624459111865719  0.3692291901997645  0.2001457112162693
  0.1860248588073120  0.3088758830626851  0.1983148102501064
  0.2011773364074604  0.2869800152896275  0.1671701177577073
  0.2407461060334945  0.2557380291318704  0.1653565352879625
  0.2607507337405259  0.2500038609905282  0.1342304946085897
  0.3045339317689995  0.2571636349000102  0.1324446964115986
  0.3234255870665576  0.2692888264978965  0.1013209893769994
  0.3584023789874620  0.3126767205650660  0.0995306618554557
  0.3705691158551684  0.3390524713267499  0.0683823631405180
  0.3863517825390763  0.4057934593212715  0.0665969329057402
  0.3881911386992040  0.4385932834128923  0.0354349827096085
  0.3800447126844461  0.5088594452336188  0.0336191251704150
  0.3640801421873563  0.5492810232931200  0.4565947157466108
  0.3511867321262763  0.5731586800530315  0.4257434394415998
  0.3150400044805474  0.6138745823256219  0.4237393586055586
  0.2962937909175377  0.6248895372100016  0.3924939430891484
  0.2523767905512293  0.6283650511527354  0.3906318471258023
  0.2329554837199441  0.6202171217729660  0.3594317731553733
  0.1947988749198530  0.5845214406468073  0.3576285033227644
  0.1808610791308952  0.5607081510803676  0.3264902090274698
  0.1598799459186871  0.4978579556658859  0.3247027809057151
  0.1553916174028035  0.4657453459489566  0.2935504394361160
  0.1575701806262594  0.3943479752159733  0.2917532954042462
  0.1639792571407128  0.3631422914562136  0.2605853245049967
  0.1887926484461761  0.3041041642522240  0.2587427012272273
  0.2043662933955218  0.2830459130678812  0.2275900684385633
  0.2445524245424633  0.2539326920385047  0.2257669112029348
  0.2646757280818376  0.2493960972225008  0.1946429571255312
  0.3082739967994674  0.2589843751160335  0.1928552672055271
  0.3269131749518818  0.2722500470417421  0.1617405185976463
  0.3609437250847968  0.3175759064404222  0.1599683809184651
  0.3725842550990751  0.3446319990583723  0.1288337271442203
  0.3869434146668145  0.4122325481397537  0.1270563868997386
  0.3881140196749982  0.4451217571843643  0.0959015278914830
  0.3784872272734304  0.5148965278559083  0.0940827015076609
  0.3629182048599156  0.5546010415623126  0.5170927026171014
  0.3483188134508559  0.5775429625721623  0.4856386879012711
  0.3113253180107270  0.6164098320295942  0.4839932790861350
  0.2920566941426055  0.6265127767351153  0.4529442404638282
  0.2479742471103186  0.6279878242685411  0.4511261385717711
  0.2286916711902168  0.6187589219648890  0.4199441112721192
  0.1914785891810802  0.5805810994119515  0.4181299272697463
  0.1781274334813361  0.5558557775477388  0.3869519617325697
  0.1587519507748051  0.4916772331821823  0.3851688078490150
  0.1549631596897115  0.4592904855598724  0.3540134568030374
  0.1587076855050358  0.3880350940635697  0.3522107615556342
  0.1657159744956420  0.3571776995929160  0.3210460241542836
  0.1916689828195232  0.2994265612814249  0.3191932185620792
  0.2076426433715147  0.2792218392221928  0.2880246401410052
  0.2483638315902249  0.2521788796101045  0.2861962771755829
  0.2685815549015849  0.2488119015590308  0.2550530964754779
  0.3119445601654888  0.2608147560690946  0.2532556492459020
  0.3303070574031112  0.2752209612086421  0.2221596789102107
  0.3633262924291415  0.3225254411731363  0.2204040095335083
  0.3743988184135927  0.3502952758944464  0.1892919662687987
  0.3872948868984123  0.4186745102522335  0.1875212706391410
  0.3878167263731725  0.4516289968091645  0.1563682103041157
  0.3767140224149655  0.5208158814145715  0.1545505846076389
  0.3605202782769950  0.5599221207165566  0.5774667161401706
  0.3464586570579025  0.5835282577817323  0.5461856257837110
  0.3082675226987864  0.6196145546130776  0.5444704751569999
  0.2883344085442164  0.6275870115963229  0.5134095446680371
  0.2443673170917124  0.6261189515286042  0.5116480773752664
  0.2249098976577287  0.6163993863981890  0.4804645747084617
  0.1885622288014643  0.5760511061825246  0.4786403507411484
  0.1756088555530125  0.5508023808440077  0.4474616775246136
  0.1577620146096972  0.4853685907614684  0.4456537853474236
  0.1547378893142564  0.4528087596555070  0.4144983535225698
  0.1599861536092585  0.3818039309252319  0.4126795370883691
  0.1676272418793509  0.3513248416533177  0.3815078487128578
  0.1946308890420688  0.2948907344848537  0.3796561067676640
  0.2109839369317659  0.2754794320714087  0.3484677895300252
  0.2522073051191831  0.2505053959275170  0.3466380004591758
  0.2724743984716617  0.2482128640326782  0.3154874966010995
  0.3155809928500678  0.2626239808522934  0.3136780177369059
  0.3336055613691426  0.2782147273066701  0.2825931440598033
  0.3654842199518494  0.3275138036091398  0.2808354694309246
  0.3759617154333700  0.3560087471440261  0.2497353105197583
  0.3872972454395052  0.4251018310530234  0.2479604831995210
  0.3872440715380197  0.4580794302100983  0.2168275605491064
  0.3746844566979344  0.5266411373543010  0.2150183981590725
  0.3583193549947530  0.5647330061950054  0.6378743708522566
  0.3436274715434618  0.5878794916190583  0.6067669742232548
  0.3048271704776863  0.6217063623838702  0.6050063773219503
  0.2848815136605312  0.6286545094656771  0.5738267474173029
  0.2409363268893882  0.6239117710853479  0.5721045874113224
  0.2216182984775422  0.6131163608496738  0.5410025314060746
  0.1860257751465028  0.5710128454309777  0.5391631983277128
  0.1735035561284669  0.5451521233264914  0.5079768158797298
  0.1569523480690868  0.4789225655972993  0.5061479107139433
  0.1546242326490896  0.4462534059488333  0.4749608308078244
  0.1613437729869899  0.3755950397556988  0.4731390441103674
  0.1695888351168073  0.3455617668916524  0.4419660700107484
  0.1976760582208655  0.2905140985808873  0.4401254417044251
  0.2143637697341040  0.2718900739271002  0.4089508200185791
  0.2560873611213550  0.2491286758587117  0.4071196698302437
  0.2763850665611199  0.2479384019448541  0.3759726077392978
  0.3190930796265657  0.2650696156925738  0.3741726850670179
  0.3367708703902979  0.2814688895005878  0.3430191955558378
  0.3673734682087239  0.3327167266411060  0.3412149751822050
  0.3772604732129382  0.3617506000778748  0.3101573395107729
  0.3868974680742087  0.4315846433083595  0.3083427187016977
  0.3862574137927631  0.4645227551429245  0.2772583597492027
  0.3723700867381768  0.5323913212076995  0.2754797423312492
  0.3559871755756672  0.5694538555318949  0.6983385952331437
  0.3407395550986078  0.5915344293212856  0.6672222939144162
  0.3012293855571795  0.6229852473765526  0.6654689044035677
  0.2811676012950200  0.6290486004215793  0.6343251384770254
  0.2373616741115907  0.6216736484751229  0.6325765859170704
  0.2184245653617224  0.6096023759119307  0.6014454447803683
  0.1836352854828469  0.5658277972319439  0.5996226820326085
  0.1715292825344045  0.5394067522843218  0.5684467611290455
  0.1561642123962938  0.4724149012428575  0.5666116388201309
  0.1545069499987252  0.4396485892386962  0.5354382567561947
  0.1626779012715661  0.3693832244651400  0.5336154106037244
  0.1716420157894798  0.3398550012908082  0.5024577007457411
  0.2008403715895048  0.2863984706984275  0.5006593481400328
  0.2178966593950802  0.2686845041096866  0.4694579117288672
  0.2600096262859967  0.2483763142082802  0.4676337498469902
  0.2803113192524288  0.2483988036596807  0.4364510370616066
  0.3224285452050912  0.2686712784098245  0.4346337613612920
  0.3396264458157199  0.2859016605219779  0.4034919587978201
  0.3687868035952995  0.3393258049014595  0.4016465102090070
  0.3781645644162639  0.3680221411437256  0.3705296518862106
  0.3862340412704205  0.4380876061115044  0.3686029095878454
  0.3848801778866366  0.4710073614155874  0.3375505032997706
  0.3534123786789768  0.5741108484206671  0.7588052933368402
  0.3377403701364357  0.5951978306721520  0.7276660516877927
  0.2975285348596295  0.6242490016686967  0.7259124613489389
  0.2773654259840089  0.6290404243561717  0.6947897708022130
  0.2337672131475480  0.6193449988469701  0.6930158896584803
  0.2151132535307997  0.6062166799552461  0.6618712511159720
  0.1811965254464863  0.5606669028012272  0.6600591313328505
  0.1696292862445990  0.5336207747884862  0.6288991541243359
  0.1554620062043569  0.4659224611418640  0.6270716126650208
  0.1544643494434630  0.4330473680020343  0.5959038832011679
  0.1640959975259525  0.3632926273851196  0.5940831696922166
  0.1737241478920784  0.3342834164286616  0.5629245634131422
  0.2041560067077966  0.2826399446121323  0.5611398976128403
  0.2215469802006452  0.2657723763672291  0.5299679355706669
  0.2641348047328178  0.2477613680240958  0.5281463394598059
  0.2843320019123182  0.2488966098005140  0.4969495604630726
  0.3259871090111454  0.2715430257788028  0.4951141836131042
  0.3426157029562381  0.2910559250686697  0.4639677157607349
  0.3705826792212636  0.3457352472116361  0.4621786533762999
  0.3789356375180771  0.3759627391581951  0.4308244916917043
  0.3874917459796410  0.4448658824581492  0.4285437937058323
  0.3845009348101337  0.4773384839490037  0.3978000441793624
  0.3506093505008424  0.5786440712724719  0.8192668034928550
  0.3345427937611246  0.5988053565999130  0.7881175663290907
  0.2937265482392818  0.6255216549112941  0.7863519394148027
  0.2735074378658935  0.6290542437400641  0.7552209675125509
  0.2301425836169788  0.6169835399776338  0.7534342659238875
  0.2117887837192036  0.6028240985567218  0.7222981255842790
  0.1787819001684338  0.5555230438056955  0.7204947466855396
  0.1677771213286686  0.5278285954899686  0.6893449578141415
  0.1549308001289435  0.4594526953008664  0.6875243900687257
  0.1545443137704214  0.4265215498942614  0.6563600489118799
  0.1656557576213377  0.3573438052876709  0.6545444597990216
  0.1759105849581007  0.3288984610074209  0.6233946505959342
  0.2075509163818630  0.2792037436090183  0.6216175965898803
  0.2253447351171519  0.2634078592940001  0.5904660356876726
  0.2682961815466927  0.2479427665907014  0.5886476467979849
  0.2884341496763727  0.2497816075182867  0.5574412602275276
  0.3297418880673216  0.2743127463759065  0.5555822410407516
  0.3457716995851146  0.2941752111210286  0.5243781967462559
  0.3724081207047328  0.3509174054217961  0.5225703464474553
  0.3801078915346583  0.3821149314257516  0.4915271170151967
  0.3885554579315024  0.4517787268651367  0.4901732607069995
  0.3924806937572039  0.4888341568039096  0.4581759363405353
  0.3476548942260332  0.5830258636626667  0.8797286377875539
  0.3311981863772437  0.6022721630998290  0.8485723140358206
  0.2898418250178985  0.6266852031417991  0.8467905097505282
  0.2695914268446457  0.6290457214286542  0.8156507647939968
  0.2265011538900506  0.6145616769945221  0.8138537179463272
  0.2084731016458139  0.5993496737333386  0.7827233717849479
  0.1764567881797914  0.5503000764928102  0.7809260656632415
  0.1660272488689698  0.5220156858486167  0.7497799086413209
  0.1545978441263140  0.4529741526544182  0.7479640038008896
  0.1548497265642820  0.4200333470565681  0.7168143442787670
  0.1674236088821359  0.3515146582975308  0.7150033801660304
  0.1782753953509398  0.3236916021283552  0.6838522181421831
  0.2110462791195800  0.2759939622242271  0.6820674020815588
  0.2291910838384751  0.2613539218068959  0.6509179683746191
  0.2724708159501080  0.2485890402200917  0.6490952014590149
  0.2925598675132129  0.2514789979138030  0.6179149103393210
  0.3334219763530307  0.2779642013136231  0.6160612216033005
  0.3492695010332024  0.2980428145749420  0.5848480708005922
  0.3751761896001908  0.3557667301663819  0.5830294696274281
  0.3817505498469455  0.3868931015229225  0.5518893331757837
  0.3854112137965325  0.4579765530304664  0.5501911052633884
  0.3824696173573457  0.4904639529446472  0.5191049091755630
  0.3445738229310706  0.5872135242877565  0.9401886972113012
  0.3277343363637160  0.6055446600463250  0.9090272568319431
  0.2858874696579420  0.6276484359567318  0.9072311819588125
  0.2656206121316283  0.6288750928619085  0.8760851767512615
  0.2228667373024168  0.6119793295506764  0.8742790489535899
  0.2051943070406462  0.5957563845113895  0.8431423611208907
  0.1742308008694766  0.5449568412351758  0.8413484850074389
  0.1643932870624976  0.5161139130528568  0.8102090614013759
  0.1544268172772635  0.4464685473704437  0.8083938267177505
  0.1553672788884360  0.4135597263901125  0.7772521684236479
  0.1693882171230246  0.3457925481151302  0.7754437869441199
  0.1808075789181727  0.3186103008994418  0.7442907044554679
  0.2146220375432072  0.2728736599535119  0.7424893514277586
  0.2330909403876865  0.2594117406294584  0.7113431611252531
  0.2766382240025589  0.2492684515448854  0.7095141685865958
  0.2966592907283646  0.2534705178310625  0.6783445449705033
  0.3369654219056130  0.2820952228125954  0.6764911792451560
  0.3524752405666750  0.3028791243505098  0.6452753173547989
  0.3773620631816023  0.3618376163360908  0.6434071067513066
  0.3835424573675559  0.3930140241215307  0.6122295138660474
  0.3856996730500254  0.4644512151389626  0.6104372266856355
  0.3808808865809996  0.4966799809099464  0.5793839084244595
  0.3413895985487636  0.5912072588884595  0.0006470717204375
  0.3241834897054205  0.6086028146886248  0.9694820064771861
  0.2818962926047683  0.6283590604351523  0.9676729047053902
  0.2616253706367627  0.6284723318075304  0.9365202766415366
  0.2192552205862244  0.6091886077483970  0.9347073734109257
  0.2019535689593015  0.5919958460783097  0.9035631742869038
  0.1720917373363290  0.5394771782918236  0.9017664651421331
  0.1628898010698170  0.5101050463300396  0.8706287966228929
  0.1544051032865202  0.4399495848520824  0.8688124343170261
  0.1560416863974057  0.4071121791454873  0.8376717801242823
  0.1714956797624467  0.3401727706359139  0.8358658026096962
  0.1834840849479050  0.3136503041486190  0.8047173520096149
  0.2182709016508535  0.2698686059107604  0.8029028200660517
  0.2370276148168677  0.2575444258525399  0.7717540351949426
  0.2807713252828001  0.2499168092641832  0.7699216749129336
  0.3006969614264065  0.2553903609455723  0.7387553398528272
  0.3403921842702182  0.2862058615448465  0.7369034767913925
  0.3555192716138300  0.3078732239853030  0.7057125356380047
  0.3793045905811032  0.3680302774286429  0.7038356143194032
  0.3849806400867443  0.3994996932086012  0.6726419292320802
  0.3858177852666797  0.4710002689683898  0.6708297265820504
  0.3803948514582655  0.5028581683404046  0.6396912097447781
  0.2576193871116015  0.6278029243132591  0.9969541918921406
  0.2156814123412103  0.6061617699258597  0.9951356557304529
  0.1987669247870199  0.5880283026741133  0.9639855129326922
  0.1700366170574510  0.5338702644283931  0.9621796490310021
  0.1614811497496699  0.5040029167910896  0.9310403508393007
  0.1544967103840393  0.4334132702635051  0.9292211601335280
  0.1568460579225354  0.4006963305028371  0.8980813427478344
  0.1737113806481084  0.3346581400181232  0.8962779123537489
  0.1862701798927299  0.3088332494180517  0.8651330773312587
  0.2219592897425642  0.2670162618032130  0.8633108539432376
  0.2409843966444837  0.2557809553243304  0.8321619819069429
  0.2848662563080743  0.2506140341734657  0.8303326663315739
  0.3046767928016265  0.2572708337398009  0.7991717375354424
  0.3437069857953635  0.2902751926508659  0.7973283703034783
  0.3583973780823592  0.3128423257257479  0.7661532770913384
  0.3809695352935502  0.3742184380111466  0.7642904068363424
  0.3861147507983779  0.4059948267744762  0.7330988979121924
  0.3855082568757081  0.4775048126849934  0.7312869348244371
  0.3795479285965454  0.5090357911070297  0.7001250498008330
  0.1601689098820999  0.4978126908618909  0.9914465793822447
  0.1546904048903592  0.4268674139433888  0.9896247465391612
  0.1577516574713039  0.3943039663330019  0.9584872311347284
  0.1760065187475455  0.3292465495565050  0.9566831031133605
  0.1891218938577126  0.3041406197286406  0.9255421879593557
  0.2256740581997203  0.2643371420319869  0.9237192695077183
  0.2449407555362393  0.2541741757748758  0.8925731698671350
  0.2889089823007617  0.2514707086190134  0.8907540073269637
  0.3085823068256083  0.2592551504524225  0.8595973492372355
  0.3468920706020303  0.2944302410068971  0.8577631645631978
  0.3611188134778451  0.3178367256064171  0.8265981337458481
  0.3823861626197171  0.3804328281662904  0.8247528489899620
  0.3869314398706338  0.4124940715810818  0.7935746259519353
  0.3848203984607714  0.4839211965845637  0.7917642644084490
  0.3782914162628413  0.5151236913132916  0.7605964013598245
  0.1920435928595066  0.2996164760311790  0.9859488111234673
  0.2294178857776616  0.2618801251533262  0.9841295000803041
  0.2488987755310846  0.2527871548935637  0.9529883237582382
  0.2929018957571755  0.2525478861187271  0.9511827501056450
  0.3124096759756614  0.2614418735681628  0.9200291844346208
  0.3499430304788422  0.2987543217979336  0.9182043683482557
  0.3636816128293008  0.3229443807272788  0.8870448705036654
  0.3835954178218606  0.3867009037584209  0.8852165226628654
  0.3874843851858233  0.4190078049686912  0.8540471368653642
  0.3838555174161910  0.4902662905439776  0.8522356215292921
  0.3767214840387177  0.5210869457018767  0.8210689466681401
  0.3161694036340819  0.2638323784057771  0.9804610922557986
  0.3528879384305671  0.3032342084939966  0.9786463409803978
  0.3661094855151902  0.3281863407854030  0.9474892760484280
  0.3846633872100659  0.3930182855311661  0.9456788318839758
  0.3878654616066244  0.4255312021464225  0.9145120125112534
  0.3827320560999508  0.4965445932596161  0.9126996602007215
  0.3749614618446355  0.5269579576278246  0.8815380853358870
  0.3881030629999583  0.4320621383158917  0.9749721598888540
  0.3814587547130219  0.5027408695433467  0.9731599288187460
  0.3730538629357276  0.5327062071128877  0.9419975134183718
  0.4746244547583369  0.4459388328097114  0.4952066757858700
  0.4786024875296253  0.4068932876456140  0.4648238814877834
  0.4771760041336927  0.5189194252372155  0.4918358209493691
  0.4244029207196428  0.5101073535072358  0.4569216781747715
 
  0.00000000E+00  0.00000000E+00  0.00000000E+00
  0.00000000E+00  0.00000000E+00  0.00000000E+00
  0.00000000E+00  0.00000000E+00  0.00000000E+00
  0.00000000E+00  0.00000000E+00  0.00000000E+00
  0.00000000E+00  0.00000000E+00  0.00000000E+00
  0.00000000E+00  0.00000000E+00  0.00000000E+00
  0.00000000E+00  0.00000000E+00  0.00000000E+00
  0.00000000E+00  0.00000000E+00  0.00000000E+00
  0.00000000E+00  0.00000000E+00  0.00000000E+00
  0.00000000E+00  0.00000000E+00  0.00000000E+00
  0.00000000E+00  0.00000000E+00  0.00000000E+00
  0.00000000E+00  0.00000000E+00  0.00000000E+00
  0.00000000E+00  0.00000000E+00  0.00000000E+00
  0.00000000E+00  0.00000000E+00  0.00000000E+00
  0.00000000E+00  0.00000000E+00  0.00000000E+00
  0.00000000E+00  0.00000000E+00  0.00000000E+00
  0.00000000E+00  0.00000000E+00  0.00000000E+00
  0.00000000E+00  0.00000000E+00  0.00000000E+00
  0.00000000E+00  0.00000000E+00  0.00000000E+00
  0.00000000E+00  0.00000000E+00  0.00000000E+00
  0.00000000E+00  0.00000000E+00  0.00000000E+00
  0.00000000E+00  0.00000000E+00  0.00000000E+00
  0.00000000E+00  0.00000000E+00  0.00000000E+00
  0.00000000E+00  0.00000000E+00  0.00000000E+00
  0.00000000E+00  0.00000000E+00  0.00000000E+00
  0.00000000E+00  0.00000000E+00  0.00000000E+00
  0.00000000E+00  0.00000000E+00  0.00000000E+00
  0.00000000E+00  0.00000000E+00  0.00000000E+00
  0.00000000E+00  0.00000000E+00  0.00000000E+00
  0.00000000E+00  0.00000000E+00  0.00000000E+00
  0.00000000E+00  0.00000000E+00  0.00000000E+00
  0.00000000E+00  0.00000000E+00  0.00000000E+00
  0.00000000E+00  0.00000000E+00  0.00000000E+00
  0.00000000E+00  0.00000000E+00  0.00000000E+00
  0.00000000E+00  0.00000000E+00  0.00000000E+00
  0.00000000E+00  0.00000000E+00  0.00000000E+00
  0.00000000E+00  0.00000000E+00  0.00000000E+00
  0.00000000E+00  0.00000000E+00  0.00000000E+00
  0.00000000E+00  0.00000000E+00  0.00000000E+00
  0.00000000E+00  0.00000000E+00  0.00000000E+00
  0.00000000E+00  0.00000000E+00  0.00000000E+00
  0.00000000E+00  0.00000000E+00  0.00000000E+00
  0.00000000E+00  0.00000000E+00  0.00000000E+00
  0.00000000E+00  0.00000000E+00  0.00000000E+00
  0.00000000E+00  0.00000000E+00  0.00000000E+00
  0.00000000E+00  0.00000000E+00  0.00000000E+00
  0.00000000E+00  0.00000000E+00  0.00000000E+00
  0.00000000E+00  0.00000000E+00  0.00000000E+00
  0.00000000E+00  0.00000000E+00  0.00000000E+00
  0.00000000E+00  0.00000000E+00  0.00000000E+00
  0.00000000E+00  0.00000000E+00  0.00000000E+00
  0.00000000E+00  0.00000000E+00  0.00000000E+00
  0.00000000E+00  0.00000000E+00  0.00000000E+00
  0.00000000E+00  0.00000000E+00  0.00000000E+00
  0.00000000E+00  0.00000000E+00  0.00000000E+00
  0.00000000E+00  0.00000000E+00  0.00000000E+00
  0.00000000E+00  0.00000000E+00  0.00000000E+00
  0.00000000E+00  0.00000000E+00  0.00000000E+00
  0.00000000E+00  0.00000000E+00  0.00000000E+00
  0.00000000E+00  0.00000000E+00  0.00000000E+00
  0.00000000E+00  0.00000000E+00  0.00000000E+00
  0.00000000E+00  0.00000000E+00  0.00000000E+00
  0.00000000E+00  0.00000000E+00  0.00000000E+00
  0.00000000E+00  0.00000000E+00  0.00000000E+00
  0.00000000E+00  0.00000000E+00  0.00000000E+00
  0.00000000E+00  0.00000000E+00  0.00000000E+00
  0.00000000E+00  0.00000000E+00  0.00000000E+00
  0.00000000E+00  0.00000000E+00  0.00000000E+00
  0.00000000E+00  0.00000000E+00  0.00000000E+00
  0.00000000E+00  0.00000000E+00  0.00000000E+00
  0.00000000E+00  0.00000000E+00  0.00000000E+00
  0.00000000E+00  0.00000000E+00  0.00000000E+00
  0.00000000E+00  0.00000000E+00  0.00000000E+00
  0.00000000E+00  0.00000000E+00  0.00000000E+00
  0.00000000E+00  0.00000000E+00  0.00000000E+00
  0.00000000E+00  0.00000000E+00  0.00000000E+00
  0.00000000E+00  0.00000000E+00  0.00000000E+00
  0.00000000E+00  0.00000000E+00  0.00000000E+00
  0.00000000E+00  0.00000000E+00  0.00000000E+00
  0.00000000E+00  0.00000000E+00  0.00000000E+00
  0.00000000E+00  0.00000000E+00  0.00000000E+00
  0.00000000E+00  0.00000000E+00  0.00000000E+00
  0.00000000E+00  0.00000000E+00  0.00000000E+00
  0.00000000E+00  0.00000000E+00  0.00000000E+00
  0.00000000E+00  0.00000000E+00  0.00000000E+00
  0.00000000E+00  0.00000000E+00  0.00000000E+00
  0.00000000E+00  0.00000000E+00  0.00000000E+00
  0.00000000E+00  0.00000000E+00  0.00000000E+00
  0.00000000E+00  0.00000000E+00  0.00000000E+00
  0.00000000E+00  0.00000000E+00  0.00000000E+00
  0.00000000E+00  0.00000000E+00  0.00000000E+00
  0.00000000E+00  0.00000000E+00  0.00000000E+00
  0.00000000E+00  0.00000000E+00  0.00000000E+00
  0.00000000E+00  0.00000000E+00  0.00000000E+00
  0.00000000E+00  0.00000000E+00  0.00000000E+00
  0.00000000E+00  0.00000000E+00  0.00000000E+00
  0.00000000E+00  0.00000000E+00  0.00000000E+00
  0.00000000E+00  0.00000000E+00  0.00000000E+00
  0.00000000E+00  0.00000000E+00  0.00000000E+00
  0.00000000E+00  0.00000000E+00  0.00000000E+00
  0.00000000E+00  0.00000000E+00  0.00000000E+00
  0.00000000E+00  0.00000000E+00  0.00000000E+00
  0.00000000E+00  0.00000000E+00  0.00000000E+00
  0.00000000E+00  0.00000000E+00  0.00000000E+00
  0.00000000E+00  0.00000000E+00  0.00000000E+00
  0.00000000E+00  0.00000000E+00  0.00000000E+00
  0.00000000E+00  0.00000000E+00  0.00000000E+00
  0.00000000E+00  0.00000000E+00  0.00000000E+00
  0.00000000E+00  0.00000000E+00  0.00000000E+00
  0.00000000E+00  0.00000000E+00  0.00000000E+00
  0.00000000E+00  0.00000000E+00  0.00000000E+00
  0.00000000E+00  0.00000000E+00  0.00000000E+00
  0.00000000E+00  0.00000000E+00  0.00000000E+00
  0.00000000E+00  0.00000000E+00  0.00000000E+00
  0.00000000E+00  0.00000000E+00  0.00000000E+00
  0.00000000E+00  0.00000000E+00  0.00000000E+00
  0.00000000E+00  0.00000000E+00  0.00000000E+00
  0.00000000E+00  0.00000000E+00  0.00000000E+00
  0.00000000E+00  0.00000000E+00  0.00000000E+00
  0.00000000E+00  0.00000000E+00  0.00000000E+00
  0.00000000E+00  0.00000000E+00  0.00000000E+00
  0.00000000E+00  0.00000000E+00  0.00000000E+00
  0.00000000E+00  0.00000000E+00  0.00000000E+00
  0.00000000E+00  0.00000000E+00  0.00000000E+00
  0.00000000E+00  0.00000000E+00  0.00000000E+00
  0.00000000E+00  0.00000000E+00  0.00000000E+00
  0.00000000E+00  0.00000000E+00  0.00000000E+00
  0.00000000E+00  0.00000000E+00  0.00000000E+00
  0.00000000E+00  0.00000000E+00  0.00000000E+00
  0.00000000E+00  0.00000000E+00  0.00000000E+00
  0.00000000E+00  0.00000000E+00  0.00000000E+00
  0.00000000E+00  0.00000000E+00  0.00000000E+00
  0.00000000E+00  0.00000000E+00  0.00000000E+00
  0.00000000E+00  0.00000000E+00  0.00000000E+00
  0.00000000E+00  0.00000000E+00  0.00000000E+00
  0.00000000E+00  0.00000000E+00  0.00000000E+00
  0.00000000E+00  0.00000000E+00  0.00000000E+00
  0.00000000E+00  0.00000000E+00  0.00000000E+00
  0.00000000E+00  0.00000000E+00  0.00000000E+00
  0.00000000E+00  0.00000000E+00  0.00000000E+00
  0.00000000E+00  0.00000000E+00  0.00000000E+00
  0.00000000E+00  0.00000000E+00  0.00000000E+00
  0.00000000E+00  0.00000000E+00  0.00000000E+00
  0.00000000E+00  0.00000000E+00  0.00000000E+00
  0.00000000E+00  0.00000000E+00  0.00000000E+00
  0.00000000E+00  0.00000000E+00  0.00000000E+00
  0.00000000E+00  0.00000000E+00  0.00000000E+00