 C  S  O  H                             
    1.000000000000000     
    32.3722991942999982    0.0000000000000000    0.0000000000000000
     0.0000000000000000   19.9214134216000005    0.0000000000000000
     0.0000000000000000    0.0000000000000000   40.4480476378999967
   C    S    O    H 
   364     1     2     1
Selective dynamics
Direct
  0.3709470396100428  0.5384155616549494  0.0024528541425832   T   T   T
  0.3687176703053551  0.5439402945784194  0.0629109537237177   T   T   T
  0.3379844882184398  0.5951087433000438  0.0610918896846661   T   T   T
  0.3204465908208933  0.6114941255351692  0.0299206776416567   T   T   T
  0.2777598570946662  0.6288198242975758  0.0280934480673265   T   T   T
  0.3663203087290974  0.5493620387324603  0.1233586962704003   T   T   T
  0.3345322641313223  0.5988095397339451  0.1215356493482850   T   T   T
  0.3166845916432530  0.6141861408579015  0.0903637229850691   T   T   T
  0.2736521081463581  0.6291059499899745  0.0885232681084074   T   T   T
  0.2534748351508473  0.6269038028964377  0.0573628147891662   T   T   T
  0.2120329150589201  0.6029028083566598  0.0555421145052897   T   T   T
  0.1955468049656896  0.5838109146812203  0.0243873024595345   T   T   T
  0.1679943290502230  0.5280684148687617  0.0225736661864173   T   T   T
  0.3637363222856565  0.5546705631510618  0.1838004460654868   T   T   T
  0.3309597941526776  0.6023826796831326  0.1819801980641478   T   T   T
  0.3128196727459692  0.6167208747521982  0.1508006080594148   T   T   T
  0.2695091908706067  0.6292337749090671  0.1489544682968540   T   T   T
  0.2494098903730180  0.6258552208613705  0.1177867103810565   T   T   T
  0.2085142371653153  0.5994987656658983  0.1159651016919976   T   T   T
  0.1924622662178423  0.5794845989617227  0.0848094827253339   T   T   T
  0.1661223591168918  0.5222082068641094  0.0829893133993257   T   T   T
  0.1588870575197187  0.4914748565886594  0.0518443966841318   T   T   T
  0.1549308731026205  0.4202635660841354  0.0500256442647181   T   T   T
  0.1587051296044723  0.3879040470362888  0.0188818801940036   T   T   T
  0.1783448191077690  0.3239268618216636  0.0170753711296501   T   T   T
  0.3610272505048864  0.5598824979487058  0.2442196591090467   T   T   T
  0.3273206221673881  0.6057886082280597  0.2424180777284493   T   T   T
  0.3088932554137664  0.6191272913108956  0.2112408779736623   T   T   T
  0.2653309593927604  0.6291882112637885  0.2093903286926452   T   T   T
  0.2453374747065926  0.6246565480482744  0.1782233186828422   T   T   T
  0.2050326186318779  0.5959360921077560  0.1763944464799005   T   T   T
  0.1894460693329793  0.5749922132764214  0.1452398440006362   T   T   T
  0.1643595317463965  0.5162483520150029  0.1434124258180282   T   T   T
  0.1578031485578623  0.4851172109548919  0.1122620446717343   T   T   T
  0.1553613165474158  0.4137325741793231  0.1104473768186350   T   T   T
  0.1598183528674232  0.3816099846151896  0.0792960528023697   T   T   T
  0.1807936954507905  0.3187595745251641  0.0774856345552999   T   T   T
  0.1949772576888260  0.2952043586385126  0.0463482482078591   T   T   T
  0.2331399223313823  0.2596100404701193  0.0445333518645200   T   T   T
  0.2528329600130931  0.2516573066999084  0.0133963205089878   T   T   T
  0.2968112524035317  0.2539149738529930  0.0116004186420618   T   T   T
  0.3704374387898007  0.5385647627253131  0.3357345025772113   T   T   T
  0.3584157561073687  0.5650760676772718  0.3046466487652724   T   T   T
  0.3236483275179294  0.6089954779485437  0.3028556824180336   T   T   T
  0.3049445860374420  0.6213089962515030  0.2717253109083812   T   T   T
  0.2611448695379341  0.6288462947433597  0.2698542215562023   T   T   T
  0.2412743496153341  0.6231876367170073  0.2386801419865092   T   T   T
  0.2016212013039483  0.5921870510966848  0.2368356374433785   T   T   T
  0.1865166772521986  0.5703371545520663  0.2056680255045056   T   T   T
  0.1627391638157033  0.5101874890690232  0.2038369859698622   T   T   T
  0.1568497227269867  0.4787059681798077  0.1726845615000971   T   T   T
  0.1559352289056227  0.4072171279228131  0.1708746982267482   T   T   T
  0.1610528772308181  0.3753686584232730  0.1397230625785904   T   T   T
  0.1833300374257358  0.3137038401195474  0.1379061919142069   T   T   T
  0.1980139647839926  0.2909727039539426  0.1067660853117991   T   T   T
  0.2368987089104161  0.2575223795739542  0.1049558292565098   T   T   T
  0.2567639869981049  0.2506927768619333  0.0738174984840623   T   T   T
  0.3006673921838789  0.2554274708450932  0.0720292467767940   T   T   T
  0.3197912089470172  0.2665069790489614  0.0408923460618120   T   T   T
  0.3556489215179096  0.3079588788980362  0.0390881978121338   T   T   T
  0.3683647008104537  0.3336395265843937  0.0079359367322266   T   T   T
  0.3855378184121634  0.3994743085928716  0.0061380034187811   T   T   T
  0.3689875483719530  0.5444454005235539  0.3960903225774105   T   T   T
  0.3559415941511728  0.5699079859871916  0.3652517487759848   T   T   T
  0.3198201383955588  0.6113473966013043  0.3633721259531552   T   T   T
  0.3009071001102654  0.6227721784003230  0.3322392004168301   T   T   T
  0.2569973472330747  0.6279863991682998  0.3303364220613448   T   T   T
  0.2372508590305815  0.6213772130740784  0.2991241758896943   T   T   T
  0.1982697383378536  0.5882330579406516  0.2972683585579277   T   T   T
  0.1836489896890759  0.5655683832763584  0.2660991535104810   T   T   T
  0.1612016979400496  0.5040499206514887  0.2642668815121449   T   T   T
  0.1560274731813489  0.4722467080204230  0.2331187470805199   T   T   T
  0.1566479604843570  0.4007453894484478  0.2313119535488715   T   T   T
  0.1624430401115776  0.3692024304106341  0.2001593381905390   T   T   T
  0.1859812629231765  0.3087999047841329  0.1983389394040395   T   T   T
  0.2011164928907229  0.2868812689264968  0.1671881222960158   T   T   T
  0.2406719303145633  0.2555838562947836  0.1653833368831391   T   T   T
  0.2606768889481967  0.2498807129419332  0.1342465941683292   T   T   T
  0.3044591606702282  0.2570825382072994  0.1324602959004024   T   T   T
  0.3233519130325010  0.2692731710105128  0.1013335172576098   T   T   T
  0.3582972032476672  0.3127275849449485  0.0995391573413904   T   T   T
  0.3704782810459533  0.3391261714905898  0.0683931860633078   T   T   T
  0.3862383556498596  0.4058849421772892  0.0666041097939972   T   T   T
  0.3881131899018969  0.4386807219420935  0.0354407752240536   T   T   T
  0.3799607061016432  0.5089494781685513  0.0336203099473545   T   T   T
  0.3659234457349991  0.5497917389896355  0.4566372454712364   T   T   T
  0.3523789369466716  0.5730333329048574  0.4257895564072603   T   T   T
  0.3155821817591115  0.6123502123930465  0.4237932964869311   T   T   T
  0.2966396641544908  0.6234522301533965  0.3926035145919232   T   T   T
  0.2527140406268508  0.6269749761975651  0.3907380446339435   T   T   T
  0.2331485760851094  0.6194586532009196  0.3595483951721385   T   T   T
  0.1948277807491726  0.5842078041337821  0.3576979770849728   T   T   T
  0.1808094599244360  0.5606289400863463  0.3265376564959822   T   T   T
  0.1597520345104311  0.4978396220086865  0.3247110172191743   T   T   T
  0.1553248349510209  0.4657388061544092  0.2935519258766378   T   T   T
  0.1574966274421442  0.3943402786263283  0.2917497643893454   T   T   T
  0.1639500180112488  0.3631201331810621  0.2605937798484373   T   T   T
  0.1887300884989905  0.3040367058751814  0.2587724690310747   T   T   T
  0.2043031752503117  0.2829399030186481  0.2276251205876260   T   T   T
  0.2444858612500647  0.2537825507938108  0.2258246712391858   T   T   T
  0.2645970441203214  0.2492282448756923  0.1946860861925303   T   T   T
  0.3081919498313664  0.2588911510962136  0.1928977563976364   T   T   T
  0.3268134977509479  0.2721944002063978  0.1617679067755602   T   T   T
  0.3607817769096192  0.3176412833825831  0.1599804041142286   T   T   T
  0.3724200046547991  0.3447172042145184  0.1288459112582832   T   T   T
  0.3867266230844395  0.4123468619749316  0.1270573684803497   T   T   T
  0.3879429414830566  0.4452249725675068  0.0959052118867506   T   T   T
  0.3783218741954122  0.5150031162443931  0.0940817991609275   T   T   T
  0.3641360885774885  0.5549507032365707  0.5172077250964404   T   T   T
  0.3494254395277930  0.5772437605478877  0.4856655686359740   T   T   T
  0.3118387150002626  0.6146980471153435  0.4840045412605716   T   T   T
  0.2924979043139093  0.6244247952953524  0.4529733702045338   T   T   T
  0.2484104156561566  0.6261352288696023  0.4511551063011652   T   T   T
  0.2290193934874616  0.6174016694623995  0.4200090449026186   T   T   T
  0.1915024500078684  0.5800304713298634  0.4181668306682340   T   T   T
  0.1780188440876100  0.5556052971994335  0.3869795074830116   T   T   T
  0.1584367196463964  0.4915984749941750  0.3851650796894504   T   T   T
  0.1547098187371624  0.4592504028424073  0.3539995521290378   T   T   T
  0.1584393639123879  0.3879912638113243  0.3521934445844621   T   T   T
  0.1655589429168317  0.3571447826883877  0.3210471514249207   T   T   T
  0.1915425117396719  0.2994205898783233  0.3192233986589452   T   T   T
  0.2075662122827120  0.2791920334631321  0.2880771449642217   T   T   T
  0.2483237469419071  0.2522575449235578  0.2862851125206441   T   T   T
  0.2685228058821445  0.2487898272959301  0.2551332243589602   T   T   T
  0.3118755502408556  0.2609399264022309  0.2533342212781915   T   T   T
  0.3302004832438593  0.2752566442025793  0.2222076766852169   T   T   T
  0.3631428345357285  0.3226953777309859  0.2204146103158763   T   T   T
  0.3741753564215508  0.3504389408232200  0.1892918036814285   T   T   T
  0.3870023341249312  0.4188401319436061  0.1874935651846688   T   T   T
  0.3875429305851971  0.4517704837743926  0.1563492032515513   T   T   T
  0.3764680319805623  0.5209625882501168  0.1545300469977484   T   T   T
  0.3610586561329489  0.5601660614114780  0.5775887699670244   T   T   T
  0.3470731747043074  0.5833840083926953  0.5462162111423754   T   T   T
  0.3085627960793316  0.6185851560761942  0.5444417046165445   T   T   T
  0.2886950732133193  0.6258784393576871  0.5133482920278397   T   T   T
  0.2447234085604620  0.6246132705326772  0.5115893416080729   T   T   T
  0.2252327328960959  0.6150172996670153  0.4804430844523070   T   T   T
  0.1885441712026866  0.5755045427687263  0.4786292749234186   T   T   T
  0.1754221983642879  0.5504819744048106  0.4474651795956046   T   T   T
  0.1572907654560493  0.4852557241795413  0.4456491231319050   T   T   T
  0.1542695928323561  0.4527299402952358  0.4144859346538408   T   T   T
  0.1595044380415693  0.3817225882818483  0.4126664488745033   T   T   T
  0.1672771312513859  0.3512792016892369  0.3815048469050596   T   T   T
  0.1944182079794268  0.2950200623285266  0.3796805509729599   T   T   T
  0.2108775524230448  0.2756601379863663  0.3485272916404873   T   T   T
  0.2522067708054520  0.2511178861233312  0.3467394901347036   T   T   T
  0.2724582166022512  0.2486894632701124  0.3155986955467817   T   T   T
  0.3155341202747531  0.2633616089406402  0.3137895558899642   T   T   T
  0.3335196543542587  0.2786364386502352  0.2826602151476300   T   T   T
  0.3653807780784541  0.3279442490383245  0.2808421172512873   T   T   T
  0.3757825607455730  0.3562932073666559  0.2497072464681959   T   T   T
  0.3870986142969655  0.4253667715893983  0.2478839472024063   T   T   T
  0.3869659389034090  0.4582952810388120  0.2167630005650865   T   T   T
  0.3744473199171587  0.5268594344227743  0.2149576458140745   T   T   T
  0.3583818666589941  0.5649984175350851  0.6379647386188008   T   T   T
  0.3438005283293983  0.5879577466787319  0.6068080757127593   T   T   T
  0.3048908579187867  0.6214243126423111  0.6049688277928378   T   T   T
  0.2850428638154463  0.6278488818953983  0.5737354061477374   T   T   T
  0.2410942698683521  0.6231873797069474  0.5720083268829449   T   T   T
  0.2218167677689241  0.6122476486108814  0.5409227375572755   T   T   T
  0.1859808124872133  0.5706753592097449  0.5391183012110925   T   T   T
  0.1732982932313578  0.5449002786090085  0.5079653030850927   T   T   T
  0.1565056286163648  0.4788334800428484  0.5061515710344257   T   T   T
  0.1540829679211946  0.4461671166737870  0.4749619069930169   T   T   T
  0.1608080448870095  0.3755168358109571  0.4731397820610642   T   T   T
  0.1691061489939304  0.3455218763734230  0.4419654195682221   T   T   T
  0.1974165062294423  0.2907782363167312  0.4401366426995486   T   T   T
  0.2142349838789513  0.2723534558625853  0.4089957604802438   T   T   T
  0.2561225052980909  0.2504089516563925  0.4071957832139780   T   T   T
  0.2764169460595870  0.2492258444027013  0.3760779622739994   T   T   T
  0.3190593393334721  0.2667507464075832  0.3742825119459900   T   T   T
  0.3367242630156455  0.2826410083918897  0.3430911286048861   T   T   T
  0.3674933626496005  0.3335940480086371  0.3412220886047093   T   T   T
  0.3773311003456968  0.3622860217866153  0.3100979279889732   T   T   T
  0.3871318974245930  0.4320198039341822  0.3082231547219693   T   T   T
  0.3862470364024930  0.4648689682830316  0.2771402134887057   T   T   T
  0.3723689761928514  0.5327161923244581  0.2753747703352887   T   T   T
  0.3558244081372227  0.5697155382000870  0.6983897912371921   T   T   T
  0.3406466067073713  0.5917795411670153  0.6672589415397641   T   T   T
  0.3011291149431061  0.6231754398108215  0.6654404502290456   T   T   T
  0.2811412522318387  0.6289847712638595  0.6342532031082552   T   T   T
  0.2373302454082551  0.6215943708655282  0.6324920558555324   T   T   T
  0.2184582282400045  0.6093309170712726  0.6013592751423953   T   T   T
  0.1835795579869887  0.5657253361206533  0.5995703949195340   T   T   T
  0.1713855904033439  0.5392928014089495  0.5684230581594684   T   T   T
  0.1558918397144822  0.4723728793679600  0.5666139632926639   T   T   T
  0.1540905978178586  0.4395882697416750  0.5354511658900755   T   T   T
  0.1622653305081825  0.3693247003546291  0.5336262115036509   T   T   T
  0.1712056466750217  0.3398342111019672  0.5024590035762707   T   T   T
  0.2006269165295332  0.2867219881395391  0.5006492514619045   T   T   T
  0.2177903852112646  0.2693365179126042  0.4694571963864829   T   T   T
  0.2600689557433010  0.2500323752256610  0.4676364772634683   T   T   T
  0.2803743279451238  0.2503663817124041  0.4364953732084501   T   T   T
  0.3224158749137958  0.2710334738122099  0.4346834454678506   T   T   T
  0.3396401328305852  0.2879189771436174  0.4035438334918178   T   T   T
  0.3692433549861247  0.3406901616417623  0.4016655914041981   T   T   T
  0.3787150339847633  0.3688960435966180  0.3704684870045775   T   T   T
  0.3873478890946270  0.4387719941554894  0.3684959930489132   T   T   T
  0.3855543668154936  0.4715510106739623  0.3374124272355528   T   T   T
  0.3532068551276578  0.5743262839404001  0.7588244604253173   T   T   T
  0.3375531254594121  0.5954713784031155  0.7276917847503835   T   T   T
  0.2973562805040400  0.6245663190389009  0.7258990993829452   T   T   T
  0.2772243058699934  0.6293099042972758  0.6947542035316888   T   T   T
  0.2336285875477279  0.6195390102482632  0.6929645836947513   T   T   T
  0.2150280872098331  0.6062996989185604  0.6618051377467944   T   T   T
  0.1811298049531916  0.5606935899390944  0.6600133652184118   T   T   T
  0.1695524092529224  0.5336085968154470  0.6288691889110739   T   T   T
  0.1553730413976823  0.4659078461447461  0.6270637292966528   T   T   T
  0.1542726597296880  0.4330135817942253  0.5959102844239934   T   T   T
  0.1638953682008835  0.3632613845955811  0.5940838890273046   T   T   T
  0.1734537178357902  0.3342684927340997  0.5629131810045501   T   T   T
  0.2040297742346988  0.2828574344341594  0.5610995434696363   T   T   T
  0.2214891012505711  0.2663557191767544  0.5299179899433545   T   T   T
  0.2642043754261526  0.2491838980981806  0.5280760891079557   T   T   T
  0.2844134195304590  0.2509578202429832  0.4969083746047159   T   T   T
  0.3259982718939444  0.2738787140424451  0.4950827750142415   T   T   T
  0.3427277004814625  0.2933514190342823  0.4639645054659485   T   T   T
  0.3713628208829013  0.3471285689654653  0.4621767417325868   T   T   T
  0.3800993930673090  0.3770815662428538  0.4308168929874375   T   T   T
  0.3897551441684220  0.4457347569273134  0.4285346727187518   T   T   T
  0.3863166876834067  0.4781417660974766  0.3977251441419871   T   T   T
  0.3504503993521647  0.5787965856233712  0.8192676128816249   T   T   T
  0.3343639181416009  0.5990143383836282  0.7881318900957598   T   T   T
  0.2935545085669404  0.6257545740640676  0.7863483808763683   T   T   T
  0.2733323070089676  0.6293274614128430  0.7552113157817524   T   T   T
  0.2299754465288170  0.6171704607365621  0.7534101811370441   T   T   T
  0.2116498041205295  0.6029817798916056  0.7222593800166730   T   T   T
  0.1787027978585002  0.5555594272321671  0.7204610160454652   T   T   T
  0.1677314272259025  0.5278379805712159  0.6893117199872910   T   T   T
  0.1549315586995670  0.4594348604966496  0.6875018529627587   T   T   T
  0.1545136475869671  0.4264973359170049  0.6563469524729996   T   T   T
  0.1656031656324087  0.3573082305998528  0.6545238679996839   T   T   T
  0.1758038203090380  0.3288621801636317  0.6233686726673444   T   T   T
  0.2074866903004823  0.2792374798764626  0.6215593896802807   T   T   T
  0.2253161384875563  0.2637069760388810  0.5903874616508924   T   T   T
  0.2683335600895590  0.2487240354060159  0.5885411742829102   T   T   T
  0.2884856434223406  0.2511930826686514  0.5573449621582064   T   T   T
  0.3297601340433027  0.2758919683841183  0.5555109439872117   T   T   T
  0.3458955928335500  0.2959932288002075  0.5243678023297969   T   T   T
  0.3731041311084369  0.3520286806710423  0.5226325126722774   T   T   T
  0.3813479843167785  0.3831426311637665  0.4915981041442365   T   T   T
  0.3904542368155227  0.4525222859952506  0.4903100913476575   T   T   T
  0.3950702950497562  0.4897341440922982  0.4583211151314400   T   T   T
  0.3475532584356383  0.5831244192542554  0.8797226001840325   T   T   T
  0.3310668994396587  0.6023991508463485  0.8485753816960111   T   T   T
  0.2897065880566000  0.6267935372907129  0.8467883112942520   T   T   T
  0.2694356089805330  0.6291945953290388  0.8156511393913267   T   T   T
  0.2263550164063936  0.6146383690191467  0.8138427041256299   T   T   T
  0.2083329107951053  0.5994331370745533  0.7827037168318117   T   T   T
  0.1763691632489291  0.5502911685671238  0.7809014337497391   T   T   T
  0.1659751837029734  0.5219993600309485  0.7497467274677420   T   T   T
  0.1545948704241758  0.4529317256708369  0.7479329864832505   T   T   T
  0.1548629840426907  0.4199949381969941  0.7167854930320505   T   T   T
  0.1674147022538774  0.3514618959603549  0.7149689766057815   T   T   T
  0.1782443194565984  0.3236237553851677  0.6838152834337312   T   T   T
  0.2109976887123286  0.2758893298789448  0.6820081302600191   T   T   T
  0.2291544249280194  0.2613565565460718  0.6508409796837648   T   T   T
  0.2724634308893540  0.2487727123844324  0.6489976227278059   T   T   T
  0.2925631573081377  0.2520813784144388  0.6178179251693728   T   T   T
  0.3333969782376889  0.2787123857258207  0.6159990077195577   T   T   T
  0.3493182047622066  0.2990912047422371  0.5848380159956297   T   T   T
  0.3755154551977510  0.3564585873061278  0.5831116735097243   T   T   T
  0.3826050427389164  0.3875879123185644  0.5520198804407564   T   T   T
  0.3867521193571540  0.4586197340997042  0.5503709678588889   T   T   T
  0.3843370617575130  0.4912110098626249  0.5192589505194529   T   T   T
  0.3445023814641874  0.5872801144364093  0.9401800371269668   T   T   T
  0.3276440057720998  0.6056122373327667  0.9090229983214657   T   T   T
  0.2857882245939694  0.6276728583429931  0.9072248645521284   T   T   T
  0.2655024518853779  0.6289112392251648  0.8760833611020756   T   T   T
  0.2227580871536551  0.6119651593179934  0.8742699552403101   T   T   T
  0.2050794435352843  0.5957502848380456  0.8431303401120932   T   T   T
  0.1741453492657158  0.5449053788342603  0.8413283523327287   T   T   T
  0.1643274624755504  0.5160636262370197  0.8101813446461400   T   T   T
  0.1543901597327879  0.4464046960268094  0.8083633512205350   T   T   T
  0.1553541007014758  0.4135024474764047  0.7772180474016909   T   T   T
  0.1693631470669968  0.3457259257983262  0.7754077625887844   T   T   T
  0.1807791894537947  0.3185272133730276  0.7442527335829330   T   T   T
  0.2145678941979789  0.2727307064969060  0.7424423443283702   T   T   T
  0.2330361389838309  0.2592659180552586  0.7112865887941393   T   T   T
  0.2765919209955967  0.2491613109200673  0.7094484995343761   T   T   T
  0.2966178223132830  0.2535429464767476  0.6782727197543451   T   T   T
  0.3368877427214326  0.2823205836961695  0.6764489632199741   T   T   T
  0.3524197546697228  0.3033185854784032  0.6452700629518547   T   T   T
  0.3773564613780091  0.3622218563283703  0.6434799145998165   T   T   T
  0.3838229614707167  0.3934697494124139  0.6123685918960339   T   T   T
  0.3861384424616553  0.4648834341329991  0.6106199867340183   T   T   T
  0.3817175385008282  0.4972089595888253  0.5795635740290904   T   T   T
  0.3413110901376067  0.5912723466364379  0.0006386250911653   T   T   T
  0.3241042600989303  0.6086481525177797  0.9694736007270967   T   T   T
  0.2818087563860875  0.6283561682788580  0.9676608590937562   T   T   T
  0.2615328353678018  0.6284536372051267  0.9365115758374777   T   T   T
  0.2191712436747139  0.6091347420917779  0.9346941022623821   T   T   T
  0.2018654956342222  0.5919399574208084  0.9035509003718929   T   T   T
  0.1720159521200854  0.5394064524404484  0.9017480557809249   T   T   T
  0.1628190508927612  0.5100357848629790  0.8706071903930065   T   T   T
  0.1543482068092185  0.4398775003692427  0.8687865992667332   T   T   T
  0.1559970973552960  0.4070449791740794  0.8376419234506645   T   T   T
  0.1714521045129531  0.3401049389436559  0.8358360785295060   T   T   T
  0.1834409360275729  0.3135719074209143  0.8046857688100121   T   T   T
  0.2182157771234852  0.2697635692774222  0.8028718707758822   T   T   T
  0.2369651945747026  0.2573999383624274  0.7717169713156524   T   T   T
  0.2807108204677774  0.2497826434087374  0.7698836048163064   T   T   T
  0.3006307188493959  0.2552859048618893  0.7387105246419738   T   T   T
  0.3402879223427103  0.2862368782277908  0.7368778022182092   T   T   T
  0.3553935464248723  0.3080189959045279  0.7057055012487476   T   T   T
  0.3791124130780793  0.3682453347894180  0.7038786385004782   T   T   T
  0.3848683375744062  0.3997938296549343  0.6727390545339640   T   T   T
  0.3857280389431204  0.4712702237807734  0.6709541112878451   T   T   T
  0.3805146696641208  0.5032132158210222  0.6398396529112242   T   T   T
  0.2575259933273364  0.6277836311471113  0.9969381083684526   T   T   T
  0.2155966941131904  0.6061076429453742  0.9951180843264266   T   T   T
  0.1986899054147898  0.5879599124195251  0.9639698695723534   T   T   T
  0.1699675482787574  0.5337964976461618  0.9621624383476238   T   T   T
  0.1614144349718132  0.5039294131452298  0.9310223047408662   T   T   T
  0.1544374216462272  0.4333415642568365  0.9292007608335611   T   T   T
  0.1567911702324771  0.4006287508799833  0.8980588934623301   T   T   T
  0.1736669930330038  0.3346002446120567  0.8962557708540531   T   T   T
  0.1862255930316840  0.3087746688460608  0.8651092842838474   T   T   T
  0.2219180225818248  0.2669689598664951  0.8632900004788731   T   T   T
  0.2409331284234082  0.2557064657185394  0.8321375771820759   T   T   T
  0.2848146048711621  0.2505620692795508  0.8303108726116382   T   T   T
  0.3046117443168225  0.2572007816835257  0.7991427925944794   T   T   T
  0.3436120731338950  0.2902955047340339  0.7973087178957728   T   T   T
  0.3582617423644518  0.3129083649864255  0.7661378290453114   T   T   T
  0.3807550865479412  0.3743576588265206  0.7643002830553580   T   T   T
  0.3858711016877211  0.4061869250432868  0.7331402133934015   T   T   T
  0.3852491770434428  0.4776862023250400  0.7313434205350301   T   T   T
  0.3793471097605373  0.5092797823579327  0.7002165104323274   T   T   T
  0.1601032204762801  0.4977422347879251  0.9914313527007541   T   T   T
  0.1546321258746043  0.4267994420774139  0.9896103287879069   T   T   T
  0.1576977254790399  0.3942406229379293  0.9584706576718804   T   T   T
  0.1759664852526946  0.3291969176523714  0.9566668056560617   T   T   T
  0.1890858376789055  0.3041007483340334  0.9255244599810011   T   T   T
  0.2256483395279446  0.2643287607192409  0.9237035713106645   T   T   T
  0.2449091236288071  0.2541642998728822  0.8925554820344657   T   T   T
  0.2888771689070493  0.2514926165389575  0.8907386048979598   T   T   T
  0.3085358119742085  0.2592647142544268  0.8595759753128676   T   T   T
  0.3468280802390738  0.2944843377745722  0.8577462895910571   T   T   T
  0.3610190616908545  0.3179041546503853  0.8265758425631656   T   T   T
  0.3822404253998208  0.3805418161684246  0.8247413464491652   T   T   T
  0.3867237778109232  0.4126314671637627  0.7935759654033860   T   T   T
  0.3845956241546334  0.4840562086701945  0.7917745056168561   T   T   T
  0.3780397971040460  0.5152967745175130  0.7606330596888738   T   T   T
  0.1920086578761973  0.2995835075485015  0.9859361183095725   T   T   T
  0.2293939885278171  0.2618814031878700  0.9841168482563674   T   T   T
  0.2488781662771301  0.2528064768463262  0.9529749555006986   T   T   T
  0.2928803984075046  0.2526000058664621  0.9511704116294445   T   T   T
  0.3123811452751454  0.2614975407880991  0.9200132969799434   T   T   T
  0.3499082454274561  0.2988287778873839  0.9181896712381211   T   T   T
  0.3636261039401413  0.3230224704286234  0.8870238145919139   T   T   T
  0.3835249585406471  0.3867956298825242  0.8852004158076374   T   T   T
  0.3873677059510841  0.4191159185630930  0.8540299504237954   T   T   T
  0.3837270822120835  0.4903777240835804  0.8522258878377417   T   T   T
  0.3765478745826023  0.5212191922805978  0.8210725983763085   T   T   T
  0.3161430855142276  0.2638956020959741  0.9804526708164358   T   T   T
  0.3528579766313221  0.3033105032341456  0.9786384033793094   T   T   T
  0.3660776258112458  0.3282660321749372  0.9474779836764522   T   T   T
  0.3846298276455582  0.3931050842725396  0.9456679287745280   T   T   T
  0.3878155157026659  0.4256221068176831  0.9144967403434794   T   T   T
  0.3826722330612178  0.4966403955798950  0.9126879795322049   T   T   T
  0.3748691858952887  0.5270626815021646  0.8815290424471445   T   T   T
  0.3880673739793103  0.4321461591379194  0.9749683386022882   T   T   T
  0.3814138562154278  0.5028287647669683  0.9731540842030697   T   T   T
  0.3730015909563672  0.5327941746119323  0.9419900547330369   T   T   T
  0.4793120177492519  0.4339184193450392  0.4995776029637315   T   T   T
  0.4868589635236179  0.3879406690240808  0.4721998261905010   T   T   T
  0.4859265642931008  0.5053471221644142  0.4934944753948384   T   T   T
  0.4271867358250244  0.5104157976721588  0.4575464816876703   T   T   T
 
  0.00000000E+00  0.00000000E+00  0.00000000E+00
  0.00000000E+00  0.00000000E+00  0.00000000E+00
  0.00000000E+00  0.00000000E+00  0.00000000E+00
  0.00000000E+00  0.00000000E+00  0.00000000E+00
  0.00000000E+00  0.00000000E+00  0.00000000E+00
  0.00000000E+00  0.00000000E+00  0.00000000E+00
  0.00000000E+00  0.00000000E+00  0.00000000E+00
  0.00000000E+00  0.00000000E+00  0.00000000E+00
  0.00000000E+00  0.00000000E+00  0.00000000E+00
  0.00000000E+00  0.00000000E+00  0.00000000E+00
  0.00000000E+00  0.00000000E+00  0.00000000E+00
  0.00000000E+00  0.00000000E+00  0.00000000E+00
  0.00000000E+00  0.00000000E+00  0.00000000E+00
  0.00000000E+00  0.00000000E+00  0.00000000E+00
  0.00000000E+00  0.00000000E+00  0.00000000E+00
  0.00000000E+00  0.00000000E+00  0.00000000E+00
  0.00000000E+00  0.00000000E+00  0.00000000E+00
  0.00000000E+00  0.00000000E+00  0.00000000E+00
  0.00000000E+00  0.00000000E+00  0.00000000E+00
  0.00000000E+00  0.00000000E+00  0.00000000E+00
  0.00000000E+00  0.00000000E+00  0.00000000E+00
  0.00000000E+00  0.00000000E+00  0.00000000E+00
  0.00000000E+00  0.00000000E+00  0.00000000E+00
  0.00000000E+00  0.00000000E+00  0.00000000E+00
  0.00000000E+00  0.00000000E+00  0.00000000E+00
  0.00000000E+00  0.00000000E+00  0.00000000E+00
  0.00000000E+00  0.00000000E+00  0.00000000E+00
  0.00000000E+00  0.00000000E+00  0.00000000E+00
  0.00000000E+00  0.00000000E+00  0.00000000E+00
  0.00000000E+00  0.00000000E+00  0.00000000E+00
  0.00000000E+00  0.00000000E+00  0.00000000E+00
  0.00000000E+00  0.00000000E+00  0.00000000E+00
  0.00000000E+00  0.00000000E+00  0.00000000E+00
  0.00000000E+00  0.00000000E+00  0.00000000E+00
  0.00000000E+00  0.00000000E+00  0.00000000E+00
  0.00000000E+00  0.00000000E+00  0.00000000E+00
  0.00000000E+00  0.00000000E+00  0.00000000E+00
  0.00000000E+00  0.00000000E+00  0.00000000E+00
  0.00000000E+00  0.00000000E+00  0.00000000E+00
  0.00000000E+00  0.00000000E+00  0.00000000E+00
  0.00000000E+00  0.00000000E+00  0.00000000E+00
  0.00000000E+00  0.00000000E+00  0.00000000E+00
  0.00000000E+00  0.00000000E+00  0.00000000E+00
  0.00000000E+00  0.00000000E+00  0.00000000E+00
  0.00000000E+00  0.00000000E+00  0.00000000E+00
  0.00000000E+00  0.00000000E+00  0.00000000E+00
  0.00000000E+00  0.00000000E+00  0.00000000E+00
  0.00000000E+00  0.00000000E+00  0.00000000E+00
  0.00000000E+00  0.00000000E+00  0.00000000E+00
  0.00000000E+00  0.00000000E+00  0.00000000E+00
  0.00000000E+00  0.00000000E+00  0.00000000E+00
  0.00000000E+00  0.00000000E+00  0.00000000E+00
  0.00000000E+00  0.00000000E+00  0.00000000E+00
  0.00000000E+00  0.00000000E+00  0.00000000E+00
  0.00000000E+00  0.00000000E+00  0.00000000E+00
  0.00000000E+00  0.00000000E+00  0.00000000E+00