 C  S  O  H                             
    1.000000000000000     
    32.3722991942999982    0.0000000000000000    0.0000000000000000
     0.0000000000000000   19.9214134216000005    0.0000000000000000
     0.0000000000000000    0.0000000000000000   40.4480476378999967
   C    S    O    H 
   364     1     2     1
Selective dynamics
Direct
  0.3708173131168309  0.5384652127032169  0.0024474716911510   F   F   F
  0.3685881613291779  0.5439874390341637  0.0628972004698466   F   F   F
  0.3378653038968020  0.5951707057938321  0.0610845675976794   F   F   F
  0.3203253664917455  0.6115590635247731  0.0299171283213576   F   F   F
  0.2776383350480474  0.6288856524939785  0.0280935455971262   F   F   F
  0.3662112752811592  0.5494069836640314  0.1233354554112955   F   F   F
  0.3344334578199131  0.5988729468339389  0.1215264487260682   F   F   F
  0.3165762017572456  0.6142602890728652  0.0903599130276241   F   F   F
  0.2735440559615388  0.6291905604676957  0.0885273260802831   F   F   F
  0.2533603374048851  0.6269725331013036  0.0573672157487545   F   F   F
  0.2119249050645820  0.6029394008697496  0.0555483269274328   F   F   F
  0.1954418711148250  0.5838201463379045  0.0243917238230765   F   F   F
  0.1679120700663289  0.5280481550812079  0.0225779554385963   F   F   F
  0.3636864013076482  0.5547097636008417  0.1837700769665369   F   F   F
  0.3309070318295271  0.6024206561627679  0.1819719536711059   F   F   F
  0.3127424703123137  0.6167831247223055  0.1508019534838278   F   F   F
  0.2694315052289065  0.6293050984654313  0.1489691579420894   F   F   F
  0.2493167599032558  0.6259352557124069  0.1178002844875300   F   F   F
  0.2084276643795475  0.5995453536452389  0.1159799833525975   F   F   F
  0.1923740159961978  0.5795096473895868  0.0848222948925810   F   F   F
  0.1660610145002147  0.5221990461332013  0.0829996889505877   F   F   F
  0.1588265424662953  0.4914520429614213  0.0518532290000228   F   F   F
  0.1548856841747883  0.4202384612846982  0.0500334624264411   F   F   F
  0.1586515036490842  0.3878750783128281  0.0188875298587760   F   F   F
  0.1782873943679748  0.3238939994922825  0.0170803451242563   F   F   F
  0.3610828923163459  0.5599001618707676  0.2441870070454340   F   F   F
  0.3273392059178136  0.6057377825564196  0.2424149510241756   F   F   F
  0.3088689557911821  0.6191141796424788  0.2112520611993005   F   F   F
  0.2653020507533960  0.6291601850351590  0.2094188118209444   F   F   F
  0.2452843689933892  0.6246883682668851  0.1782516364728110   F   F   F
  0.2049815294631064  0.5959512022818889  0.1764209431334584   F   F   F
  0.1893846254721340  0.5750150633017765  0.1452604857194557   F   F   F
  0.1643214491898300  0.5162446263816312  0.1434256507598564   F   F   F
  0.1577667919079972  0.4851043981724104  0.1122744479970164   F   F   F
  0.1553384370134910  0.4137177288307188  0.1104570878016979   F   F   F
  0.1597853922258453  0.3815894221252332  0.0793058668201913   F   F   F
  0.1807515859215692  0.3187303885122227  0.0774954483509546   F   F   F
  0.1949215776494310  0.2951674337924401  0.0463550682358833   F   F   F
  0.2330793231388910  0.2595576475924014  0.0445386674930378   F   F   F
  0.2527663134180863  0.2516088247888120  0.0133980124401567   F   F   F
  0.2967439920481796  0.2538792410008625  0.0115994422354763   F   F   F
  0.3707751722834292  0.5385886500257256  0.3356910078827817   F   F   F
  0.3586105219104637  0.5650466116051486  0.3046188828057299   F   F   F
  0.3237502055033818  0.6087800360642157  0.3028603136163804   F   F   F
  0.3049875786477337  0.6211265712468929  0.2717483636317918   F   F   F
  0.2611824949067283  0.6286073427096527  0.2698954986685462   F   F   F
  0.2412772114504621  0.6230718793749708  0.2387222193059648   F   F   F
  0.2016126071173768  0.5921084656694929  0.2368701806538949   F   F   F
  0.1864845349500363  0.5703198029258595  0.2056942726218259   F   F   F
  0.1627032474684657  0.5101739620806337  0.2038489550590661   F   F   F
  0.1568215128634963  0.4786949749618035  0.1726945885162899   F   F   F
  0.1559135142123576  0.4072053496030012  0.1708806312299219   F   F   F
  0.1610346938540076  0.3753537656711839  0.1397319953056086   F   F   F
  0.1833011262094842  0.3136794235563020  0.1379183496566452   F   F   F
  0.1979733055563634  0.2909357167050335  0.1067769880450828   F   F   F
  0.2368515526393808  0.2574635316801226  0.1049673325295538   F   F   F
  0.2567070052761082  0.2506316289452415  0.0738235898222707   F   F   F
  0.3006096655423707  0.2553802986703854  0.0720302556271840   F   F   F
  0.3197245606287880  0.2664793170992577  0.0408899268404536   F   F   F
  0.3555657846509874  0.3079675023809015  0.0390804863516710   F   F   F
  0.3682696374252534  0.3336667132807968  0.0079302868769643   F   F   F
  0.3854206096185824  0.3995166899565209  0.0061307199104759   F   F   F
  0.3694663100604687  0.5444427276628007  0.3960658494951327   F   F   F
  0.3562693182961184  0.5698051279567240  0.3652365486204925   F   F   F
  0.3199995351914856  0.6109114648310070  0.3633814325363821   F   F   F
  0.3010224051880449  0.6223345658456712  0.3322678539955300   F   F   F
  0.2571070237476351  0.6274516976616209  0.3303801702304343   F   F   F
  0.2373213159054928  0.6210195208534538  0.2991729685284453   F   F   F
  0.1982970987105272  0.5880067991091801  0.2973046777161405   F   F   F
  0.1836339055987981  0.5654678088332048  0.2661264226034381   F   F   F
  0.1611256140852837  0.5040093410264040  0.2642737800921125   F   F   F
  0.1559654558230402  0.4722238086454497  0.2331211638875257   F   F   F
  0.1565811183035530  0.4007246953454424  0.2313095360561054   F   F   F
  0.1624083123469265  0.3691864399336483  0.2001627408172680   F   F   F
  0.1859531722398100  0.3087880565082231  0.1983513848812977   F   F   F
  0.2010885796789361  0.2868581107148914  0.1672036337419799   F   F   F
  0.2406433443997135  0.2555547397799555  0.1654037615585155   F   F   F
  0.2606359784980032  0.2498284793382829  0.1342602808331079   F   F   F
  0.3044172611800705  0.2570468412991827  0.1324663622377460   F   F   F
  0.3232960083342009  0.2692409331530117  0.1013321990370219   F   F   F
  0.3582221424814384  0.3127349277610265  0.0995267999220368   F   F   F
  0.3703860140561044  0.3391496357238178  0.0683805181612398   F   F   F
  0.3861192398780104  0.4059232741222633  0.0665867093660039   F   F   F
  0.3879864295944977  0.4387263610538768  0.0354287294055731   F   F   F
  0.3798292473162245  0.5089931030846241  0.0336097506545239   F   F   F
  0.3664459190463227  0.5497459912207475  0.4566443288566896   F   F   F
  0.3527827658949954  0.5728347976596818  0.4257905254306570   F   F   F
  0.3158104114604919  0.6117161383869868  0.4238009454622608   F   F   F
  0.2968123250055614  0.6227482453081218  0.3926266438091409   F   F   F
  0.2528834435347693  0.6261622161459260  0.3907699121741436   F   F   F
  0.2332796891404400  0.6188318247392574  0.3595889459450248   F   F   F
  0.1948741818947604  0.5838329307517426  0.3577268293471764   F   F   F
  0.1807873593653468  0.5604257036110341  0.3265585875563239   F   F   F
  0.1595886733928157  0.4977632530172560  0.3247106692970111   F   F   F
  0.1551734734849971  0.4656956584141386  0.2935459027732075   F   F   F
  0.1573336013527215  0.3942946231173495  0.2917397450035097   F   F   F
  0.1638557942244287  0.3630927944101592  0.2605907997508143   F   F   F
  0.1886841787236362  0.3040619181889661  0.2587844333093094   F   F   F
  0.2042816262014159  0.2829662259751520  0.2276443333551305   F   F   F
  0.2444786117754584  0.2538597259234150  0.2258547374265183   F   F   F
  0.2645771131676834  0.2492517165195908  0.1947106846227729   F   F   F
  0.3081713861031316  0.2589305033292549  0.1929125920283994   F   F   F
  0.3267765992415737  0.2721953245566475  0.1617700946332997   F   F   F
  0.3607300190128656  0.3176656995265356  0.1599636020435613   F   F   F
  0.3723426205680916  0.3447438840652430  0.1288248149319335   F   F   F
  0.3866241932596207  0.4123835149355451  0.1270267062802765   F   F   F
  0.3878198511584802  0.4452672388905705  0.0958806412767932   F   F   F
  0.3781961240230943  0.5150433199747185  0.0940606504054712   F   F   F
  0.3645689650327371  0.5549089430398656  0.5172360468264088   F   F   F
  0.3498079793100399  0.5770108900121944  0.4856710150439238   F   F   F
  0.3120562890662819  0.6140287570576339  0.4840033839724842   F   F   F
  0.2926888185571029  0.6235821378254947  0.4529782204522632   F   F   F
  0.2486030548715059  0.6252032745775125  0.4511610920088784   F   F   F
  0.2291881060528113  0.6165882664470139  0.4200267617426646   F   F   F
  0.1915453658626326  0.5795659964220884  0.4181797621360785   F   F   F
  0.1779680989844840  0.5553208709119498  0.3869902735929719   F   F   F
  0.1581729271161791  0.4914878749221146  0.3851620557517659   F   F   F
  0.1544357598365010  0.4591776664123149  0.3539888941577293   F   F   F
  0.1581555490070497  0.3879178250382247  0.3521805997383327   F   F   F
  0.1653714123869598  0.3571042744037587  0.3210396595778993   F   F   F
  0.1914677327602680  0.2995126718813833  0.3192335128364962   F   F   F
  0.2075433617493930  0.2793191402414097  0.2880998274493576   F   F   F
  0.2483389260991714  0.2525315781273490  0.2863224219209526   F   F   F
  0.2685279971847906  0.2489861258603842  0.2551674956655789   F   F   F
  0.3118793595566081  0.2611397769503049  0.2533579885448038   F   F   F
  0.3301913805844813  0.2753547815696163  0.2222133647519934   F   F   F
  0.3631454969188984  0.3227647405985997  0.2203935947649991   F   F   F
  0.3741455254924845  0.3504815860895557  0.1892611804432715   F   F   F
  0.3869669519823081  0.4188820705860938  0.1874475117157270   F   F   F
  0.3874604894620463  0.4518138294449993  0.1563091693066561   F   F   F
  0.3763833368601246  0.5210011136744891  0.1544954283812392   F   F   F
  0.3613549415580634  0.5601336712020240  0.5776260390634244   F   F   F
  0.3473592718201772  0.5832027145714431  0.5462309037515610   F   F   F
  0.3087282974613560  0.6180432890736914  0.5444319976474621   F   F   F
  0.2888658002627701  0.6251082313345260  0.5133308393022528   F   F   F
  0.2448988883621631  0.6237711049582132  0.5115684113071283   F   F   F
  0.2253981276557219  0.6142073123091394  0.4804338469084070   F   F   F
  0.1885669406904140  0.5750554421548042  0.4786248462246225   F   F   F
  0.1753371056488585  0.5501780046857800  0.4474662056701696   F   F   F
  0.1569568007656727  0.4851367284804396  0.4456474869781631   F   F   F
  0.1538899189647354  0.4526363990778848  0.4144781547779058   F   F   F
  0.1591232109996860  0.3816261485091439  0.4126587067356929   F   F   F
  0.1669984530809870  0.3512328766375052  0.3814997707977779   F   F   F
  0.1943188008655324  0.2952009790297466  0.3796886507126856   F   F   F
  0.2108525310424077  0.2759306301523551  0.3485484640347732   F   F   F
  0.2522388142042532  0.2516471251254378  0.3467743345698482   F   F   F
  0.2724859950925810  0.2491432806879736  0.3156354637999727   F   F   F
  0.3155645123368848  0.2637845819345035  0.3138164362604718   F   F   F
  0.3335496128717269  0.2788923555742650  0.2826684602278730   F   F   F
  0.3654779669384334  0.3280788387079487  0.2808203366265830   F   F   F
  0.3758523621542873  0.3563658742140413  0.2496680788403888   F   F   F
  0.3872026778518653  0.4254196492482030  0.2478259269738365   F   F   F
  0.3869903346060900  0.4583434250205357  0.2167080023518409   F   F   F
  0.3744570338116314  0.5268993067329032  0.2149111997478959   F   F   F
  0.3585191092241568  0.5649828562773554  0.6380022009397718   F   F   F
  0.3439622220770579  0.5878353631846827  0.6068233511136275   F   F   F
  0.3049820949308313  0.6210739610547642  0.6049525893207721   F   F   F
  0.2851600161067803  0.6272873774835235  0.5737042028301595   F   F   F
  0.2412146366160740  0.6225834161287529  0.5719698884373712   F   F   F
  0.2219471295985373  0.6115972500641694  0.5408913991101890   F   F   F
  0.1859819791459665  0.5703260389689704  0.5390999184668978   F   F   F
  0.1731940856852280  0.5446418279205034  0.5079594963725649   F   F   F
  0.1561692026185587  0.4787274612493521  0.5061549085243772   F   F   F
  0.1536698594142522  0.4460701533672758  0.4749646895307488   F   F   F
  0.1604202663825117  0.3754249165818482  0.4731429530991023   F   F   F
  0.1687865121405631  0.3454829985847423  0.4419644047200101   F   F   F
  0.1973121638785999  0.2910358969024825  0.4401397972706894   F   F   F
  0.2142107506234157  0.2727640011569001  0.4090087031639968   F   F   F
  0.2561643097277115  0.2511661052696373  0.4072159595588036   F   F   F
  0.2764599851146433  0.2499508918117003  0.3761071096951165   F   F   F
  0.3191131007554034  0.2673923363208437  0.3743028692187889   F   F   F
  0.3367991556981060  0.2830794967435134  0.3430996114013939   F   F   F
  0.3677100449117806  0.3338032005387651  0.3412037704620189   F   F   F
  0.3775496780496230  0.3623942059342872  0.3100565383237976   F   F   F
  0.3874437181331837  0.4320903298690911  0.3081632737860408   F   F   F
  0.3864528917477225  0.4649300582948551  0.2770774902235034   F   F   F
  0.3725300543177495  0.5327527777879636  0.2753241699856925   F   F   F
  0.3558316010428947  0.5697310139655050  0.6984196949455556   F   F   F
  0.3406904325396809  0.5917312767985679  0.6672716693297278   F   F   F
  0.3011461724298273  0.6230290548424756  0.6654227323045393   F   F   F
  0.2811909217458091  0.6286821443857836  0.6342164287229453   F   F   F
  0.2373819850578232  0.6212773528699008  0.6324475727290240   F   F   F
  0.2185300700127013  0.6089328735726594  0.6013173292585596   F   F   F
  0.1835618894894537  0.5655146526960266  0.5995453706519105   F   F   F
  0.1712883066778691  0.5391168770938857  0.5684137816681301   F   F   F
  0.1556257719750240  0.4722970955146031  0.5666207081671568   F   F   F
  0.1537298579406618  0.4395053901602083  0.5354622393103766   F   F   F
  0.1619427271524119  0.3692536490290628  0.5336354295115019   F   F   F
  0.1709218352692748  0.3398182838263716  0.5024621946825357   F   F   F
  0.2005464119969180  0.2870058615052616  0.5006459670704846   F   F   F
  0.2177764155887963  0.2698191612460401  0.4694560937008016   F   F   F
  0.2601119988058068  0.2508746719924133  0.4676359032082461   F   F   F
  0.2804220158746365  0.2512602341634299  0.4365056194128336   F   F   F
  0.3224830017776918  0.2717979299522655  0.4346912054096886   F   F   F
  0.3397568211666102  0.2885025267768061  0.4035495355549359   F   F   F
  0.3695692393315596  0.3409600990913266  0.4016562653161384   F   F   F
  0.3790968769916129  0.3690397232595579  0.3704384426786249   F   F   F
  0.3878929862905779  0.4388704716689696  0.3684519323968158   F   F   F
  0.3859897261024231  0.4716311656724049  0.3373578811896974   F   F   F
  0.3531316041238360  0.5743708634944811  0.7588460042053864   F   F   F
  0.3375096678103562  0.5954948396344848  0.7277020756383509   F   F   F
  0.2973117497145608  0.6245761232755911  0.7258851626280943   F   F   F
  0.2772091818997978  0.6292309510784059  0.6947238225909159   F   F   F
  0.2336141001850669  0.6194512596732324  0.6929263431280567   F   F   F
  0.2150389790781516  0.6061338559511410  0.6617650963544176   F   F   F
  0.1811006624009981  0.5606038925172609  0.6599889573282914   F   F   F
  0.1694781192627190  0.5335167825436640  0.6288572365164431   F   F   F
  0.1552094874844882  0.4658638104538255  0.6270688322519641   F   F   F
  0.1540271471088656  0.4329566470673601  0.5959231457695768   F   F   F
  0.1636861502113840  0.3632166185041124  0.5940928510931553   F   F   F
  0.1732520115000500  0.3342689818650200  0.5629164850342622   F   F   F
  0.2039832050461307  0.2831064055748808  0.5610876438446863   F   F   F
  0.2214916261744202  0.2668071160131402  0.5299011194058386   F   F   F
  0.2642461608461256  0.2499263135042862  0.5280557945004175   F   F   F
  0.2844586157238019  0.2518252097206075  0.4968965032009965   F   F   F
  0.3260712656968852  0.2745988550045835  0.4950772347311377   F   F   F
  0.3428643405992266  0.2939584276758135  0.4639667719810200   F   F   F
  0.3717274192112520  0.3474249232068519  0.4621813755218166   F   F   F
  0.3805847434708932  0.3772637196851829  0.4308100132827978   F   F   F
  0.3904421985715392  0.4458506106820909  0.4285218822979131   F   F   F
  0.3869630169328860  0.4782443772298128  0.3976925180449534   F   F   F
  0.3503379962571179  0.5788571439134191  0.8192807259302958   F   F   F
  0.3342705441253455  0.5990780454761422  0.7881400964620437   F   F   F
  0.2934671895627883  0.6258389473681224  0.7863410951363548   F   F   F
  0.2732665292250811  0.6293815922144613  0.7551915837525175   F   F   F
  0.2299110693211560  0.6172076881047629  0.7533841787623659   F   F   F
  0.2116105250982582  0.6029682359086758  0.7222269914495820   F   F   F
  0.1786642893797960  0.5555426198269906  0.7204395900800761   F   F   F
  0.1676830238058581  0.5278061130564989  0.6892970308601640   F   F   F
  0.1548581338094791  0.4594112966773926  0.6875016291274616   F   F   F
  0.1543876671608086  0.4264634188737841  0.6563545036596424   F   F   F
  0.1654988979974926  0.3572847026087492  0.6545268989542832   F   F   F
  0.1756923554368270  0.3288681759501639  0.6233663789284111   F   F   F
  0.2074665861124930  0.2794012160187714  0.6215388354673522   F   F   F
  0.2253267407625066  0.2640432235201340  0.5903599652377828   F   F   F
  0.2683673581282264  0.2492489328564323  0.5885085113658839   F   F   F
  0.2885270707042535  0.2518670832735749  0.5573186777925888   F   F   F
  0.3298312886880413  0.2764293906410067  0.5555013743962313   F   F   F
  0.3460312804727321  0.2964948321819366  0.5243707687948378   F   F   F
  0.3734441835760461  0.3522637133692222  0.5226534206934099   F   F   F
  0.3818092467527577  0.3833195754819966  0.4916193458224173   F   F   F
  0.3911006706319851  0.4526346535587166  0.4903389866249205   F   F   F
  0.3957473630179792  0.4898477825785889  0.4583379730254450   F   F   F
  0.3474301377700219  0.5831873546230600  0.8797292565425838   F   F   F
  0.3309514621865535  0.6024739977995451  0.8485815516101549   F   F   F
  0.2895953377411045  0.6268856573015279  0.8467862503886227   F   F   F
  0.2693362763966244  0.6292879506611229  0.8156416046294765   F   F   F
  0.2262597051173893  0.6147058708547065  0.8138277603495510   F   F   F
  0.2082591389598973  0.5994776619717918  0.7826813900718218   F   F   F
  0.1763172057958168  0.5502949265100852  0.7808843829781640   F   F   F
  0.1659368287386621  0.5219902960330739  0.7497311116326936   F   F   F
  0.1545693282009934  0.4529172475206869  0.7479263225886303   F   F   F
  0.1548188870541509  0.4199751931555663  0.7167830458760167   F   F   F
  0.1673770454388665  0.3514451589385687  0.7149631398254105   F   F   F
  0.1781965973505084  0.3236224357348030  0.6838068598729780   F   F   F
  0.2109865257509257  0.2759529032360165  0.6819843126546592   F   F   F
  0.2291611229228854  0.2615373039344390  0.6508105253988290   F   F   F
  0.2724807144046296  0.2490513079607404  0.6489626113529141   F   F   F
  0.2925913094337269  0.2524979467056890  0.6177872151419346   F   F   F
  0.3334483888965188  0.2790368672435150  0.6159891098280381   F   F   F
  0.3494325541519251  0.2994194532131749  0.5848442309089649   F   F   F
  0.3757921420166401  0.3566005593746461  0.5831468860981305   F   F   F
  0.3830243071986965  0.3877051197238071  0.5520630217552324   F   F   F
  0.3872954515315544  0.4587258189973089  0.5504260271360825   F   F   F
  0.3849463124915841  0.4913193926147083  0.5193061397974063   F   F   F
  0.3443767800465757  0.5873387786326287  0.9401818385508776   F   F   F
  0.3275209885695459  0.6056798224215014  0.9090262859501590   F   F   F
  0.2856665895716287  0.6277440147546233  0.9072247896861712   F   F   F
  0.2653863586474214  0.6289884853936702  0.8760799087660003   F   F   F
  0.2226462019490361  0.6120120416704582  0.8742625420601130   F   F   F
  0.2049838793127076  0.5957892932030929  0.8431173341250330   F   F   F
  0.1740766867065659  0.5449010289157641  0.8413156543285647   F   F   F
  0.1642827972940545  0.5160530898753894  0.8101658029989555   F   F   F
  0.1543688399254799  0.4463847178049128  0.8083518346757480   F   F   F
  0.1553387612817100  0.4134845255963939  0.7772079805333846   F   F   F
  0.1693439393503814  0.3457045363241185  0.7753961737463527   F   F   F
  0.1807568467972959  0.3185092522747660  0.7442399534314414   F   F   F
  0.2145468784676033  0.2727156198713822  0.7424212500739662   F   F   F
  0.2330270146888586  0.2593080465330205  0.7112592170161144   F   F   F
  0.2765862498007640  0.2492388465222354  0.7094205319377530   F   F   F
  0.2966222437667688  0.2537199207352568  0.6782483229627375   F   F   F
  0.3369041024907081  0.2824648641587912  0.6764455166762847   F   F   F
  0.3524838711352974  0.3034915633401615  0.6452823889416157   F   F   F
  0.3775063449738180  0.3623035394219652  0.6435228821202109   F   F   F
  0.3841015810191616  0.3935433499956368  0.6124253078379900   F   F   F
  0.3864708709453458  0.4649582117751606  0.6106884889460221   F   F   F
  0.3821423566953776  0.4972889641636435  0.5796236632526401   F   F   F
  0.3411862395332230  0.5913295012491742  0.0006356612253017   F   F   F
  0.3239791083380665  0.6087078497530142  0.9694730719114768   F   F   F
  0.2816835318891277  0.6284129802720179  0.9676602676320023   F   F   F
  0.2614093794844966  0.6285061909600173  0.9365104717844623   F   F   F
  0.2190529447333068  0.6091576507870772  0.9346909667916617   F   F   F
  0.2017584088679181  0.5919543348502291  0.9035438890657026   F   F   F
  0.1719314805134011  0.5393877006420099  0.9017398392874765   F   F   F
  0.1627563907438527  0.5100136366988585  0.8705952863046484   F   F   F
  0.1543068194973609  0.4398473653440975  0.8687752556507141   F   F   F
  0.1559711225730767  0.4070198098978321  0.8376298322239393   F   F   F
  0.1714197848203690  0.3400760022424412  0.8358235048306580   F   F   F
  0.1834116175183521  0.3135394769276721  0.8046724390490853   F   F   F
  0.2181767094089431  0.2697083589115997  0.8028555187398765   F   F   F
  0.2369335062076636  0.2573581507060475  0.7716984543932399   F   F   F
  0.2806809988367880  0.2497474668994751  0.7698678366057053   F   F   F
  0.3006108884844929  0.2553036978122444  0.7386956812795763   F   F   F
  0.3402644280923780  0.2862696957936168  0.7368814234716031   F   F   F
  0.3553967989247767  0.3080859240267895  0.7057221922088736   F   F   F
  0.3791336632128353  0.3682927946389810  0.7039212996614732   F   F   F
  0.3849736345976943  0.3998469352358299  0.6727955210481281   F   F   F
  0.3858493004575740  0.4713219738207811  0.6710199454556625   F   F   F
  0.3807231779822319  0.5032667099707998  0.6399005534431791   F   F   F
  0.2574023906613837  0.6278337675184477  0.9969382837319056   F   F   F
  0.2154788594265392  0.6061283941541202  0.9951186715905200   F   F   F
  0.1985794980918603  0.5879617432957767  0.9639684617525198   F   F   F
  0.1698772508109743  0.5337702722579274  0.9621602328152171   F   F   F
  0.1613375185057590  0.5038979188833869  0.9310166398812315   F   F   F
  0.1543772854248724  0.4333057222997564  0.9291949023234125   F   F   F
  0.1567424962002500  0.4005966754680734  0.8980500452756126   F   F   F
  0.1736153245415724  0.3345654803259137  0.8962471066483476   F   F   F
  0.1861773973276179  0.3087355060766508  0.8650997459909072   F   F   F
  0.2218613185154703  0.2669090265478436  0.8632809582823265   F   F   F
  0.2408817726629778  0.2556383227950876  0.8321273167423378   F   F   F
  0.2847642719909800  0.2504984589352701  0.8303045013933493   F   F   F
  0.3045680938706161  0.2571543976708094  0.7991373422494900   F   F   F
  0.3435563429480051  0.2902883419408618  0.7973164592311750   F   F   F
  0.3582143602315827  0.3129264420403935  0.7661537324535694   F   F   F
  0.3806888021031410  0.3743940756569289  0.7643346131195622   F   F   F
  0.3858430141421910  0.4062308530048601  0.7331868663632723   F   F   F
  0.3852176557864513  0.4777264284659202  0.7313946767698469   F   F   F
  0.3793761241015478  0.5093227635138895  0.7002684418031443   F   F   F
  0.1600264744649642  0.4977114172718399  0.9914332235768017   F   F   F
  0.1545701730693511  0.4267651399065319  0.9896119855342396   F   F   F
  0.1576370387223532  0.3942066358624167  0.9584686543132495   F   F   F
  0.1759043547136279  0.3291616877529124  0.9566649150220956   F   F   F
  0.1890235165508518  0.3040620149868287  0.9255203160489952   F   F   F
  0.2255820347124819  0.2642791894343760  0.9236997564365804   F   F   F
  0.2448447712040773  0.2541050889784974  0.8925512145598155   F   F   F
  0.2888127131703704  0.2514429616892344  0.8907370169759518   F   F   F
  0.3084742322246966  0.2592190157022445  0.8595751839954859   F   F   F
  0.3467526799450185  0.2944802931330269  0.8577528264969922   F   F   F
  0.3609408681607098  0.3179155134514377  0.8265878874684091   F   F   F
  0.3821326805954291  0.3805773576247904  0.8247640160820662   F   F   F
  0.3866217785425186  0.4126743692482347  0.7936067034699940   F   F   F
  0.3844835265889235  0.4840958769625975  0.7918078153043286   F   F   F
  0.3779573386261017  0.5153386527587380  0.7606704150062363   F   F   F
  0.1919436874244050  0.2995463500100668  0.9859376984048105   F   F   F
  0.2293262861026490  0.2618371303678445  0.9841177982510938   F   F   F
  0.2488088387352300  0.2527602306479742  0.9529742733235784   F   F   F
  0.2928110636918946  0.2525662201382901  0.9511696563369704   F   F   F
  0.3123109162183256  0.2614704815210583  0.9200135984058175   F   F   F
  0.3498244650623706  0.2988368366991181  0.9181923285411134   F   F   F
  0.3635349463730498  0.3230427512854321  0.8870300987467953   F   F   F
  0.3834077533054159  0.3868374236312447  0.8852111821425012   F   F   F
  0.3872420895547816  0.4191621918258093  0.8540471620889465   F   F   F
  0.3835929569728282  0.4904219000462975  0.8522436464002703   F   F   F
  0.3764210739269671  0.5212659096820546  0.8210950588273882   F   F   F
  0.3160708710977436  0.2638758335186500  0.9804515307955182   F   F   F
  0.3527718389726585  0.3033237556333058  0.9786357073235541   F   F   F
  0.3659822597925879  0.3282939454596860  0.9474781034221204   F   F   F
  0.3845121040306197  0.3931491596972819  0.9456690673609078   F   F   F
  0.3876893117235022  0.4256712263980822  0.9145027387799749   F   F   F
  0.3825396078544464  0.4966884313839819  0.9126945238845373   F   F   F
  0.3747353810331774  0.5271139199892900  0.8815398699596492   F   F   F
  0.3879429876774047  0.4321955912127316  0.9749657155917479   F   F   F
  0.3812839769769417  0.5028758277940713  0.9731522158166751   F   F   F
  0.3728715299308796  0.5328458875709491  0.9419922494735506   F   F   F
  0.4796075885025202  0.4323922761322861  0.5004294595268620   T   T   T
  0.4873722228167797  0.3822656383483043  0.4749358259462421   T   T   T
  0.4870292130697446  0.5025893562186619  0.4918923942988838   T   T   T
  0.4278711449164847  0.5105183989776114  0.4576196646497352   T   T   T
 
  0.00000000E+00  0.00000000E+00  0.00000000E+00
  0.00000000E+00  0.00000000E+00  0.00000000E+00
  0.00000000E+00  0.00000000E+00  0.00000000E+00
  0.00000000E+00  0.00000000E+00  0.00000000E+00
  0.00000000E+00  0.00000000E+00  0.00000000E+00
  0.00000000E+00  0.00000000E+00  0.00000000E+00
  0.00000000E+00  0.00000000E+00  0.00000000E+00
  0.00000000E+00  0.00000000E+00  0.00000000E+00
  0.00000000E+00  0.00000000E+00  0.00000000E+00
  0.00000000E+00  0.00000000E+00  0.00000000E+00
  0.00000000E+00  0.00000000E+00  0.00000000E+00
  0.00000000E+00  0.00000000E+00  0.00000000E+00
  0.00000000E+00  0.00000000E+00  0.00000000E+00
  0.00000000E+00  0.00000000E+00  0.00000000E+00
  0.00000000E+00  0.00000000E+00  0.00000000E+00
  0.00000000E+00  0.00000000E+00  0.00000000E+00
  0.00000000E+00  0.00000000E+00  0.00000000E+00
  0.00000000E+00  0.00000000E+00  0.00000000E+00
  0.00000000E+00  0.00000000E+00  0.00000000E+00
  0.00000000E+00  0.00000000E+00  0.00000000E+00
  0.00000000E+00  0.00000000E+00  0.00000000E+00
  0.00000000E+00  0.00000000E+00  0.00000000E+00
  0.00000000E+00  0.00000000E+00  0.00000000E+00
  0.00000000E+00  0.00000000E+00  0.00000000E+00
  0.00000000E+00  0.00000000E+00  0.00000000E+00
  0.00000000E+00  0.00000000E+00  0.00000000E+00
  0.00000000E+00  0.00000000E+00  0.00000000E+00
  0.00000000E+00  0.00000000E+00  0.00000000E+00
  0.00000000E+00  0.00000000E+00  0.00000000E+00
  0.00000000E+00  0.00000000E+00  0.00000000E+00
  0.00000000E+00  0.00000000E+00  0.00000000E+00
  0.00000000E+00  0.00000000E+00  0.00000000E+00
  0.00000000E+00  0.00000000E+00  0.00000000E+00
  0.00000000E+00  0.00000000E+00  0.00000000E+00
  0.00000000E+00  0.00000000E+00  0.00000000E+00
  0.00000000E+00  0.00000000E+00  0.00000000E+00
  0.00000000E+00  0.00000000E+00  0.00000000E+00
  0.00000000E+00  0.00000000E+00  0.00000000E+00
  0.00000000E+00  0.00000000E+00  0.00000000E+00
  0.00000000E+00  0.00000000E+00  0.00000000E+00
  0.00000000E+00  0.00000000E+00  0.00000000E+00
  0.00000000E+00  0.00000000E+00  0.00000000E+00
  0.00000000E+00  0.00000000E+00  0.00000000E+00
  0.00000000E+00  0.00000000E+00  0.00000000E+00
  0.00000000E+00  0.00000000E+00  0.00000000E+00
  0.00000000E+00  0.00000000E+00  0.00000000E+00
  0.00000000E+00  0.00000000E+00  0.00000000E+00
  0.00000000E+00  0.00000000E+00  0.00000000E+00
  0.00000000E+00  0.00000000E+00  0.00000000E+00
  0.00000000E+00  0.00000000E+00  0.00000000E+00
  0.00000000E+00  0.00000000E+00  0.00000000E+00
  0.00000000E+00  0.00000000E+00  0.00000000E+00
  0.00000000E+00  0.00000000E+00  0.00000000E+00
  0.00000000E+00  0.00000000E+00  0.00000000E+00
  0.00000000E+00  0.00000000E+00  0.00000000E+00
  0.00000000E+00  0.00000000E+00  0.00000000E+00