 C  S  O  H                             
    1.000000000000000     
    32.3722991942999982    0.0000000000000000    0.0000000000000000
     0.0000000000000000   19.9214134216000005    0.0000000000000000
     0.0000000000000000    0.0000000000000000   40.4480476378999967
   C    S    O    H 
   364     1     2     1
Selective dynamics
Direct
  0.3709470396100443  0.5384155616549506  0.0024528541425823   T   T   T
  0.3687176703053581  0.5439402945784195  0.0629109537237156   T   T   T
  0.3379844882184386  0.5951087433000453  0.0610918896846684   T   T   T
  0.3204465908208931  0.6114941255351667  0.0299206776416554   T   T   T
  0.2777598570946651  0.6288198242975724  0.0280934480673238   T   T   T
  0.3663203087291009  0.5493620387324611  0.1233586962704010   T   T   T
  0.3345322641313189  0.5988095397339421  0.1215356493482815   T   T   T
  0.3166845916432521  0.6141861408579032  0.0903637229850673   T   T   T
  0.2736521081463579  0.6291059499899774  0.0885232681084105   T   T   T
  0.2534748351508469  0.6269038028964360  0.0573628147891654   T   T   T
  0.2120329150589200  0.6029028083566601  0.0555421145052932   T   T   T
  0.1955468049656872  0.5838109146812229  0.0243873024595374   T   T   T
  0.1679943290502237  0.5280684148687627  0.0225736661864175   T   T   T
  0.3637363222856536  0.5546705631510633  0.1838004460654901   T   T   T
  0.3309597941526761  0.6023826796831315  0.1819801980641458   T   T   T
  0.3128196727459667  0.6167208747521968  0.1508006080594129   T   T   T
  0.2695091908706075  0.6292337749090677  0.1489544682968571   T   T   T
  0.2494098903730162  0.6258552208613679  0.1177867103810541   T   T   T
  0.2085142371653177  0.5994987656658992  0.1159651016919980   T   T   T
  0.1924622662178450  0.5794845989617201  0.0848094827253334   T   T   T
  0.1661223591168906  0.5222082068641072  0.0829893133993238   T   T   T
  0.1588870575197205  0.4914748565886597  0.0518443966841318   T   T   T
  0.1549308731026215  0.4202635660841381  0.0500256442647213   T   T   T
  0.1587051296044706  0.3879040470362867  0.0188818801940016   T   T   T
  0.1783448191077710  0.3239268618216613  0.0170753711296499   T   T   T
  0.3610272505048897  0.5598824979487063  0.2442196591090493   T   T   T
  0.3273206221673917  0.6057886082280604  0.2424180777284519   T   T   T
  0.3088932554137642  0.6191272913108961  0.2112408779736654   T   T   T
  0.2653309593927631  0.6291882112637879  0.2093903286926420   T   T   T
  0.2453374747065951  0.6246565480482715  0.1782233186828392   T   T   T
  0.2050326186318756  0.5959360921077561  0.1763944464799039   T   T   T
  0.1894460693329805  0.5749922132764240  0.1452398440006348   T   T   T
  0.1643595317463991  0.5162483520150047  0.1434124258180276   T   T   T
  0.1578031485578606  0.4851172109548898  0.1122620446717377   T   T   T
  0.1553613165474133  0.4137325741793205  0.1104473768186338   T   T   T
  0.1598183528674255  0.3816099846151886  0.0792960528023698   T   T   T
  0.1807936954507881  0.3187595745251670  0.0774856345553019   T   T   T
  0.1949772576888265  0.2952043586385145  0.0463482482078561   T   T   T
  0.2331399223313824  0.2596100404701218  0.0445333518645228   T   T   T
  0.2528329600130945  0.2516573066999115  0.0133963205089884   T   T   T
  0.2968112524035291  0.2539149738529929  0.0116004186420611   T   T   T
  0.3704374387898000  0.5385647627253149  0.3357345025772105   T   T   T
  0.3584157561073695  0.5650760676772748  0.3046466487652708   T   T   T
  0.3236483275179296  0.6089954779485467  0.3028556824180342   T   T   T
  0.3049445860374433  0.6213089962514999  0.2717253109083799   T   T   T
  0.2611448695379366  0.6288462947433615  0.2698542215562014   T   T   T
  0.2412743496153311  0.6231876367170059  0.2386801419865066   T   T   T
  0.2016212013039507  0.5921870510966869  0.2368356374433773   T   T   T
  0.1865166772522002  0.5703371545520639  0.2056680255045080   T   T   T
  0.1627391638157007  0.5101874890690254  0.2038369859698648   T   T   T
  0.1568497227269887  0.4787059681798098  0.1726845615000983   T   T   T
  0.1559352289056193  0.4072171279228129  0.1708746982267471   T   T   T
  0.1610528772308157  0.3753686584232696  0.1397230625785895   T   T   T
  0.1833300374257334  0.3137038401195440  0.1379061919142046   T   T   T
  0.1980139647839891  0.2909727039539405  0.1067660853117971   T   T   T
  0.2368987089104166  0.2575223795739561  0.1049558292565109   T   T   T
  0.2567639869981022  0.2506927768619320  0.0738174984840612   T   T   T
  0.3006673921838754  0.2554274708450919  0.0720292467767933   T   T   T
  0.3197912089470165  0.2665069790489625  0.0408923460618098   T   T   T
  0.3556489215179113  0.3079588788980345  0.0390881978121342   T   T   T
  0.3683647008104529  0.3336395265843919  0.0079359367322240   T   T   T
  0.3855378184121605  0.3994743085928718  0.0061380034187835   T   T   T
  0.3689875483719547  0.5444454005235571  0.3960903225774075   T   T   T
  0.3559415941511759  0.5699079859871929  0.3652517487759823   T   T   T
  0.3198201383955563  0.6113473966013032  0.3633721259531555   T   T   T
  0.3009071001102654  0.6227721784003251  0.3322392004168293   T   T   T
  0.2569973472330744  0.6279863991683001  0.3303364220613432   T   T   T
  0.2372508590305813  0.6213772130740765  0.2991241758896948   T   T   T
  0.1982697383378564  0.5882330579406485  0.2972683585579290   T   T   T
  0.1836489896890754  0.5655683832763572  0.2660991535104813   T   T   T
  0.1612016979400508  0.5040499206514895  0.2642668815121425   T   T   T
  0.1560274731813465  0.4722467080204211  0.2331187470805176   T   T   T
  0.1566479604843565  0.4007453894484456  0.2313119535488681   T   T   T
  0.1624430401115760  0.3692024304106312  0.2001593381905380   T   T   T
  0.1859812629231783  0.3087999047841308  0.1983389394040387   T   T   T
  0.2011164928907263  0.2868812689264999  0.1671881222960181   T   T   T
  0.2406719303145621  0.2555838562947841  0.1653833368831386   T   T   T
  0.2606768889481970  0.2498807129419305  0.1342465941683315   T   T   T
  0.3044591606702269  0.2570825382072996  0.1324602959004011   T   T   T
  0.3233519130325035  0.2692731710105107  0.1013335172576078   T   T   T
  0.3582972032476661  0.3127275849449518  0.0995391573413897   T   T   T
  0.3704782810459548  0.3391261714905909  0.0683931860633109   T   T   T
  0.3862383556498585  0.4058849421772877  0.0666041097939996   T   T   T
  0.3881131899018939  0.4386807219420916  0.0354407752240533   T   T   T
  0.3799607061016417  0.5089494781685531  0.0336203099473522   T   T   T
  0.3659234457349996  0.5497917389896330  0.4566372454712351   T   T   T
  0.3523789369466712  0.5730333329048563  0.4257895564072598   T   T   T
  0.3155821817591118  0.6123502123930464  0.4237932964869344   T   T   T
  0.2966396641544904  0.6234522301533971  0.3926035145919258   T   T   T
  0.2527140406268487  0.6269749761975660  0.3907380446339417   T   T   T
  0.2331485760851066  0.6194586532009225  0.3595483951721405   T   T   T
  0.1948277807491721  0.5842078041337828  0.3576979770849746   T   T   T
  0.1808094599244328  0.5606289400863460  0.3265376564959794   T   T   T
  0.1597520345104328  0.4978396220086836  0.3247110172191725   T   T   T
  0.1553248349510241  0.4657388061544125  0.2935519258766348   T   T   T
  0.1574966274421428  0.3943402786263306  0.2917497643893441   T   T   T
  0.1639500180112492  0.3631201331810630  0.2605937798484348   T   T   T
  0.1887300884989926  0.3040367058751841  0.2587724690310722   T   T   T
  0.2043031752503097  0.2829399030186508  0.2276251205876250   T   T   T
  0.2444858612500624  0.2537825507938081  0.2258246712391880   T   T   T
  0.2645970441203218  0.2492282448756953  0.1946860861925330   T   T   T
  0.3081919498313681  0.2588911510962149  0.1928977563976346   T   T   T
  0.3268134977509476  0.2721944002063950  0.1617679067755589   T   T   T
  0.3607817769096187  0.3176412833825850  0.1599804041142292   T   T   T
  0.3724200046547992  0.3447172042145183  0.1288459112582814   T   T   T
  0.3867266230844422  0.4123468619749318  0.1270573684803509   T   T   T
  0.3879429414830540  0.4452249725675088  0.0959052118867518   T   T   T
  0.3783218741954144  0.5150031162443938  0.0940817991609251   T   T   T
  0.3641360885774887  0.5549507032365710  0.5172077250964406   T   T   T
  0.3494254395277920  0.5772437605478871  0.4856655686359730   T   T   T
  0.3118387150002633  0.6146980471153469  0.4840045412605747   T   T   T
  0.2924979043139118  0.6244247952953543  0.4529733702045320   T   T   T
  0.2484104156561600  0.6261352288696003  0.4511551063011652   T   T   T
  0.2290193934874623  0.6174016694624029  0.4200090449026206   T   T   T
  0.1915024500078673  0.5800304713298630  0.4181668306682340   T   T   T
  0.1780188440876103  0.5556052971994347  0.3869795074830122   T   T   T
  0.1584367196463958  0.4915984749941771  0.3851650796894504   T   T   T
  0.1547098187371603  0.4592504028424074  0.3539995521290393   T   T   T
  0.1584393639123860  0.3879912638113225  0.3521934445844650   T   T   T
  0.1655589429168316  0.3571447826883869  0.3210471514249207   T   T   T
  0.1915425117396694  0.2994205898783235  0.3192233986589486   T   T   T
  0.2075662122827140  0.2791920334631328  0.2880771449642197   T   T   T
  0.2483237469419066  0.2522575449235589  0.2862851125206447   T   T   T
  0.2685228058821423  0.2487898272959299  0.2551332243589570   T   T   T
  0.3118755502408561  0.2609399264022301  0.2533342212781946   T   T   T
  0.3302004832438570  0.2752566442025781  0.2222076766852155   T   T   T
  0.3631428345357293  0.3226953777309873  0.2204146103158777   T   T   T
  0.3741753564215529  0.3504389408232171  0.1892918036814280   T   T   T
  0.3870023341249293  0.4188401319436039  0.1874935651846670   T   T   T
  0.3875429305851981  0.4517704837743892  0.1563492032515512   T   T   T
  0.3764680319805649  0.5209625882501143  0.1545300469977491   T   T   T
  0.3610586561329470  0.5601660614114792  0.5775887699670221   T   T   T
  0.3470731747043061  0.5833840083926987  0.5462162111423723   T   T   T
  0.3085627960793289  0.6185851560761932  0.5444417046165455   T   T   T
  0.2886950732133187  0.6258784393576846  0.5133482920278425   T   T   T
  0.2447234085604606  0.6246132705326772  0.5115893416080723   T   T   T
  0.2252327328960959  0.6150172996670165  0.4804430844523040   T   T   T
  0.1885441712026861  0.5755045427687264  0.4786292749234207   T   T   T
  0.1754221983642879  0.5504819744048106  0.4474651795956035   T   T   T
  0.1572907654560467  0.4852557241795381  0.4456491231319077   T   T   T
  0.1542695928323568  0.4527299402952352  0.4144859346538396   T   T   T
  0.1595044380415658  0.3817225882818462  0.4126664488745035   T   T   T
  0.1672771312513888  0.3512792016892377  0.3815048469050595   T   T   T
  0.1944182079794246  0.2950200623285255  0.3796805509729566   T   T   T
  0.2108775524230424  0.2756601379863639  0.3485272916404867   T   T   T
  0.2522067708054507  0.2511178861233319  0.3467394901347021   T   T   T
  0.2724582166022529  0.2486894632701109  0.3155986955467824   T   T   T
  0.3155341202747550  0.2633616089406416  0.3137895558899615   T   T   T
  0.3335196543542622  0.2786364386502385  0.2826602151476294   T   T   T
  0.3653807780784533  0.3279442490383246  0.2808421172512894   T   T   T
  0.3757825607455700  0.3562932073666545  0.2497072464681978   T   T   T
  0.3870986142969670  0.4253667715893954  0.2478839472024035   T   T   T
  0.3869659389034084  0.4582952810388150  0.2167630005650878   T   T   T
  0.3744473199171594  0.5268594344227751  0.2149576458140743   T   T   T
  0.3583818666589949  0.5649984175350866  0.6379647386187983   T   T   T
  0.3438005283293961  0.5879577466787325  0.6068080757127561   T   T   T
  0.3048908579187852  0.6214243126423113  0.6049688277928382   T   T   T
  0.2850428638154483  0.6278488818953960  0.5737354061477404   T   T   T
  0.2410942698683556  0.6231873797069483  0.5720083268829441   T   T   T
  0.2218167677689209  0.6122476486108823  0.5409227375572740   T   T   T
  0.1859808124872160  0.5706753592097442  0.5391183012110901   T   T   T
  0.1732982932313547  0.5449002786090063  0.5079653030850935   T   T   T
  0.1565056286163653  0.4788334800428515  0.5061515710344224   T   T   T
  0.1540829679211981  0.4461671166737844  0.4749619069930162   T   T   T
  0.1608080448870126  0.3755168358109557  0.4731397820610610   T   T   T
  0.1691061489939329  0.3455218763734251  0.4419654195682199   T   T   T
  0.1974165062294446  0.2907782363167328  0.4401366426995494   T   T   T
  0.2142349838789528  0.2723534558625857  0.4089957604802450   T   T   T
  0.2561225052980944  0.2504089516563894  0.4071957832139788   T   T   T
  0.2764169460595838  0.2492258444027016  0.3760779622739960   T   T   T
  0.3190593393334709  0.2667507464075811  0.3742825119459923   T   T   T
  0.3367242630156468  0.2826410083918915  0.3430911286048826   T   T   T
  0.3674933626495971  0.3335940480086350  0.3412220886047095   T   T   T
  0.3773311003456996  0.3622860217866162  0.3100979279889700   T   T   T
  0.3871318974245952  0.4320198039341818  0.3082231547219720   T   T   T
  0.3862470364024944  0.4648689682830280  0.2771402134887069   T   T   T
  0.3723689761928526  0.5327161923244574  0.2753747703352900   T   T   T
  0.3558244081372237  0.5697155382000858  0.6983897912371901   T   T   T
  0.3406466067073737  0.5917795411670141  0.6672589415397638   T   T   T
  0.3011291149431088  0.6231754398108222  0.6654404502290490   T   T   T
  0.2811412522318406  0.6289847712638590  0.6342532031082584   T   T   T
  0.2373302454082520  0.6215943708655303  0.6324920558555291   T   T   T
  0.2184582282400029  0.6093309170712757  0.6013592751423928   T   T   T
  0.1835795579869881  0.5657253361206500  0.5995703949195317   T   T   T
  0.1713855904033466  0.5392928014089478  0.5684230581594676   T   T   T
  0.1558918397144851  0.4723728793679598  0.5666139632926672   T   T   T
  0.1540905978178557  0.4395882697416766  0.5354511658900734   T   T   T
  0.1622653305081840  0.3693247003546318  0.5336262115036519   T   T   T
  0.1712056466750198  0.3398342111019659  0.5024590035762699   T   T   T
  0.2006269165295365  0.2867219881395400  0.5006492514619012   T   T   T
  0.2177903852112664  0.2693365179126062  0.4694571963864860   T   T   T
  0.2600689557433000  0.2500323752256577  0.4676364772634685   T   T   T
  0.2803743279451254  0.2503663817124036  0.4364953732084516   T   T   T
  0.3224158749137942  0.2710334738122100  0.4346834454678472   T   T   T
  0.3396401328305885  0.2879189771436188  0.4035438334918169   T   T   T
  0.3692433549861249  0.3406901616417599  0.4016655914041962   T   T   T
  0.3787150339847614  0.3688960435966209  0.3704684870045796   T   T   T
  0.3873478890946274  0.4387719941554877  0.3684959930489100   T   T   T
  0.3855543668154908  0.4715510106739629  0.3374124272355559   T   T   T
  0.3532068551276595  0.5743262839404011  0.7588244604253163   T   T   T
  0.3375531254594151  0.5954713784031185  0.7276917847503839   T   T   T
  0.2973562805040402  0.6245663190388981  0.7258990993829428   T   T   T
  0.2772243058699928  0.6293099042972727  0.6947542035316872   T   T   T
  0.2336285875477273  0.6195390102482605  0.6929645836947529   T   T   T
  0.2150280872098307  0.6062996989185621  0.6618051377467964   T   T   T
  0.1811298049531942  0.5606935899390919  0.6600133652184113   T   T   T
  0.1695524092529226  0.5336085968154478  0.6288691889110751   T   T   T
  0.1553730413976808  0.4659078461447450  0.6270637292966512   T   T   T
  0.1542726597296848  0.4330135817942278  0.5959102844239936   T   T   T
  0.1638953682008832  0.3632613845955817  0.5940838890273028   T   T   T
  0.1734537178357911  0.3342684927340969  0.5629131810045536   T   T   T
  0.2040297742346979  0.2828574344341561  0.5610995434696378   T   T   T
  0.2214891012505689  0.2663557191767509  0.5299179899433568   T   T   T
  0.2642043754261536  0.2491838980981811  0.5280760891079552   T   T   T
  0.2844134195304591  0.2509578202429807  0.4969083746047147   T   T   T
  0.3259982718939440  0.2738787140424463  0.4950827750142395   T   T   T
  0.3427277004814613  0.2933514190342805  0.4639645054659454   T   T   T
  0.3713628208829007  0.3471285689654664  0.4621767417325842   T   T   T
  0.3800993930673116  0.3770815662428504  0.4308168929874370   T   T   T
  0.3897551441684186  0.4457347569273153  0.4285346727187545   T   T   T
  0.3863166876834043  0.4781417660974796  0.3977251441419867   T   T   T
  0.3504503993521624  0.5787965856233726  0.8192676128816245   T   T   T
  0.3343639181415980  0.5990143383836255  0.7881318900957623   T   T   T
  0.2935545085669418  0.6257545740640680  0.7863483808763689   T   T   T
  0.2733323070089710  0.6293274614128421  0.7552113157817502   T   T   T
  0.2299754465288188  0.6171704607365598  0.7534101811370419   T   T   T
  0.2116498041205261  0.6029817798916071  0.7222593800166734   T   T   T
  0.1787027978584987  0.5555594272321684  0.7204610160454621   T   T   T
  0.1677314272259025  0.5278379805712134  0.6893117199872876   T   T   T
  0.1549315586995661  0.4594348604966498  0.6875018529627610   T   T   T
  0.1545136475869668  0.4264973359170057  0.6563469524730010   T   T   T
  0.1656031656324117  0.3573082305998554  0.6545238679996856   T   T   T
  0.1758038203090351  0.3288621801636324  0.6233686726673469   T   T   T
  0.2074866903004846  0.2792374798764641  0.6215593896802787   T   T   T
  0.2253161384875568  0.2637069760388826  0.5903874616508915   T   T   T
  0.2683335600895589  0.2487240354060134  0.5885411742829092   T   T   T
  0.2884856434223408  0.2511930826686495  0.5573449621582043   T   T   T
  0.3297601340433047  0.2758919683841157  0.5555109439872083   T   T   T
  0.3458955928335499  0.2959932288002065  0.5243678023297988   T   T   T
  0.3731041311084340  0.3520286806710402  0.5226325126722742   T   T   T
  0.3813479843167755  0.3831426311637642  0.4915981041442379   T   T   T
  0.3904542368155219  0.4525222859952507  0.4903100913476592   T   T   T
  0.3950702950497558  0.4897341440922958  0.4583211151314401   T   T   T
  0.3475532584356387  0.5831244192542542  0.8797226001840315   T   T   T
  0.3310668994396622  0.6023991508463453  0.8485753816960084   T   T   T
  0.2897065880566032  0.6267935372907161  0.8467883112942545   T   T   T
  0.2694356089805297  0.6291945953290394  0.8156511393913277   T   T   T
  0.2263550164063943  0.6146383690191470  0.8138427041256264   T   T   T
  0.2083329107951073  0.5994331370745556  0.7827037168318114   T   T   T
  0.1763691632489284  0.5502911685671208  0.7809014337497402   T   T   T
  0.1659751837029759  0.5219993600309465  0.7497467274677447   T   T   T
  0.1545948704241766  0.4529317256708367  0.7479329864832494   T   T   T
  0.1548629840426941  0.4199949381969930  0.7167854930320487   T   T   T
  0.1674147022538790  0.3514618959603553  0.7149689766057818   T   T   T
  0.1782443194565957  0.3236237553851709  0.6838152834337308   T   T   T
  0.2109976887123253  0.2758893298789431  0.6820081302600158   T   T   T
  0.2291544249280193  0.2613565565460689  0.6508409796837640   T   T   T
  0.2724634308893528  0.2487727123844294  0.6489976227278049   T   T   T
  0.2925631573081375  0.2520813784144380  0.6178179251693763   T   T   T
  0.3333969782376869  0.2787123857258180  0.6159990077195587   T   T   T
  0.3493182047622057  0.2990912047422398  0.5848380159956292   T   T   T
  0.3755154551977498  0.3564585873061290  0.5831116735097268   T   T   T
  0.3826050427389163  0.3875879123185655  0.5520198804407599   T   T   T
  0.3867521193571548  0.4586197340997060  0.5503709678588891   T   T   T
  0.3843370617575133  0.4912110098626243  0.5192589505194505   T   T   T
  0.3445023814641885  0.5872801144364104  0.9401800371269644   T   T   T
  0.3276440057721004  0.6056122373327639  0.9090229983214684   T   T   T
  0.2857882245939720  0.6276728583429900  0.9072248645521270   T   T   T
  0.2655024518853750  0.6289112392251681  0.8760833611020757   T   T   T
  0.2227580871536574  0.6119651593179967  0.8742699552403081   T   T   T
  0.2050794435352827  0.5957502848380472  0.8431303401120900   T   T   T
  0.1741453492657143  0.5449053788342582  0.8413283523327308   T   T   T
  0.1643274624755477  0.5160636262370204  0.8101813446461392   T   T   T
  0.1543901597327846  0.4464046960268107  0.8083633512205353   T   T   T
  0.1553541007014729  0.4135024474764037  0.7772180474016892   T   T   T
  0.1693631470669956  0.3457259257983267  0.7754077625887845   T   T   T
  0.1807791894537942  0.3185272133730308  0.7442527335829325   T   T   T
  0.2145678941979767  0.2727307064969082  0.7424423443283672   T   T   T
  0.2330361389838345  0.2592659180552559  0.7112865887941382   T   T   T
  0.2765919209955996  0.2491613109200657  0.7094484995343748   T   T   T
  0.2966178223132800  0.2535429464767489  0.6782727197543466   T   T   T
  0.3368877427214301  0.2823205836961691  0.6764489632199755   T   T   T
  0.3524197546697252  0.3033185854784008  0.6452700629518517   T   T   T
  0.3773564613780067  0.3622218563283681  0.6434799145998156   T   T   T
  0.3838229614707132  0.3934697494124109  0.6123685918960362   T   T   T
  0.3861384424616574  0.4648834341330002  0.6106199867340152   T   T   T
  0.3817175385008298  0.4972089595888249  0.5795635740290876   T   T   T
  0.3413110901376086  0.5912723466364369  0.0006386250911632   T   T   T
  0.3241042600989275  0.6086481525177803  0.9694736007270990   T   T   T
  0.2818087563860843  0.6283561682788559  0.9676608590937548   T   T   T
  0.2615328353678024  0.6284536372051264  0.9365115758374785   T   T   T
  0.2191712436747153  0.6091347420917756  0.9346941022623838   T   T   T
  0.2018654956342232  0.5919399574208057  0.9035509003718900   T   T   T
  0.1720159521200841  0.5394064524404456  0.9017480557809279   T   T   T
  0.1628190508927645  0.5100357848629784  0.8706071903930095   T   T   T
  0.1543482068092175  0.4398775003692421  0.8687865992667341   T   T   T
  0.1559970973552964  0.4070449791740813  0.8376419234506614   T   T   T
  0.1714521045129516  0.3401049389436537  0.8358360785295034   T   T   T
  0.1834409360275728  0.3135719074209149  0.8046857688100104   T   T   T
  0.2182157771234827  0.2697635692774227  0.8028718707758813   T   T   T
  0.2369651945747009  0.2573999383624255  0.7717169713156551   T   T   T
  0.2807108204677746  0.2497826434087358  0.7698836048163074   T   T   T
  0.3006307188493977  0.2552859048618927  0.7387105246419736   T   T   T
  0.3402879223427107  0.2862368782277898  0.7368778022182099   T   T   T
  0.3553935464248710  0.3080189959045256  0.7057055012487510   T   T   T
  0.3791124130780759  0.3682453347894210  0.7038786385004769   T   T   T
  0.3848683375744031  0.3997938296549322  0.6727390545339631   T   T   T
  0.3857280389431210  0.4712702237807704  0.6709541112878483   T   T   T
  0.3805146696641231  0.5032132158210203  0.6398396529112276   T   T   T
  0.2575259933273344  0.6277836311471106  0.9969381083684539   T   T   T
  0.2155966941131879  0.6061076429453749  0.9951180843264282   T   T   T
  0.1986899054147884  0.5879599124195281  0.9639698695723524   T   T   T
  0.1699675482787555  0.5337964976461649  0.9621624383476259   T   T   T
  0.1614144349718103  0.5039294131452294  0.9310223047408641   T   T   T
  0.1544374216462288  0.4333415642568355  0.9292007608335595   T   T   T
  0.1567911702324736  0.4006287508799815  0.8980588934623270   T   T   T
  0.1736669930330024  0.3346002446120551  0.8962557708540544   T   T   T
  0.1862255930316863  0.3087746688460626  0.8651092842838466   T   T   T
  0.2219180225818249  0.2669689598664959  0.8632900004788695   T   T   T
  0.2409331284234071  0.2557064657185393  0.8321375771820740   T   T   T
  0.2848146048711655  0.2505620692795532  0.8303108726116406   T   T   T
  0.3046117443168228  0.2572007816835225  0.7991427925944805   T   T   T
  0.3436120731338974  0.2902955047340328  0.7973087178957741   T   T   T
  0.3582617423644550  0.3129083649864270  0.7661378290453129   T   T   T
  0.3807550865479428  0.3743576588265185  0.7643002830553556   T   T   T
  0.3858711016877194  0.4061869250432864  0.7331402133934048   T   T   T
  0.3852491770434412  0.4776862023250388  0.7313434205350333   T   T   T
  0.3793471097605376  0.5092797823579360  0.7002165104323268   T   T   T
  0.1601032204762802  0.4977422347879283  0.9914313527007508   T   T   T
  0.1546321258746062  0.4267994420774173  0.9896103287879043   T   T   T
  0.1576977254790393  0.3942406229379287  0.9584706576718816   T   T   T
  0.1759664852526939  0.3291969176523679  0.9566668056560630   T   T   T
  0.1890858376789026  0.3041007483340366  0.9255244599809984   T   T   T
  0.2256483395279432  0.2643287607192377  0.9237035713106678   T   T   T
  0.2449091236288083  0.2541642998728832  0.8925554820344672   T   T   T
  0.2888771689070495  0.2514926165389539  0.8907386048979617   T   T   T
  0.3085358119742097  0.2592647142544280  0.8595759753128647   T   T   T
  0.3468280802390709  0.2944843377745698  0.8577462895910557   T   T   T
  0.3610190616908540  0.3179041546503854  0.8265758425631660   T   T   T
  0.3822404253998215  0.3805418161684244  0.8247413464491657   T   T   T
  0.3867237778109214  0.4126314671637630  0.7935759654033845   T   T   T
  0.3845956241546347  0.4840562086701965  0.7917745056168570   T   T   T
  0.3780397971040443  0.5152967745175161  0.7606330596888711   T   T   T
  0.1920086578761939  0.2995835075485047  0.9859361183095743   T   T   T
  0.2293939885278178  0.2618814031878713  0.9841168482563702   T   T   T
  0.2488781662771302  0.2528064768463238  0.9529749555007001   T   T   T
  0.2928803984075046  0.2526000058664621  0.9511704116294410   T   T   T
  0.3123811452751468  0.2614975407880991  0.9200132969799455   T   T   T
  0.3499082454274571  0.2988287778873868  0.9181896712381246   T   T   T
  0.3636261039401418  0.3230224704286258  0.8870238145919132   T   T   T
  0.3835249585406473  0.3867956298825277  0.8852004158076383   T   T   T
  0.3873677059510854  0.4191159185630937  0.8540299504237936   T   T   T
  0.3837270822120828  0.4903777240835794  0.8522258878377400   T   T   T
  0.3765478745825988  0.5212191922805971  0.8210725983763112   T   T   T
  0.3161430855142271  0.2638956020959711  0.9804526708164332   T   T   T
  0.3528579766313200  0.3033105032341439  0.9786384033793070   T   T   T
  0.3660776258112435  0.3282660321749375  0.9474779836764498   T   T   T
  0.3846298276455613  0.3931050842725412  0.9456679287745260   T   T   T
  0.3878155157026626  0.4256221068176842  0.9144967403434805   T   T   T
  0.3826722330612142  0.4966403955798953  0.9126879795322083   T   T   T
  0.3748691858952853  0.5270626815021657  0.8815290424471414   T   T   T
  0.3880673739793110  0.4321461591379219  0.9749683386022880   T   T   T
  0.3814138562154312  0.5028287647669671  0.9731540842030668   T   T   T
  0.3730015909563704  0.5327941746119293  0.9419900547330400   T   T   T
  0.4793707235681106  0.4326883756331081  0.5003922206440620   T   T   T
  0.4872074799571670  0.3842367567625659  0.4741601163715006   T   T   T
  0.4866786549256015  0.5034152768625739  0.4929548002578844   T   T   T
  0.4272325128354398  0.5103174606330734  0.4575773898109615   T   T   T
 
  0.00000000E+00  0.00000000E+00  0.00000000E+00
  0.00000000E+00  0.00000000E+00  0.00000000E+00
  0.00000000E+00  0.00000000E+00  0.00000000E+00
  0.00000000E+00  0.00000000E+00  0.00000000E+00
  0.00000000E+00  0.00000000E+00  0.00000000E+00
  0.00000000E+00  0.00000000E+00  0.00000000E+00
  0.00000000E+00  0.00000000E+00  0.00000000E+00
  0.00000000E+00  0.00000000E+00  0.00000000E+00
  0.00000000E+00  0.00000000E+00  0.00000000E+00
  0.00000000E+00  0.00000000E+00  0.00000000E+00
  0.00000000E+00  0.00000000E+00  0.00000000E+00
  0.00000000E+00  0.00000000E+00  0.00000000E+00
  0.00000000E+00  0.00000000E+00  0.00000000E+00
  0.00000000E+00  0.00000000E+00  0.00000000E+00
  0.00000000E+00  0.00000000E+00  0.00000000E+00
  0.00000000E+00  0.00000000E+00  0.00000000E+00
  0.00000000E+00  0.00000000E+00  0.00000000E+00
  0.00000000E+00  0.00000000E+00  0.00000000E+00
  0.00000000E+00  0.00000000E+00  0.00000000E+00
  0.00000000E+00  0.00000000E+00  0.00000000E+00
  0.00000000E+00  0.00000000E+00  0.00000000E+00
  0.00000000E+00  0.00000000E+00  0.00000000E+00
  0.00000000E+00  0.00000000E+00  0.00000000E+00
  0.00000000E+00  0.00000000E+00  0.00000000E+00
  0.00000000E+00  0.00000000E+00  0.00000000E+00
  0.00000000E+00  0.00000000E+00  0.00000000E+00
  0.00000000E+00  0.00000000E+00  0.00000000E+00
  0.00000000E+00  0.00000000E+00  0.00000000E+00
  0.00000000E+00  0.00000000E+00  0.00000000E+00
  0.00000000E+00  0.00000000E+00  0.00000000E+00
  0.00000000E+00  0.00000000E+00  0.00000000E+00
  0.00000000E+00  0.00000000E+00  0.00000000E+00
  0.00000000E+00  0.00000000E+00  0.00000000E+00
  0.00000000E+00  0.00000000E+00  0.00000000E+00
  0.00000000E+00  0.00000000E+00  0.00000000E+00
  0.00000000E+00  0.00000000E+00  0.00000000E+00
  0.00000000E+00  0.00000000E+00  0.00000000E+00
  0.00000000E+00  0.00000000E+00  0.00000000E+00
  0.00000000E+00  0.00000000E+00  0.00000000E+00
  0.00000000E+00  0.00000000E+00  0.00000000E+00
  0.00000000E+00  0.00000000E+00  0.00000000E+00
  0.00000000E+00  0.00000000E+00  0.00000000E+00
  0.00000000E+00  0.00000000E+00  0.00000000E+00
  0.00000000E+00  0.00000000E+00  0.00000000E+00
  0.00000000E+00  0.00000000E+00  0.00000000E+00
  0.00000000E+00  0.00000000E+00  0.00000000E+00
  0.00000000E+00  0.00000000E+00  0.00000000E+00
  0.00000000E+00  0.00000000E+00  0.00000000E+00
  0.00000000E+00  0.00000000E+00  0.00000000E+00
  0.00000000E+00  0.00000000E+00  0.00000000E+00
  0.00000000E+00  0.00000000E+00  0.00000000E+00
  0.00000000E+00  0.00000000E+00  0.00000000E+00
  0.00000000E+00  0.00000000E+00  0.00000000E+00
  0.00000000E+00  0.00000000E+00  0.00000000E+00
  0.00000000E+00  0.00000000E+00  0.00000000E+00
  0.00000000E+00  0.00000000E+00  0.00000000E+00