 C  S  O  H                             
    1.000000000000000     
    32.3722991942999982    0.0000000000000000    0.0000000000000000
     0.0000000000000000   19.9214134216000005    0.0000000000000000
     0.0000000000000000    0.0000000000000000   40.4480476378999967
   C    S    O    H 
   364     1     2     1
Selective dynamics
Direct
  0.3710210442284065  0.5383558058500313  0.0024558335213669   F   F   F
  0.3688366397553011  0.5438817883752023  0.0629144055125366   F   F   F
  0.3381046425306806  0.5950452882912955  0.0610975620195049   F   F   F
  0.3205466645968826  0.6114290788751404  0.0299351853144998   F   F   F
  0.2778652959233483  0.6287982267619086  0.0281101280405380   F   F   F
  0.3664930205883081  0.5493074355338905  0.1233687066843316   F   F   F
  0.3347003841991167  0.5987370824561609  0.1215404984342996   F   F   F
  0.3168267915404712  0.6141068212317933  0.0903759095552701   F   F   F
  0.2737964754215056  0.6290011563161855  0.0885399193123035   F   F   F
  0.2535965720010935  0.6268735965474832  0.0573837674731337   F   F   F
  0.2121406320581229  0.6029226674611792  0.0555597896229472   F   F   F
  0.1956330395356787  0.5838658718417307  0.0244048081891464   F   F   F
  0.1680676258428448  0.5281359880586010  0.0225881754132828   F   F   F
  0.3639313469809338  0.5546179074150430  0.1838257907872745   F   F   F
  0.3311453068753636  0.6022956520609384  0.1819869240973375   F   F   F
  0.3129964038163351  0.6165954631457353  0.1508092354732682   F   F   F
  0.2696874009615229  0.6290005594977899  0.1489613122688098   F   F   F
  0.2495682989437569  0.6257208761078701  0.1178027399905588   F   F   F
  0.2086494897250120  0.5994505964657222  0.1159751060599348   F   F   F
  0.1925686408837848  0.5795002966773168  0.0848225023399678   F   F   F
  0.1661995112684309  0.5222592437950269  0.0829967547147916   F   F   F
  0.1589543672041174  0.4915362129461016  0.0518533111993946   F   F   F
  0.1549878074736384  0.4203256730589686  0.0500321157375652   F   F   F
  0.1587592596659633  0.3879631911661150  0.0188918861513514   F   F   F
  0.1783879617703406  0.3239739677906925  0.0170851638109255   F   F   F
  0.3611464432171445  0.5598425743041062  0.2442611876950451   F   F   F
  0.3274479994460293  0.6057421843622777  0.2424244833114031   F   F   F
  0.3090549785473655  0.6189914569101731  0.2112361008541939   F   F   F
  0.2655010402170461  0.6288840057791418  0.2093697564603261   F   F   F
  0.2455094261379713  0.6244117599953043  0.1782153903851409   F   F   F
  0.2051723242381769  0.5958145136347781  0.1763852511493198   F   F   F
  0.1895606860473933  0.5749508658032312  0.1452369906755209   F   F   F
  0.1644205394987779  0.5162704743160020  0.1434087358074052   F   F   F
  0.1578580306133262  0.4851622057415881  0.1122604080569332   F   F   F
  0.1554014588290471  0.4137808824696236  0.1104434436163899   F   F   F
  0.1598682914826881  0.3816621152257653  0.0792964577315232   F   F   F
  0.1808427672806943  0.3188119466853863  0.0774865327491767   F   F   F
  0.1950218759775879  0.2952453250143350  0.0463538357218098   F   F   F
  0.2331790432631493  0.2596314952611181  0.0445401101550686   F   F   F
  0.2528613554525450  0.2516463747708428  0.0134045726884437   F   F   F
  0.2968409507916547  0.2538734636154985  0.0116083894327588   F   F   F
  0.3701147131687534  0.5385392708680214  0.3358172249077569   F   F   F
  0.3583172160279489  0.5650839879429412  0.3046943039150634   F   F   F
  0.3236125623303252  0.6091187935748650  0.3028554968916026   F   F   F
  0.3050078050592262  0.6213079711510545  0.2716946294794269   F   F   F
  0.2612252513767146  0.6287251287038558  0.2697891254293836   F   F   F
  0.2414006382895906  0.6229637703352537  0.2386270215294743   F   F   F
  0.2017236104346409  0.5920628554037535  0.2367962073880179   F   F   F
  0.1866130988756183  0.5702529738164870  0.2056427973022608   F   F   F
  0.1627674556846088  0.5101792286916620  0.2038231562952433   F   F   F
  0.1568721075409769  0.4787264521777601  0.1726725587438551   F   F   F
  0.1559413330715387  0.4072430541897916  0.1708628579968590   F   F   F
  0.1610805782966480  0.3754097101544716  0.1397136150823073   F   F   F
  0.1833783120218371  0.3137685651732198  0.1378944156773798   F   F   F
  0.1980702599906650  0.2910377855783111  0.1067610757279454   F   F   F
  0.2369597505899463  0.2576030550549362  0.1049505921102920   F   F   F
  0.2568148798103138  0.2507318918559918  0.0738170855640732   F   F   F
  0.3007176796977618  0.2554336409325941  0.0720280684275281   F   F   F
  0.3198331046463707  0.2664808752751711  0.0408916776073980   F   F   F
  0.3556942488365493  0.3079212838884331  0.0390882426062831   F   F   F
  0.3684002726153750  0.3335922839783478  0.0079365196949581   F   F   F
  0.3855837531451982  0.3994164077504365  0.0061390570448552   F   F   F
  0.3682753566691161  0.5445037634897290  0.3961615033163426   F   F   F
  0.3555121148305744  0.5700330276148335  0.3652844026670934   F   F   F
  0.3195560599592966  0.6118398272361176  0.3633589751893282   F   F   F
  0.3007869904643954  0.6231629955993512  0.3321774202163397   F   F   F
  0.2568876516619980  0.6284822973039752  0.3302286840996302   F   F   F
  0.2372464040422813  0.6214832508990469  0.2990238996752126   F   F   F
  0.1982975800781901  0.5882630979411871  0.2972024016260519   F   F   F
  0.1837091882141451  0.5655143261454114  0.2660547932768083   F   F   F
  0.1612301862407080  0.5040353675246791  0.2642508749973089   F   F   F
  0.1560291820577007  0.4722480342889526  0.2331054967593502   F   F   F
  0.1566421671406246  0.4007518371946333  0.2313019436426984   F   F   F
  0.1624459111865733  0.3692291901997677  0.2001457112162726   F   F   F
  0.1860248588073148  0.3088758830626830  0.1983148102501033   F   F   F
  0.2011773364074614  0.2869800152896289  0.1671701177577063   F   F   F
  0.2407461060334910  0.2557380291318694  0.1653565352879625   F   F   F
  0.2607507337405224  0.2500038609905317  0.1342304946085875   F   F   F
  0.3045299137939210  0.2571370077883444  0.1324445634390798   F   F   F
  0.3234181493508714  0.2692827116646015  0.1013216858687684   F   F   F
  0.3583768296020651  0.3127041014128196  0.0995354533545196   F   F   F
  0.3705452082535885  0.3390866864026734  0.0683880134953796   F   F   F
  0.3863218449405323  0.4058305158654960  0.0666033080261172   F   F   F
  0.3881843856087528  0.4386201030626538  0.0354393188599076   F   F   F
  0.3800485476992606  0.5088888725824035  0.0336197357642760   F   F   F
  0.3649700839780010  0.5500124559259518  0.4566496347849878   F   F   F
  0.3516493536768124  0.5734482017175111  0.4257923570152826   F   F   F
  0.3151443575801238  0.6135632424447905  0.4237827775167489   F   F   F
  0.2963263053471508  0.6245370406213624  0.3925349690625168   F   F   F
  0.2523767905512315  0.6283650511527341  0.3906318471258032   F   F   F
  0.2329554837199410  0.6202171217729671  0.3594317731553716   F   F   F
  0.1947988749198544  0.5845214406468102  0.3576285033227649   F   F   F
  0.1808610791308922  0.5607081510803695  0.3264902090274688   F   F   F
  0.1598799459186893  0.4978579556658858  0.3247027809057172   F   F   F
  0.1553916174028060  0.4657453459489531  0.2935504394361175   F   F   F
  0.1575701806262586  0.3943479752159718  0.2917532954042485   F   F   F
  0.1639792571407099  0.3631422914562137  0.2605853245049943   F   F   F
  0.1887926484461744  0.3041041642522231  0.2587427012272272   F   F   F
  0.2043662933955233  0.2830459130678804  0.2275900684385661   F   F   F
  0.2445524245424622  0.2539326920385037  0.2257669112029319   F   F   F
  0.2646757280818406  0.2493960972225011  0.1946429571255308   F   F   F
  0.3082682486367432  0.2589478635397668  0.1928575590206236   F   F   F
  0.3268996942366869  0.2722237679427835  0.1617428091398523   F   F   F
  0.3608906206821558  0.3176192625946541  0.1599767910491678   F   F   F
  0.3725241480075070  0.3446831917622006  0.1288423510807846   F   F   F
  0.3868528387819907  0.4122966579163077  0.1270648471139282   F   F   F
  0.3880612645850974  0.4451655947945525  0.0959075890498724   F   F   F
  0.3784621712480885  0.5149466314720286  0.0940844203851654   F   F   F
  0.3633830197134102  0.5551502509372526  0.5171236458289385   F   F   F
  0.3486398274074958  0.5778771014741579  0.4856430098248055   F   F   F
  0.3113253180107236  0.6164098320295963  0.4839932790861354   F   F   F
  0.2920566941426088  0.6265127767351117  0.4529442404638289   F   F   F
  0.2479742471103208  0.6279878242685442  0.4511261385717731   F   F   F
  0.2286916711902194  0.6187589219648899  0.4199441112721161   F   F   F
  0.1914785891810808  0.5805810994119511  0.4181299272697458   F   F   F
  0.1781274334813361  0.5558557775477411  0.3869519617325707   F   F   F
  0.1587519507748070  0.4916772331821804  0.3851688078490128   F   F   F
  0.1549631596897143  0.4592904855598690  0.3540134568030382   F   F   F
  0.1587076855050356  0.3880350940635680  0.3522107615556322   F   F   F
  0.1657159744956402  0.3571776995929170  0.3210460241542847   F   F   F
  0.1916689828195217  0.2994265612814218  0.3191932185620772   F   F   F
  0.2076426433715142  0.2792218392221955  0.2880246401410034   F   F   F
  0.2483638315902255  0.2521788796101063  0.2861962771755842   F   F   F
  0.2685815549015871  0.2488119015590300  0.2550530964754785   F   F   F
  0.3119445601654860  0.2608147560690952  0.2532556492459008   F   F   F
  0.3302867380183514  0.2752234025918625  0.2221631969145079   F   F   F
  0.3632391646695794  0.3226361381445955  0.2204154490954622   F   F   F
  0.3742889825211435  0.3503944855192103  0.1893006446668579   F   F   F
  0.3871309361904096  0.4187886975058461  0.1875227285705847   F   F   F
  0.3876928878686101  0.4517096723878282  0.1563681266036312   F   F   F
  0.3766475936102651  0.5209102587246264  0.1545468994879258   F   F   F
  0.3607084869943122  0.5602721343474784  0.5775056516488846   F   F   F
  0.3466180749218211  0.5837411507714094  0.5461841823016229   F   F   F
  0.3082916370729123  0.6195494033354549  0.5444686603943083   F   F   F
  0.2883344085442161  0.6275870115963258  0.5134095446680362   F   F   F
  0.2443673170917151  0.6261189515286034  0.5116480773752698   F   F   F
  0.2249098976577315  0.6163993863981858  0.4804645747084635   F   F   F
  0.1885622288014659  0.5760511061825255  0.4786403507411450   F   F   F
  0.1756088555530155  0.5508023808440043  0.4474616775246147   F   F   F
  0.1577620146096947  0.4853685907614675  0.4456537853474245   F   F   F
  0.1547378893142550  0.4528087596555039  0.4144983535225677   F   F   F
  0.1599861536092604  0.3818039309252299  0.4126795370883656   F   F   F
  0.1676272418793516  0.3513248416533159  0.3815078487128574   F   F   F
  0.1946308890420667  0.2948907344848521  0.3796561067676620   F   F   F
  0.2109839369317683  0.2754794320714069  0.3484677895300266   F   F   F
  0.2522073051191853  0.2505053959275187  0.3466380004591727   F   F   F
  0.2724743984716582  0.2482128640326806  0.3154874966011008   F   F   F
  0.3155809928500659  0.2626239808522968  0.3136780177369047   F   F   F
  0.3335835842082417  0.2782918845619164  0.2826052345993375   F   F   F
  0.3653640296864609  0.3277690573224064  0.2808574983735355   F   F   F
  0.3758079154465293  0.3562057130658829  0.2497422013938717   F   F   F
  0.3871130278644159  0.4252935508201290  0.2479464342256179   F   F   F
  0.3870704572580266  0.4582204013768845  0.2168131763129040   F   F   F
  0.3745986288314072  0.5268060793196767  0.2150017424990764   F   F   F
  0.3583652308612244  0.5650072507619015  0.6379033200315263   F   F   F
  0.3436852408565940  0.5881053242349168  0.6067818644302534   F   F   F
  0.3048291577559610  0.6217573673536307  0.6050063851286112   F   F   F
  0.2848815136605296  0.6286545094656759  0.5738267474173000   F   F   F
  0.2409363268893898  0.6239117710853463  0.5721045874113244   F   F   F
  0.2216182984775443  0.6131163608496735  0.5410025314060718   F   F   F
  0.1860257751465042  0.5710128454309782  0.5391631983277136   F   F   F
  0.1735035561284661  0.5451521233264884  0.5079768158797293   F   F   F
  0.1569523480690833  0.4789225655973013  0.5061479107139419   F   F   F
  0.1546242326490912  0.4462534059488306  0.4749608308078237   F   F   F
  0.1613437729869887  0.3755950397557015  0.4731390441103684   F   F   F
  0.1695888351168051  0.3455617668916489  0.4419660700107499   F   F   F
  0.1976760582208641  0.2905140985808856  0.4401254417044242   F   F   F
  0.2143637697341063  0.2718900739271035  0.4089508200185819   F   F   F
  0.2560873611213523  0.2491286758587137  0.4071196698302444   F   F   F
  0.2763850665611187  0.2479384019448574  0.3759726077392997   F   F   F
  0.3190109823803908  0.2657706217940614  0.3742113283027990   F   F   F
  0.3366722032269109  0.2819887230006017  0.3430411526317343   F   F   F
  0.3672358173368409  0.3333175469298268  0.3412425987141816   F   F   F
  0.3771401222721877  0.3621385097894390  0.3101526265794021   F   F   F
  0.3868812096102658  0.4319181097784295  0.3083105939266488   F   F   F
  0.3861650014484681  0.4647761963363735  0.2772212131555705   F   F   F
  0.3723565877319075  0.5326649162303951  0.2754463194365400   F   F   F
  0.3559911210088842  0.5696453323749964  0.6983550935208029   F   F   F
  0.3407518877814155  0.5917489730230940  0.6672440887219935   F   F   F
  0.3012206794784618  0.6230820723019832  0.6654702813180222   F   F   F
  0.2811676012950173  0.6290486004215765  0.6343251384770241   F   F   F
  0.2373616741115896  0.6216736484751237  0.6325765859170716   F   F   F
  0.2184245653617225  0.6096023759119333  0.6014454447803672   F   F   F
  0.1836352854828505  0.5658277972319468  0.5996226820326100   F   F   F
  0.1715292825344079  0.5394067522843216  0.5684467611290458   F   F   F
  0.1561642123962912  0.4724149012428569  0.5666116388201274   F   F   F
  0.1545069499987264  0.4396485892386934  0.5354382567561942   F   F   F
  0.1626779012715645  0.3693832244651389  0.5336154106037228   F   F   F
  0.1716420157894802  0.3398550012908075  0.5024577007457438   F   F   F
  0.2008403715895071  0.2863984706984297  0.5006593481400330   F   F   F
  0.2178966593950804  0.2686845041096859  0.4694579117288669   F   F   F
  0.2600096262859992  0.2483763142082793  0.4676337498469891   F   F   F
  0.2803113192524265  0.2483988036596827  0.4364510370616088   F   F   F
  0.3222864066540083  0.2697515739272873  0.4346563254984090   F   F   F
  0.3394342952450558  0.2870993232381664  0.4035300165877587   F   F   F
  0.3687234738334340  0.3403771481199271  0.4016880965253122   F   F   F
  0.3782002071076036  0.3687259759697810  0.3705231096372543   F   F   F
  0.3866937923172458  0.4386671052902500  0.3685799152228952   F   F   F
  0.3851282075449305  0.4714545424580123  0.3375014639523357   F   F   F
  0.3534132114480926  0.5742251987706268  0.7588178738968026   F   F   F
  0.3377473812792715  0.5953272275736694  0.7276841337340727   F   F   F
  0.2975285348596302  0.6242490016686943  0.7259124613489405   F   F   F
  0.2773654259840086  0.6290404243561696  0.6947897708022097   F   F   F
  0.2337672131475514  0.6193449988469695  0.6930158896584828   F   F   F
  0.2151132535308022  0.6062166799552458  0.6618712511159686   F   F   F
  0.1811965254464880  0.5606669028012305  0.6600591313328508   F   F   F
  0.1696292862446001  0.5336207747884885  0.6288991541243334   F   F   F
  0.1554620062043597  0.4659224611418651  0.6270716126650200   F   F   F
  0.1544643494434652  0.4330473680020361  0.5959038832011672   F   F   F
  0.1640959975259548  0.3632926273851211  0.5940831696922189   F   F   F
  0.1737241478920808  0.3342834164286614  0.5629245634131408   F   F   F
  0.2041560067077981  0.2826399446121357  0.5611398976128399   F   F   F
  0.2215469802006425  0.2657723763672308  0.5299679355706672   F   F   F
  0.2641348047328194  0.2477613680240935  0.5281463394598092   F   F   F
  0.2843320019123183  0.2488966098005108  0.4969495604630723   F   F   F
  0.3258292460393619  0.2726294519338808  0.4950995734346364   F   F   F
  0.3424258898136330  0.2924621470633184  0.4639663822281008   F   F   F
  0.3707147301707252  0.3467915010971367  0.4621804865289150   F   F   F
  0.3793423856767149  0.3768977941842167  0.4308438564604771   F   F   F
  0.3887639768158238  0.4456572336021551  0.4285743552492036   F   F   F
  0.3854514582786948  0.4780714488060909  0.3977938286470817   F   F   F
  0.3506123278201301  0.5787083245063442  0.8192738041859400   F   F   F
  0.3345464759357384  0.5988808282692730  0.7881287682779643   F   F   F
  0.2937265482392846  0.6255216549112959  0.7863519394148000   F   F   F
  0.2735074378658950  0.6290542437400646  0.7552209675125496   F   F   F
  0.2301425836169813  0.6169835399776318  0.7534342659238860   F   F   F
  0.2117887837192001  0.6028240985567237  0.7222981255842811   F   F   F
  0.1787819001684312  0.5555230438056924  0.7204947466855387   F   F   F
  0.1677771213286690  0.5278285954899715  0.6893449578141428   F   F   F
  0.1549308001289447  0.4594526953008682  0.6875243900687238   F   F   F
  0.1545443137704225  0.4265215498942609  0.6563600489118784   F   F   F
  0.1656557576213373  0.3573438052876696  0.6545444597990198   F   F   F
  0.1759105849581033  0.3288984610074195  0.6233946505959338   F   F   F
  0.2075509163818623  0.2792037436090169  0.6216175965898785   F   F   F
  0.2253447351171545  0.2634078592939986  0.5904660356876761   F   F   F
  0.2682961815466953  0.2479427665907039  0.5886476467979875   F   F   F
  0.2884341496763696  0.2497816075182868  0.5574412602275274   F   F   F
  0.3296269358723691  0.2750339999039610  0.5555460647847852   F   F   F
  0.3456042141085476  0.2952885530055767  0.5243577308417926   F   F   F
  0.3725093759290630  0.3517800205655064  0.5225883906882487   F   F   F
  0.3806359590560007  0.3829760740765948  0.4915641330708240   F   F   F
  0.3895227552603799  0.4524842045252200  0.4902555663063168   F   F   F
  0.3939996898997933  0.4897568261200149  0.4583044824723430   F   F   F
  0.3476605938436279  0.5830604978847447  0.8797320687370984   F   F   F
  0.3312010453241712  0.6023110236184195  0.8485765577397189   F   F   F
  0.2898418250179020  0.6266852031417969  0.8467905097505266   F   F   F
  0.2695914268446487  0.6290457214286533  0.8156507647940003   F   F   F
  0.2265011538900481  0.6145616769945192  0.8138537179463299   F   F   F
  0.2084731016458150  0.5993496737333359  0.7827233717849467   F   F   F
  0.1764567881797916  0.5503000764928103  0.7809260656632446   F   F   F
  0.1660272488689714  0.5220156858486149  0.7497799086413224   F   F   F
  0.1545978441263145  0.4529741526544200  0.7479640038008881   F   F   F
  0.1548497265642794  0.4200333470565667  0.7168143442787667   F   F   F
  0.1674236088821388  0.3515146582975319  0.7150033801660314   F   F   F
  0.1782753953509371  0.3236916021283562  0.6838522181421851   F   F   F
  0.2110462791195786  0.2759939622242271  0.6820674020815574   F   F   F
  0.2291910838384723  0.2613539218068937  0.6509179683746211   F   F   F
  0.2724708159501077  0.2485890402200894  0.6490952014590121   F   F   F
  0.2925598675132122  0.2514789979138001  0.6179149103393229   F   F   F
  0.3333531105183951  0.2783015815610028  0.6160309240991424   F   F   F
  0.3491374195470058  0.2986785277967030  0.5848220416503409   F   F   F
  0.3751208633952459  0.3563255486820154  0.5830427537108847   F   F   F
  0.3819814641647099  0.3875024130681979  0.5519318614761488   F   F   F
  0.3860293180118362  0.4585690856259959  0.5502551432593137   F   F   F
  0.3834506050354918  0.4912175333408513  0.5191590031285571   F   F   F
  0.3445801864110294  0.5872329837976338  0.9401886321265280   F   F   F
  0.3277373327756621  0.6055637603524175  0.9090282501739964   F   F   F
  0.2858874696579434  0.6276484359567291  0.9072311819588137   F   F   F
  0.2656206121316274  0.6288750928619109  0.8760851767512605   F   F   F
  0.2228667373024180  0.6119793295506781  0.8742790489535892   F   F   F
  0.2051943070406494  0.5957563845113896  0.8431423611208899   F   F   F
  0.1742308008694735  0.5449568412351766  0.8413484850074369   F   F   F
  0.1643932870624951  0.5161139130528554  0.8102090614013733   F   F   F
  0.1544268172772618  0.4464685473704435  0.8083938267177473   F   F   F
  0.1553672788884342  0.4135597263901118  0.7772521684236509   F   F   F
  0.1693882171230214  0.3457925481151278  0.7754437869441233   F   F   F
  0.1808075789181700  0.3186103008994436  0.7442907044554659   F   F   F
  0.2146220375432080  0.2728736599535111  0.7424893514277571   F   F   F
  0.2330909403876831  0.2594117406294600  0.7113431611252565   F   F   F
  0.2766382240025607  0.2492684515448857  0.7095141685865940   F   F   F
  0.2966592907283641  0.2534705178310617  0.6783445449704999   F   F   F
  0.3369279280959603  0.2822122395500628  0.6764693049751855   F   F   F
  0.3523887748365411  0.3031484576221644  0.6452554985154322   F   F   F
  0.3772473267271010  0.3621386641717450  0.6434129489054428   F   F   F
  0.3835285066248204  0.3933935302734284  0.6122690265699759   F   F   F
  0.3858384952426235  0.4648199869635121  0.6104998387697478   F   F   F
  0.3812361989667252  0.4971735143709068  0.5794521301723776   F   F   F
  0.3413928662312600  0.5912191892379610  0.0006452437356401   F   F   F
  0.3241855533410671  0.6086123002771373  0.9694825441430339   F   F   F
  0.2818962926047703  0.6283590604351517  0.9676729047053882   F   F   F
  0.2616253706367644  0.6284723318075294  0.9365202766415379   F   F   F
  0.2192552205862270  0.6091886077483935  0.9347073734109230   F   F   F
  0.2019535689593042  0.5919958460783121  0.9035631742869015   F   F   F
  0.1720917373363307  0.5394771782918255  0.9017664651421313   F   F   F
  0.1628898010698165  0.5101050463300396  0.8706287966228956   F   F   F
  0.1544051032865212  0.4399495848520800  0.8688124343170287   F   F   F
  0.1560416863974083  0.4071121791454857  0.8376717801242819   F   F   F
  0.1714956797624438  0.3401727706359168  0.8358658026096961   F   F   F
  0.1834840849479065  0.3136503041486165  0.8047173520096180   F   F   F
  0.2182709016508539  0.2698686059107587  0.8029028200660520   F   F   F
  0.2370276148168671  0.2575444258525366  0.7717540351949452   F   F   F
  0.2807713252827995  0.2499168092641852  0.7699216749129363   F   F   F
  0.3006911311882305  0.2553791345861782  0.7387545050098367   F   F   F
  0.3403671254527225  0.2862384414111858  0.7368900343870379   F   F   F
  0.3554608934174155  0.3079732784064220  0.7057009286129343   F   F   F
  0.3791854025603172  0.3681861227375549  0.7038354331953087   F   F   F
  0.3848602834551471  0.3997147237184890  0.6726642661498303   F   F   F
  0.3857546677301116  0.4711974936249419  0.6708659005335136   F   F   F
  0.3804328658492224  0.5031500944469585  0.6397459162994608   F   F   F
  0.2576193871116033  0.6278029243132579  0.9969541918921436   F   F   F
  0.2156814123412119  0.6061617699258619  0.9951356557304507   F   F   F
  0.1987669247870230  0.5880283026741111  0.9639855129326946   F   F   F
  0.1700366170574483  0.5338702644283941  0.9621796490310004   F   F   F
  0.1614811497496689  0.5040029167910873  0.9310403508393037   F   F   F
  0.1544967103840378  0.4334132702635074  0.9292211601335296   F   F   F
  0.1568460579225359  0.4006963305028393  0.8980813427478367   F   F   F
  0.1737113806481076  0.3346581400181208  0.8962779123537459   F   F   F
  0.1862701798927304  0.3088332494180506  0.8651330773312580   F   F   F
  0.2219592897425642  0.2670162618032137  0.8633108539432399   F   F   F
  0.2409843966444853  0.2557809553243331  0.8321619819069426   F   F   F
  0.2848662563080708  0.2506140341734664  0.8303326663315715   F   F   F
  0.3046733310754348  0.2572661265218059  0.7991708718712545   F   F   F
  0.3436905966609842  0.2902945252211069  0.7973208440049646   F   F   F
  0.3583568742717418  0.3128889847660403  0.7661441328679146   F   F   F
  0.3808824584529305  0.3743016169047522  0.7642846192297910   F   F   F
  0.3859972723265557  0.4061101141586292  0.7331040756797975   F   F   F
  0.3854217487753857  0.4776086304610203  0.7313007428077398   F   F   F
  0.3794967219711225  0.5091958317812626  0.7001573611596541   F   F   F
  0.1601689098821026  0.4978126908618918  0.9914465793822416   F   F   F
  0.1546904048903599  0.4268674139433912  0.9896247465391639   F   F   F
  0.1577516574713016  0.3943039663329984  0.9584872311347254   F   F   F
  0.1760065187475490  0.3292465495565082  0.9566831031133631   F   F   F
  0.1891218938577097  0.3041406197286420  0.9255421879593584   F   F   F
  0.2256740581997221  0.2643371420319838  0.9237192695077212   F   F   F
  0.2449407555362413  0.2541741757748781  0.8925731698671342   F   F   F
  0.2889089823007609  0.2514707086190100  0.8907540073269615   F   F   F
  0.3085823068256062  0.2592551504524252  0.8595973492372337   F   F   F
  0.3468824423229009  0.2944529644672471  0.8577589623055957   F   F   F
  0.3610958237876929  0.3178704301070852  0.8265898463785746   F   F   F
  0.3823430847820575  0.3804802754635759  0.8247457047248119   F   F   F
  0.3868618939672928  0.4125551204056848  0.7935705195886342   F   F   F
  0.3847735897842171  0.4839789141927469  0.7917671348037914   F   F   F
  0.3782504265218520  0.5152108800292794  0.7606121489919033   F   F   F
  0.1920435928595055  0.2996164760311757  0.9859488111234640   F   F   F
  0.2294178857776643  0.2618801251533256  0.9841295000803072   F   F   F
  0.2488987755310816  0.2527871548935607  0.9529883237582411   F   F   F
  0.2929018957571756  0.2525478861187267  0.9511827501056445   F   F   F
  0.3124085986895651  0.2614548724755608  0.9200285705710911   F   F   F
  0.3499369175766347  0.2987831273563444  0.9182009556225168   F   F   F
  0.3636708037577989  0.3229761800492952  0.8870380313126276   F   F   F
  0.3835838269416598  0.3867331697787506  0.8852109097130665   F   F   F
  0.3874607163247177  0.4190450494934979  0.8540392076034635   F   F   F
  0.3838460134866040  0.4903048045228218  0.8522347012534510   F   F   F
  0.3767094347880331  0.5211400168807785  0.8210729650056194   F   F   F
  0.3161689174666833  0.2638461859078731  0.9804612847302963   F   F   F
  0.3528829419639976  0.3032625293640905  0.9786441320706487   F   F   F
  0.3661041724825083  0.3282161053465202  0.9474864661016298   F   F   F
  0.3846657863735530  0.3930439424841481  0.9456751037616300   F   F   F
  0.3878675733688794  0.4255575386427992  0.9145064583170992   F   F   F
  0.3827422129583056  0.4965739347648821  0.9126975840241727   F   F   F
  0.3749680170007110  0.5269939301557116  0.8815367626892296   F   F   F
  0.3881118181450134  0.4320849680288603  0.9749719893257023   F   F   F
  0.3814734585300101  0.5027661616896779  0.9731577799988713   F   F   F
  0.3730671204066383  0.5327335311782875  0.9419966107372133   F   F   F
  0.4794266990002405  0.4365175271228922  0.4990338797692440   T   T   T
  0.4868167151100792  0.3927716398555825  0.4707683031745281   T   T   T
  0.4852055582831951  0.5084995824174989  0.4941163489859609   T   T   T
  0.4261070730780402  0.5105140282321738  0.4574574313671586   T   T   T
 
  0.00000000E+00  0.00000000E+00  0.00000000E+00
  0.00000000E+00  0.00000000E+00  0.00000000E+00
  0.00000000E+00  0.00000000E+00  0.00000000E+00
  0.00000000E+00  0.00000000E+00  0.00000000E+00
  0.00000000E+00  0.00000000E+00  0.00000000E+00
  0.00000000E+00  0.00000000E+00  0.00000000E+00
  0.00000000E+00  0.00000000E+00  0.00000000E+00
  0.00000000E+00  0.00000000E+00  0.00000000E+00
  0.00000000E+00  0.00000000E+00  0.00000000E+00
  0.00000000E+00  0.00000000E+00  0.00000000E+00
  0.00000000E+00  0.00000000E+00  0.00000000E+00
  0.00000000E+00  0.00000000E+00  0.00000000E+00
  0.00000000E+00  0.00000000E+00  0.00000000E+00
  0.00000000E+00  0.00000000E+00  0.00000000E+00
  0.00000000E+00  0.00000000E+00  0.00000000E+00
  0.00000000E+00  0.00000000E+00  0.00000000E+00
  0.00000000E+00  0.00000000E+00  0.00000000E+00
  0.00000000E+00  0.00000000E+00  0.00000000E+00
  0.00000000E+00  0.00000000E+00  0.00000000E+00
  0.00000000E+00  0.00000000E+00  0.00000000E+00
  0.00000000E+00  0.00000000E+00  0.00000000E+00
  0.00000000E+00  0.00000000E+00  0.00000000E+00
  0.00000000E+00  0.00000000E+00  0.00000000E+00
  0.00000000E+00  0.00000000E+00  0.00000000E+00
  0.00000000E+00  0.00000000E+00  0.00000000E+00
  0.00000000E+00  0.00000000E+00  0.00000000E+00
  0.00000000E+00  0.00000000E+00  0.00000000E+00
  0.00000000E+00  0.00000000E+00  0.00000000E+00
  0.00000000E+00  0.00000000E+00  0.00000000E+00
  0.00000000E+00  0.00000000E+00  0.00000000E+00
  0.00000000E+00  0.00000000E+00  0.00000000E+00
  0.00000000E+00  0.00000000E+00  0.00000000E+00
  0.00000000E+00  0.00000000E+00  0.00000000E+00
  0.00000000E+00  0.00000000E+00  0.00000000E+00
  0.00000000E+00  0.00000000E+00  0.00000000E+00
  0.00000000E+00  0.00000000E+00  0.00000000E+00
  0.00000000E+00  0.00000000E+00  0.00000000E+00
  0.00000000E+00  0.00000000E+00  0.00000000E+00
  0.00000000E+00  0.00000000E+00  0.00000000E+00
  0.00000000E+00  0.00000000E+00  0.00000000E+00
  0.00000000E+00  0.00000000E+00  0.00000000E+00
  0.00000000E+00  0.00000000E+00  0.00000000E+00
  0.00000000E+00  0.00000000E+00  0.00000000E+00
  0.00000000E+00  0.00000000E+00  0.00000000E+00
  0.00000000E+00  0.00000000E+00  0.00000000E+00
  0.00000000E+00  0.00000000E+00  0.00000000E+00
  0.00000000E+00  0.00000000E+00  0.00000000E+00
  0.00000000E+00  0.00000000E+00  0.00000000E+00
  0.00000000E+00  0.00000000E+00  0.00000000E+00
  0.00000000E+00  0.00000000E+00  0.00000000E+00
  0.00000000E+00  0.00000000E+00  0.00000000E+00
  0.00000000E+00  0.00000000E+00  0.00000000E+00
  0.00000000E+00  0.00000000E+00  0.00000000E+00
  0.00000000E+00  0.00000000E+00  0.00000000E+00
  0.00000000E+00  0.00000000E+00  0.00000000E+00
  0.00000000E+00  0.00000000E+00  0.00000000E+00