 C  S  O  H                             
    1.000000000000000     
    32.3722991942999982    0.0000000000000000    0.0000000000000000
     0.0000000000000000   19.9214134216000005    0.0000000000000000
     0.0000000000000000    0.0000000000000000   40.4480476378999967
   C    S    O    H 
   364     1     2     1
Selective dynamics
Direct
  0.3710210442284094  0.5383558058500306  0.0024558335213641   F   F   F
  0.3688366397552976  0.5438817883752054  0.0629144055125346   F   F   F
  0.3381046425306810  0.5950452882912963  0.0610975620195079   F   F   F
  0.3205466645968826  0.6114290788751404  0.0299351853144998   F   F   F
  0.2778652959233483  0.6287982267619086  0.0281101280405380   F   F   F
  0.3664930205883076  0.5493074355338929  0.1233687066843335   F   F   F
  0.3347003841991165  0.5987370824561596  0.1215404984342976   F   F   F
  0.3168267915404705  0.6141068212317926  0.0903759095552689   F   F   F
  0.2737964754215056  0.6290011563161855  0.0885399193123035   F   F   F
  0.2535965720010935  0.6268735965474832  0.0573837674731337   F   F   F
  0.2121406320581229  0.6029226674611792  0.0555597896229472   F   F   F
  0.1956330395356787  0.5838658718417307  0.0244048081891464   F   F   F
  0.1680676258428448  0.5281359880586010  0.0225881754132828   F   F   F
  0.3639313469809309  0.5546179074150430  0.1838257907872734   F   F   F
  0.3311453068753649  0.6022956520609412  0.1819869240973387   F   F   F
  0.3129964038163328  0.6165954631457337  0.1508092354732715   F   F   F
  0.2696874009615229  0.6290005594977899  0.1489613122688098   F   F   F
  0.2495682989437569  0.6257208761078701  0.1178027399905588   F   F   F
  0.2086494897250120  0.5994505964657222  0.1159751060599348   F   F   F
  0.1925686408837848  0.5795002966773168  0.0848225023399678   F   F   F
  0.1661995112684309  0.5222592437950269  0.0829967547147916   F   F   F
  0.1589543672041174  0.4915362129461016  0.0518533111993946   F   F   F
  0.1549878074736384  0.4203256730589686  0.0500321157375652   F   F   F
  0.1587592596659633  0.3879631911661150  0.0188918861513514   F   F   F
  0.1783879617703406  0.3239739677906925  0.0170851638109255   F   F   F
  0.3611464432171461  0.5598425743041076  0.2442611876950479   F   F   F
  0.3274479994460301  0.6057421843622791  0.2424244833114033   F   F   F
  0.3090549785473654  0.6189914569101699  0.2112361008541966   F   F   F
  0.2655010402170461  0.6288840057791418  0.2093697564603261   F   F   F
  0.2455094261379713  0.6244117599953043  0.1782153903851409   F   F   F
  0.2051723242381769  0.5958145136347781  0.1763852511493198   F   F   F
  0.1895606860473933  0.5749508658032312  0.1452369906755209   F   F   F
  0.1644205394987779  0.5162704743160020  0.1434087358074052   F   F   F
  0.1578580306133262  0.4851622057415881  0.1122604080569332   F   F   F
  0.1554014588290471  0.4137808824696236  0.1104434436163899   F   F   F
  0.1598682914826881  0.3816621152257653  0.0792964577315232   F   F   F
  0.1808427672806943  0.3188119466853863  0.0774865327491767   F   F   F
  0.1950218759775879  0.2952453250143350  0.0463538357218098   F   F   F
  0.2331790432631493  0.2596314952611181  0.0445401101550686   F   F   F
  0.2528613554525450  0.2516463747708428  0.0134045726884437   F   F   F
  0.2968409507916547  0.2538734636154985  0.0116083894327588   F   F   F
  0.3701147131687506  0.5385392708680210  0.3358172249077600   F   F   F
  0.3583172160279521  0.5650839879429408  0.3046943039150621   F   F   F
  0.3236125623303256  0.6091187935748676  0.3028554968916007   F   F   F
  0.3050078050592258  0.6213079711510527  0.2716946294794239   F   F   F
  0.2612252513767146  0.6287251287038558  0.2697891254293836   F   F   F
  0.2414006382895906  0.6229637703352537  0.2386270215294743   F   F   F
  0.2017236104346409  0.5920628554037535  0.2367962073880179   F   F   F
  0.1866130988756183  0.5702529738164870  0.2056427973022608   F   F   F
  0.1627674556846088  0.5101792286916620  0.2038231562952433   F   F   F
  0.1568721075409769  0.4787264521777601  0.1726725587438551   F   F   F
  0.1559413330715387  0.4072430541897916  0.1708628579968590   F   F   F
  0.1610805782966480  0.3754097101544716  0.1397136150823073   F   F   F
  0.1833783120218371  0.3137685651732198  0.1378944156773798   F   F   F
  0.1980702599906650  0.2910377855783111  0.1067610757279454   F   F   F
  0.2369597505899463  0.2576030550549362  0.1049505921102920   F   F   F
  0.2568148798103138  0.2507318918559918  0.0738170855640732   F   F   F
  0.3007176796977589  0.2554336409325936  0.0720280684275272   F   F   F
  0.3198331046463711  0.2664808752751703  0.0408916776073961   F   F   F
  0.3556942488365471  0.3079212838884328  0.0390882426062819   F   F   F
  0.3684002726153716  0.3335922839783513  0.0079365196949604   F   F   F
  0.3855837531451971  0.3994164077504387  0.0061390570448543   F   F   F
  0.3682753566691142  0.5445037634897260  0.3961615033163434   F   F   F
  0.3555121148305752  0.5700330276148368  0.3652844026670955   F   F   F
  0.3195560599592986  0.6118398272361163  0.3633589751893278   F   F   F
  0.3007869904643948  0.6231629955993525  0.3321774202163370   F   F   F
  0.2568876516619980  0.6284822973039752  0.3302286840996302   F   F   F
  0.2372464040422813  0.6214832508990469  0.2990238996752126   F   F   F
  0.1982975800781901  0.5882630979411871  0.2972024016260519   F   F   F
  0.1837091882141451  0.5655143261454114  0.2660547932768083   F   F   F
  0.1612301862407080  0.5040353675246791  0.2642508749973089   F   F   F
  0.1560291820577007  0.4722480342889526  0.2331054967593502   F   F   F
  0.1566421671406246  0.4007518371946333  0.2313019436426984   F   F   F
  0.1624459111865733  0.3692291901997677  0.2001457112162726   F   F   F
  0.1860248588073148  0.3088758830626830  0.1983148102501033   F   F   F
  0.2011773364074614  0.2869800152896289  0.1671701177577063   F   F   F
  0.2407461060334910  0.2557380291318694  0.1653565352879625   F   F   F
  0.2607507337405224  0.2500038609905317  0.1342304946085875   F   F   F
  0.3045299137939205  0.2571370077883466  0.1324445634390785   F   F   F
  0.3234181493508681  0.2692827116646038  0.1013216858687709   F   F   F
  0.3583768296020616  0.3127041014128211  0.0995354533545197   F   F   F
  0.3705452082535868  0.3390866864026703  0.0683880134953778   F   F   F
  0.3863218449405335  0.4058305158654931  0.0666033080261198   F   F   F
  0.3881843856087529  0.4386201030626560  0.0354393188599047   F   F   F
  0.3800485476992605  0.5088888725824017  0.0336197357642745   F   F   F
  0.3649700839780016  0.5500124559259534  0.4566496347849892   F   F   F
  0.3516493536768144  0.5734482017175125  0.4257923570152792   F   F   F
  0.3151443575801233  0.6135632424447937  0.4237827775167499   F   F   F
  0.2963263053471542  0.6245370406213641  0.3925349690625192   F   F   F
  0.2523767905512315  0.6283650511527341  0.3906318471258032   F   F   F
  0.2329554837199410  0.6202171217729671  0.3594317731553716   F   F   F
  0.1947988749198544  0.5845214406468102  0.3576285033227649   F   F   F
  0.1808610791308922  0.5607081510803695  0.3264902090274688   F   F   F
  0.1598799459186893  0.4978579556658858  0.3247027809057172   F   F   F
  0.1553916174028060  0.4657453459489531  0.2935504394361175   F   F   F
  0.1575701806262586  0.3943479752159718  0.2917532954042485   F   F   F
  0.1639792571407099  0.3631422914562137  0.2605853245049943   F   F   F
  0.1887926484461744  0.3041041642522231  0.2587427012272272   F   F   F
  0.2043662933955233  0.2830459130678804  0.2275900684385661   F   F   F
  0.2445524245424622  0.2539326920385037  0.2257669112029319   F   F   F
  0.2646757280818406  0.2493960972225011  0.1946429571255308   F   F   F
  0.3082682486367453  0.2589478635397635  0.1928575590206239   F   F   F
  0.3268996942366904  0.2722237679427827  0.1617428091398557   F   F   F
  0.3608906206821582  0.3176192625946510  0.1599767910491692   F   F   F
  0.3725241480075048  0.3446831917622020  0.1288423510807821   F   F   F
  0.3868528387819888  0.4122966579163085  0.1270648471139308   F   F   F
  0.3880612645850951  0.4451655947945524  0.0959075890498705   F   F   F
  0.3784621712480887  0.5149466314720272  0.0940844203851631   F   F   F
  0.3633830197134124  0.5551502509372493  0.5171236458289351   F   F   F
  0.3486398274074934  0.5778771014741613  0.4856430098248063   F   F   F
  0.3113253180107236  0.6164098320295963  0.4839932790861354   F   F   F
  0.2920566941426088  0.6265127767351117  0.4529442404638289   F   F   F
  0.2479742471103208  0.6279878242685442  0.4511261385717731   F   F   F
  0.2286916711902194  0.6187589219648899  0.4199441112721161   F   F   F
  0.1914785891810808  0.5805810994119511  0.4181299272697458   F   F   F
  0.1781274334813361  0.5558557775477411  0.3869519617325707   F   F   F
  0.1587519507748070  0.4916772331821804  0.3851688078490128   F   F   F
  0.1549631596897143  0.4592904855598690  0.3540134568030382   F   F   F
  0.1587076855050356  0.3880350940635680  0.3522107615556322   F   F   F
  0.1657159744956402  0.3571776995929170  0.3210460241542847   F   F   F
  0.1916689828195217  0.2994265612814218  0.3191932185620772   F   F   F
  0.2076426433715142  0.2792218392221955  0.2880246401410034   F   F   F
  0.2483638315902255  0.2521788796101063  0.2861962771755842   F   F   F
  0.2685815549015871  0.2488119015590300  0.2550530964754785   F   F   F
  0.3119445601654860  0.2608147560690952  0.2532556492459008   F   F   F
  0.3302867380183494  0.2752234025918646  0.2221631969145080   F   F   F
  0.3632391646695775  0.3226361381445949  0.2204154490954627   F   F   F
  0.3742889825211467  0.3503944855192117  0.1893006446668604   F   F   F
  0.3871309361904088  0.4187886975058470  0.1875227285705829   F   F   F
  0.3876928878686116  0.4517096723878263  0.1563681266036344   F   F   F
  0.3766475936102672  0.5209102587246296  0.1545468994879262   F   F   F
  0.3607084869943122  0.5602721343474762  0.5775056516488879   F   F   F
  0.3466180749218186  0.5837411507714062  0.5461841823016264   F   F   F
  0.3082916370729109  0.6195494033354546  0.5444686603943082   F   F   F
  0.2883344085442161  0.6275870115963258  0.5134095446680362   F   F   F
  0.2443673170917151  0.6261189515286034  0.5116480773752698   F   F   F
  0.2249098976577315  0.6163993863981858  0.4804645747084635   F   F   F
  0.1885622288014659  0.5760511061825255  0.4786403507411450   F   F   F
  0.1756088555530155  0.5508023808440043  0.4474616775246147   F   F   F
  0.1577620146096947  0.4853685907614675  0.4456537853474245   F   F   F
  0.1547378893142550  0.4528087596555039  0.4144983535225677   F   F   F
  0.1599861536092604  0.3818039309252299  0.4126795370883656   F   F   F
  0.1676272418793516  0.3513248416533159  0.3815078487128574   F   F   F
  0.1946308890420667  0.2948907344848521  0.3796561067676620   F   F   F
  0.2109839369317683  0.2754794320714069  0.3484677895300266   F   F   F
  0.2522073051191853  0.2505053959275187  0.3466380004591727   F   F   F
  0.2724743984716582  0.2482128640326806  0.3154874966011008   F   F   F
  0.3155809928500659  0.2626239808522968  0.3136780177369047   F   F   F
  0.3335835842082421  0.2782918845619133  0.2826052345993380   F   F   F
  0.3653640296864644  0.3277690573224047  0.2808574983735336   F   F   F
  0.3758079154465302  0.3562057130658804  0.2497422013938702   F   F   F
  0.3871130278644169  0.4252935508201280  0.2479464342256165   F   F   F
  0.3870704572580277  0.4582204013768826  0.2168131763129029   F   F   F
  0.3745986288314038  0.5268060793196762  0.2150017424990762   F   F   F
  0.3583652308612270  0.5650072507619043  0.6379033200315244   F   F   F
  0.3436852408565920  0.5881053242349146  0.6067818644302549   F   F   F
  0.3048291577559578  0.6217573673536282  0.6050063851286093   F   F   F
  0.2848815136605296  0.6286545094656759  0.5738267474173000   F   F   F
  0.2409363268893898  0.6239117710853463  0.5721045874113244   F   F   F
  0.2216182984775443  0.6131163608496735  0.5410025314060718   F   F   F
  0.1860257751465042  0.5710128454309782  0.5391631983277136   F   F   F
  0.1735035561284661  0.5451521233264884  0.5079768158797293   F   F   F
  0.1569523480690833  0.4789225655973013  0.5061479107139419   F   F   F
  0.1546242326490912  0.4462534059488306  0.4749608308078237   F   F   F
  0.1613437729869887  0.3755950397557015  0.4731390441103684   F   F   F
  0.1695888351168051  0.3455617668916489  0.4419660700107499   F   F   F
  0.1976760582208641  0.2905140985808856  0.4401254417044242   F   F   F
  0.2143637697341063  0.2718900739271035  0.4089508200185819   F   F   F
  0.2560873611213523  0.2491286758587137  0.4071196698302444   F   F   F
  0.2763850665611187  0.2479384019448574  0.3759726077392997   F   F   F
  0.3190109823803916  0.2657706217940611  0.3742113283028010   F   F   F
  0.3366722032269130  0.2819887230005995  0.3430411526317316   F   F   F
  0.3672358173368435  0.3333175469298242  0.3412425987141848   F   F   F
  0.3771401222721879  0.3621385097894389  0.3101526265793991   F   F   F
  0.3868812096102650  0.4319181097784294  0.3083105939266492   F   F   F
  0.3861650014484715  0.4647761963363701  0.2772212131555705   F   F   F
  0.3723565877319066  0.5326649162303921  0.2754463194365432   F   F   F
  0.3559911210088826  0.5696453323749950  0.6983550935208024   F   F   F
  0.3407518877814147  0.5917489730230968  0.6672440887219907   F   F   F
  0.3012206794784644  0.6230820723019797  0.6654702813180218   F   F   F
  0.2811676012950173  0.6290486004215765  0.6343251384770241   F   F   F
  0.2373616741115896  0.6216736484751237  0.6325765859170716   F   F   F
  0.2184245653617225  0.6096023759119333  0.6014454447803672   F   F   F
  0.1836352854828505  0.5658277972319468  0.5996226820326100   F   F   F
  0.1715292825344079  0.5394067522843216  0.5684467611290458   F   F   F
  0.1561642123962912  0.4724149012428569  0.5666116388201274   F   F   F
  0.1545069499987264  0.4396485892386934  0.5354382567561942   F   F   F
  0.1626779012715645  0.3693832244651389  0.5336154106037228   F   F   F
  0.1716420157894802  0.3398550012908075  0.5024577007457438   F   F   F
  0.2008403715895071  0.2863984706984297  0.5006593481400330   F   F   F
  0.2178966593950804  0.2686845041096859  0.4694579117288669   F   F   F
  0.2600096262859992  0.2483763142082793  0.4676337498469891   F   F   F
  0.2803113192524265  0.2483988036596827  0.4364510370616088   F   F   F
  0.3222864066540082  0.2697515739272878  0.4346563254984111   F   F   F
  0.3394342952450570  0.2870993232381668  0.4035300165877591   F   F   F
  0.3687234738334340  0.3403771481199283  0.4016880965253107   F   F   F
  0.3782002071076050  0.3687259759697820  0.3705231096372562   F   F   F
  0.3866937923172478  0.4386671052902511  0.3685799152228987   F   F   F
  0.3851282075449303  0.4714545424580157  0.3375014639523328   F   F   F
  0.3534132114480943  0.5742251987706245  0.7588178738968060   F   F   F
  0.3377473812792746  0.5953272275736697  0.7276841337340753   F   F   F
  0.2975285348596302  0.6242490016686943  0.7259124613489405   F   F   F
  0.2773654259840086  0.6290404243561696  0.6947897708022097   F   F   F
  0.2337672131475514  0.6193449988469695  0.6930158896584828   F   F   F
  0.2151132535308022  0.6062166799552458  0.6618712511159686   F   F   F
  0.1811965254464880  0.5606669028012305  0.6600591313328508   F   F   F
  0.1696292862446001  0.5336207747884885  0.6288991541243334   F   F   F
  0.1554620062043597  0.4659224611418651  0.6270716126650200   F   F   F
  0.1544643494434652  0.4330473680020361  0.5959038832011672   F   F   F
  0.1640959975259548  0.3632926273851211  0.5940831696922189   F   F   F
  0.1737241478920808  0.3342834164286614  0.5629245634131408   F   F   F
  0.2041560067077981  0.2826399446121357  0.5611398976128399   F   F   F
  0.2215469802006425  0.2657723763672308  0.5299679355706672   F   F   F
  0.2641348047328194  0.2477613680240935  0.5281463394598092   F   F   F
  0.2843320019123183  0.2488966098005108  0.4969495604630723   F   F   F
  0.3258292460393616  0.2726294519338815  0.4950995734346334   F   F   F
  0.3424258898136358  0.2924621470633187  0.4639663822281003   F   F   F
  0.3707147301707246  0.3467915010971398  0.4621804865289155   F   F   F
  0.3793423856767181  0.3768977941842147  0.4308438564604788   F   F   F
  0.3887639768158257  0.4456572336021556  0.4285743552492041   F   F   F
  0.3854514582786969  0.4780714488060933  0.3977938286470808   F   F   F
  0.3506123278201305  0.5787083245063417  0.8192738041859385   F   F   F
  0.3345464759357383  0.5988808282692702  0.7881287682779663   F   F   F
  0.2937265482392846  0.6255216549112959  0.7863519394148000   F   F   F
  0.2735074378658950  0.6290542437400646  0.7552209675125496   F   F   F
  0.2301425836169813  0.6169835399776318  0.7534342659238860   F   F   F
  0.2117887837192001  0.6028240985567237  0.7222981255842811   F   F   F
  0.1787819001684312  0.5555230438056924  0.7204947466855387   F   F   F
  0.1677771213286690  0.5278285954899715  0.6893449578141428   F   F   F
  0.1549308001289447  0.4594526953008682  0.6875243900687238   F   F   F
  0.1545443137704225  0.4265215498942609  0.6563600489118784   F   F   F
  0.1656557576213373  0.3573438052876696  0.6545444597990198   F   F   F
  0.1759105849581033  0.3288984610074195  0.6233946505959338   F   F   F
  0.2075509163818623  0.2792037436090169  0.6216175965898785   F   F   F
  0.2253447351171545  0.2634078592939986  0.5904660356876761   F   F   F
  0.2682961815466953  0.2479427665907039  0.5886476467979875   F   F   F
  0.2884341496763696  0.2497816075182868  0.5574412602275274   F   F   F
  0.3296269358723694  0.2750339999039602  0.5555460647847819   F   F   F
  0.3456042141085451  0.2952885530055778  0.5243577308417894   F   F   F
  0.3725093759290621  0.3517800205655059  0.5225883906882506   F   F   F
  0.3806359590559990  0.3829760740765975  0.4915641330708271   F   F   F
  0.3895227552603766  0.4524842045252217  0.4902555663063201   F   F   F
  0.3939996898997936  0.4897568261200134  0.4583044824723463   F   F   F
  0.3476605938436277  0.5830604978847423  0.8797320687370971   F   F   F
  0.3312010453241703  0.6023110236184166  0.8485765577397169   F   F   F
  0.2898418250179020  0.6266852031417969  0.8467905097505266   F   F   F
  0.2695914268446487  0.6290457214286533  0.8156507647940003   F   F   F
  0.2265011538900481  0.6145616769945192  0.8138537179463299   F   F   F
  0.2084731016458150  0.5993496737333359  0.7827233717849467   F   F   F
  0.1764567881797916  0.5503000764928103  0.7809260656632446   F   F   F
  0.1660272488689714  0.5220156858486149  0.7497799086413224   F   F   F
  0.1545978441263145  0.4529741526544200  0.7479640038008881   F   F   F
  0.1548497265642794  0.4200333470565667  0.7168143442787667   F   F   F
  0.1674236088821388  0.3515146582975319  0.7150033801660314   F   F   F
  0.1782753953509371  0.3236916021283562  0.6838522181421851   F   F   F
  0.2110462791195786  0.2759939622242271  0.6820674020815574   F   F   F
  0.2291910838384723  0.2613539218068937  0.6509179683746211   F   F   F
  0.2724708159501077  0.2485890402200894  0.6490952014590121   F   F   F
  0.2925598675132122  0.2514789979138001  0.6179149103393229   F   F   F
  0.3333531105183976  0.2783015815610009  0.6160309240991392   F   F   F
  0.3491374195470024  0.2986785277967052  0.5848220416503379   F   F   F
  0.3751208633952425  0.3563255486820158  0.5830427537108850   F   F   F
  0.3819814641647111  0.3875024130681963  0.5519318614761504   F   F   F
  0.3860293180118388  0.4585690856259984  0.5502551432593127   F   F   F
  0.3834506050354902  0.4912175333408512  0.5191590031285582   F   F   F
  0.3445801864110276  0.5872329837976337  0.9401886321265279   F   F   F
  0.3277373327756655  0.6055637603524181  0.9090282501739961   F   F   F
  0.2858874696579434  0.6276484359567291  0.9072311819588137   F   F   F
  0.2656206121316274  0.6288750928619109  0.8760851767512605   F   F   F
  0.2228667373024180  0.6119793295506781  0.8742790489535892   F   F   F
  0.2051943070406494  0.5957563845113896  0.8431423611208899   F   F   F
  0.1742308008694735  0.5449568412351766  0.8413484850074369   F   F   F
  0.1643932870624951  0.5161139130528554  0.8102090614013733   F   F   F
  0.1544268172772618  0.4464685473704435  0.8083938267177473   F   F   F
  0.1553672788884342  0.4135597263901118  0.7772521684236509   F   F   F
  0.1693882171230214  0.3457925481151278  0.7754437869441233   F   F   F
  0.1808075789181700  0.3186103008994436  0.7442907044554659   F   F   F
  0.2146220375432080  0.2728736599535111  0.7424893514277571   F   F   F
  0.2330909403876831  0.2594117406294600  0.7113431611252565   F   F   F
  0.2766382240025607  0.2492684515448857  0.7095141685865940   F   F   F
  0.2966592907283641  0.2534705178310617  0.6783445449704999   F   F   F
  0.3369279280959570  0.2822122395500657  0.6764693049751845   F   F   F
  0.3523887748365426  0.3031484576221654  0.6452554985154301   F   F   F
  0.3772473267271028  0.3621386641717463  0.6434129489054459   F   F   F
  0.3835285066248204  0.3933935302734251  0.6122690265699763   F   F   F
  0.3858384952426205  0.4648199869635086  0.6104998387697494   F   F   F
  0.3812361989667228  0.4971735143709096  0.5794521301723811   F   F   F
  0.3413928662312575  0.5912191892379624  0.0006452437356427   F   F   F
  0.3241855533410697  0.6086123002771393  0.9694825441430330   F   F   F
  0.2818962926047703  0.6283590604351517  0.9676729047053882   F   F   F
  0.2616253706367644  0.6284723318075294  0.9365202766415379   F   F   F
  0.2192552205862270  0.6091886077483935  0.9347073734109230   F   F   F
  0.2019535689593042  0.5919958460783121  0.9035631742869015   F   F   F
  0.1720917373363307  0.5394771782918255  0.9017664651421313   F   F   F
  0.1628898010698165  0.5101050463300396  0.8706287966228956   F   F   F
  0.1544051032865212  0.4399495848520800  0.8688124343170287   F   F   F
  0.1560416863974083  0.4071121791454857  0.8376717801242819   F   F   F
  0.1714956797624438  0.3401727706359168  0.8358658026096961   F   F   F
  0.1834840849479065  0.3136503041486165  0.8047173520096180   F   F   F
  0.2182709016508539  0.2698686059107587  0.8029028200660520   F   F   F
  0.2370276148168671  0.2575444258525366  0.7717540351949452   F   F   F
  0.2807713252827995  0.2499168092641852  0.7699216749129363   F   F   F
  0.3006911311882300  0.2553791345861802  0.7387545050098342   F   F   F
  0.3403671254527207  0.2862384414111853  0.7368900343870397   F   F   F
  0.3554608934174160  0.3079732784064225  0.7057009286129317   F   F   F
  0.3791854025603150  0.3681861227375553  0.7038354331953095   F   F   F
  0.3848602834551452  0.3997147237184867  0.6726642661498320   F   F   F
  0.3857546677301147  0.4711974936249425  0.6708659005335131   F   F   F
  0.3804328658492221  0.5031500944469610  0.6397459162994634   F   F   F
  0.2576193871116033  0.6278029243132579  0.9969541918921436   F   F   F
  0.2156814123412119  0.6061617699258619  0.9951356557304507   F   F   F
  0.1987669247870230  0.5880283026741111  0.9639855129326946   F   F   F
  0.1700366170574483  0.5338702644283941  0.9621796490310004   F   F   F
  0.1614811497496689  0.5040029167910873  0.9310403508393037   F   F   F
  0.1544967103840378  0.4334132702635074  0.9292211601335296   F   F   F
  0.1568460579225359  0.4006963305028393  0.8980813427478367   F   F   F
  0.1737113806481076  0.3346581400181208  0.8962779123537459   F   F   F
  0.1862701798927304  0.3088332494180506  0.8651330773312580   F   F   F
  0.2219592897425642  0.2670162618032137  0.8633108539432399   F   F   F
  0.2409843966444853  0.2557809553243331  0.8321619819069426   F   F   F
  0.2848662563080708  0.2506140341734664  0.8303326663315715   F   F   F
  0.3046733310754361  0.2572661265218051  0.7991708718712561   F   F   F
  0.3436905966609817  0.2902945252211038  0.7973208440049658   F   F   F
  0.3583568742717392  0.3128889847660423  0.7661441328679148   F   F   F
  0.3808824584529269  0.3743016169047543  0.7642846192297917   F   F   F
  0.3859972723265525  0.4061101141586309  0.7331040756797954   F   F   F
  0.3854217487753843  0.4776086304610183  0.7313007428077393   F   F   F
  0.3794967219711211  0.5091958317812654  0.7001573611596509   F   F   F
  0.1601689098821026  0.4978126908618918  0.9914465793822416   F   F   F
  0.1546904048903599  0.4268674139433912  0.9896247465391639   F   F   F
  0.1577516574713016  0.3943039663329984  0.9584872311347254   F   F   F
  0.1760065187475490  0.3292465495565082  0.9566831031133631   F   F   F
  0.1891218938577097  0.3041406197286420  0.9255421879593584   F   F   F
  0.2256740581997221  0.2643371420319838  0.9237192695077212   F   F   F
  0.2449407555362413  0.2541741757748781  0.8925731698671342   F   F   F
  0.2889089823007609  0.2514707086190100  0.8907540073269615   F   F   F
  0.3085823068256062  0.2592551504524252  0.8595973492372337   F   F   F
  0.3468824423228990  0.2944529644672486  0.8577589623055963   F   F   F
  0.3610958237876946  0.3178704301070858  0.8265898463785744   F   F   F
  0.3823430847820562  0.3804802754635729  0.8247457047248096   F   F   F
  0.3868618939672941  0.4125551204056855  0.7935705195886343   F   F   F
  0.3847735897842174  0.4839789141927487  0.7917671348037885   F   F   F
  0.3782504265218535  0.5152108800292792  0.7606121489919049   F   F   F
  0.1920435928595055  0.2996164760311757  0.9859488111234640   F   F   F
  0.2294178857776643  0.2618801251533256  0.9841295000803072   F   F   F
  0.2488987755310816  0.2527871548935607  0.9529883237582411   F   F   F
  0.2929018957571756  0.2525478861187267  0.9511827501056445   F   F   F
  0.3124085986895669  0.2614548724755596  0.9200285705710897   F   F   F
  0.3499369175766333  0.2987831273563456  0.9182009556225140   F   F   F
  0.3636708037578009  0.3229761800492979  0.8870380313126267   F   F   F
  0.3835838269416565  0.3867331697787489  0.8852109097130656   F   F   F
  0.3874607163247192  0.4190450494934968  0.8540392076034639   F   F   F
  0.3838460134866069  0.4903048045228245  0.8522347012534526   F   F   F
  0.3767094347880303  0.5211400168807762  0.8210729650056209   F   F   F
  0.3161689174666865  0.2638461859078708  0.9804612847302955   F   F   F
  0.3528829419639953  0.3032625293640912  0.9786441320706516   F   F   F
  0.3661041724825057  0.3282161053465183  0.9474864661016321   F   F   F
  0.3846657863735511  0.3930439424841458  0.9456751037616297   F   F   F
  0.3878675733688823  0.4255575386428024  0.9145064583170972   F   F   F
  0.3827422129583078  0.4965739347648815  0.9126975840241702   F   F   F
  0.3749680170007089  0.5269939301557119  0.8815367626892296   F   F   F
  0.3881118181450134  0.4320849680288587  0.9749719893257022   F   F   F
  0.3814734585300075  0.5027661616896748  0.9731577799988707   F   F   F
  0.3730671204066351  0.5327335311782898  0.9419966107372165   F   F   F
  0.4796296796351859  0.4381740444502258  0.4982156144470899   T   T   T
  0.4864724936884343  0.3959693091447384  0.4692942516074410   T   T   T
  0.4848054893586622  0.5104681141247887  0.4940208507958175   T   T   T
  0.4260727642768757  0.5106033837312696  0.4574107570291927   T   T   T
 
  0.00000000E+00  0.00000000E+00  0.00000000E+00
  0.00000000E+00  0.00000000E+00  0.00000000E+00
  0.00000000E+00  0.00000000E+00  0.00000000E+00
  0.00000000E+00  0.00000000E+00  0.00000000E+00
  0.00000000E+00  0.00000000E+00  0.00000000E+00
  0.00000000E+00  0.00000000E+00  0.00000000E+00
  0.00000000E+00  0.00000000E+00  0.00000000E+00
  0.00000000E+00  0.00000000E+00  0.00000000E+00
  0.00000000E+00  0.00000000E+00  0.00000000E+00
  0.00000000E+00  0.00000000E+00  0.00000000E+00
  0.00000000E+00  0.00000000E+00  0.00000000E+00
  0.00000000E+00  0.00000000E+00  0.00000000E+00
  0.00000000E+00  0.00000000E+00  0.00000000E+00
  0.00000000E+00  0.00000000E+00  0.00000000E+00
  0.00000000E+00  0.00000000E+00  0.00000000E+00
  0.00000000E+00  0.00000000E+00  0.00000000E+00
  0.00000000E+00  0.00000000E+00  0.00000000E+00
  0.00000000E+00  0.00000000E+00  0.00000000E+00
  0.00000000E+00  0.00000000E+00  0.00000000E+00
  0.00000000E+00  0.00000000E+00  0.00000000E+00
  0.00000000E+00  0.00000000E+00  0.00000000E+00
  0.00000000E+00  0.00000000E+00  0.00000000E+00
  0.00000000E+00  0.00000000E+00  0.00000000E+00
  0.00000000E+00  0.00000000E+00  0.00000000E+00
  0.00000000E+00  0.00000000E+00  0.00000000E+00
  0.00000000E+00  0.00000000E+00  0.00000000E+00
  0.00000000E+00  0.00000000E+00  0.00000000E+00
  0.00000000E+00  0.00000000E+00  0.00000000E+00
  0.00000000E+00  0.00000000E+00  0.00000000E+00
  0.00000000E+00  0.00000000E+00  0.00000000E+00
  0.00000000E+00  0.00000000E+00  0.00000000E+00
  0.00000000E+00  0.00000000E+00  0.00000000E+00
  0.00000000E+00  0.00000000E+00  0.00000000E+00
  0.00000000E+00  0.00000000E+00  0.00000000E+00
  0.00000000E+00  0.00000000E+00  0.00000000E+00
  0.00000000E+00  0.00000000E+00  0.00000000E+00
  0.00000000E+00  0.00000000E+00  0.00000000E+00
  0.00000000E+00  0.00000000E+00  0.00000000E+00
  0.00000000E+00  0.00000000E+00  0.00000000E+00
  0.00000000E+00  0.00000000E+00  0.00000000E+00
  0.00000000E+00  0.00000000E+00  0.00000000E+00
  0.00000000E+00  0.00000000E+00  0.00000000E+00
  0.00000000E+00  0.00000000E+00  0.00000000E+00
  0.00000000E+00  0.00000000E+00  0.00000000E+00
  0.00000000E+00  0.00000000E+00  0.00000000E+00
  0.00000000E+00  0.00000000E+00  0.00000000E+00
  0.00000000E+00  0.00000000E+00  0.00000000E+00
  0.00000000E+00  0.00000000E+00  0.00000000E+00
  0.00000000E+00  0.00000000E+00  0.00000000E+00
  0.00000000E+00  0.00000000E+00  0.00000000E+00
  0.00000000E+00  0.00000000E+00  0.00000000E+00
  0.00000000E+00  0.00000000E+00  0.00000000E+00
  0.00000000E+00  0.00000000E+00  0.00000000E+00
  0.00000000E+00  0.00000000E+00  0.00000000E+00
  0.00000000E+00  0.00000000E+00  0.00000000E+00
  0.00000000E+00  0.00000000E+00  0.00000000E+00