Ge Se                                   
    1.000000000000000     
    23.1486008672739842    0.0000000000000000    0.0000000000000000
     0.0000000000000000   27.1594512754624837    0.0000000000000000
     0.0000000000000000    0.0000000000000000   22.1703538108823395
   Ge   Se
   288   288
Direct
  0.0416666666860053  0.0192736496115060  0.0617701359972571
  0.2083333333526696  0.0192736496115060  0.0617701359972571
  0.3750000000193410  0.0192736496115060  0.0617701359972571
  0.5416666666860053  0.0192736496115060  0.0617701359972571
  0.7083333333526696  0.0192736496115060  0.0617701359972571
  0.8750000000193410  0.0192736496115060  0.0617701359972571
  0.0416666666860053  0.1859403162781703  0.0617701359972571
  0.2083333333526696  0.1859403162781703  0.0617701359972571
  0.3750000000193410  0.1859403162781703  0.0617701359972571
  0.5416666666860053  0.1859403162781703  0.0617701359972571
  0.7083333333526696  0.1859403162781703  0.0617701359972571
  0.8750000000193410  0.1859403162781703  0.0617701359972571
  0.0416666666860053  0.3526069829448346  0.0617701359972571
  0.2083333333526696  0.3526069829448346  0.0617701359972571
  0.3750000000193410  0.3526069829448346  0.0617701359972571
  0.5416666666860053  0.3526069829448346  0.0617701359972571
  0.7083333333526696  0.3526069829448346  0.0617701359972571
  0.8750000000193410  0.3526069829448346  0.0617701359972571
  0.0416666666860053  0.5192736496115060  0.0617701359972571
  0.2083333333526696  0.5192736496115060  0.0617701359972571
  0.3750000000193410  0.5192736496115060  0.0617701359972571
  0.5416666666860053  0.5192736496115060  0.0617701359972571
  0.7083333333526696  0.5192736496115060  0.0617701359972571
  0.8750000000193410  0.5192736496115060  0.0617701359972571
  0.0416666666860053  0.6859403162781703  0.0617701359972571
  0.2083333333526696  0.6859403162781703  0.0617701359972571
  0.3750000000193410  0.6859403162781703  0.0617701359972571
  0.5416666666860053  0.6859403162781703  0.0617701359972571
  0.7083333333526696  0.6859403162781703  0.0617701359972571
  0.8750000000193410  0.6859403162781703  0.0617701359972571
  0.0416666666860053  0.8526069829448346  0.0617701359972571
  0.2083333333526696  0.8526069829448346  0.0617701359972571
  0.3750000000193410  0.8526069829448346  0.0617701359972571
  0.5416666666860053  0.8526069829448346  0.0617701359972571
  0.7083333333526696  0.8526069829448346  0.0617701359972571
  0.8750000000193410  0.8526069829448346  0.0617701359972571
  0.0416666666860053  0.0192736496115060  0.5617701359972571
  0.2083333333526696  0.0192736496115060  0.5617701359972571
  0.3750000000193410  0.0192736496115060  0.5617701359972571
  0.5416666666860053  0.0192736496115060  0.5617701359972571
  0.7083333333526696  0.0192736496115060  0.5617701359972571
  0.8750000000193410  0.0192736496115060  0.5617701359972571
  0.0416666666860053  0.1859403162781703  0.5617701359972571
  0.2083333333526696  0.1859403162781703  0.5617701359972571
  0.3750000000193410  0.1859403162781703  0.5617701359972571
  0.5416666666860053  0.1859403162781703  0.5617701359972571
  0.7083333333526696  0.1859403162781703  0.5617701359972571
  0.8750000000193410  0.1859403162781703  0.5617701359972571
  0.0416666666860053  0.3526069829448346  0.5617701359972571
  0.2083333333526696  0.3526069829448346  0.5617701359972571
  0.3750000000193410  0.3526069829448346  0.5617701359972571
  0.5416666666860053  0.3526069829448346  0.5617701359972571
  0.7083333333526696  0.3526069829448346  0.5617701359972571
  0.8750000000193410  0.3526069829448346  0.5617701359972571
  0.0416666666860053  0.5192736496115060  0.5617701359972571
  0.2083333333526696  0.5192736496115060  0.5617701359972571
  0.3750000000193410  0.5192736496115060  0.5617701359972571
  0.5416666666860053  0.5192736496115060  0.5617701359972571
  0.7083333333526696  0.5192736496115060  0.5617701359972571
  0.8750000000193410  0.5192736496115060  0.5617701359972571
  0.0416666666860053  0.6859403162781703  0.5617701359972571
  0.2083333333526696  0.6859403162781703  0.5617701359972571
  0.3750000000193410  0.6859403162781703  0.5617701359972571
  0.5416666666860053  0.6859403162781703  0.5617701359972571
  0.7083333333526696  0.6859403162781703  0.5617701359972571
  0.8750000000193410  0.6859403162781703  0.5617701359972571
  0.0416666666860053  0.8526069829448346  0.5617701359972571
  0.2083333333526696  0.8526069829448346  0.5617701359972571
  0.3750000000193410  0.8526069829448346  0.5617701359972571
  0.5416666666860053  0.8526069829448346  0.5617701359972571
  0.7083333333526696  0.8526069829448346  0.5617701359972571
  0.8750000000193410  0.8526069829448346  0.5617701359972571
  0.1250000000150422  0.1473930208098508  0.4382298565625788
  0.2916666666817065  0.1473930208098508  0.4382298565625788
  0.4583333333483779  0.1473930208098508  0.4382298565625788
  0.6250000000150422  0.1473930208098508  0.4382298565625788
  0.7916666666817065  0.1473930208098508  0.4382298565625788
  0.9583333333483779  0.1473930208098508  0.4382298565625788
  0.1250000000150422  0.3140596874765151  0.4382298565625788
  0.2916666666817065  0.3140596874765151  0.4382298565625788
  0.4583333333483779  0.3140596874765151  0.4382298565625788
  0.6250000000150422  0.3140596874765151  0.4382298565625788
  0.7916666666817065  0.3140596874765151  0.4382298565625788
  0.9583333333483779  0.3140596874765151  0.4382298565625788
  0.1250000000150422  0.4807263541431794  0.4382298565625788
  0.2916666666817065  0.4807263541431794  0.4382298565625788
  0.4583333333483779  0.4807263541431794  0.4382298565625788
  0.6250000000150422  0.4807263541431794  0.4382298565625788
  0.7916666666817065  0.4807263541431794  0.4382298565625788
  0.9583333333483779  0.4807263541431794  0.4382298565625788
  0.1250000000150422  0.6473930208098508  0.4382298565625788
  0.2916666666817065  0.6473930208098508  0.4382298565625788
  0.4583333333483779  0.6473930208098508  0.4382298565625788
  0.6250000000150422  0.6473930208098508  0.4382298565625788
  0.7916666666817065  0.6473930208098508  0.4382298565625788
  0.9583333333483779  0.6473930208098508  0.4382298565625788
  0.1250000000150422  0.8140596874765151  0.4382298565625788
  0.2916666666817065  0.8140596874765151  0.4382298565625788
  0.4583333333483779  0.8140596874765151  0.4382298565625788
  0.6250000000150422  0.8140596874765151  0.4382298565625788
  0.7916666666817065  0.8140596874765151  0.4382298565625788
  0.9583333333483779  0.8140596874765151  0.4382298565625788
  0.1250000000150422  0.9807263541431794  0.4382298565625788
  0.2916666666817065  0.9807263541431794  0.4382298565625788
  0.4583333333483779  0.9807263541431794  0.4382298565625788
  0.6250000000150422  0.9807263541431794  0.4382298565625788
  0.7916666666817065  0.9807263541431794  0.4382298565625788
  0.9583333333483779  0.9807263541431794  0.4382298565625788
  0.1250000000150422  0.1473930208098508  0.9382298565625788
  0.2916666666817065  0.1473930208098508  0.9382298565625788
  0.4583333333483779  0.1473930208098508  0.9382298565625788
  0.6250000000150422  0.1473930208098508  0.9382298565625788
  0.7916666666817065  0.1473930208098508  0.9382298565625788
  0.9583333333483779  0.1473930208098508  0.9382298565625788
  0.1250000000150422  0.3140596874765151  0.9382298565625788
  0.2916666666817065  0.3140596874765151  0.9382298565625788
  0.4583333333483779  0.3140596874765151  0.9382298565625788
  0.6250000000150422  0.3140596874765151  0.9382298565625788
  0.7916666666817065  0.3140596874765151  0.9382298565625788
  0.9583333333483779  0.3140596874765151  0.9382298565625788
  0.1250000000150422  0.4807263541431794  0.9382298565625788
  0.2916666666817065  0.4807263541431794  0.9382298565625788
  0.4583333333483779  0.4807263541431794  0.9382298565625788
  0.6250000000150422  0.4807263541431794  0.9382298565625788
  0.7916666666817065  0.4807263541431794  0.9382298565625788
  0.9583333333483779  0.4807263541431794  0.9382298565625788
  0.1250000000150422  0.6473930208098508  0.9382298565625788
  0.2916666666817065  0.6473930208098508  0.9382298565625788
  0.4583333333483779  0.6473930208098508  0.9382298565625788
  0.6250000000150422  0.6473930208098508  0.9382298565625788
  0.7916666666817065  0.6473930208098508  0.9382298565625788
  0.9583333333483779  0.6473930208098508  0.9382298565625788
  0.1250000000150422  0.8140596874765151  0.9382298565625788
  0.2916666666817065  0.8140596874765151  0.9382298565625788
  0.4583333333483779  0.8140596874765151  0.9382298565625788
  0.6250000000150422  0.8140596874765151  0.9382298565625788
  0.7916666666817065  0.8140596874765151  0.9382298565625788
  0.9583333333483779  0.8140596874765151  0.9382298565625788
  0.1250000000150422  0.9807263541431794  0.9382298565625788
  0.2916666666817065  0.9807263541431794  0.9382298565625788
  0.4583333333483779  0.9807263541431794  0.9382298565625788
  0.6250000000150422  0.9807263541431794  0.9382298565625788
  0.7916666666817065  0.9807263541431794  0.9382298565625788
  0.9583333333483779  0.9807263541431794  0.9382298565625788
  0.1250000000150422  0.1026069791993081  0.1882298565805272
  0.2916666666817065  0.1026069791993081  0.1882298565805272
  0.4583333333483779  0.1026069791993081  0.1882298565805272
  0.6250000000150422  0.1026069791993081  0.1882298565805272
  0.7916666666817065  0.1026069791993081  0.1882298565805272
  0.9583333333483779  0.1026069791993081  0.1882298565805272
  0.1250000000150422  0.2692736458659724  0.1882298565805272
  0.2916666666817065  0.2692736458659724  0.1882298565805272
  0.4583333333483779  0.2692736458659724  0.1882298565805272
  0.6250000000150422  0.2692736458659724  0.1882298565805272
  0.7916666666817065  0.2692736458659724  0.1882298565805272
  0.9583333333483779  0.2692736458659724  0.1882298565805272
  0.1250000000150422  0.4359403125326438  0.1882298565805272
  0.2916666666817065  0.4359403125326438  0.1882298565805272
  0.4583333333483779  0.4359403125326438  0.1882298565805272
  0.6250000000150422  0.4359403125326438  0.1882298565805272
  0.7916666666817065  0.4359403125326438  0.1882298565805272
  0.9583333333483779  0.4359403125326438  0.1882298565805272
  0.1250000000150422  0.6026069791993081  0.1882298565805272
  0.2916666666817065  0.6026069791993081  0.1882298565805272
  0.4583333333483779  0.6026069791993081  0.1882298565805272
  0.6250000000150422  0.6026069791993081  0.1882298565805272
  0.7916666666817065  0.6026069791993081  0.1882298565805272
  0.9583333333483779  0.6026069791993081  0.1882298565805272
  0.1250000000150422  0.7692736458659724  0.1882298565805272
  0.2916666666817065  0.7692736458659724  0.1882298565805272
  0.4583333333483779  0.7692736458659724  0.1882298565805272
  0.6250000000150422  0.7692736458659724  0.1882298565805272
  0.7916666666817065  0.7692736458659724  0.1882298565805272
  0.9583333333483779  0.7692736458659724  0.1882298565805272
  0.1250000000150422  0.9359403125326438  0.1882298565805272
  0.2916666666817065  0.9359403125326438  0.1882298565805272
  0.4583333333483779  0.9359403125326438  0.1882298565805272
  0.6250000000150422  0.9359403125326438  0.1882298565805272
  0.7916666666817065  0.9359403125326438  0.1882298565805272
  0.9583333333483779  0.9359403125326438  0.1882298565805272
  0.1250000000150422  0.1026069791993081  0.6882298565805272
  0.2916666666817065  0.1026069791993081  0.6882298565805272
  0.4583333333483779  0.1026069791993081  0.6882298565805272
  0.6250000000150422  0.1026069791993081  0.6882298565805272
  0.7916666666817065  0.1026069791993081  0.6882298565805272
  0.9583333333483779  0.1026069791993081  0.6882298565805272
  0.1250000000150422  0.2692736458659724  0.6882298565805272
  0.2916666666817065  0.2692736458659724  0.6882298565805272
  0.4583333333483779  0.2692736458659724  0.6882298565805272
  0.6250000000150422  0.2692736458659724  0.6882298565805272
  0.7916666666817065  0.2692736458659724  0.6882298565805272
  0.9583333333483779  0.2692736458659724  0.6882298565805272
  0.1250000000150422  0.4359403125326438  0.6882298565805272
  0.2916666666817065  0.4359403125326438  0.6882298565805272
  0.4583333333483779  0.4359403125326438  0.6882298565805272
  0.6250000000150422  0.4359403125326438  0.6882298565805272
  0.7916666666817065  0.4359403125326438  0.6882298565805272
  0.9583333333483779  0.4359403125326438  0.6882298565805272
  0.1250000000150422  0.6026069791993081  0.6882298565805272
  0.2916666666817065  0.6026069791993081  0.6882298565805272
  0.4583333333483779  0.6026069791993081  0.6882298565805272
  0.6250000000150422  0.6026069791993081  0.6882298565805272
  0.7916666666817065  0.6026069791993081  0.6882298565805272
  0.9583333333483779  0.6026069791993081  0.6882298565805272
  0.1250000000150422  0.7692736458659724  0.6882298565805272
  0.2916666666817065  0.7692736458659724  0.6882298565805272
  0.4583333333483779  0.7692736458659724  0.6882298565805272
  0.6250000000150422  0.7692736458659724  0.6882298565805272
  0.7916666666817065  0.7692736458659724  0.6882298565805272
  0.9583333333483779  0.7692736458659724  0.6882298565805272
  0.1250000000150422  0.9359403125326438  0.6882298565805272
  0.2916666666817065  0.9359403125326438  0.6882298565805272
  0.4583333333483779  0.9359403125326438  0.6882298565805272
  0.6250000000150422  0.9359403125326438  0.6882298565805272
  0.7916666666817065  0.9359403125326438  0.6882298565805272
  0.9583333333483779  0.9359403125326438  0.6882298565805272
  0.0416666666860053  0.0640596825038457  0.3117701434284470
  0.2083333333526696  0.0640596825038457  0.3117701434284470
  0.3750000000193410  0.0640596825038457  0.3117701434284470
  0.5416666666860053  0.0640596825038457  0.3117701434284470
  0.7083333333526696  0.0640596825038457  0.3117701434284470
  0.8750000000193410  0.0640596825038457  0.3117701434284470
  0.0416666666860053  0.2307263491705100  0.3117701434284470
  0.2083333333526696  0.2307263491705100  0.3117701434284470
  0.3750000000193410  0.2307263491705100  0.3117701434284470
  0.5416666666860053  0.2307263491705100  0.3117701434284470
  0.7083333333526696  0.2307263491705100  0.3117701434284470
  0.8750000000193410  0.2307263491705100  0.3117701434284470
  0.0416666666860053  0.3973930158371815  0.3117701434284470
  0.2083333333526696  0.3973930158371815  0.3117701434284470
  0.3750000000193410  0.3973930158371815  0.3117701434284470
  0.5416666666860053  0.3973930158371815  0.3117701434284470
  0.7083333333526696  0.3973930158371815  0.3117701434284470
  0.8750000000193410  0.3973930158371815  0.3117701434284470
  0.0416666666860053  0.5640596825038457  0.3117701434284470
  0.2083333333526696  0.5640596825038457  0.3117701434284470
  0.3750000000193410  0.5640596825038457  0.3117701434284470
  0.5416666666860053  0.5640596825038457  0.3117701434284470
  0.7083333333526696  0.5640596825038457  0.3117701434284470
  0.8750000000193410  0.5640596825038457  0.3117701434284470
  0.0416666666860053  0.7307263491705100  0.3117701434284470
  0.2083333333526696  0.7307263491705100  0.3117701434284470
  0.3750000000193410  0.7307263491705100  0.3117701434284470
  0.5416666666860053  0.7307263491705100  0.3117701434284470
  0.7083333333526696  0.7307263491705100  0.3117701434284470
  0.8750000000193410  0.7307263491705100  0.3117701434284470
  0.0416666666860053  0.8973930158371815  0.3117701434284470
  0.2083333333526696  0.8973930158371815  0.3117701434284470
  0.3750000000193410  0.8973930158371815  0.3117701434284470
  0.5416666666860053  0.8973930158371815  0.3117701434284470
  0.7083333333526696  0.8973930158371815  0.3117701434284470
  0.8750000000193410  0.8973930158371815  0.3117701434284470
  0.0416666666860053  0.0640596825038457  0.8117701434284470
  0.2083333333526696  0.0640596825038457  0.8117701434284470
  0.3750000000193410  0.0640596825038457  0.8117701434284470
  0.5416666666860053  0.0640596825038457  0.8117701434284470
  0.7083333333526696  0.0640596825038457  0.8117701434284470
  0.8750000000193410  0.0640596825038457  0.8117701434284470
  0.0416666666860053  0.2307263491705100  0.8117701434284470
  0.2083333333526696  0.2307263491705100  0.8117701434284470
  0.3750000000193410  0.2307263491705100  0.8117701434284470
  0.5416666666860053  0.2307263491705100  0.8117701434284470
  0.7083333333526696  0.2307263491705100  0.8117701434284470
  0.8750000000193410  0.2307263491705100  0.8117701434284470
  0.0416666666860053  0.3973930158371815  0.8117701434284470
  0.2083333333526696  0.3973930158371815  0.8117701434284470
  0.3750000000193410  0.3973930158371815  0.8117701434284470
  0.5416666666860053  0.3973930158371815  0.8117701434284470
  0.7083333333526696  0.3973930158371815  0.8117701434284470
  0.8750000000193410  0.3973930158371815  0.8117701434284470
  0.0416666666860053  0.5640596825038457  0.8117701434284470
  0.2083333333526696  0.5640596825038457  0.8117701434284470
  0.3750000000193410  0.5640596825038457  0.8117701434284470
  0.5416666666860053  0.5640596825038457  0.8117701434284470
  0.7083333333526696  0.5640596825038457  0.8117701434284470
  0.8750000000193410  0.5640596825038457  0.8117701434284470
  0.0416666666860053  0.7307263491705100  0.8117701434284470
  0.2083333333526696  0.7307263491705100  0.8117701434284470
  0.3750000000193410  0.7307263491705100  0.8117701434284470
  0.5416666666860053  0.7307263491705100  0.8117701434284470
  0.7083333333526696  0.7307263491705100  0.8117701434284470
  0.8750000000193410  0.7307263491705100  0.8117701434284470
  0.0416666666860053  0.8973930158371815  0.8117701434284470
  0.2083333333526696  0.8973930158371815  0.8117701434284470
  0.3750000000193410  0.8973930158371815  0.8117701434284470
  0.5416666666860053  0.8973930158371815  0.8117701434284470
  0.7083333333526696  0.8973930158371815  0.8117701434284470
  0.8750000000193410  0.8973930158371815  0.8117701434284470
  0.0416666666860053  0.0841581669787104  0.4258639892549425
  0.2083333333526696  0.0841581669787104  0.4263150420475768
  0.3750000000193410  0.0841581669787104  0.4263150420475768
  0.5416666666860053  0.0841581669787104  0.4263150420475768
  0.7083333333526696  0.0841581669787104  0.4263150420475768
  0.8750000000193410  0.0841581669787104  0.4263150420475768
  0.0416666666860053  0.2508248336453818  0.4263150420475768
  0.2083333333526696  0.2508248336453818  0.4263150420475768
  0.3750000000193410  0.2508248336453818  0.4263150420475768
  0.5416666666860053  0.2508248336453818  0.4263150420475768
  0.7083333333526696  0.2508248336453818  0.4263150420475768
  0.8750000000193410  0.2508248336453818  0.4263150420475768
  0.0416666666860053  0.4174915003120461  0.4263150420475768
  0.2083333333526696  0.4174915003120461  0.4263150420475768
  0.3750000000193410  0.4174915003120461  0.4263150420475768
  0.5416666666860053  0.4174915003120461  0.4263150420475768
  0.7083333333526696  0.4174915003120461  0.4263150420475768
  0.8750000000193410  0.4174915003120461  0.4263150420475768
  0.0416666666860053  0.5841581669787104  0.4263150420475768
  0.2083333333526696  0.5841581669787104  0.4263150420475768
  0.3750000000193410  0.5841581669787104  0.4263150420475768
  0.5416666666860053  0.5841581669787104  0.4263150420475768
  0.7083333333526696  0.5841581669787104  0.4263150420475768
  0.8750000000193410  0.5841581669787104  0.4263150420475768
  0.0416666666860053  0.7508248336453818  0.4263150420475768
  0.2083333333526696  0.7508248336453818  0.4263150420475768
  0.3750000000193410  0.7508248336453818  0.4263150420475768
  0.5416666666860053  0.7508248336453818  0.4263150420475768
  0.7083333333526696  0.7508248336453818  0.4263150420475768
  0.8750000000193410  0.7508248336453818  0.4263150420475768
  0.0416666666860053  0.9174915003120461  0.4263150420475768
  0.2083333333526696  0.9174915003120461  0.4263150420475768
  0.3750000000193410  0.9174915003120461  0.4263150420475768
  0.5416666666860053  0.9174915003120461  0.4263150420475768
  0.7083333333526696  0.9174915003120461  0.4263150420475768
  0.8750000000193410  0.9174915003120461  0.4263150420475768
  0.0416666666860053  0.0841581669787104  0.9263150420475768
  0.2083333333526696  0.0841581669787104  0.9263150420475768
  0.3750000000193410  0.0841581669787104  0.9263150420475768
  0.5416666666860053  0.0841581669787104  0.9263150420475768
  0.7083333333526696  0.0841581669787104  0.9263150420475768
  0.8750000000193410  0.0841581669787104  0.9263150420475768
  0.0416666666860053  0.2508248336453818  0.9263150420475768
  0.2083333333526696  0.2508248336453818  0.9263150420475768
  0.3750000000193410  0.2508248336453818  0.9263150420475768
  0.5416666666860053  0.2508248336453818  0.9263150420475768
  0.7083333333526696  0.2508248336453818  0.9263150420475768
  0.8750000000193410  0.2508248336453818  0.9263150420475768
  0.0416666666860053  0.4174915003120461  0.9263150420475768
  0.2083333333526696  0.4174915003120461  0.9263150420475768
  0.3750000000193410  0.4174915003120461  0.9263150420475768
  0.5416666666860053  0.4174915003120461  0.9263150420475768
  0.7083333333526696  0.4174915003120461  0.9263150420475768
  0.8750000000193410  0.4174915003120461  0.9263150420475768
  0.0416666666860053  0.5841581669787104  0.9263150420475768
  0.2083333333526696  0.5841581669787104  0.9263150420475768
  0.3750000000193410  0.5841581669787104  0.9263150420475768
  0.5416666666860053  0.5841581669787104  0.9263150420475768
  0.7083333333526696  0.5841581669787104  0.9263150420475768
  0.8750000000193410  0.5841581669787104  0.9263150420475768
  0.0416666666860053  0.7508248336453818  0.9263150420475768
  0.2083333333526696  0.7508248336453818  0.9263150420475768
  0.3750000000193410  0.7508248336453818  0.9263150420475768
  0.5416666666860053  0.7508248336453818  0.9263150420475768
  0.7083333333526696  0.7508248336453818  0.9263150420475768
  0.8750000000193410  0.7508248336453818  0.9263150420475768
  0.0416666666860053  0.9174915003120461  0.9263150420475768
  0.2083333333526696  0.9174915003120461  0.9263150420475768
  0.3750000000193410  0.9174915003120461  0.9263150420475768
  0.5416666666860053  0.9174915003120461  0.9263150420475768
  0.7083333333526696  0.9174915003120461  0.9263150420475768
  0.8750000000193410  0.9174915003120461  0.9263150420475768
  0.1250000000150422  0.0825084947244434  0.0736849430182431
  0.2916666666817065  0.0825084947244434  0.0736849430182431
  0.4583333333483779  0.0825084947244434  0.0736849430182431
  0.6250000000150422  0.0825084947244434  0.0736849430182431
  0.7916666666817065  0.0825084947244434  0.0736849430182431
  0.9583333333483779  0.0825084947244434  0.0736849430182431
  0.1250000000150422  0.2491751613911077  0.0736849430182431
  0.2916666666817065  0.2491751613911077  0.0736849430182431
  0.4583333333483779  0.2491751613911077  0.0736849430182431
  0.6250000000150422  0.2491751613911077  0.0736849430182431
  0.7916666666817065  0.2491751613911077  0.0736849430182431
  0.9583333333483779  0.2491751613911077  0.0736849430182431
  0.1250000000150422  0.4158418280577720  0.0736849430182431
  0.2916666666817065  0.4158418280577720  0.0736849430182431
  0.4583333333483779  0.4158418280577720  0.0736849430182431
  0.6250000000150422  0.4158418280577720  0.0736849430182431
  0.7916666666817065  0.4158418280577720  0.0736849430182431
  0.9583333333483779  0.4158418280577720  0.0736849430182431
  0.1250000000150422  0.5825084947244434  0.0736849430182431
  0.2916666666817065  0.5825084947244434  0.0736849430182431
  0.4583333333483779  0.5825084947244434  0.0736849430182431
  0.6250000000150422  0.5825084947244434  0.0736849430182431
  0.7916666666817065  0.5825084947244434  0.0736849430182431
  0.9583333333483779  0.5825084947244434  0.0736849430182431
  0.1250000000150422  0.7491751613911077  0.0736849430182431
  0.2916666666817065  0.7491751613911077  0.0736849430182431
  0.4583333333483779  0.7491751613911077  0.0736849430182431
  0.6250000000150422  0.7491751613911077  0.0736849430182431
  0.7916666666817065  0.7491751613911077  0.0736849430182431
  0.9583333333483779  0.7491751613911077  0.0736849430182431
  0.1250000000150422  0.9158418280577720  0.0736849430182431
  0.2916666666817065  0.9158418280577720  0.0736849430182431
  0.4583333333483779  0.9158418280577720  0.0736849430182431
  0.6250000000150422  0.9158418280577720  0.0736849430182431
  0.7916666666817065  0.9158418280577720  0.0736849430182431
  0.9583333333483779  0.9158418280577720  0.0736849430182431
  0.1250000000150422  0.0825084947244434  0.5736849430182431
  0.2916666666817065  0.0825084947244434  0.5736849430182431
  0.4583333333483779  0.0825084947244434  0.5736849430182431
  0.6250000000150422  0.0825084947244434  0.5736849430182431
  0.7916666666817065  0.0825084947244434  0.5736849430182431
  0.9583333333483779  0.0825084947244434  0.5736849430182431
  0.1250000000150422  0.2491751613911077  0.5736849430182431
  0.2916666666817065  0.2491751613911077  0.5736849430182431
  0.4583333333483779  0.2491751613911077  0.5736849430182431
  0.6250000000150422  0.2491751613911077  0.5736849430182431
  0.7916666666817065  0.2491751613911077  0.5736849430182431
  0.9583333333483779  0.2491751613911077  0.5736849430182431
  0.1250000000150422  0.4158418280577720  0.5736849430182431
  0.2916666666817065  0.4158418280577720  0.5736849430182431
  0.4583333333483779  0.4158418280577720  0.5736849430182431
  0.6250000000150422  0.4158418280577720  0.5736849430182431
  0.7916666666817065  0.4158418280577720  0.5736849430182431
  0.9583333333483779  0.4158418280577720  0.5736849430182431
  0.1250000000150422  0.5825084947244434  0.5736849430182431
  0.2916666666817065  0.5825084947244434  0.5736849430182431
  0.4583333333483779  0.5825084947244434  0.5736849430182431
  0.6250000000150422  0.5825084947244434  0.5736849430182431
  0.7916666666817065  0.5825084947244434  0.5736849430182431
  0.9583333333483779  0.5825084947244434  0.5736849430182431
  0.1250000000150422  0.7491751613911077  0.5736849430182431
  0.2916666666817065  0.7491751613911077  0.5736849430182431
  0.4583333333483779  0.7491751613911077  0.5736849430182431
  0.6250000000150422  0.7491751613911077  0.5736849430182431
  0.7916666666817065  0.7491751613911077  0.5736849430182431
  0.9583333333483779  0.7491751613911077  0.5736849430182431
  0.1250000000150422  0.9158418280577720  0.5736849430182431
  0.2916666666817065  0.9158418280577720  0.5736849430182431
  0.4583333333483779  0.9158418280577720  0.5736849430182431
  0.6250000000150422  0.9158418280577720  0.5736849430182431
  0.7916666666817065  0.9158418280577720  0.5736849430182431
  0.9583333333483779  0.9158418280577720  0.5736849430182431
  0.1250000000150422  0.0008248370612307  0.3236849579434491
  0.2916666666817065  0.0008248370612307  0.3236849579434491
  0.4583333333483779  0.0008248370612307  0.3236849579434491
  0.6250000000150422  0.0008248370612307  0.3236849579434491
  0.7916666666817065  0.0008248370612307  0.3236849579434491
  0.9583333333483779  0.0008248370612307  0.3236849579434491
  0.1250000000150422  0.1674915037278950  0.3236849579434491
  0.2916666666817065  0.1674915037278950  0.3236849579434491
  0.4583333333483779  0.1674915037278950  0.3236849579434491
  0.6250000000150422  0.1674915037278950  0.3236849579434491
  0.7916666666817065  0.1674915037278950  0.3236849579434491
  0.9583333333483779  0.1674915037278950  0.3236849579434491
  0.1250000000150422  0.3341581703945593  0.3236849579434491
  0.2916666666817065  0.3341581703945593  0.3236849579434491
  0.4583333333483779  0.3341581703945593  0.3236849579434491
  0.6250000000150422  0.3341581703945593  0.3236849579434491
  0.7916666666817065  0.3341581703945593  0.3236849579434491
  0.9583333333483779  0.3341581703945593  0.3236849579434491
  0.1250000000150422  0.5008248370612307  0.3236849579434491
  0.2916666666817065  0.5008248370612307  0.3236849579434491
  0.4583333333483779  0.5008248370612307  0.3236849579434491
  0.6250000000150422  0.5008248370612307  0.3236849579434491
  0.7916666666817065  0.5008248370612307  0.3236849579434491
  0.9583333333483779  0.5008248370612307  0.3236849579434491
  0.1250000000150422  0.6674915037278950  0.3236849579434491
  0.2916666666817065  0.6674915037278950  0.3236849579434491
  0.4583333333483779  0.6674915037278950  0.3236849579434491
  0.6250000000150422  0.6674915037278950  0.3236849579434491
  0.7916666666817065  0.6674915037278950  0.3236849579434491
  0.9583333333483779  0.6674915037278950  0.3236849579434491
  0.1250000000150422  0.8341581703945593  0.3236849579434491
  0.2916666666817065  0.8341581703945593  0.3236849579434491
  0.4583333333483779  0.8341581703945593  0.3236849579434491
  0.6250000000150422  0.8341581703945593  0.3236849579434491
  0.7916666666817065  0.8341581703945593  0.3236849579434491
  0.9583333333483779  0.8341581703945593  0.3236849579434491
  0.1250000000150422  0.0008248370612307  0.8236849579434491
  0.2916666666817065  0.0008248370612307  0.8236849579434491
  0.4583333333483779  0.0008248370612307  0.8236849579434491
  0.6250000000150422  0.0008248370612307  0.8236849579434491
  0.7916666666817065  0.0008248370612307  0.8236849579434491
  0.9583333333483779  0.0008248370612307  0.8236849579434491
  0.1250000000150422  0.1674915037278950  0.8236849579434491
  0.2916666666817065  0.1674915037278950  0.8236849579434491
  0.4583333333483779  0.1674915037278950  0.8236849579434491
  0.6250000000150422  0.1674915037278950  0.8236849579434491
  0.7916666666817065  0.1674915037278950  0.8236849579434491
  0.9583333333483779  0.1674915037278950  0.8236849579434491
  0.1250000000150422  0.3341581703945593  0.8236849579434491
  0.2916666666817065  0.3341581703945593  0.8236849579434491
  0.4583333333483779  0.3341581703945593  0.8236849579434491
  0.6250000000150422  0.3341581703945593  0.8236849579434491
  0.7916666666817065  0.3341581703945593  0.8236849579434491
  0.9583333333483779  0.3341581703945593  0.8236849579434491