Ge Se
 1.0000000000000000
     4.2000000000000002    0.0000000000000000    0.0000000000000000
     0.0000000000000000    4.5499999999999989    0.0000000000000000
     0.0000000000000000    0.0000000000000000   11.1422209999999993
 Ge  Se 
   4   4
Selective dynamics
Cartesian
  1.0500000000000000  0.4971374395082436  1.4448552332845606   T   T   T
  3.1500000000000004  2.7721374395082430  4.1262552667154395   T   T   T
  3.1500000000000004  4.0528625604917536  9.6973657667154374   T   T   T
  1.0500000000000000  1.7778625604917555  7.0159657332845597   T   T   T
  1.0500000000000000 -0.1271789770849584  3.9293606252945805   T   T   T
  3.1500000000000004  2.1478210229150410  1.6417498747054184   T   T   T
  3.1500000000000004  4.6771789770849566  7.2128603747054170   T   T   T
  1.0500000000000000  2.4021789770849580  9.5004711252945775   T   T   T
