
     Program PWSCF v.7.2 starts on 10Apr2024 at  4:17:30 

     This program is part of the open-source Quantum ESPRESSO suite
     for quantum simulation of materials; please cite
         "P. Giannozzi et al., J. Phys.:Condens. Matter 21 395502 (2009);
         "P. Giannozzi et al., J. Phys.:Condens. Matter 29 465901 (2017);
         "P. Giannozzi et al., J. Chem. Phys. 152 154105 (2020);
          URL http://www.quantum-espresso.org", 
     in publications or presentations arising from this work. More details at
     http://www.quantum-espresso.org/quote

     Parallel version (MPI & OpenMP), running on    6144 processor cores
     Number of MPI processes:              1536
     Threads/MPI process:                     4

     MPI processes distributed on    24 nodes
     481124 MiB available memory on the printing compute node when the environment starts

     Reading input from espresso.pwi
Warning: card &IONS ignored
Warning: card / ignored
Warning: card &CELL ignored
Warning: card / ignored

     Current dimensions of program PWSCF are:
     Max number of different atomic species (ntypx) = 10
     Max number of k-points (npk) =  40000
     Max angular momentum in pseudopotentials (lmaxx) =  4

     Atomic positions and unit cell read from directory:
     ./CNT_PBE.save/
     Atomic positions from file used, from input discarded


     K-points division:     npool     =       2
     R & G space division:  proc/nbgrp/npool/nimage =     768
     WARNING: too many processors for an effective parallelization!
     wavefunctions fft division:  task group distribution
                                  #TG    x Z-proc =      12     64
     Subspace diagonalization in iterative solution of the eigenvalue problem:
     one sub-group per band group will be used
     custom distributed-memory algorithm (size of sub-group:  9*  9 procs)


     Parallelization info
     --------------------
     sticks:   dense  smooth     PW     G-vecs:    dense   smooth      PW
     Min          57      57     14                14383    14383    1818
     Max          58      58     15                14402    14402    1843
     Sum       43977   43977  11115             11053081 11053081 1403735

     Using Pencil Decomposition



     bravais-lattice index     =            0
     lattice parameter (alat)  =      61.1748  a.u.
     unit-cell volume          =  176044.1909 (a.u.)^3
     number of atoms/cell      =          364
     number of atomic types    =            1
     number of electrons       =      1456.00
     number of Kohn-Sham states=          896
     kinetic-energy cutoff     =      60.0000  Ry
     charge density cutoff     =     240.0000  Ry
     Exchange-correlation= PBE
                           (   1   4   3   4   0   0   0)

     celldm(1)=  61.174780  celldm(2)=   0.000000  celldm(3)=   0.000000
     celldm(4)=   0.000000  celldm(5)=   0.000000  celldm(6)=   0.000000

     crystal axes: (cart. coord. in units of alat)
               a(1) = (   1.000000   0.000000   0.000000 )  
               a(2) = (   0.000000   0.615409   0.000000 )  
               a(3) = (   0.000000   0.000000   1.249513 )  

     reciprocal axes: (cart. coord. in units 2 pi/alat)
               b(1) = (  1.000000  0.000000  0.000000 )  
               b(2) = (  0.000000  1.624937  0.000000 )  
               b(3) = (  0.000000  0.000000  0.800312 )  


     PseudoPot. # 1 for C  read from file:
     ./C_ONCV_PBE-1.2.upf
     MD5 check sum: 1a5f83a7b1f58d24996abe00ed223ac6
     Pseudo is Norm-conserving, Zval =  4.0
     Generated using ONCVPSP code by D. R. Hamann
     Using radial grid of  602 points,  4 beta functions with: 
                l(1) =   0
                l(2) =   0
                l(3) =   1
                l(4) =   1

     atomic species   valence    mass     pseudopotential
        C              4.00    12.01100     C ( 1.00)

     No symmetry found


                                    s                        frac. trans.

      isym =  1     identity                                     

 cryst.   s( 1) = (     1          0          0      )
                  (     0          1          0      )
                  (     0          0          1      )

 cart.    s( 1) = (  1.0000000  0.0000000  0.0000000 )
                  (  0.0000000  1.0000000  0.0000000 )
                  (  0.0000000  0.0000000  1.0000000 )


   Cartesian axes

     site n.     atom                  positions (alat units)
         1           C   tau(   1) = (   0.3709934   0.3312973   0.0030768  )
         2           C   tau(   2) = (   0.3688304   0.3346927   0.0785354  )
         3           C   tau(   3) = (   0.3380914   0.3661837   0.0762870  )
         4           C   tau(   4) = (   0.3205134   0.3762870   0.0373874  )
         5           C   tau(   5) = (   0.2778290   0.3869766   0.0351263  )
         6           C   tau(   6) = (   0.3665437   0.3380113   0.1540010  )
         7           C   tau(   7) = (   0.3347369   0.3684219   0.1517534  )
         8           C   tau(   8) = (   0.3168225   0.3779110   0.1128502  )
         9           C   tau(   9) = (   0.2737926   0.3871133   0.1105826  )
        10           C   tau(  10) = (   0.2535628   0.3857956   0.0716841  )
        11           C   tau(  11) = (   0.2121064   0.3710462   0.0694273  )
        12           C   tau(  12) = (   0.1955818   0.3593042   0.0305242  )
        13           C   tau(  13) = (   0.1680231   0.3249978   0.0282658  )
        14           C   tau(  14) = (   0.3641286   0.3412472   0.2294843  )
        15           C   tau(  15) = (   0.3312934   0.3705407   0.2272343  )
        16           C   tau(  16) = (   0.3130741   0.3794044   0.1883219  )
        17           C   tau(  17) = (   0.2697534   0.3871167   0.1860513  )
        18           C   tau(  18) = (   0.2495864   0.3850977   0.1471456  )
        19           C   tau(  19) = (   0.2086650   0.3689266   0.1448930  )
        20           C   tau(  20) = (   0.1925543   0.3566270   0.1059855  )
        21           C   tau(  21) = (   0.1661959   0.3213930   0.1037229  )
        22           C   tau(  22) = (   0.1589333   0.3024692   0.0648218  )
        23           C   tau(  23) = (   0.1549840   0.2586418   0.0625577  )
        24           C   tau(  24) = (   0.1587418   0.2387197   0.0236560  )
        25           C   tau(  25) = (   0.1783820   0.1993400   0.0214023  )
        26           C   tau(  26) = (   0.3616055   0.3443998   0.3049885  )
        27           C   tau(  27) = (   0.3277797   0.3725413   0.3027328  )
        28           C   tau(  28) = (   0.3092672   0.3807707   0.2638109  )
        29           C   tau(  29) = (   0.2657095   0.3869883   0.2615380  )
        30           C   tau(  30) = (   0.2456300   0.3842736   0.2226206  )
        31           C   tau(  31) = (   0.2052912   0.3666989   0.2203704  )
        32           C   tau(  32) = (   0.1896176   0.3538516   0.1814578  )
        33           C   tau(  33) = (   0.1644903   0.3177286   0.1791898  )
        34           C   tau(  34) = (   0.1578926   0.2985645   0.1402831  )
        35           C   tau(  35) = (   0.1554564   0.2546284   0.1380233  )
        36           C   tau(  36) = (   0.1598993   0.2348505   0.0991146  )
        37           C   tau(  37) = (   0.1808805   0.1961713   0.0968568  )
        38           C   tau(  38) = (   0.1950389   0.1816622   0.0579583  )
        39           C   tau(  39) = (   0.2331951   0.1597422   0.0556869  )
        40           C   tau(  40) = (   0.2528648   0.1548211   0.0167891  )
        41           C   tau(  41) = (   0.2968469   0.1561891   0.0145366  )
        42           C   tau(  42) = (   0.3709857   0.3311611   0.4194608  )
        43           C   tau(  43) = (   0.3589767   0.3474695   0.3805168  )
        44           C   tau(  44) = (   0.3242046   0.3744311   0.3782528  )
        45           C   tau(  45) = (   0.3054200   0.3820086   0.3393208  )
        46           C   tau(  46) = (   0.2616737   0.3867219   0.3370485  )
        47           C   tau(  47) = (   0.2417028   0.3833167   0.2981197  )
        48           C   tau(  48) = (   0.2019929   0.3643642   0.2958674  )
        49           C   tau(  49) = (   0.1867817   0.3509760   0.2569470  )
        50           C   tau(  50) = (   0.1629254   0.3140047   0.2546739  )
        51           C   tau(  51) = (   0.1569927   0.2946262   0.2157603  )
        52           C   tau(  52) = (   0.1560748   0.2506344   0.2135036  )
        53           C   tau(  53) = (   0.1611867   0.2310238   0.1745889  )
        54           C   tau(  54) = (   0.1834905   0.1930928   0.1723231  )
        55           C   tau(  55) = (   0.1981437   0.1790857   0.1334192  )
        56           C   tau(  56) = (   0.2370336   0.1585018   0.1311500  )
        57           C   tau(  57) = (   0.2568591   0.1542605   0.0922474  )
        58           C   tau(  58) = (   0.3007671   0.1571488   0.0899931  )
        59           C   tau(  59) = (   0.3198668   0.1639442   0.0510957  )
        60           C   tau(  60) = (   0.3557293   0.1894409   0.0488228  )
        61           C   tau(  61) = (   0.3684277   0.2052483   0.0099261  )
        62           C   tau(  62) = (   0.3855938   0.2457637   0.0076755  )
        63           C   tau(  63) = (   0.3688196   0.3345671   0.4950198  )
        64           C   tau(  64) = (   0.3562476   0.3504455   0.4560680  )
        65           C   tau(  65) = (   0.3205705   0.3761946   0.4537964  )
        66           C   tau(  66) = (   0.3015396   0.3831214   0.4148544  )
        67           C   tau(  67) = (   0.2576579   0.3863203   0.4125867  )
        68           C   tau(  68) = (   0.2378189   0.3822234   0.3736455  )
        69           C   tau(  69) = (   0.1987883   0.3619127   0.3713883  )
        70           C   tau(  70) = (   0.1840429   0.3480163   0.3324581  )
        71           C   tau(  71) = (   0.1614820   0.3102398   0.3301833  )
        72           C   tau(  72) = (   0.1562267   0.2906678   0.2912591  )
        73           C   tau(  73) = (   0.1568356   0.2466720   0.2890040  )
        74           C   tau(  74) = (   0.1626218   0.2272507   0.2500825  )
        75           C   tau(  75) = (   0.1862182   0.1901124   0.2478101  )
        76           C   tau(  76) = (   0.2013346   0.1766185   0.2088954  )
        77           C   tau(  77) = (   0.2409085   0.1573868   0.2066310  )
        78           C   tau(  78) = (   0.2608664   0.1538365   0.1677189  )
        79           C   tau(  79) = (   0.3046462   0.1582388   0.1654602  )
        80           C   tau(  80) = (   0.3235043   0.1656849   0.1265587  )
        81           C   tau(  81) = (   0.3584686   0.1923996   0.1242866  )
        82           C   tau(  82) = (   0.3706135   0.2086339   0.0853855  )
        83           C   tau(  83) = (   0.3863774   0.2497154   0.0831376  )
        84           C   tau(  84) = (   0.3881997   0.2699106   0.0442385  )
        85           C   tau(  85) = (   0.3800427   0.3131514   0.0419719  )
        86           C   tau(  86) = (   0.3665372   0.3378993   0.5705903  )
        87           C   tau(  87) = (   0.3534366   0.3533402   0.5316333  )
        88           C   tau(  88) = (   0.3168907   0.3778433   0.5293571  )
        89           C   tau(  89) = (   0.2976270   0.3841041   0.4904075  )
        90           C   tau(  90) = (   0.2536608   0.3857806   0.4881452  )
        91           C   tau(  91) = (   0.2339736   0.3810047   0.4491941  )
        92           C   tau(  92) = (   0.1956712   0.3593511   0.4469304  )
        93           C   tau(  93) = (   0.1814235   0.3449503   0.4079894  )
        94           C   tau(  94) = (   0.1601818   0.3064190   0.4057171  )
        95           C   tau(  95) = (   0.1556008   0.2866850   0.3667780  )
        96           C   tau(  96) = (   0.1577299   0.2427369   0.3645236  )
        97           C   tau(  97) = (   0.1641817   0.2235292   0.3255923  )
        98           C   tau(  98) = (   0.1890451   0.1872269   0.3233165  )
        99           C   tau(  99) = (   0.2046181   0.1742627   0.2843912  )
       100           C   tau( 100) = (   0.2448287   0.1564001   0.2821320  )
       101           C   tau( 101) = (   0.2648887   0.1535420   0.2432072  )
       102           C   tau( 102) = (   0.3084894   0.1594551   0.2409448  )
       103           C   tau( 103) = (   0.3270710   0.1675528   0.2020333  )
       104           C   tau( 104) = (   0.3610948   0.1954565   0.1997662  )
       105           C   tau( 105) = (   0.3726778   0.2120941   0.1608558  )
       106           C   tau( 106) = (   0.3870107   0.2536957   0.1586062  )
       107           C   tau( 107) = (   0.3881426   0.2739384   0.1197032  )
       108           C   tau( 108) = (   0.3784999   0.3168720   0.1174338  )
       109           C   tau( 109) = (   0.3641430   0.3411470   0.6461637  )
       110           C   tau( 110) = (   0.3505121   0.3561244   0.6072072  )
       111           C   tau( 111) = (   0.3131474   0.3793544   0.6049296  )
       112           C   tau( 112) = (   0.2936842   0.3849479   0.5659740  )
       113           C   tau( 113) = (   0.2496853   0.3851023   0.5637178  )
       114           C   tau( 114) = (   0.2301826   0.3796442   0.5247611  )
       115           C   tau( 115) = (   0.1926551   0.3566767   0.5224901  )
       116           C   tau( 116) = (   0.1789130   0.3417982   0.4835409  )
       117           C   tau( 117) = (   0.1590049   0.3025617   0.4812727  )
       118           C   tau( 118) = (   0.1551093   0.2826830   0.4423226  )
       119           C   tau( 119) = (   0.1587508   0.2388344   0.4400645  )
       120           C   tau( 120) = (   0.1658680   0.2198676   0.4011234  )
       121           C   tau( 121) = (   0.1919671   0.1844440   0.3988468  )
       122           C   tau( 122) = (   0.2079725   0.1720234   0.3599091  )
       123           C   tau( 123) = (   0.2487747   0.1555555   0.3576539  )
       124           C   tau( 124) = (   0.2689208   0.1533888   0.3187199  )
       125           C   tau( 125) = (   0.3122905   0.1608102   0.3164517  )
       126           C   tau( 126) = (   0.3305762   0.1695393   0.2775269  )
       127           C   tau( 127) = (   0.3636153   0.1986023   0.2752662  )
       128           C   tau( 128) = (   0.3746122   0.2156264   0.2363435  )
       129           C   tau( 129) = (   0.3874993   0.2576989   0.2340901  )
       130           C   tau( 130) = (   0.3879296   0.2779633   0.1951783  )
       131           C   tau( 131) = (   0.3768065   0.3205358   0.1929097  )
       132           C   tau( 132) = (   0.3616481   0.3443145   0.7217348  )
       133           C   tau( 133) = (   0.3475113   0.3588167   0.6827819  )
       134           C   tau( 134) = (   0.3093648   0.3807422   0.6805077  )
       135           C   tau( 135) = (   0.2897151   0.3856554   0.6415504  )
       136           C   tau( 136) = (   0.2457391   0.3842859   0.6392949  )
       137           C   tau( 137) = (   0.2264328   0.3781600   0.6003376  )
       138           C   tau( 138) = (   0.1897177   0.3539122   0.5980619  )
       139           C   tau( 139) = (   0.1765046   0.3385648   0.5591069  )
       140           C   tau( 140) = (   0.1579636   0.2986656   0.5568443  )
       141           C   tau( 141) = (   0.1547590   0.2786660   0.5178867  )
       142           C   tau( 142) = (   0.1599173   0.2349712   0.5156219  )
       143           C   tau( 143) = (   0.1676743   0.2162607   0.4766728  )
       144           C   tau( 144) = (   0.1949828   0.1817624   0.4743989  )
       145           C   tau( 145) = (   0.2114044   0.1699057   0.4354503  )
       146           C   tau( 146) = (   0.2527472   0.1548551   0.4331950  )
       147           C   tau( 147) = (   0.2729526   0.1533828   0.3942524  )
       148           C   tau( 148) = (   0.3160385   0.1622959   0.3919792  )
       149           C   tau( 149) = (   0.3340105   0.1716504   0.3530445  )
       150           C   tau( 150) = (   0.3660255   0.2018377   0.3507887  )
       151           C   tau( 151) = (   0.3764238   0.2192262   0.3118539  )
       152           C   tau( 152) = (   0.3878472   0.2617181   0.3095943  )
       153           C   tau( 153) = (   0.3875781   0.2819787   0.2706707  )
       154           C   tau( 154) = (   0.3749907   0.3241417   0.2684043  )
       155           C   tau( 155) = (   0.3590414   0.3473951   0.7972957  )
       156           C   tau( 156) = (   0.3444059   0.3613939   0.7583489  )
       157           C   tau( 157) = (   0.3055237   0.3819834   0.7560814  )
       158           C   tau( 158) = (   0.2857216   0.3862218   0.7171252  )
       159           C   tau( 159) = (   0.2418197   0.3833327   0.7148685  )
       160           C   tau( 160) = (   0.2227426   0.3765404   0.6759137  )
       161           C   tau( 161) = (   0.1868861   0.3510422   0.6736363  )
       162           C   tau( 162) = (   0.1742052   0.3352502   0.6346803  )
       163           C   tau( 163) = (   0.1570520   0.2947355   0.6324224  )
       164           C   tau( 164) = (   0.1545397   0.2746393   0.5934625  )
       165           C   tau( 165) = (   0.1611978   0.2311483   0.5911913  )
       166           C   tau( 166) = (   0.1696077   0.2127229   0.5522380  )
       167           C   tau( 167) = (   0.1980871   0.1791855   0.5499689  )
       168           C   tau( 168) = (   0.2149075   0.1679037   0.5110118  )
       169           C   tau( 169) = (   0.2567446   0.1542889   0.5087526  )
       170           C   tau( 170) = (   0.2769841   0.1535161   0.4698032  )
       171           C   tau( 171) = (   0.3197353   0.1639121   0.4675283  )
       172           C   tau( 172) = (   0.3373677   0.1738805   0.4285831  )
       173           C   tau( 173) = (   0.3683158   0.2051562   0.4263301  )
       174           C   tau( 174) = (   0.3781096   0.2228900   0.3873873  )
       175           C   tau( 175) = (   0.3880545   0.2657502   0.3851194  )
       176           C   tau( 176) = (   0.3870843   0.2859851   0.3461849  )
       177           C   tau( 177) = (   0.3730509   0.3276861   0.3439217  )
       178           C   tau( 178) = (   0.3563354   0.3503870   0.8728407  )
       179           C   tau( 179) = (   0.3412176   0.3638685   0.8339034  )
       180           C   tau( 180) = (   0.3016474   0.3831070   0.8316432  )
       181           C   tau( 181) = (   0.2817079   0.3866519   0.7926938  )
       182           C   tau( 182) = (   0.2379309   0.3822498   0.7904321  )
       183           C   tau( 183) = (   0.2190977   0.3748045   0.7514833  )
       184           C   tau( 184) = (   0.1841362   0.3480907   0.7492090  )
       185           C   tau( 185) = (   0.1720164   0.3318656   0.7102543  )
       186           C   tau( 186) = (   0.1562670   0.2907851   0.7079990  )
       187           C   tau( 187) = (   0.1544560   0.2706111   0.6690429  )
       188           C   tau( 188) = (   0.1626107   0.2273767   0.6667671  )
       189           C   tau( 189) = (   0.1716458   0.2092487   0.6278120  )
       190           C   tau( 190) = (   0.2012702   0.1767181   0.6255497  )
       191           C   tau( 191) = (   0.2184686   0.1660200   0.5865888  )
       192           C   tau( 192) = (   0.2607506   0.1538560   0.5843246  )
       193           C   tau( 193) = (   0.2810049   0.1537823   0.5453699  )
       194           C   tau( 194) = (   0.3233729   0.1656446   0.5430962  )
       195           C   tau( 195) = (   0.3406496   0.1762205   0.5041426  )
       196           C   tau( 196) = (   0.3704959   0.2085475   0.5018895  )
       197           C   tau( 197) = (   0.3796640   0.2266091   0.4629397  )
       198           C   tau( 198) = (   0.3881215   0.2697849   0.4606656  )
       199           C   tau( 199) = (   0.3864516   0.2899719   0.4217216  )
       200           C   tau( 200) = (   0.3535344   0.3532928   0.9483651  )
       201           C   tau( 201) = (   0.3379514   0.3662412   0.9094374  )
       202           C   tau( 202) = (   0.2977391   0.3841027   0.9071845  )
       203           C   tau( 203) = (   0.2776804   0.3869560   0.8682462  )
       204           C   tau( 204) = (   0.2340803   0.3810496   0.8659803  )
       205           C   tau( 205) = (   0.2155120   0.3729491   0.8270401  )
       206           C   tau( 206) = (   0.1814964   0.3450421   0.8247732  )
       207           C   tau( 207) = (   0.1699350   0.3284106   0.7858226  )
       208           C   tau( 208) = (   0.1556121   0.2868101   0.7835653  )
       209           C   tau( 209) = (   0.1545016   0.2665827   0.7446159  )
       210           C   tau( 210) = (   0.1641482   0.2236566   0.7423386  )
       211           C   tau( 211) = (   0.1738094   0.2058516   0.7033867  )
       212           C   tau( 212) = (   0.2045359   0.1743588   0.7011297  )
       213           C   tau( 213) = (   0.2220973   0.1642682   0.6621711  )
       214           C   tau( 214) = (   0.2647711   0.1535647   0.6599007  )
       215           C   tau( 215) = (   0.2850154   0.1541888   0.6209443  )
       216           C   tau( 216) = (   0.3269476   0.1675033   0.6186755  )
       217           C   tau( 217) = (   0.3438492   0.1786644   0.5797153  )
       218           C   tau( 218) = (   0.3725604   0.2120057   0.5774589  )
       219           C   tau( 219) = (   0.3810953   0.2303761   0.5385064  )
       220           C   tau( 220) = (   0.3880557   0.2738193   0.5362303  )
       221           C   tau( 221) = (   0.3856896   0.2939325   0.4972774  )
       222           C   tau( 222) = (   0.3506287   0.3560923   1.0238670  )
       223           C   tau( 223) = (   0.3346049   0.3685011   0.9849490  )
       224           C   tau( 224) = (   0.2937991   0.3849618   0.9827008  )
       225           C   tau( 225) = (   0.2736485   0.3871199   0.9437762  )
       226           C   tau( 226) = (   0.2302762   0.3797103   0.9415092  )
       227           C   tau( 227) = (   0.2119954   0.3709777   0.9025790  )
       228           C   tau( 228) = (   0.1789645   0.3419086   0.9003202  )
       229           C   tau( 229) = (   0.1679799   0.3248846   0.8613789  )
       230           C   tau( 230) = (   0.1550971   0.2828143   0.8591173  )
       231           C   tau( 231) = (   0.1546853   0.2625588   0.8201752  )
       232           C   tau( 232) = (   0.1658125   0.2199920   0.8179000  )
       233           C   tau( 233) = (   0.1760828   0.2025287   0.7789531  )
       234           C   tau( 234) = (   0.2078733   0.1721094   0.7766988  )
       235           C   tau( 235) = (   0.2257754   0.1626263   0.7377482  )
       236           C   tau( 236) = (   0.2687960   0.1534081   0.7354729  )
       237           C   tau( 237) = (   0.2890090   0.1547318   0.6965209  )
       238           C   tau( 238) = (   0.3304583   0.1694859   0.6942582  )
       239           C   tau( 239) = (   0.3469650   0.1812187   0.6552967  )
       240           C   tau( 240) = (   0.3745029   0.2155331   0.6530328  )
       241           C   tau( 241) = (   0.3823954   0.2341878   0.6140786  )
       242           C   tau( 242) = (   0.3878477   0.2778462   0.6118041  )
       243           C   tau( 243) = (   0.3847934   0.2978686   0.5728470  )
       244           C   tau( 244) = (   0.3476372   0.3587931   1.0993532  )
       245           C   tau( 245) = (   0.3311922   0.3706449   1.0604435  )
       246           C   tau( 246) = (   0.2898400   0.3856842   1.0581955  )
       247           C   tau( 247) = (   0.2696206   0.3871435   1.0192837  )
       248           C   tau( 248) = (   0.2265304   0.3782343   1.0170147  )
       249           C   tau( 249) = (   0.2085512   0.3688742   0.9780973  )
       250           C   tau( 250) = (   0.1765402   0.3386831   0.9758442  )
       251           C   tau( 251) = (   0.1661534   0.3212883   0.9369137  )
       252           C   tau( 252) = (   0.1547270   0.2787978   0.9346476  )
       253           C   tau( 253) = (   0.1550077   0.2585400   0.8957154  )
       254           C   tau( 254) = (   0.1675917   0.2163786   0.8934463  )
       255           C   tau( 255) = (   0.1784669   0.1992830   0.8545061  )
       256           C   tau( 256) = (   0.2112906   0.1699821   0.8522504  )
       257           C   tau( 257) = (   0.2295095   0.1611196   0.8133097  )
       258           C   tau( 258) = (   0.2728237   0.1533951   0.8110347  )
       259           C   tau( 259) = (   0.2929786   0.1554159   0.7720885  )
       260           C   tau( 260) = (   0.3338918   0.1715975   0.7698307  )
       261           C   tau( 261) = (   0.3499864   0.1838928   0.7308763  )
       262           C   tau( 262) = (   0.3763309   0.2191327   0.7286048  )
       263           C   tau( 263) = (   0.3835692   0.2380430   0.6896508  )
       264           C   tau( 264) = (   0.3875137   0.2818632   0.6873814  )
       265           C   tau( 265) = (   0.3837607   0.3017662   0.6484227  )
       266           C   tau( 266) = (   0.3445479   0.3613734   1.1748256  )
       267           C   tau( 267) = (   0.3277009   0.3726588   1.1359225  )
       268           C   tau( 268) = (   0.2858543   0.3862642   1.1336710  )
       269           C   tau( 269) = (   0.2655935   0.3870265   1.0947684  )
       270           C   tau( 270) = (   0.2228393   0.3766281   1.0924990  )
       271           C   tau( 271) = (   0.2051911   0.3666501   1.0535918  )
       272           C   tau( 272) = (   0.1742360   0.3353758   1.0513410  )
       273           C   tau( 273) = (   0.1644420   0.3176292   1.0124260  )
       274           C   tau( 274) = (   0.1544919   0.2747673   1.0101539  )
       275           C   tau( 275) = (   0.1554706   0.2545265   0.9712340  )
       276           C   tau( 276) = (   0.1694987   0.2128223   0.9689716  )
       277           C   tau( 277) = (   0.1809544   0.1961105   0.9300403  )
       278           C   tau( 278) = (   0.2147709   0.1679592   0.9277796  )
       279           C   tau( 279) = (   0.2332943   0.1597389   0.8888507  )
       280           C   tau( 280) = (   0.2768511   0.1535226   0.8865765  )
       281           C   tau( 281) = (   0.2969307   0.1562396   0.8476397  )
       282           C   tau( 282) = (   0.3372617   0.1738240   0.8453837  )
       283           C   tau( 283) = (   0.3529213   0.1866682   0.8064393  )
       284           C   tau( 284) = (   0.3780419   0.2227915   0.8041633  )
       285           C   tau( 285) = (   0.3846284   0.2419441   0.7652166  )
       286           C   tau( 286) = (   0.3870563   0.2858756   0.7629535  )
       287           C   tau( 287) = (   0.3826163   0.3056347   0.7239977  )
       288           C   tau( 288) = (   0.3413651   0.3638340   0.0008255  )
       289           C   tau( 289) = (   0.3241445   0.3745422   1.2113899  )
       290           C   tau( 290) = (   0.2818527   0.3866977   1.2091338  )
       291           C   tau( 291) = (   0.2615739   0.3867668   1.1702372  )
       292           C   tau( 292) = (   0.2192027   0.3748981   1.1679698  )
       293           C   tau( 293) = (   0.2019073   0.3643146   1.1290686  )
       294           C   tau( 294) = (   0.1720538   0.3319876   1.1268170  )
       295           C   tau( 295) = (   0.1628766   0.3139119   1.0879140  )
       296           C   tau( 296) = (   0.1544093   0.2707342   1.0856387  )
       297           C   tau( 297) = (   0.1560791   0.2505324   1.0467309  )
       298           C   tau( 298) = (   0.1715359   0.2093366   1.0444730  )
       299           C   tau( 299) = (   0.1835579   0.1930227   1.0055546  )
       300           C   tau( 300) = (   0.2183345   0.1660643   1.0032881  )
       301           C   tau( 301) = (   0.2371265   0.1584892   0.9643691  )
       302           C   tau( 302) = (   0.2808741   0.1537870   0.9620992  )
       303           C   tau( 303) = (   0.3008464   0.1572020   0.9231711  )
       304           C   tau( 304) = (   0.3405482   0.1761646   0.9209129  )
       305           C   tau( 305) = (   0.3557597   0.1895467   0.8819822  )
       306           C   tau( 306) = (   0.3796213   0.2265134   0.8797052  )
       307           C   tau( 307) = (   0.3855467   0.2458808   0.8407673  )
       308           C   tau( 308) = (   0.3864611   0.2898702   0.8385099  )
       309           C   tau( 309) = (   0.3813391   0.3094646   0.7995639  )
       310           C   tau( 310) = (   0.2575650   0.3863542   1.2456945  )
       311           C   tau( 311) = (   0.2156281   0.3730327   1.2434322  )
       312           C   tau( 312) = (   0.1987063   0.3618641   1.2045321  )
       313           C   tau( 313) = (   0.1699842   0.3285271   1.2022774  )
       314           C   tau( 314) = (   0.1614363   0.3101426   1.1633815  )
       315           C   tau( 315) = (   0.1544650   0.2666969   1.1611071  )
       316           C   tau( 316) = (   0.1568354   0.2465658   1.1222062  )
       317           C   tau( 317) = (   0.1737052   0.2059269   1.1199528  )
       318           C   tau( 318) = (   0.1862829   0.1900368   1.0810444  )
       319           C   tau( 319) = (   0.2219676   0.1642938   1.0787733  )
       320           C   tau( 320) = (   0.2410144   0.1573742   1.0398633  )
       321           C   tau( 321) = (   0.2848980   0.1541814   1.0376002  )
       322           C   tau( 322) = (   0.3047401   0.1582856   0.9986806  )
       323           C   tau( 323) = (   0.3437697   0.1786003   0.9964205  )
       324           C   tau( 324) = (   0.3585047   0.1925083   0.9575009  )
       325           C   tau( 325) = (   0.3810758   0.2302790   0.9552275  )
       326           C   tau( 326) = (   0.3863293   0.2498463   0.9163005  )
       327           C   tau( 327) = (   0.3857318   0.2938426   0.9140476  )
       328           C   tau( 328) = (   0.3799323   0.3132501   0.8751126  )
       329           C   tau( 329) = (   0.1601221   0.3063260   1.2388348  )
       330           C   tau( 330) = (   0.1546555   0.2626631   1.2365643  )
       331           C   tau( 331) = (   0.1577221   0.2426225   1.1976659  )
       332           C   tau( 332) = (   0.1759866   0.2025885   1.1954142  )
       333           C   tau( 333) = (   0.1891064   0.1871388   1.1565128  )
       334           C   tau( 334) = (   0.2256600   0.1626389   1.1542404  )
       335           C   tau( 335) = (   0.2449361   0.1563809   1.1153366  )
       336           C   tau( 336) = (   0.2889066   0.1547078   1.1130810  )
       337           C   tau( 337) = (   0.3085981   0.1594945   1.0741695  )
       338           C   tau( 338) = (   0.3469063   0.1811462   1.0719071  )
       339           C   tau( 339) = (   0.3611532   0.1955598   1.0329965  )
       340           C   tau( 340) = (   0.3824024   0.2340907   1.0307293  )
       341           C   tau( 341) = (   0.3869773   0.2538331   0.9918105  )
       342           C   tau( 342) = (   0.3848640   0.2977843   0.9895583  )
       343           C   tau( 343) = (   0.3784043   0.3169919   0.9506371  )
       344           C   tau( 344) = (   0.1920303   0.1843499   1.2319700  )
       345           C   tau( 345) = (   0.2294067   0.1611231   1.2296975  )
       346           C   tau( 346) = (   0.2488872   0.1555255   1.1907979  )
       347           C   tau( 347) = (   0.2928920   0.1553739   1.1885474  )
       348           C   tau( 348) = (   0.3124084   0.1608450   1.1496426  )
       349           C   tau( 349) = (   0.3499420   0.1838109   1.1473762  )
       350           C   tau( 350) = (   0.3636890   0.1987051   1.1084723  )
       351           C   tau( 351) = (   0.3835936   0.2379472   1.1062117  )
       352           C   tau( 352) = (   0.3874833   0.2578403   1.0673009  )
       353           C   tau( 353) = (   0.3838477   0.3016927   1.0650471  )
       354           C   tau( 354) = (   0.3767291   0.3206659   1.0261357  )
       355           C   tau( 355) = (   0.3161745   0.1623193   1.2251036  )
       356           C   tau( 356) = (   0.3528943   0.1865695   1.2228331  )
       357           C   tau( 357) = (   0.3661170   0.2019358   1.1839346  )
       358           C   tau( 358) = (   0.3846654   0.2418370   1.1816799  )
       359           C   tau( 359) = (   0.3878627   0.2618587   1.1427759  )
       360           C   tau( 360) = (   0.3827192   0.3055609   1.1405177  )
       361           C   tau( 361) = (   0.3749423   0.3242852   1.1016170  )
       362           C   tau( 362) = (   0.3881069   0.2658832   1.2182402  )
       363           C   tau( 363) = (   0.3814520   0.3093814   1.2159780  )
       364           C   tau( 364) = (   0.3730340   0.3278301   1.1770831  )

   Crystallographic axes

     site n.     atom                  positions (cryst. coord.)
         1           C   tau(   1) = (  0.3709934  0.5383372  0.0024624  )
         2           C   tau(   2) = (  0.3688304  0.5438544  0.0628528  )
         3           C   tau(   3) = (  0.3380914  0.5950254  0.0610534  )
         4           C   tau(   4) = (  0.3205134  0.6114426  0.0299216  )
         5           C   tau(   5) = (  0.2778290  0.6288125  0.0281119  )
         6           C   tau(   6) = (  0.3665437  0.5492471  0.1232488  )
         7           C   tau(   7) = (  0.3347369  0.5986622  0.1214500  )
         8           C   tau(   8) = (  0.3168225  0.6140814  0.0903153  )
         9           C   tau(   9) = (  0.2737926  0.6290346  0.0885006  )
        10           C   tau(  10) = (  0.2535628  0.6268934  0.0573696  )
        11           C   tau(  11) = (  0.2121064  0.6029267  0.0555635  )
        12           C   tau(  12) = (  0.1955818  0.5838466  0.0244288  )
        13           C   tau(  13) = (  0.1680231  0.5281010  0.0226214  )
        14           C   tau(  14) = (  0.3641286  0.5545051  0.1836589  )
        15           C   tau(  15) = (  0.3312934  0.6021053  0.1818582  )
        16           C   tau(  16) = (  0.3130741  0.6165081  0.1507162  )
        17           C   tau(  17) = (  0.2697534  0.6290401  0.1488990  )
        18           C   tau(  18) = (  0.2495864  0.6257594  0.1177623  )
        19           C   tau(  19) = (  0.2086650  0.5994824  0.1159595  )
        20           C   tau(  20) = (  0.1925543  0.5794963  0.0848215  )
        21           C   tau(  21) = (  0.1661959  0.5222433  0.0830107  )
        22           C   tau(  22) = (  0.1589333  0.4914933  0.0518776  )
        23           C   tau(  23) = (  0.1549840  0.4202767  0.0500656  )
        24           C   tau(  24) = (  0.1587418  0.3879044  0.0189322  )
        25           C   tau(  25) = (  0.1783820  0.3239148  0.0171285  )
        26           C   tau(  26) = (  0.3616055  0.5596278  0.2440858  )
        27           C   tau(  27) = (  0.3277797  0.6053561  0.2422805  )
        28           C   tau(  28) = (  0.3092672  0.6187284  0.2111309  )
        29           C   tau(  29) = (  0.2657095  0.6288315  0.2093119  )
        30           C   tau(  30) = (  0.2456300  0.6244203  0.1781659  )
        31           C   tau(  31) = (  0.2052912  0.5958625  0.1763650  )
        32           C   tau(  32) = (  0.1896176  0.5749865  0.1452227  )
        33           C   tau(  33) = (  0.1644903  0.5162890  0.1434077  )
        34           C   tau(  34) = (  0.1578926  0.4851484  0.1122702  )
        35           C   tau(  35) = (  0.1554564  0.4137551  0.1104617  )
        36           C   tau(  36) = (  0.1598993  0.3816173  0.0793226  )
        37           C   tau(  37) = (  0.1808805  0.3187659  0.0775156  )
        38           C   tau(  38) = (  0.1950389  0.2951896  0.0463847  )
        39           C   tau(  39) = (  0.2331951  0.2595709  0.0445669  )
        40           C   tau(  40) = (  0.2528648  0.2515745  0.0134365  )
        41           C   tau(  41) = (  0.2968469  0.2537974  0.0116338  )
        42           C   tau(  42) = (  0.3709857  0.5381158  0.3356993  )
        43           C   tau(  43) = (  0.3589767  0.5646159  0.3045320  )
        44           C   tau(  44) = (  0.3242046  0.6084269  0.3027200  )
        45           C   tau(  45) = (  0.3054200  0.6207398  0.2715624  )
        46           C   tau(  46) = (  0.2616737  0.6283987  0.2697438  )
        47           C   tau(  47) = (  0.2417028  0.6228654  0.2385886  )
        48           C   tau(  48) = (  0.2019929  0.5920688  0.2367861  )
        49           C   tau(  49) = (  0.1867817  0.5703139  0.2056377  )
        50           C   tau(  50) = (  0.1629254  0.5102378  0.2038185  )
        51           C   tau(  51) = (  0.1569927  0.4787490  0.1726755  )
        52           C   tau(  52) = (  0.1560748  0.4072651  0.1708694  )
        53           C   tau(  53) = (  0.1611867  0.3753990  0.1397255  )
        54           C   tau(  54) = (  0.1834905  0.3137636  0.1379122  )
        55           C   tau(  55) = (  0.1981437  0.2910029  0.1067769  )
        56           C   tau(  56) = (  0.2370336  0.2575554  0.1049608  )
        57           C   tau(  57) = (  0.2568591  0.2506635  0.0738267  )
        58           C   tau(  58) = (  0.3007671  0.2553569  0.0720225  )
        59           C   tau(  59) = (  0.3198668  0.2663989  0.0408925  )
        60           C   tau(  60) = (  0.3557293  0.3078295  0.0390735  )
        61           C   tau(  61) = (  0.3684277  0.3335155  0.0079440  )
        62           C   tau(  62) = (  0.3855938  0.3993506  0.0061428  )
        63           C   tau(  63) = (  0.3688196  0.5436504  0.3961700  )
        64           C   tau(  64) = (  0.3562476  0.5694518  0.3649965  )
        65           C   tau(  65) = (  0.3205705  0.6112925  0.3631785  )
        66           C   tau(  66) = (  0.3015396  0.6225481  0.3320127  )
        67           C   tau(  67) = (  0.2576579  0.6277461  0.3301979  )
        68           C   tau(  68) = (  0.2378189  0.6210888  0.2990328  )
        69           C   tau(  69) = (  0.1987883  0.5880852  0.2972264  )
        70           C   tau(  70) = (  0.1840429  0.5655045  0.2660701  )
        71           C   tau(  71) = (  0.1614820  0.5041201  0.2642495  )
        72           C   tau(  72) = (  0.1562267  0.4723168  0.2330980  )
        73           C   tau(  73) = (  0.1568356  0.4008264  0.2312933  )
        74           C   tau(  74) = (  0.1626218  0.3692680  0.2001439  )
        75           C   tau(  75) = (  0.1862182  0.3089206  0.1983252  )
        76           C   tau(  76) = (  0.2013346  0.2869939  0.1671814  )
        77           C   tau(  77) = (  0.2409085  0.2557436  0.1653692  )
        78           C   tau(  78) = (  0.2608664  0.2499746  0.1342274  )
        79           C   tau(  79) = (  0.3046462  0.2571281  0.1324197  )
        80           C   tau(  80) = (  0.3235043  0.2692274  0.1012864  )
        81           C   tau(  81) = (  0.3584686  0.3126372  0.0994680  )
        82           C   tau(  82) = (  0.3706135  0.3390170  0.0683350  )
        83           C   tau(  83) = (  0.3863774  0.4057717  0.0665360  )
        84           C   tau(  84) = (  0.3881997  0.4385877  0.0354046  )
        85           C   tau(  85) = (  0.3800427  0.5088512  0.0335906  )
        86           C   tau(  86) = (  0.3665372  0.5490651  0.4566500  )
        87           C   tau(  87) = (  0.3534366  0.5741556  0.4254723  )
        88           C   tau(  88) = (  0.3168907  0.6139715  0.4236506  )
        89           C   tau(  89) = (  0.2976270  0.6241449  0.3924787  )
        90           C   tau(  90) = (  0.2536608  0.6268692  0.3906682  )
        91           C   tau(  91) = (  0.2339736  0.6191086  0.3594952  )
        92           C   tau(  92) = (  0.1956712  0.5839228  0.3576835  )
        93           C   tau(  93) = (  0.1814235  0.5605224  0.3265186  )
        94           C   tau(  94) = (  0.1601818  0.4979115  0.3247000  )
        95           C   tau(  95) = (  0.1556008  0.4658451  0.2935367  )
        96           C   tau(  96) = (  0.1577299  0.3944322  0.2917324  )
        97           C   tau(  97) = (  0.1641817  0.3632209  0.2605753  )
        98           C   tau(  98) = (  0.1890451  0.3042319  0.2587539  )
        99           C   tau(  99) = (  0.2046181  0.2831658  0.2276015  )
       100           C   tau( 100) = (  0.2448287  0.2541402  0.2257935  )
       101           C   tau( 101) = (  0.2648887  0.2494961  0.1946415  )
       102           C   tau( 102) = (  0.3084894  0.2591044  0.1928309  )
       103           C   tau( 103) = (  0.3270710  0.2722626  0.1616895  )
       104           C   tau( 104) = (  0.3610948  0.3176044  0.1598752  )
       105           C   tau( 105) = (  0.3726778  0.3446396  0.1287347  )
       106           C   tau( 106) = (  0.3870107  0.4122395  0.1269344  )
       107           C   tau( 107) = (  0.3881426  0.4451326  0.0957998  )
       108           C   tau( 108) = (  0.3784999  0.5148970  0.0939836  )
       109           C   tau( 109) = (  0.3641430  0.5543424  0.5171323  )
       110           C   tau( 110) = (  0.3505121  0.5786797  0.4859549  )
       111           C   tau( 111) = (  0.3131474  0.6164269  0.4841321  )
       112           C   tau( 112) = (  0.2936842  0.6255160  0.4529555  )
       113           C   tau( 113) = (  0.2496853  0.6257669  0.4511499  )
       114           C   tau( 114) = (  0.2301826  0.6168978  0.4199724  )
       115           C   tau( 115) = (  0.1926551  0.5795772  0.4181548  )
       116           C   tau( 116) = (  0.1789130  0.5554005  0.3869833  )
       117           C   tau( 117) = (  0.1590049  0.4916437  0.3851681  )
       118           C   tau( 118) = (  0.1551093  0.4593420  0.3539959  )
       119           C   tau( 119) = (  0.1587508  0.3880908  0.3521887  )
       120           C   tau( 120) = (  0.1658680  0.3572709  0.3210237  )
       121           C   tau( 121) = (  0.1919671  0.2997099  0.3192017  )
       122           C   tau( 122) = (  0.2079725  0.2795271  0.2880394  )
       123           C   tau( 123) = (  0.2487747  0.2527678  0.2862346  )
       124           C   tau( 124) = (  0.2689208  0.2492470  0.2550752  )
       125           C   tau( 125) = (  0.3122905  0.2613064  0.2532600  )
       126           C   tau( 126) = (  0.3305762  0.2754906  0.2221080  )
       127           C   tau( 127) = (  0.3636153  0.3227161  0.2202987  )
       128           C   tau( 128) = (  0.3746122  0.3503792  0.1891485  )
       129           C   tau( 129) = (  0.3874993  0.4187444  0.1873450  )
       130           C   tau( 130) = (  0.3879296  0.4516727  0.1562035  )
       131           C   tau( 131) = (  0.3768065  0.5208504  0.1543879  )
       132           C   tau( 132) = (  0.3616481  0.5594893  0.5776127  )
       133           C   tau( 133) = (  0.3475113  0.5830544  0.5464382  )
       134           C   tau( 134) = (  0.3093648  0.6186819  0.5446181  )
       135           C   tau( 135) = (  0.2897151  0.6266657  0.5134402  )
       136           C   tau( 136) = (  0.2457391  0.6244404  0.5116351  )
       137           C   tau( 137) = (  0.2264328  0.6144861  0.4804571  )
       138           C   tau( 138) = (  0.1897177  0.5750849  0.4786358  )
       139           C   tau( 139) = (  0.1765046  0.5501465  0.4474597  )
       140           C   tau( 140) = (  0.1579636  0.4853128  0.4456489  )
       141           C   tau( 141) = (  0.1547590  0.4528147  0.4144707  )
       142           C   tau( 142) = (  0.1599173  0.3818133  0.4126582  )
       143           C   tau( 143) = (  0.1676743  0.3514100  0.3814867  )
       144           C   tau( 144) = (  0.1949828  0.2953523  0.3796669  )
       145           C   tau( 145) = (  0.2114044  0.2760860  0.3484959  )
       146           C   tau( 146) = (  0.2527472  0.2516297  0.3466910  )
       147           C   tau( 147) = (  0.2729526  0.2492374  0.3155247  )
       148           C   tau( 148) = (  0.3160385  0.2637205  0.3137054  )
       149           C   tau( 149) = (  0.3340105  0.2789210  0.2825456  )
       150           C   tau( 150) = (  0.3660255  0.3279735  0.2807402  )
       151           C   tau( 151) = (  0.3764238  0.3562287  0.2495803  )
       152           C   tau( 152) = (  0.3878472  0.4252753  0.2477719  )
       153           C   tau( 153) = (  0.3875781  0.4581975  0.2166208  )
       154           C   tau( 154) = (  0.3749907  0.5267097  0.2148071  )
       155           C   tau( 155) = (  0.3590414  0.5644950  0.6380849  )
       156           C   tau( 156) = (  0.3444059  0.5872422  0.6069154  )
       157           C   tau( 157) = (  0.3055237  0.6206989  0.6051007  )
       158           C   tau( 158) = (  0.2857216  0.6275860  0.5739236  )
       159           C   tau( 159) = (  0.2418197  0.6228914  0.5721175  )
       160           C   tau( 160) = (  0.2227426  0.6118544  0.5409415  )
       161           C   tau( 161) = (  0.1868861  0.5704215  0.5391189  )
       162           C   tau( 162) = (  0.1742052  0.5447604  0.5079420  )
       163           C   tau( 163) = (  0.1570520  0.4789266  0.5061349  )
       164           C   tau( 164) = (  0.1545397  0.4462714  0.4749549  )
       165           C   tau( 165) = (  0.1611978  0.3756014  0.4731372  )
       166           C   tau( 166) = (  0.1696077  0.3456613  0.4419624  )
       167           C   tau( 167) = (  0.1980871  0.2911650  0.4401464  )
       168           C   tau( 168) = (  0.2149075  0.2728330  0.4089686  )
       169           C   tau( 169) = (  0.2567446  0.2507097  0.4071606  )
       170           C   tau( 170) = (  0.2769841  0.2494540  0.3759889  )
       171           C   tau( 171) = (  0.3197353  0.2663468  0.3741683  )
       172           C   tau( 172) = (  0.3373677  0.2825448  0.3430000  )
       173           C   tau( 173) = (  0.3683158  0.3333659  0.3411969  )
       174           C   tau( 174) = (  0.3781096  0.3621821  0.3100305  )
       175           C   tau( 175) = (  0.3880545  0.4318272  0.3082155  )
       176           C   tau( 176) = (  0.3870843  0.4647077  0.2770558  )
       177           C   tau( 177) = (  0.3730509  0.5324692  0.2752445  )
       178           C   tau( 178) = (  0.3563354  0.5693568  0.6985445  )
       179           C   tau( 179) = (  0.3412176  0.5912634  0.6673825  )
       180           C   tau( 180) = (  0.3016474  0.6225247  0.6655737  )
       181           C   tau( 181) = (  0.2817079  0.6282849  0.6344019  )
       182           C   tau( 182) = (  0.2379309  0.6211318  0.6325919  )
       183           C   tau( 183) = (  0.2190977  0.6090336  0.6014208  )
       184           C   tau( 184) = (  0.1841362  0.5656254  0.5996006  )
       185           C   tau( 185) = (  0.1720164  0.5392606  0.5684247  )
       186           C   tau( 186) = (  0.1562670  0.4725074  0.5666197  )
       187           C   tau( 187) = (  0.1544560  0.4397259  0.5354428  )
       188           C   tau( 188) = (  0.1626107  0.3694728  0.5336214  )
       189           C   tau( 189) = (  0.1716458  0.3400159  0.5024451  )
       190           C   tau( 190) = (  0.2012702  0.2871558  0.5006346  )
       191           C   tau( 191) = (  0.2184686  0.2697721  0.4694537  )
       192           C   tau( 192) = (  0.2607506  0.2500064  0.4676417  )
       193           C   tau( 193) = (  0.2810049  0.2498864  0.4364658  )
       194           C   tau( 194) = (  0.3233729  0.2691620  0.4346462  )
       195           C   tau( 195) = (  0.3406496  0.2863471  0.4034712  )
       196           C   tau( 196) = (  0.3704959  0.3388765  0.4016680  )
       197           C   tau( 197) = (  0.3796640  0.3682254  0.3704959  )
       198           C   tau( 198) = (  0.3881215  0.4383835  0.3686760  )
       199           C   tau( 199) = (  0.3864516  0.4711861  0.3375086  )
       200           C   tau( 200) = (  0.3535344  0.5740784  0.7589875  )
       201           C   tau( 201) = (  0.3379514  0.5951188  0.7278332  )
       202           C   tau( 202) = (  0.2977391  0.6241426  0.7260302  )
       203           C   tau( 203) = (  0.2776804  0.6287791  0.6948674  )
       204           C   tau( 204) = (  0.2340803  0.6191815  0.6930540  )
       205           C   tau( 205) = (  0.2155120  0.6060188  0.6618897  )
       206           C   tau( 206) = (  0.1814964  0.5606717  0.6600755  )
       207           C   tau( 207) = (  0.1699350  0.5336464  0.6289028  )
       208           C   tau( 208) = (  0.1556121  0.4660483  0.6270963  )
       209           C   tau( 209) = (  0.1545016  0.4331800  0.5959247  )
       210           C   tau( 210) = (  0.1641482  0.3634278  0.5941021  )
       211           C   tau( 211) = (  0.1738094  0.3344958  0.5629284  )
       212           C   tau( 212) = (  0.2045359  0.2833220  0.5611221  )
       213           C   tau( 213) = (  0.2220973  0.2669254  0.5299431  )
       214           C   tau( 214) = (  0.2647711  0.2495329  0.5281261  )
       215           C   tau( 215) = (  0.2850154  0.2505470  0.4969488  )
       216           C   tau( 216) = (  0.3269476  0.2721823  0.4951331  )
       217           C   tau( 217) = (  0.3438492  0.2903184  0.4639528  )
       218           C   tau( 218) = (  0.3725604  0.3444959  0.4621470  )
       219           C   tau( 219) = (  0.3810953  0.3743465  0.4309729  )
       220           C   tau( 220) = (  0.3880557  0.4449391  0.4291513  )
       221           C   tau( 221) = (  0.3856896  0.4776217  0.3979768  )
       222           C   tau( 222) = (  0.3506287  0.5786275  0.8194126  )
       223           C   tau( 223) = (  0.3346049  0.5987910  0.7882660  )
       224           C   tau( 224) = (  0.2937991  0.6255387  0.7864668  )
       225           C   tau( 225) = (  0.2736485  0.6290453  0.7553150  )
       226           C   tau( 226) = (  0.2302762  0.6170053  0.7535007  )
       227           C   tau( 227) = (  0.2119954  0.6028154  0.7223443  )
       228           C   tau( 228) = (  0.1789645  0.5555798  0.7205366  )
       229           C   tau( 229) = (  0.1679799  0.5279170  0.6893714  )
       230           C   tau( 230) = (  0.1550971  0.4595553  0.6875614  )
       231           C   tau( 231) = (  0.1546853  0.4266415  0.6563957  )
       232           C   tau( 232) = (  0.1658125  0.3574732  0.6545748  )
       233           C   tau( 233) = (  0.1760828  0.3290963  0.6234051  )
       234           C   tau( 234) = (  0.2078733  0.2796668  0.6216010  )
       235           C   tau( 235) = (  0.2257754  0.2642574  0.5904284  )
       236           C   tau( 236) = (  0.2687960  0.2492785  0.5886074  )
       237           C   tau( 237) = (  0.2890090  0.2514295  0.5574337  )
       238           C   tau( 238) = (  0.3304583  0.2754039  0.5556228  )
       239           C   tau( 239) = (  0.3469650  0.2944690  0.5244415  )
       240           C   tau( 240) = (  0.3745029  0.3502277  0.5226296  )
       241           C   tau( 241) = (  0.3823954  0.3805404  0.4914542  )
       242           C   tau( 242) = (  0.3878477  0.4514824  0.4896339  )
       243           C   tau( 243) = (  0.3847934  0.4840176  0.4584560  )
       244           C   tau( 244) = (  0.3476372  0.5830161  0.8798251  )
       245           C   tau( 245) = (  0.3311922  0.6022745  0.8486851  )
       246           C   tau( 246) = (  0.2898400  0.6267125  0.8468860  )
       247           C   tau( 247) = (  0.2696206  0.6290837  0.8157444  )
       248           C   tau( 248) = (  0.2265304  0.6146068  0.8139285  )
       249           C   tau( 249) = (  0.2085512  0.5993973  0.7827825  )
       250           C   tau( 250) = (  0.1765402  0.5503386  0.7809794  )
       251           C   tau( 251) = (  0.1661534  0.5220731  0.7498228  )
       252           C   tau( 252) = (  0.1547270  0.4530288  0.7480092  )
       253           C   tau( 253) = (  0.1550077  0.4201112  0.7168514  )
       254           C   tau( 254) = (  0.1675917  0.3516015  0.7150354  )
       255           C   tau( 255) = (  0.1784669  0.3238222  0.6838711  )
       256           C   tau( 256) = (  0.2112906  0.2762101  0.6820658  )
       257           C   tau( 257) = (  0.2295095  0.2618092  0.6509011  )
       258           C   tau( 258) = (  0.2728237  0.2492573  0.6490804  )
       259           C   tau( 259) = (  0.2929786  0.2525411  0.6179113  )
       260           C   tau( 260) = (  0.3338918  0.2788351  0.6161044  )
       261           C   tau( 261) = (  0.3499864  0.2988141  0.5849287  )
       262           C   tau( 262) = (  0.3763309  0.3560769  0.5831108  )
       263           C   tau( 263) = (  0.3835692  0.3868048  0.5519354  )
       264           C   tau( 264) = (  0.3875137  0.4580099  0.5501192  )
       265           C   tau( 265) = (  0.3837607  0.4903510  0.5189401  )
       266           C   tau( 266) = (  0.3445479  0.5872089  0.9402265  )
       267           C   tau( 267) = (  0.3277009  0.6055470  0.9090919  )
       268           C   tau( 268) = (  0.2858543  0.6276549  0.9072900  )
       269           C   tau( 269) = (  0.2655935  0.6288935  0.8761558  )
       270           C   tau( 270) = (  0.2228393  0.6119968  0.8743396  )
       271           C   tau( 271) = (  0.2051911  0.5957833  0.8432016  )
       272           C   tau( 272) = (  0.1742360  0.5449644  0.8414003  )
       273           C   tau( 273) = (  0.1644420  0.5161273  0.8102561  )
       274           C   tau( 274) = (  0.1544919  0.4464796  0.8084378  )
       275           C   tau( 275) = (  0.1554706  0.4135895  0.7772897  )
       276           C   tau( 276) = (  0.1694987  0.3458228  0.7754791  )
       277           C   tau( 277) = (  0.1809544  0.3186671  0.7443220  )
       278           C   tau( 278) = (  0.2147709  0.2729231  0.7425127  )
       279           C   tau( 279) = (  0.2332943  0.2595656  0.7113575  )
       280           C   tau( 280) = (  0.2768511  0.2494645  0.7095374  )
       281           C   tau( 281) = (  0.2969307  0.2538794  0.6783758  )
       282           C   tau( 282) = (  0.3372617  0.2824530  0.6765703  )
       283           C   tau( 283) = (  0.3529213  0.3033241  0.6454026  )
       284           C   tau( 284) = (  0.3780419  0.3620220  0.6435811  )
       285           C   tau( 285) = (  0.3846284  0.3931438  0.6124117  )
       286           C   tau( 286) = (  0.3870563  0.4645298  0.6106005  )
       287           C   tau( 287) = (  0.3826163  0.4966371  0.5794237  )
       288           C   tau( 288) = (  0.3413651  0.5912072  0.0006606  )
       289           C   tau( 289) = (  0.3241445  0.6086074  0.9694893  )
       290           C   tau( 290) = (  0.2818527  0.6283593  0.9676837  )
       291           C   tau( 291) = (  0.2615739  0.6284717  0.9365543  )
       292           C   tau( 292) = (  0.2192027  0.6091857  0.9347397  )
       293           C   tau( 293) = (  0.2019073  0.5919883  0.9036066  )
       294           C   tau( 294) = (  0.1720538  0.5394589  0.9018046  )
       295           C   tau( 295) = (  0.1628766  0.5100870  0.8706701  )
       296           C   tau( 296) = (  0.1544093  0.4399259  0.8688492  )
       297           C   tau( 297) = (  0.1560791  0.4070993  0.8377108  )
       298           C   tau( 298) = (  0.1715359  0.3401587  0.8359037  )
       299           C   tau( 299) = (  0.1835579  0.3136497  0.8047569  )
       300           C   tau( 300) = (  0.2183345  0.2698441  0.8029430  )
       301           C   tau( 301) = (  0.2371265  0.2575349  0.7717957  )
       302           C   tau( 302) = (  0.2808741  0.2498941  0.7699790  )
       303           C   tau( 303) = (  0.3008464  0.2554433  0.7388245  )
       304           C   tau( 304) = (  0.3405482  0.2862563  0.7370172  )
       305           C   tau( 305) = (  0.3557597  0.3080015  0.7058605  )
       306           C   tau( 306) = (  0.3796213  0.3680699  0.7040382  )
       307           C   tau( 307) = (  0.3855467  0.3995407  0.6728758  )
       308           C   tau( 308) = (  0.3864611  0.4710207  0.6710691  )
       309           C   tau( 309) = (  0.3813391  0.5028604  0.6399002  )
       310           C   tau( 310) = (  0.2575650  0.6278012  0.9969436  )
       311           C   tau( 311) = (  0.2156281  0.6061545  0.9951331  )
       312           C   tau( 312) = (  0.1987063  0.5880063  0.9640009  )
       313           C   tau( 313) = (  0.1699842  0.5338358  0.9621965  )
       314           C   tau( 314) = (  0.1614363  0.5039621  0.9310676  )
       315           C   tau( 315) = (  0.1544650  0.4333656  0.9292474  )
       316           C   tau( 316) = (  0.1568354  0.4006539  0.8981146  )
       317           C   tau( 317) = (  0.1737052  0.3346182  0.8963111  )
       318           C   tau( 318) = (  0.1862829  0.3087978  0.8651722  )
       319           C   tau( 319) = (  0.2219676  0.2669671  0.8633547  )
       320           C   tau( 320) = (  0.2410144  0.2557232  0.8322146  )
       321           C   tau( 321) = (  0.2848980  0.2505350  0.8304034  )
       322           C   tau( 322) = (  0.3047401  0.2572042  0.7992556  )
       323           C   tau( 323) = (  0.3437697  0.2902142  0.7974468  )
       324           C   tau( 324) = (  0.3585047  0.3128138  0.7662990  )
       325           C   tau( 325) = (  0.3810758  0.3741888  0.7644796  )
       326           C   tau( 326) = (  0.3863293  0.4059845  0.7333258  )
       327           C   tau( 327) = (  0.3857318  0.4774756  0.7315229  )
       328           C   tau( 328) = (  0.3799323  0.5090116  0.7003627  )
       329           C   tau( 329) = (  0.1601221  0.4977604  0.9914538  )
       330           C   tau( 330) = (  0.1546555  0.4268110  0.9896366  )
       331           C   tau( 331) = (  0.1577221  0.3942463  0.9585058  )
       332           C   tau( 332) = (  0.1759866  0.3291934  0.9567038  )
       333           C   tau( 333) = (  0.1891064  0.3040887  0.9255705  )
       334           C   tau( 334) = (  0.2256600  0.2642780  0.9237519  )
       335           C   tau( 335) = (  0.2449361  0.2541091  0.8926167  )
       336           C   tau( 336) = (  0.2889066  0.2513903  0.8908115  )
       337           C   tau( 337) = (  0.3085981  0.2591685  0.8596702  )
       338           C   tau( 338) = (  0.3469063  0.2943512  0.8578596  )
       339           C   tau( 339) = (  0.3611532  0.3177723  0.8267190  )
       340           C   tau( 340) = (  0.3824024  0.3803825  0.8249045  )
       341           C   tau( 341) = (  0.3869773  0.4124627  0.7937573  )
       342           C   tau( 342) = (  0.3848640  0.4838807  0.7919549  )
       343           C   tau( 343) = (  0.3784043  0.5150919  0.7608058  )
       344           C   tau( 344) = (  0.1920303  0.2995570  0.9859597  )
       345           C   tau( 345) = (  0.2294067  0.2618149  0.9841410  )
       346           C   tau( 346) = (  0.2488872  0.2527191  0.9530093  )
       347           C   tau( 347) = (  0.2928920  0.2524727  0.9512082  )
       348           C   tau( 348) = (  0.3124084  0.2613630  0.9200722  )
       349           C   tau( 349) = (  0.3499420  0.2986811  0.9182584  )
       350           C   tau( 350) = (  0.3636890  0.3228832  0.8871231  )
       351           C   tau( 351) = (  0.3835936  0.3866491  0.8853139  )
       352           C   tau( 352) = (  0.3874833  0.4189742  0.8541732  )
       353           C   tau( 353) = (  0.3838477  0.4902315  0.8523695  )
       354           C   tau( 354) = (  0.3767291  0.5210619  0.8212282  )
       355           C   tau( 355) = (  0.3161745  0.2637585  0.9804645  )
       356           C   tau( 356) = (  0.3528943  0.3031636  0.9786474  )
       357           C   tau( 357) = (  0.3661170  0.3281329  0.9475165  )
       358           C   tau( 358) = (  0.3846654  0.3929699  0.9457120  )
       359           C   tau( 359) = (  0.3878627  0.4255039  0.9145767  )
       360           C   tau( 360) = (  0.3827192  0.4965171  0.9127695  )
       361           C   tau( 361) = (  0.3749423  0.5269429  0.8816368  )
       362           C   tau( 362) = (  0.3881069  0.4320433  0.9749716  )
       363           C   tau( 363) = (  0.3814520  0.5027252  0.9731612  )
       364           C   tau( 364) = (  0.3730340  0.5327033  0.9420332  )

     number of k points=     2
                       cart. coord. in units 2pi/alat
        k(    1) = (   0.0000000   0.0000000   0.0008003), wk =   1.0000000
        k(    2) = (   0.0000000   0.0000000   0.4009561), wk =   1.0000000

                       cryst. coord.
        k(    1) = (   0.0000000   0.0000000   0.0010000), wk =   1.0000000
        k(    2) = (   0.0000000   0.0000000   0.5010000), wk =   1.0000000

     Dense  grid: 11053081 G-vectors     FFT dimensions: ( 320, 192, 384)

     Dynamical RAM for                 wfc:      24.60 MB

     Dynamical RAM for     wfc (w. buffer):      24.60 MB

     Dynamical RAM for           str. fact:       0.22 MB

     Dynamical RAM for           local pot:       0.00 MB

     Dynamical RAM for          nlocal pot:      79.94 MB

     Dynamical RAM for                qrad:       0.36 MB

     Dynamical RAM for          rho,v,vnew:       2.07 MB

     Dynamical RAM for           G-vectors:       0.93 MB

     Dynamical RAM for          h,s,v(r/c):       1.81 MB

     Dynamical RAM for          <psi|beta>:      39.81 MB

     Dynamical RAM for                 psi:      49.19 MB

     Dynamical RAM for                hpsi:      49.19 MB

     Dynamical RAM for      wfcinit/wfcrot:      67.57 MB

     Estimated static dynamical RAM per process >     110.89 MB

     Estimated max dynamical RAM per process >     250.90 MB

     Estimated total dynamical RAM >     376.35 GB

     The potential is recalculated from file :
     ./CNT_PBE.save/charge-density

     Starting wfcs are random

     Band Structure Calculation
     Davidson diagonalization with overlap

     Computing kpt #:     1  of     1 on this pool
     c_bands:  4 eigenvalues not converged
     total cpu time spent up to now is     2565.3 secs

     ethr =  5.05E-12,  avg # of iterations =120.0

     total cpu time spent up to now is     2565.3 secs

     End of band structure calculation

          k = 0.0000 0.0000 0.0008 (****** PWs)   bands (ev):

   -22.6701 -22.6043 -22.6029 -22.4575 -22.4574 -22.4063 -22.4052 -22.3919
   -22.3918 -22.3905 -22.3904 -22.1945 -22.1944 -22.1934 -22.1932 -22.0773
   -22.0761 -21.8666 -21.8664 -21.8654 -21.8651 -21.8294 -21.8293 -21.7644
   -21.7643 -21.7630 -21.7629 -21.6188 -21.6175 -21.5689 -21.5687 -21.5678
   -21.5675 -21.4097 -21.4092 -21.4083 -21.4078 -21.2443 -21.2439 -21.2430
   -21.2425 -21.0331 -21.0316 -20.8260 -20.8253 -20.8244 -20.8237 -20.8136
   -20.8135 -20.7921 -20.7913 -20.7904 -20.7895 -20.7497 -20.7496 -20.7483
   -20.7480 -20.5577 -20.5575 -20.5565 -20.5563 -20.3238 -20.3222 -20.2391
   -20.2386 -20.2376 -20.2370 -20.2149 -20.2137 -20.2127 -20.2115 -20.1195
   -20.1185 -20.1177 -20.1168 -19.7958 -19.7949 -19.7935 -19.7926 -19.5175
   -19.5160 -19.5147 -19.5132 -19.4968 -19.4950 -19.4549 -19.4548 -19.3928
   -19.3927 -19.3912 -19.3911 -19.2966 -19.2953 -19.2947 -19.2934 -19.2314
   -19.2302 -19.2281 -19.2268 -19.2068 -19.2066 -19.2056 -19.2053 -18.8989
   -18.8983 -18.8969 -18.8962 -18.7098 -18.7081 -18.7058 -18.7041 -18.5622
   -18.5602 -18.5539 -18.5524 -18.5500 -18.5485 -18.4717 -18.4708 -18.4684
   -18.4675 -18.3707 -18.3687 -18.3672 -18.3652 -17.9317 -17.9306 -17.9289
   -17.9278 -17.8638 -17.8637 -17.8252 -17.8235 -17.8132 -17.8113 -17.8099
   -17.8097 -17.7991 -17.7989 -17.7903 -17.7900 -17.7886 -17.7884 -17.6417
   -17.6413 -17.6193 -17.6188 -17.5399 -17.5378 -17.3845 -17.3825 -17.3619
   -17.3600 -17.3598 -17.3592 -17.3245 -17.3238 -17.3159 -17.3147 -17.3001
   -17.2988 -17.2388 -17.2053 -17.2049 -17.0374 -17.0366 -16.9681 -16.9672
   -16.9219 -16.9210 -16.7694 -16.7692 -16.4865 -16.4845 -16.4748 -16.4737
   -16.4492 -16.4483 -16.4206 -16.4192 -16.2450 -16.2089 -16.2086 -16.0142
   -16.0139 -15.9527 -15.9520 -15.7789 -15.7780 -15.6049 -15.6030 -15.5938
   -15.5918 -15.5655 -15.5654 -15.5132 -15.5130 -15.5106 -15.5104 -15.4487
   -15.4481 -15.4158 -15.4147 -15.4137 -15.4125 -15.3994 -15.3978 -15.3710
   -15.3693 -15.3580 -15.3577 -15.3565 -15.3562 -15.3191 -15.3181 -15.1367
   -15.1362 -15.1060 -15.1055 -15.0593 -15.0578 -15.0346 -15.0331 -14.9831
   -14.9831 -14.8696 -14.8674 -14.8388 -14.8373 -14.7968 -14.7962 -14.5947
   -14.5946 -14.5363 -14.5350 -14.5339 -14.5327 -14.4638 -14.4618 -14.4082
   -14.4062 -14.3342 -14.3320 -14.2714 -14.2696 -14.2615 -14.2591 -13.9974
   -13.9956 -13.8621 -13.8605 -13.5247 -13.5246 -13.5043 -13.5042 -13.4631
   -13.4629 -13.4293 -13.4291 -13.4045 -13.4042 -13.4030 -13.4028 -13.3951
   -13.3929 -13.3858 -13.3834 -13.3688 -13.3668 -13.3562 -13.3538 -13.3431
   -13.3416 -13.3304 -13.3282 -13.3250 -13.3246 -13.1317 -13.1312 -13.0726
   -13.0710 -13.0654 -13.0631 -13.0484 -13.0478 -13.0396 -13.0376 -13.0147
   -13.0135 -12.9868 -12.9868 -12.8642 -12.8628 -12.5648 -12.5635 -12.3755
   -12.3734 -12.3590 -12.3575 -12.2446 -12.2424 -12.2422 -12.2398 -12.1829
   -12.1806 -12.1414 -12.1412 -12.1276 -12.1251 -12.0595 -12.0572 -12.0123
   -12.0106 -11.9914 -11.9892 -11.9670 -11.9663 -11.8983 -11.8961 -11.8744
   -11.8729 -11.6868 -11.6867 -11.6433 -11.6416 -11.5772 -11.5756 -11.5414
   -11.5404 -11.4868 -11.4863 -11.4616 -11.4608 -11.3793 -11.3792 -11.3557
   -11.3544 -11.3390 -11.3387 -11.3070 -11.3048 -11.2747 -11.2746 -11.2105
   -11.2088 -11.1798 -11.1796 -11.1113 -11.1111 -11.0967 -11.0951 -11.0434
   -11.0410 -11.0211 -11.0188 -11.0091 -11.0081 -11.0048 -11.0036 -10.9366
   -10.9344 -10.9321 -10.9299 -10.8786 -10.8763 -10.8024 -10.7985 -10.7964
   -10.7257 -10.7246 -10.7237 -10.7219 -10.6308 -10.6287 -10.5616 -10.5616
   -10.4964 -10.4954 -10.4919 -10.4908 -10.4893 -10.4890 -10.4833 -10.4830
   -10.4572 -10.4569 -10.4169 -10.4164 -10.4047 -10.4034 -10.2908 -10.2904
   -10.2854 -10.2838 -10.2716 -10.2711 -10.2567 -10.2561 -10.2487 -10.2468
   -10.1870 -10.1847 -10.1222 -10.1211 -10.0650 -10.0640 -10.0567 -10.0562
   -10.0402 -10.0397 -10.0361 -10.0354 -10.0152 -10.0137 -10.0101 -10.0099
    -9.9720  -9.9710  -9.9646  -9.9645  -9.9638  -9.9637  -9.9635  -9.9630
    -9.9342  -9.9337  -9.9321  -9.9308  -9.9231  -9.9229  -9.8938  -9.8929
    -9.8714  -9.8699  -9.8659  -9.8651  -9.8558  -9.8541  -9.8530  -9.8513
    -9.8140  -9.8137  -9.8028  -9.8023  -9.7778  -9.7775  -9.7765  -9.7757
    -9.6731  -9.6724  -9.6620  -9.6603  -9.6371  -9.6359  -9.5596  -9.5591
    -9.5321  -9.5319  -9.5043  -9.5028  -9.4994  -9.4985  -9.4801  -9.3910
    -9.3896  -9.3762  -9.3755  -9.3502  -9.3498  -9.3407  -9.3401  -9.3262
    -9.3254  -9.3248  -9.3246  -9.2344  -9.2341  -9.2067  -9.2064  -9.1922
    -9.1919  -9.1792  -9.1781  -9.1531  -9.1530  -9.1261  -9.1255  -9.1004
    -9.1003  -9.0804  -9.0803  -9.0288  -9.0280  -9.0084  -9.0081  -9.0080
    -9.0061  -8.9864  -8.9847  -8.9839  -8.9833  -8.9782  -8.9778  -8.9281
    -8.9277  -8.9199  -8.9197  -8.8786  -8.8783  -8.7691  -8.7681  -8.6559
    -8.6555  -8.5861  -8.5849  -8.5768  -8.5747  -8.5518  -8.5516  -8.5239
    -8.5218  -8.5125  -8.5124  -8.5028  -8.5025  -8.4677  -8.4675  -8.3523
    -8.3516  -8.3130  -8.3129  -8.2900  -8.2899  -8.2079  -8.2078  -8.2077
    -8.2076  -8.2030  -8.2027  -8.1585  -8.1583  -8.1525  -8.1524  -8.1270
    -8.1264  -8.0787  -8.0786  -8.0141  -8.0135  -8.0058  -8.0055  -8.0013
    -8.0007  -7.9875  -7.9863  -7.9530  -7.9524  -7.9471  -7.9454  -7.9223
    -7.9208  -7.9035  -7.9013  -7.8293  -7.8282  -7.8166  -7.8157  -7.6974
    -7.6959  -7.6918  -7.6904  -7.6706  -7.6698  -7.6663  -7.6651  -7.6616
    -7.6608  -7.6501  -7.6491  -7.6140  -7.6124  -7.5787  -7.5772  -7.5131
    -7.5122  -7.4214  -7.4205  -7.3749  -7.3740  -7.3204  -7.3195  -7.2237
    -7.2233  -7.2174  -7.2161  -7.1994  -7.1985  -7.1979  -7.1970  -7.0619
    -7.0599  -7.0551  -7.0545  -7.0360  -7.0354  -7.0113  -7.0098  -7.0036
    -7.0021  -6.9675  -6.9667  -6.9139  -6.9138  -6.9131  -6.9121  -6.9108
    -6.9106  -6.8504  -6.8486  -6.8370  -6.8352  -6.8209  -6.8207  -6.7527
    -6.7524  -6.7464  -6.7461  -6.6504  -6.6494  -6.6358  -6.6346  -6.6175
    -6.6162  -6.5447  -6.5442  -6.5440  -6.5432  -6.5349  -6.5343  -6.5334
    -6.5326  -6.3250  -6.3247  -6.2880  -6.2875  -6.2434  -6.2419  -6.2374
    -6.2358  -6.2030  -6.2022  -6.1972  -6.1970  -6.1962  -6.1961  -6.1633
    -6.0630  -6.0609  -6.0182  -6.0170  -5.9760  -5.9747  -5.9285  -5.9236
    -5.9218  -5.8744  -5.8724  -5.7578  -5.7568  -5.7430  -5.7420  -5.5316
    -5.5304  -5.4673  -5.4659  -5.4620  -5.4611  -5.3952  -5.3943  -5.3094
    -5.3093  -5.2758  -5.2748  -5.2671  -5.2668  -5.2127  -5.2047  -5.2044
    -5.2040  -5.2029  -5.1649  -5.1646  -5.0796  -5.0791  -5.0551  -5.0536
    -5.0150  -5.0129  -4.9609  -4.9602  -4.9300  -4.9293  -4.9013  -4.9008
    -4.8986  -4.8967  -4.7482  -4.7474  -4.6990  -4.6982  -4.5925  -4.5917
    -4.5482  -4.5478  -4.2813  -4.2803  -4.1459  -4.1450  -4.0744  -4.0731
    -4.0048  -4.0029  -3.8066  -3.8063  -3.7111  -3.7099  -3.3356  -3.3352
    -2.4213  -2.4210  -2.0212  -2.0201  -1.9507  -1.9502  -1.8426  -1.8408
    -1.8030  -1.8019  -1.6751  -1.6750  -1.6680  -1.6677  -1.5664  -1.5655
    -1.5371  -1.5363  -1.5035  -1.4532  -1.4528  -1.3570  -1.3557  -1.3301
    -1.3289  -1.3023  -1.3009  -1.2831  -1.2821  -1.2764  -1.2750  -1.2461
    -1.2457  -1.1999  -1.1993  -1.1788  -1.1775  -1.1035  -1.1033  -1.0913
    -1.0896  -1.0353  -1.0352  -1.0171  -1.0157  -1.0123  -1.0120  -0.9902
    -0.9901  -0.9664  -0.9662  -0.9117  -0.9096  -0.6663  -0.6648  -0.6584
    -0.6571  -0.5728  -0.5710  -0.4921  -0.4902  -0.4313  -0.4294  -0.4085
    -0.4067  -0.2332  -0.2314  -0.1607  -0.1588  -0.0435  -0.0424   0.0157
     0.0169   0.1200   0.1222   0.1542   0.2421   0.2427   0.3625   0.3644
     0.3815   0.3822   0.4483   0.4502   0.5067   0.5075   0.5162   0.5170
     0.5181   0.5190   0.5306   0.5314   0.6260   0.6263   0.6575   0.6593
     0.7566   0.7568   0.8033   0.8036   0.8111   0.8374   0.8376   0.8390
     0.8410   0.8623   0.8755   0.8755   0.9008   0.9013   0.9482   0.9492
     0.9517   0.9521   1.1365   1.1700   1.1708   1.1775   1.1797   1.2062
     1.2201   1.2208   1.2266   1.2270   1.2329   1.2957   1.2958   1.2961
     1.2976   1.3231   1.3235   1.3395   1.3412   1.3744   1.3760   1.4101
     1.4117   1.4967   1.4974   1.4991   1.5242   1.5259   1.5518   1.5643
     1.5650   1.5662   1.5676   1.5902   1.5905   1.5933   1.5941   1.6180
     1.6191   1.6426   1.6430   1.6622   1.6666   1.6677   1.6861   1.7529
     1.7533   1.7773   1.7777   1.7806   1.7925   1.7942   1.8638   1.8645

          k = 0.0000 0.0000 0.4010 (****** PWs)   bands (ev):

   -22.6564 -22.6503 -22.5217 -22.5207 -22.4439 -22.4438 -22.4376 -22.4376
   -22.3095 -22.3094 -22.3085 -22.3083 -22.2581 -22.2570 -22.0468 -22.0466
   -22.0456 -22.0454 -21.8641 -21.8629 -21.8162 -21.8160 -21.8095 -21.8094
   -21.6828 -21.6827 -21.6818 -21.6816 -21.6542 -21.6538 -21.6528 -21.6525
   -21.4227 -21.4224 -21.4214 -21.4211 -21.3417 -21.3403 -21.1335 -21.1329
   -21.1320 -21.1314 -21.0340 -21.0334 -21.0325 -21.0319 -20.8009 -20.8008
   -20.7936 -20.7936 -20.6936 -20.6920 -20.6695 -20.6694 -20.6684 -20.6683
   -20.5189 -20.5179 -20.5169 -20.5159 -20.4878 -20.4869 -20.4861 -20.4853
   -20.4141 -20.4138 -20.4128 -20.4124 -20.0329 -20.0321 -20.0310 -20.0303
   -19.9245 -19.9228 -19.8808 -19.8795 -19.8783 -19.8770 -19.7220 -19.7209
   -19.7202 -19.7191 -19.5284 -19.5273 -19.5256 -19.5245 -19.4430 -19.4429
   -19.4349 -19.4348 -19.3151 -19.3150 -19.3140 -19.3139 -19.1264 -19.1248
   -19.1231 -19.1215 -19.0680 -19.0676 -19.0664 -19.0660 -19.0421 -19.0401
   -18.9059 -18.9046 -18.9021 -18.9008 -18.8452 -18.8435 -18.8430 -18.8413
   -18.6999 -18.6991 -18.6973 -18.6965 -18.2723 -18.2705 -18.2664 -18.2646
   -18.2151 -18.2141 -18.2115 -18.2105 -18.1789 -18.1774 -18.1758 -18.1743
   -18.0601 -18.0580 -17.8789 -17.8769 -17.8710 -17.8690 -17.8542 -17.8541
   -17.8431 -17.8430 -17.7402 -17.7398 -17.7238 -17.7235 -17.6258 -17.6248
   -17.6241 -17.6230 -17.5148 -17.5143 -17.4860 -17.4854 -17.4283 -17.4265
   -17.4187 -17.4174 -17.4091 -17.4077 -17.3705 -17.3688 -17.1774 -17.1766
   -17.1358 -17.1350 -17.0525 -17.0517 -17.0096 -17.0075 -16.9813 -16.9801
   -16.9412 -16.9397 -16.8574 -16.8555 -16.7331 -16.7321 -16.6878 -16.6868
   -16.2772 -16.2769 -16.2007 -16.1996 -16.0383 -16.0368 -16.0333 -16.0323
   -16.0309 -16.0285 -15.9153 -15.9135 -15.8614 -15.8599 -15.7726 -15.7712
   -15.7466 -15.7456 -15.5554 -15.5553 -15.5483 -15.5482 -15.4476 -15.4473
   -15.4457 -15.4453 -15.3917 -15.3900 -15.3898 -15.3889 -15.3583 -15.3573
   -15.2520 -15.2515 -15.2419 -15.2414 -15.1953 -15.1940 -15.0904 -15.0882
   -15.0823 -15.0801 -15.0730 -15.0723 -15.0320 -15.0316 -14.9543 -14.9542
   -14.9536 -14.9524 -14.9081 -14.9062 -14.8851 -14.8829 -14.8515 -14.8492
   -14.7130 -14.7121 -14.6829 -14.6813 -14.6576 -14.6571 -14.4350 -14.4333
   -14.3364 -14.3344 -13.9661 -13.9638 -13.9557 -13.9534 -13.9420 -13.9399
   -13.8805 -13.8783 -13.8323 -13.8305 -13.8007 -13.7986 -13.6607 -13.6583
   -13.5369 -13.5360 -13.5312 -13.5292 -13.5246 -13.5246 -13.5029 -13.5028
   -13.4710 -13.4708 -13.4031 -13.4028 -13.3945 -13.3944 -13.3599 -13.3592
   -13.2609 -13.2600 -13.2322 -13.2318 -13.0849 -13.0846 -13.0590 -13.0584
   -13.0379 -13.0376 -12.8826 -12.8806 -12.8480 -12.8470 -12.8271 -12.8248
   -12.8057 -12.8033 -12.7627 -12.7604 -12.7441 -12.7417 -12.7074 -12.7060
   -12.6067 -12.6046 -12.5254 -12.5233 -12.5006 -12.4985 -12.4296 -12.4276
   -12.2348 -12.2334 -12.1048 -12.1044 -11.9989 -11.9979 -11.9800 -11.9784
   -11.8495 -11.8473 -11.7727 -11.7718 -11.7387 -11.7368 -11.6671 -11.6661
   -11.6452 -11.6428 -11.6246 -11.6241 -11.5985 -11.5961 -11.5587 -11.5578
   -11.5183 -11.5159 -11.4928 -11.4912 -11.4896 -11.4873 -11.4408 -11.4386
   -11.4112 -11.4110 -11.3596 -11.3595 -11.3414 -11.3392 -11.3114 -11.3112
   -11.2834 -11.2823 -11.2489 -11.2480 -11.2297 -11.2295 -11.1591 -11.1585
   -11.1568 -11.1565 -11.1548 -11.1547 -11.1333 -11.1332 -10.7856 -10.7803
   -10.7541 -10.7530 -10.7511 -10.7488 -10.7419 -10.7399 -10.7104 -10.7092
   -10.6921 -10.6904 -10.6298 -10.6288 -10.5458 -10.5456 -10.5396 -10.5395
   -10.4800 -10.4798 -10.4733 -10.4712 -10.4520 -10.4497 -10.4242 -10.4224
   -10.4147 -10.4128 -10.3980 -10.3976 -10.3882 -10.3878 -10.3869 -10.3866
   -10.3266 -10.3255 -10.3126 -10.3104 -10.2991 -10.2973 -10.2861 -10.2843
   -10.2291 -10.2280 -10.2116 -10.2104 -10.1785 -10.1781 -10.1200 -10.1181
   -10.1137 -10.1130 -10.0920 -10.0907 -10.0904 -10.0897 -10.0576 -10.0569
   -10.0376 -10.0375 -10.0146 -10.0144  -9.9666  -9.9664  -9.9612  -9.9605
    -9.9302  -9.9296  -9.9236  -9.9234  -9.8913  -9.8910  -9.8876  -9.8864
    -9.8850  -9.8834  -9.7965  -9.7962  -9.7858  -9.7841  -9.7800  -9.7797
    -9.7664  -9.7656  -9.7266  -9.7257  -9.7040  -9.7027  -9.6861  -9.6854
    -9.6784  -9.6777  -9.6411  -9.6392  -9.6095  -9.6083  -9.5933  -9.5926
    -9.5436  -9.5426  -9.4968  -9.4902  -9.4691  -9.4679  -9.4638  -9.4624
    -9.4494  -9.4489  -9.4175  -9.4157  -9.3232  -9.3224  -9.2967  -9.2960
    -9.2887  -9.2874  -9.2832  -9.2829  -9.2638  -9.2635  -9.1759  -9.1748
    -9.1370  -9.1368  -9.1208  -9.1200  -9.1020  -9.1000  -9.0964  -9.0954
    -9.0852  -9.0848  -9.0830  -9.0828  -9.0695  -9.0693  -9.0388  -9.0380
    -9.0339  -9.0330  -9.0175  -9.0158  -8.9965  -8.9961  -8.9438  -8.9431
    -8.9300  -8.9285  -8.9123  -8.9122  -8.9045  -8.9043  -8.7996  -8.7989
    -8.6156  -8.6142  -8.5892  -8.5890  -8.5840  -8.5835  -8.5246  -8.5245
    -8.4951  -8.4950  -8.4510  -8.4488  -8.3598  -8.3592  -8.3028  -8.3015
    -8.2961  -8.2959  -8.2716  -8.2704  -8.2506  -8.2503  -8.2261  -8.2259
    -8.2165  -8.2158  -8.1667  -8.1664  -8.1331  -8.1327  -8.1208  -8.1204
    -8.0836  -8.0827  -8.0672  -8.0670  -8.0668  -8.0652  -8.0488  -8.0486
    -8.0401  -8.0390  -8.0312  -8.0305  -8.0191  -8.0185  -8.0175  -8.0172
    -7.9287  -7.9277  -7.8713  -7.8706  -7.8593  -7.8586  -7.8476  -7.8469
    -7.7568  -7.7559  -7.6839  -7.6827  -7.5912  -7.5903  -7.5644  -7.5634
    -7.5592  -7.5577  -7.5237  -7.5219  -7.4495  -7.4486  -7.4448  -7.4439
    -7.3852  -7.3832  -7.3562  -7.3549  -7.3535  -7.3522  -7.3166  -7.3160
    -7.2898  -7.2881  -7.2860  -7.2843  -7.2591  -7.2587  -7.2580  -7.2568
    -7.2526  -7.2515  -7.1699  -7.1691  -7.1049  -7.1041  -6.9509  -6.9506
    -6.9327  -6.9325  -6.9282  -6.9271  -6.9193  -6.9181  -6.9114  -6.9103
    -6.8067  -6.8065  -6.7990  -6.7988  -6.7508  -6.7499  -6.7311  -6.7303
    -6.6660  -6.6655  -6.6574  -6.6570  -6.6332  -6.6316  -6.6287  -6.6271
    -6.5725  -6.5704  -6.5102  -6.5087  -6.4409  -6.4401  -6.3903  -6.3902
    -6.3899  -6.3898  -6.3892  -6.3884  -6.3806  -6.3799  -6.3755  -6.3750
    -6.3632  -6.3613  -6.3289  -6.3277  -6.2994  -6.2981  -6.1974  -6.1918
    -6.0000  -5.9945  -5.9876  -5.9869  -5.9860  -5.9852  -5.8676  -5.8661
    -5.8410  -5.8395  -5.7205  -5.7193  -5.6649  -5.6637  -5.5409  -5.5388
    -5.5160  -5.5150  -5.4791  -5.4781  -5.4689  -5.4671  -5.3813  -5.3793
    -5.3072  -5.3069  -5.2802  -5.2800  -5.2795  -5.2790  -5.2744  -5.2742
    -5.2115  -5.2109  -5.1917  -5.1913  -5.1492  -5.1481  -5.0996  -5.0992
    -5.0593  -5.0586  -4.9341  -4.9330  -4.9316  -4.9309  -4.8463  -4.8461
    -4.7906  -4.7898  -4.7283  -4.7273  -4.5489  -4.5486  -4.5307  -4.5298
    -4.4969  -4.4948  -4.4494  -4.4477  -4.3733  -4.3724  -4.0045  -4.0033
    -3.9377  -3.9370  -3.8404  -3.8398  -3.5775  -3.5760  -3.4388  -3.4379
    -2.2937  -2.2927  -2.2216  -2.2203  -1.9724  -1.9721  -1.7832  -1.7824
    -1.7566  -1.7556  -1.5998  -1.5991  -1.5758  -1.5750  -1.5676  -1.5668
    -1.5585  -1.5577  -1.4898  -1.4883  -1.4469  -1.4465  -1.4178  -1.4169
    -1.3956  -1.3936  -1.3685  -1.3679  -1.3629  -1.3622  -1.2987  -1.2978
    -1.1611  -1.1608  -1.0841  -1.0837  -1.0642  -1.0640  -1.0114  -1.0112
    -1.0045  -1.0041  -1.0032  -1.0027  -0.9989  -0.9973  -0.9762  -0.9761
    -0.9735  -0.9734  -0.9283  -0.9267  -0.8838  -0.8820  -0.8285  -0.8269
    -0.6503  -0.6487  -0.6417  -0.6398  -0.4035  -0.4014  -0.3310  -0.3298
    -0.3148  -0.3134  -0.1116  -0.1097  -0.0253  -0.0234   0.0442   0.0461
     0.0485   0.0503   0.1750   0.1775   0.1944   0.1952   0.2091   0.2109
     0.3021   0.3031   0.3373   0.3394   0.3524   0.3530   0.5226   0.5231
     0.6504   0.6526   0.6966   0.6972   0.7008   0.7011   0.7053   0.7063
     0.8008   0.8010   0.8326   0.8347   0.8348   0.8367   0.8590   0.8592
     0.8647   0.8648   0.8836   0.8858   0.9088   0.9106   0.9647   0.9664
     0.9769   0.9787   1.0130   1.0136   1.0636   1.0641   1.0987   1.1005
     1.1581   1.1601   1.2277   1.2295   1.2352   1.2364   1.2545   1.2565
     1.3298   1.3317   1.3392   1.3397   1.3717   1.3727   1.4076   1.4081
     1.4212   1.4221   1.4358   1.4363   1.5214   1.5224   1.5737   1.5754
     1.6841   1.6858   1.6894   1.6915   1.6990   1.6999   1.7042   1.7047
     1.7084   1.7095   1.7288   1.7303   1.7341   1.7354   1.7388   1.7406
     1.7561   1.7567   1.7657   1.7666   1.7956   1.7965   1.8011   1.8030

     Writing all to output data dir ./CNT_PBE.save/

     init_run     :      6.64s CPU      9.27s WALL (       1 calls)
     electrons    :   2938.38s CPU   2553.48s WALL (       1 calls)

     Called by init_run:
     wfcinit      :      0.02s CPU      0.03s WALL (       1 calls)
     wfcinit:wfcr :     45.02s CPU     34.91s WALL (       1 calls)
     potinit      :      0.65s CPU      3.09s WALL (       1 calls)
     hinit0       :      1.08s CPU      1.19s WALL (       1 calls)

     Called by electrons:
     c_bands      :   2938.38s CPU   2553.43s WALL (       1 calls)
     v_of_rho     :      0.24s CPU      1.07s WALL (       1 calls)
     v_h          :      0.04s CPU      0.36s WALL (       1 calls)
     v_xc         :      0.20s CPU      0.70s WALL (       1 calls)

     Called by c_bands:
     init_us_2    :      0.14s CPU      0.14s WALL (       1 calls)
     init_us_2:cp :      0.14s CPU      0.14s WALL (       1 calls)
     cegterg      :   2878.62s CPU   2441.77s WALL (       6 calls)

     Called by sum_band:

     Called by *egterg:
     cdiaghg      :     70.83s CPU    138.37s WALL (     121 calls)
     cegterg:over :    221.56s CPU    241.62s WALL (     120 calls)
     cegterg:upda :    161.59s CPU    169.42s WALL (     120 calls)
     cegterg:last :    304.98s CPU    332.37s WALL (      53 calls)
     cdiaghg:chol :      1.39s CPU      7.20s WALL (     121 calls)
     cdiaghg:inve :      0.13s CPU      0.46s WALL (     121 calls)
     cdiaghg:para :     18.86s CPU     35.32s WALL (     242 calls)
     h_psi        :   2146.02s CPU   1576.95s WALL (     127 calls)
     g_psi        :      0.81s CPU      0.26s WALL (     120 calls)

     Called by h_psi:
     h_psi:calbec :    660.55s CPU    672.64s WALL (     127 calls)
     vloc_psi     :    833.21s CPU    252.94s WALL (     127 calls)
     vloc_psi:tg_ :      0.15s CPU      0.03s WALL (     127 calls)
     add_vuspsi   :    649.41s CPU    650.55s WALL (     127 calls)

     General routines
     calbec       :    660.54s CPU    672.64s WALL (     127 calls)
     fft          :      1.11s CPU      2.34s WALL (      10 calls)
     fftw         :    819.30s CPU    249.39s WALL (   94292 calls)
     davcio       :      0.00s CPU      0.10s WALL (       2 calls)

     Parallel routines
     fft_scatt_xy :     24.59s CPU      6.02s WALL (   94302 calls)
     fft_scatt_yz :    673.61s CPU    212.87s WALL (   94302 calls)
     fft_scatt_tg :      3.70s CPU      0.90s WALL (   94292 calls)

     PWSCF        :  49m22.59s CPU  43m43.39s WALL


   This run was terminated on:   5: 1:13  10Apr2024            

=------------------------------------------------------------------------------=
   JOB DONE.
=------------------------------------------------------------------------------=
