Ge Se
 1.0000000000000000
     4.4000000000000004    0.0000000000000000    0.0000000000000000
     0.0000000000000000    4.0000000000000000    0.0000000000000000
     0.0000000000000000    0.0000000000000000   11.1422209999999993
 Ge  Se 
   4   4
Selective dynamics
Cartesian
  0.4680737650843882  1.0000000000000000  1.4179757966665849   T   T   T
  2.6680737650843884  3.0000000000000000  4.1531347033334143   T   T   T
  3.9319262349156126  3.0000000000000000  9.7242452033334157   T   T   T
  1.7319262349156124  1.0000000000000000  6.9890862966665859   T   T   T
 -0.0329827065073707  1.0000000000000000  3.9462842916066054   T   T   T
  2.1670172934926302  3.0000000000000000  1.6248262083933951   T   T   T
  4.4329827065073726  3.0000000000000000  7.1959367083933934   T   T   T
  2.2329827065073702  1.0000000000000000  9.5173947916066091   T   T   T
