Ge Se                                   
1.0
       23.1486015320         0.0000000000         0.0000000000
        0.0000000000        27.1594505310         0.0000000000
        0.0000000000         0.0000000000        22.1703529358
   Ge   Se
  288  288
Cartesian
     0.964525093         0.523461792         1.369465747
     0.964525093         0.523461792        12.454642298
     0.964525093         5.050037066         1.369465747
     0.964525093         5.050037066        12.454642298
     0.964525093         9.576611884         1.369465747
     0.964525093         9.576611884        12.454642298
     0.964525093        14.103186703         1.369465747
     0.964525093        14.103186703        12.454642298
     0.964525093        18.629762331         1.369465747
     0.964525093        18.629762331        12.454642298
     0.964525093        23.156337959         1.369465747
     0.964525093        23.156337959        12.454642298
     4.822625204         0.523461792         1.369465747
     4.822625204         0.523461792        12.454642298
     4.822625204         5.050037066         1.369465747
     4.822625204         5.050037066        12.454642298
     4.822625204         9.576611884         1.369465747
     4.822625204         9.576611884        12.454642298
     4.822625204        14.103186703         1.369465747
     4.822625204        14.103186703        12.454642298
     4.822625204        18.629762331         1.369465747
     4.822625204        18.629762331        12.454642298
     4.822625204        23.156337959         1.369465747
     4.822625204        23.156337959        12.454642298
     8.680725574         0.523461792         1.369465747
     8.680725574         0.523461792        12.454642298
     8.680725574         5.050037066         1.369465747
     8.680725574         5.050037066        12.454642298
     8.680725574         9.576611884         1.369465747
     8.680725574         9.576611884        12.454642298
     8.680725574        14.103186703         1.369465747
     8.680725574        14.103186703        12.454642298
     8.680725574        18.629762331         1.369465747
     8.680725574        18.629762331        12.454642298
     8.680725574        23.156337959         1.369465747
     8.680725574        23.156337959        12.454642298
    12.538826290         0.523461792         1.369465747
    12.538826290         0.523461792        12.454642298
    12.538826290         5.050037066         1.369465747
    12.538826290         5.050037066        12.454642298
    12.538826290         9.576611884         1.369465747
    12.538826290         9.576611884        12.454642298
    12.538826290        14.103186703         1.369465747
    12.538826290        14.103186703        12.454642298
    12.538826290        18.629762331         1.369465747
    12.538826290        18.629762331        12.454642298
    12.538826290        23.156337959         1.369465747
    12.538826290        23.156337959        12.454642298
    16.396925625         0.523461792         1.369465747
    16.396925625         0.523461792        12.454642298
    16.396925625         5.050037066         1.369465747
    16.396925625         5.050037066        12.454642298
    16.396925625         9.576611884         1.369465747
    16.396925625         9.576611884        12.454642298
    16.396925625        14.103186703         1.369465747
    16.396925625        14.103186703        12.454642298
    16.396925625        18.629762331         1.369465747
    16.396925625        18.629762331        12.454642298
    16.396925625        23.156337959         1.369465747
    16.396925625        23.156337959        12.454642298
    20.255026340         0.523461792         1.369465747
    20.255026340         0.523461792        12.454642298
    20.255026340         5.050037066         1.369465747
    20.255026340         5.050037066        12.454642298
    20.255026340         9.576611884         1.369465747
    20.255026340         9.576611884        12.454642298
    20.255026340        14.103186703         1.369465747
    20.255026340        14.103186703        12.454642298
    20.255026340        18.629762331         1.369465747
    20.255026340        18.629762331        12.454642298
    20.255026340        23.156337959         1.369465747
    20.255026340        23.156337959        12.454642298
     2.893575191         4.003113381         9.715710638
     2.893575191         4.003113381        20.800887106
     2.893575191         8.529688200         9.715710638
     2.893575191         8.529688200        20.800887106
     2.893575191        13.056263828         9.715710638
     2.893575191        13.056263828        20.800887106
     2.893575191        17.582837837         9.715710638
     2.893575191        17.582837837        20.800887106
     2.893575191        22.109413465         9.715710638
     2.893575191        22.109413465        20.800887106
     2.893575191        26.635989093         9.715710638
     2.893575191        26.635989093        20.800887106
     6.751675217         4.003113381         9.715710638
     6.751675217         4.003113381        20.800887106
     6.751675217         8.529688200         9.715710638
     6.751675217         8.529688200        20.800887106
     6.751675217        13.056263828         9.715710638
     6.751675217        13.056263828        20.800887106
     6.751675217        17.582837837         9.715710638
     6.751675217        17.582837837        20.800887106
     6.751675217        22.109413465         9.715710638
     6.751675217        22.109413465        20.800887106
     6.751675217        26.635989093         9.715710638
     6.751675217        26.635989093        20.800887106
    10.609775932         4.003113381         9.715710638
    10.609775932         4.003113381        20.800887106
    10.609775932         8.529688200         9.715710638
    10.609775932         8.529688200        20.800887106
    10.609775932        13.056263828         9.715710638
    10.609775932        13.056263828        20.800887106
    10.609775932        17.582837837         9.715710638
    10.609775932        17.582837837        20.800887106
    10.609775932        22.109413465         9.715710638
    10.609775932        22.109413465        20.800887106
    10.609775932        26.635989093         9.715710638
    10.609775932        26.635989093        20.800887106
    14.467875957         4.003113381         9.715710638
    14.467875957         4.003113381        20.800887106
    14.467875957         8.529688200         9.715710638
    14.467875957         8.529688200        20.800887106
    14.467875957        13.056263828         9.715710638
    14.467875957        13.056263828        20.800887106
    14.467875957        17.582837837         9.715710638
    14.467875957        17.582837837        20.800887106
    14.467875957        22.109413465         9.715710638
    14.467875957        22.109413465        20.800887106
    14.467875957        26.635989093         9.715710638
    14.467875957        26.635989093        20.800887106
    18.325976673         4.003113381         9.715710638
    18.325976673         4.003113381        20.800887106
    18.325976673         8.529688200         9.715710638
    18.325976673         8.529688200        20.800887106
    18.325976673        13.056263828         9.715710638
    18.325976673        13.056263828        20.800887106
    18.325976673        17.582837837         9.715710638
    18.325976673        17.582837837        20.800887106
    18.325976673        22.109413465         9.715710638
    18.325976673        22.109413465        20.800887106
    18.325976673        26.635989093         9.715710638
    18.325976673        26.635989093        20.800887106
    22.184076008         4.003113381         9.715710638
    22.184076008         4.003113381        20.800887106
    22.184076008         8.529688200         9.715710638
    22.184076008         8.529688200        20.800887106
    22.184076008        13.056263828         9.715710638
    22.184076008        13.056263828        20.800887106
    22.184076008        17.582837837         9.715710638
    22.184076008        17.582837837        20.800887106
    22.184076008        22.109413465         9.715710638
    22.184076008        22.109413465        20.800887106
    22.184076008        26.635989093         9.715710638
    22.184076008        26.635989093        20.800887106
     2.893575191         2.786749252         4.173122404
     2.893575191         2.786749252        15.258298872
     2.893575191         7.313324070         4.173122404
     2.893575191         7.313324070        15.258298872
     2.893575191        11.839899698         4.173122404
     2.893575191        11.839899698        15.258298872
     2.893575191        16.366475326         4.173122404
     2.893575191        16.366475326        15.258298872
     2.893575191        20.893049336         4.173122404
     2.893575191        20.893049336        15.258298872
     2.893575191        25.419624964         4.173122404
     2.893575191        25.419624964        15.258298872
     6.751675217         2.786749252         4.173122404
     6.751675217         2.786749252        15.258298872
     6.751675217         7.313324070         4.173122404
     6.751675217         7.313324070        15.258298872
     6.751675217        11.839899698         4.173122404
     6.751675217        11.839899698        15.258298872
     6.751675217        16.366475326         4.173122404
     6.751675217        16.366475326        15.258298872
     6.751675217        20.893049336         4.173122404
     6.751675217        20.893049336        15.258298872
     6.751675217        25.419624964         4.173122404
     6.751675217        25.419624964        15.258298872
    10.609775932         2.786749252         4.173122404
    10.609775932         2.786749252        15.258298872
    10.609775932         7.313324070         4.173122404
    10.609775932         7.313324070        15.258298872
    10.609775932        11.839899698         4.173122404
    10.609775932        11.839899698        15.258298872
    10.609775932        16.366475326         4.173122404
    10.609775932        16.366475326        15.258298872
    10.609775932        20.893049336         4.173122404
    10.609775932        20.893049336        15.258298872
    10.609775932        25.419624964         4.173122404
    10.609775932        25.419624964        15.258298872
    14.467875957         2.786749252         4.173122404
    14.467875957         2.786749252        15.258298872
    14.467875957         7.313324070         4.173122404
    14.467875957         7.313324070        15.258298872
    14.467875957        11.839899698         4.173122404
    14.467875957        11.839899698        15.258298872
    14.467875957        16.366475326         4.173122404
    14.467875957        16.366475326        15.258298872
    14.467875957        20.893049336         4.173122404
    14.467875957        20.893049336        15.258298872
    14.467875957        25.419624964         4.173122404
    14.467875957        25.419624964        15.258298872
    18.325976673         2.786749252         4.173122404
    18.325976673         2.786749252        15.258298872
    18.325976673         7.313324070         4.173122404
    18.325976673         7.313324070        15.258298872
    18.325976673        11.839899698         4.173122404
    18.325976673        11.839899698        15.258298872
    18.325976673        16.366475326         4.173122404
    18.325976673        16.366475326        15.258298872
    18.325976673        20.893049336         4.173122404
    18.325976673        20.893049336        15.258298872
    18.325976673        25.419624964         4.173122404
    18.325976673        25.419624964        15.258298872
    22.184076008         2.786749252         4.173122404
    22.184076008         2.786749252        15.258298872
    22.184076008         7.313324070         4.173122404
    22.184076008         7.313324070        15.258298872
    22.184076008        11.839899698         4.173122404
    22.184076008        11.839899698        15.258298872
    22.184076008        16.366475326         4.173122404
    22.184076008        16.366475326        15.258298872
    22.184076008        20.893049336         4.173122404
    22.184076008        20.893049336        15.258298872
    22.184076008        25.419624964         4.173122404
    22.184076008        25.419624964        15.258298872
     0.964525093         1.739825769         6.912054064
     0.964525093         1.739825769        17.997230531
     0.964525093         6.266400791         6.912054064
     0.964525093         6.266400791        17.997230531
     0.964525093        10.792976014         6.912054064
     0.964525093        10.792976014        17.997230531
     0.964525093        15.319550833         6.912054064
     0.964525093        15.319550833        17.997230531
     0.964525093        19.846126461         6.912054064
     0.964525093        19.846126461        17.997230531
     0.964525093        24.372700470         6.912054064
     0.964525093        24.372700470        17.997230531
     4.822625204         1.739825769         6.912054064
     4.822625204         1.739825769        17.997230531
     4.822625204         6.266400791         6.912054064
     4.822625204         6.266400791        17.997230531
     4.822625204        10.792976014         6.912054064
     4.822625204        10.792976014        17.997230531
     4.822625204        15.319550833         6.912054064
     4.822625204        15.319550833        17.997230531
     4.822625204        19.846126461         6.912054064
     4.822625204        19.846126461        17.997230531
     4.822625204        24.372700470         6.912054064
     4.822625204        24.372700470        17.997230531
     8.680725574         1.739825769         6.912054064
     8.680725574         1.739825769        17.997230531
     8.680725574         6.266400791         6.912054064
     8.680725574         6.266400791        17.997230531
     8.680725574        10.792976014         6.912054064
     8.680725574        10.792976014        17.997230531
     8.680725574        15.319550833         6.912054064
     8.680725574        15.319550833        17.997230531
     8.680725574        19.846126461         6.912054064
     8.680725574        19.846126461        17.997230531
     8.680725574        24.372700470         6.912054064
     8.680725574        24.372700470        17.997230531
    12.538826290         1.739825769         6.912054064
    12.538826290         1.739825769        17.997230531
    12.538826290         6.266400791         6.912054064
    12.538826290         6.266400791        17.997230531
    12.538826290        10.792976014         6.912054064
    12.538826290        10.792976014        17.997230531
    12.538826290        15.319550833         6.912054064
    12.538826290        15.319550833        17.997230531
    12.538826290        19.846126461         6.912054064
    12.538826290        19.846126461        17.997230531
    12.538826290        24.372700470         6.912054064
    12.538826290        24.372700470        17.997230531
    16.396925625         1.739825769         6.912054064
    16.396925625         1.739825769        17.997230531
    16.396925625         6.266400791         6.912054064
    16.396925625         6.266400791        17.997230531
    16.396925625        10.792976014         6.912054064
    16.396925625        10.792976014        17.997230531
    16.396925625        15.319550833         6.912054064
    16.396925625        15.319550833        17.997230531
    16.396925625        19.846126461         6.912054064
    16.396925625        19.846126461        17.997230531
    16.396925625        24.372700470         6.912054064
    16.396925625        24.372700470        17.997230531
    20.255026340         1.739825769         6.912054064
    20.255026340         1.739825769        17.997230531
    20.255026340         6.266400791         6.912054064
    20.255026340         6.266400791        17.997230531
    20.255026340        10.792976014         6.912054064
    20.255026340        10.792976014        17.997230531
    20.255026340        15.319550833         6.912054064
    20.255026340        15.319550833        17.997230531
    20.255026340        19.846126461         6.912054064
    20.255026340        19.846126461        17.997230531
    20.255026340        24.372700470         6.912054064
    20.255026340        24.372700470        17.997230531
     0.964525093         2.285689378         9.451555546
     0.964525093         2.285689378        20.536732014
     0.964525093         6.812264803         9.451555546
     0.964525093         6.812264803        20.536732014
     0.964525093        11.338839622         9.451555546
     0.964525093        11.338839622        20.536732014
     0.964525093        15.865415250         9.451555546
     0.964525093        15.865415250        20.536732014
     0.964525093        20.391989260         9.451555546
     0.964525093        20.391989260        20.536732014
     0.964525093        24.918564888         9.451555546
     0.964525093        24.918564888        20.536732014
     4.822625204         2.285689378         9.451555546
     4.822625204         2.285689378        20.536732014
     4.822625204         6.812264803         9.451555546
     4.822625204         6.812264803        20.536732014
     4.822625204        11.338839622         9.451555546
     4.822625204        11.338839622        20.536732014
     4.822625204        15.865415250         9.451555546
     4.822625204        15.865415250        20.536732014
     4.822625204        20.391989260         9.451555546
     4.822625204        20.391989260        20.536732014
     4.822625204        24.918564888         9.451555546
     4.822625204        24.918564888        20.536732014
     8.680725574         2.285689378         9.451555546
     8.680725574         2.285689378        20.536732014
     8.680725574         6.812264803         9.451555546
     8.680725574         6.812264803        20.536732014
     8.680725574        11.338839622         9.451555546
     8.680725574        11.338839622        20.536732014
     8.680725574        15.865415250         9.451555546
     8.680725574        15.865415250        20.536732014
     8.680725574        20.391989260         9.451555546
     8.680725574        20.391989260        20.536732014
     8.680725574        24.918564888         9.451555546
     8.680725574        24.918564888        20.536732014
    12.538826290         2.285689378         9.451555546
    12.538826290         2.285689378        20.536732014
    12.538826290         6.812264803         9.451555546
    12.538826290         6.812264803        20.536732014
    12.538826290        11.338839622         9.451555546
    12.538826290        11.338839622        20.536732014
    12.538826290        15.865415250         9.451555546
    12.538826290        15.865415250        20.536732014
    12.538826290        20.391989260         9.451555546
    12.538826290        20.391989260        20.536732014
    12.538826290        24.918564888         9.451555546
    12.538826290        24.918564888        20.536732014
    16.396925625         2.285689378         9.451555546
    16.396925625         2.285689378        20.536732014
    16.396925625         6.812264803         9.451555546
    16.396925625         6.812264803        20.536732014
    16.396925625        11.338839622         9.451555546
    16.396925625        11.338839622        20.536732014
    16.396925625        15.865415250         9.451555546
    16.396925625        15.865415250        20.536732014
    16.396925625        20.391989260         9.451555546
    16.396925625        20.391989260        20.536732014
    16.396925625        24.918564888         9.451555546
    16.396925625        24.918564888        20.536732014
    20.255026340         2.285689378         9.451555546
    20.255026340         2.285689378        20.536732014
    20.255026340         6.812264803         9.451555546
    20.255026340         6.812264803        20.536732014
    20.255026340        11.338839622         9.451555546
    20.255026340        11.338839622        20.536732014
    20.255026340        15.865415250         9.451555546
    20.255026340        15.865415250        20.536732014
    20.255026340        20.391989260         9.451555546
    20.255026340        20.391989260        20.536732014
    20.255026340        24.918564888         9.451555546
    20.255026340        24.918564888        20.536732014
     2.893575191         2.240885239         1.633621252
     2.893575191         2.240885239        12.718797390
     2.893575191         6.767460462         1.633621252
     2.893575191         6.767460462        12.718797390
     2.893575191        11.294035281         1.633621252
     2.893575191        11.294035281        12.718797390
     2.893575191        15.820610909         1.633621252
     2.893575191        15.820610909        12.718797390
     2.893575191        20.347184918         1.633621252
     2.893575191        20.347184918        12.718797390
     2.893575191        24.873760546         1.633621252
     2.893575191        24.873760546        12.718797390
     6.751675217         2.240885239         1.633621252
     6.751675217         2.240885239        12.718797390
     6.751675217         6.767460462         1.633621252
     6.751675217         6.767460462        12.718797390
     6.751675217        11.294035281         1.633621252
     6.751675217        11.294035281        12.718797390
     6.751675217        15.820610909         1.633621252
     6.751675217        15.820610909        12.718797390
     6.751675217        20.347184918         1.633621252
     6.751675217        20.347184918        12.718797390
     6.751675217        24.873760546         1.633621252
     6.751675217        24.873760546        12.718797390
    10.609775932         2.240885239         1.633621252
    10.609775932         2.240885239        12.718797390
    10.609775932         6.767460462         1.633621252
    10.609775932         6.767460462        12.718797390
    10.609775932        11.294035281         1.633621252
    10.609775932        11.294035281        12.718797390
    10.609775932        15.820610909         1.633621252
    10.609775932        15.820610909        12.718797390
    10.609775932        20.347184918         1.633621252
    10.609775932        20.347184918        12.718797390
    10.609775932        24.873760546         1.633621252
    10.609775932        24.873760546        12.718797390
    14.467875957         2.240885239         1.633621252
    14.467875957         2.240885239        12.718797390
    14.467875957         6.767460462         1.633621252
    14.467875957         6.767460462        12.718797390
    14.467875957        11.294035281         1.633621252
    14.467875957        11.294035281        12.718797390
    14.467875957        15.820610909         1.633621252
    14.467875957        15.820610909        12.718797390
    14.467875957        20.347184918         1.633621252
    14.467875957        20.347184918        12.718797390
    14.467875957        24.873760546         1.633621252
    14.467875957        24.873760546        12.718797390
    18.325976673         2.240885239         1.633621252
    18.325976673         2.240885239        12.718797390
    18.325976673         6.767460462         1.633621252
    18.325976673         6.767460462        12.718797390
    18.325976673        11.294035281         1.633621252
    18.325976673        11.294035281        12.718797390
    18.325976673        15.820610909         1.633621252
    18.325976673        15.820610909        12.718797390
    18.325976673        20.347184918         1.633621252
    18.325976673        20.347184918        12.718797390
    18.325976673        24.873760546         1.633621252
    18.325976673        24.873760546        12.718797390
    22.184076008         2.240885239         1.633621252
    22.184076008         2.240885239        12.718797390
    22.184076008         6.767460462         1.633621252
    22.184076008         6.767460462        12.718797390
    22.184076008        11.294035281         1.633621252
    22.184076008        11.294035281        12.718797390
    22.184076008        15.820610909         1.633621252
    22.184076008        15.820610909        12.718797390
    22.184076008        20.347184918         1.633621252
    22.184076008        20.347184918        12.718797390
    22.184076008        24.873760546         1.633621252
    22.184076008        24.873760546        12.718797390
     2.893575191         0.022402122         7.176209817
     2.893575191         0.022402122        18.261385624
     2.893575191         4.548977394         7.176209817
     2.893575191         4.548977394        18.261385624
     2.893575191         9.075552617         7.176209817
     2.893575191         9.075552617        18.261385624
     2.893575191        13.602126627         7.176209817
     2.893575191        13.602126627        18.261385624
     2.893575191        18.128702255         7.176209817
     2.893575191        18.128702255        18.261385624
     2.893575191        22.655277883         7.176209817
     2.893575191        22.655277883        18.261385624
     6.751675217         0.022402122         7.176209817
     6.751675217         0.022402122        18.261385624
     6.751675217         4.548977394         7.176209817
     6.751675217         4.548977394        18.261385624
     6.751675217         9.075552617         7.176209817
     6.751675217         9.075552617        18.261385624
     6.751675217        13.602126627         7.176209817
     6.751675217        13.602126627        18.261385624
     6.751675217        18.128702255         7.176209817
     6.751675217        18.128702255        18.261385624
     6.751675217        22.655277883         7.176209817
     6.751675217        22.655277883        18.261385624
    10.609775932         0.022402122         7.176209817
    10.609775932         0.022402122        18.261385624
    10.609775932         4.548977394         7.176209817
    10.609775932         4.548977394        18.261385624
    10.609775932         9.075552617         7.176209817
    10.609775932         9.075552617        18.261385624
    10.609775932        13.602126627         7.176209817
    10.609775932        13.602126627        18.261385624
    10.609775932        18.128702255         7.176209817
    10.609775932        18.128702255        18.261385624
    10.609775932        22.655277883         7.176209817
    10.609775932        22.655277883        18.261385624
    14.467875957         0.022402122         7.176209817
    14.467875957         0.022402122        18.261385624
    14.467875957         4.548977394         7.176209817
    14.467875957         4.548977394        18.261385624
    14.467875957         9.075552617         7.176209817
    14.467875957         9.075552617        18.261385624
    14.467875957        13.602126627         7.176209817
    14.467875957        13.602126627        18.261385624
    14.467875957        18.128702255         7.176209817
    14.467875957        18.128702255        18.261385624
    14.467875957        22.655277883         7.176209817
    14.467875957        22.655277883        18.261385624
    18.325976673         0.022402122         7.176209817
    18.325976673         0.022402122        18.261385624
    18.325976673         4.548977394         7.176209817
    18.325976673         4.548977394        18.261385624
    18.325976673         9.075552617         7.176209817
    18.325976673         9.075552617        18.261385624
    18.325976673        13.602126627         7.176209817
    18.325976673        13.602126627        18.261385624
    18.325976673        18.128702255         7.176209817
    18.325976673        18.128702255        18.261385624
    18.325976673        22.655277883         7.176209817
    18.325976673        22.655277883        18.261385624
    22.184076008         0.022402122         7.176209817
    22.184076008         0.022402122        18.261385624
    22.184076008         4.548977394         7.176209817
    22.184076008         4.548977394        18.261385624
    22.184076008         9.075552617         7.176209817
    22.184076008         9.075552617        18.261385624
    22.184076008        13.602126627         7.176209817
    22.184076008        13.602126627        18.261385624
    22.184076008        18.128702255         7.176209817
    22.184076008        18.128702255        18.261385624
    22.184076008        22.655277883         7.176209817
    22.184076008        22.655277883        18.261385624
     0.964525093         4.504173053         3.908966982
     0.964525093         4.504173053        14.994143780
     0.964525093         9.030748276         3.908966982
     0.964525093         9.030748276        14.994143780
     0.964525093        13.557323095         3.908966982
     0.964525093        13.557323095        14.994143780
     0.964525093        18.083897914         3.908966982
     0.964525093        18.083897914        14.994143780
     0.964525093        22.610473542         3.908966982
     0.964525093        22.610473542        14.994143780
     0.964525093        27.137049170         3.908966982
     0.964525093        27.137049170        14.994143780
     4.822625204         4.504173053         3.908966982
     4.822625204         4.504173053        14.994143780
     4.822625204         9.030748276         3.908966982
     4.822625204         9.030748276        14.994143780
     4.822625204        13.557323095         3.908966982