Ge Se 
 1.0000000000000000
    12.4715736707028562   -0.0000048132499650    0.0000014531357481
    -0.0000048213272017   12.4925011714896197   -0.0000017509405191
     0.0000016603648428   -0.0000019972873220   11.0700323524729480
 Ge  Se 
  36  36
Cartesian
  0.8810105034886698  0.4805965394742409  1.3832813289245092
  2.6464908580412798 10.6528537895139941  4.1479194190108819
  6.7763013137325849  2.1999656905529581  4.0169615097219289
  7.2331364777944192  6.6927791608351610  3.9634731997447243
  6.7839917136982830 10.4986926458815155  4.1100700855509205
 11.2189539040258701  2.4102916615434697  3.8910031746497356
 11.0204817425936579  6.4845059220266990  4.2290227680477015
 11.3188251091109766 10.9946437482478974  4.1147003998596627
  0.8781290485379492  2.1637829820321577  6.6870614026243729
  0.7851645772784307  6.3008972958438862  7.1769173875118444
  0.9187001369677387 10.2639025141627833  6.8623035526863347
  5.0814902990661999  2.0547178774129193  6.9532132897798329
  4.7986509177894403  6.2191570396057019  6.7446956188245633
  4.8427832429283972 10.4857130426319110  7.0687165025139000
  9.0841720002897954  1.8385192437464708  6.9997542380263003
  8.9790325749473539  6.2861750388555491  6.9378194602168026
  2.7062049826905992  6.6114951182888326  4.1023799885484138
  2.8314831357651902  2.7108145199022968  4.2488159734841853
  8.8857928798507828 10.0738075079223002  6.6903036600501258
 10.9483069680397129  8.2551378125731016  9.6562801449875142
 11.1672493781146169 12.2698496005072091  9.5431398329531554
  0.7556008919032162  4.6970168792344982  1.5304409884120909
  0.5072760959065901  8.6722287579312294  1.4009195556713856
  4.6561534344238762  0.1415193642502899  1.6240437419326419
  5.0137356602031451  4.6300945867468783  1.6107973333244034
  8.9731042589348498  0.2082294655509058  1.3889534924751483
  8.9351386893386664  4.3050851260952747  1.5814397307541628
  4.8009726985744043  8.6244175793978464  1.3968317695439114
  2.8559656517116108  4.0761326676291896  9.4400754687325836
  3.0567545365841542  8.1567753574398640  9.7229208709026445
  2.5729360788593763 12.4753306123737655  9.6559447622693657
  6.9562982938997049  4.1085367145511302  9.6812457877964384
  6.7781645292196417  8.4185804570467297  9.8023428925450897
  7.0511783860392274 12.5649957269333257  9.5934670919193188
 11.2044784825576755  4.1646796421086494  9.5406429831217228
  9.4105589452676153  8.9493579747281302  1.2590915315203175
 11.3586435433542512  0.2721570192291560  6.9108869437769309
  3.1922214832271614  4.0712852523155032  7.0083482004245861
  2.9323414071926721  8.5570205582276433  7.1765688362930380
  7.2693058510974158 -0.1169303540520651  7.1287533850469025
  7.2054887484065269  4.3925331911449028  7.0670517532021462
  7.2242359469279096  8.2939917711529052  7.2046393761987622
 11.4726936853049182  4.2317877728156743  6.9961076894166094
  9.5463962611678621  0.4223243357185373  3.9604755046638811
  0.8770483961223037  0.0207288684246327  3.9678799857744500
  1.1466034048524616  4.4824053396396977  3.9991635168499817
  0.8506957118974554  8.3335841233230159  4.0010991039665642
  5.0447131839641530 -0.0898409138112759  4.1190225733482411
  5.0628626416129405  4.0190478849813527  4.1793780052728335
  5.0717078536317786  8.5746017133890540  3.9512508086752387
  3.1013495694396411  0.1044611429532840  7.1485945311441217
 11.5062119037275199  8.3378507905030066  7.1892016742021410
 11.4460027437004701 10.5740635912953174  1.5749445585893442
  2.9256484514616412  2.1197814003987752  1.6184142569013527
 11.6122236878244447  2.3698449394750205  1.3761552552043588
  9.1766823679936262  4.1251696057711165  4.1667095637762461
  0.9584983505294746  2.0899479255196032  9.2522310166702688
  1.1095825211131676  6.3076445553874088  9.6684083229379016
  0.9667191351942080 10.6408165890974225  9.3490997006252847
  5.2641848069671271  1.9917107525196049  9.5412120003298373
  5.0829846015080342  6.5681885849459709  9.4480174931275247
  5.1406632290404595 10.4116314375817307  9.6625078771389106
  9.3205098824863715  2.1343191474308538  9.5254021551058621
  9.3114495184063362  6.2562195726766126  9.5007616593773481
  9.2461644253094928 10.3933390725572270  9.3257960906733164
  3.1863547318157890  6.3997982084800924  1.6161312176148979
  2.8834559722903714 10.3668794250478324  1.4615867061004928
  7.0649024943450165  2.1821712629026444  1.6363473807501727
  7.0823163091275649  6.0984574420574056  1.4887136902300855
  7.3109361675738862 10.6816110346943880  1.8040505823974249
 11.2622193134825928  6.3715079460610458  1.6664642099101157
  9.4375372750529838  8.4287701344114510  3.8095765085832944
