Ge Se                                   
    1.000000000000000     
    12.4339236018377228   -0.0000023813473852    0.0000009836168472
    -0.0000023968095432   12.5146575111177629   -0.0000002815760856
     0.0000011284343504   -0.0000003209484888   11.0812531607159190
   Ge   Se
    36    36
Direct
  0.0960081704238291  0.0448437309831320  0.1130339946638372
  0.2469415385690326  0.8570388963556184  0.3739145443343546
  0.5507761164569658  0.2128008453199399  0.3678297958710601
  0.5803554622285247  0.5252749986004588  0.3599840361125359
  0.5911530907725151  0.8723730506839971  0.3598167783002992
  0.9156860646905827  0.1895937072181155  0.3664145121480757
  0.9018459261902692  0.5405013613152718  0.3897629776809168
  0.8851723311550543  0.8788329534011012  0.3840008124834853
  0.0625219657429739  0.1531531759711271  0.6249500658743514
  0.0526442481245013  0.4826936701746476  0.6284500050838275
  0.0799446044458705  0.7948625662322542  0.6149716808810837
  0.3994874209797317  0.1336960209452229  0.6238035803484934
  0.4063991915317331  0.4756581312815342  0.6358954981057892
  0.3990572465183391  0.8255553729004959  0.6414204773134173
  0.7391572272571807  0.1475744233692851  0.6230071667284705
  0.7284240375597903  0.4738499763155559  0.6427445356188599
  0.2335088027002996  0.5523038653880761  0.3694566353571318
  0.2255580822229462  0.2177019635038278  0.3929746707385462
  0.7505198848516699  0.8000789293276114  0.6250892030548627
  0.9316635029912348  0.6767255944913444  0.8783362327264541
  0.9047655730716926  0.9946446343655637  0.8665782780323141
  0.0842875155263059  0.3639308087845734  0.1283273685122239
  0.0488207775609055  0.7157676583727621  0.1353728348928627
  0.4107892091736574  0.0354665916524155  0.1316312445419143
  0.4015813168684303  0.3800444750739729  0.1495934838283972
  0.7324793989265430  0.0653920202917604  0.1081310358125123
  0.7683742126338302  0.3581019507906120  0.1500303936558254
  0.4259185162094496  0.6944332577125181  0.1309272349335089
  0.2353881284300883  0.3236308141481814  0.8756247478366959
  0.2482946951562113  0.6612209241679423  0.8854127446091411
  0.2487741417609968  0.9920605193158920  0.8608755491900411
  0.5804699202836190  0.3361068135600860  0.8760512328075833
  0.5824177494899914  0.6527266689139068  0.8570727403749601
  0.5823263313852394  0.9886485683184958  0.8664304484671561
  0.9056234215617565  0.3281793318855506  0.8712292645355930
  0.7540136530541872  0.7022343016061185  0.1120395610467710
  0.8972309369776639  0.0127875870470717  0.6319193374171803
  0.2322417041133136  0.3560376433612049  0.6525176301093794
  0.2376784282395690  0.6640766091824801  0.6509497570516274
  0.5591852889074787  0.0062482361009515  0.6381688543841193
  0.5441068249029115  0.3281664330933580  0.6484503504041186
  0.5734168734422056  0.6898684268841677  0.6243853433789113
  0.8882940892975171  0.3410683462194726  0.6435643877478441
  0.7338206550688611  0.0176996479334477  0.3349725008395268
  0.0437399577234459  0.0122877767972724  0.3418329560269555
  0.0742683245114719  0.3512360384292279  0.3697051488214314
  0.0610024647326881  0.6698485436477739  0.3618730657907250
  0.4099523128468050  0.9908073634825172  0.3489322873406664
  0.3928404358357582  0.3475288848343752  0.3731050432842977
  0.3950823305350397  0.6911462217277915  0.3637924405711956
  0.2213009801290582  0.0004170522210671  0.6349070387776266
  0.8989878356497982  0.6595515259805325  0.6398807526715444
  0.8992866342068240  0.8503089001619841  0.1532317212494618
  0.2473710192779777  0.1773547563577225  0.1598704424397681
  0.8951608016619232  0.1899497009439060  0.1455418908402848
  0.7189304477923102  0.3467086120373253  0.3667101265385924
  0.0676006022216669  0.1862644600587657  0.8565080494621427
  0.0671495895241421  0.5135549987836754  0.8548480788430624
  0.0600507812449820  0.8321803585180163  0.8421367695785875
  0.3714696558500492  0.1724958810114714  0.8576441464585542
  0.4107871240215957  0.5256624480920067  0.8609171402599785
  0.4092327167990462  0.8461770946776497  0.8608433978581900
  0.7319747328029109  0.1770344465190163  0.8464696416166788
  0.7240134789118784  0.4931435843210465  0.8728864114444903
  0.7392672889590131  0.8534921168045813  0.8620825130544958
  0.2319171785577154  0.5113792338238667  0.1352533478359419
  0.2088176407574167  0.8693342868504104  0.1381448020585125
  0.5561263974804405  0.1868739543923610  0.1392897826936803
  0.5515354965320327  0.5325627336790077  0.1351797179957188
  0.5806815163466013  0.8404180816768019  0.1310532119613654
  0.9149396997085404  0.4965180574482275  0.1648039451318724
  0.7344107903955788  0.6661789205179005  0.3372877957199165
 
  0.00000000E+00  0.00000000E+00  0.00000000E+00
  0.00000000E+00  0.00000000E+00  0.00000000E+00
  0.00000000E+00  0.00000000E+00  0.00000000E+00
  0.00000000E+00  0.00000000E+00  0.00000000E+00
  0.00000000E+00  0.00000000E+00  0.00000000E+00
  0.00000000E+00  0.00000000E+00  0.00000000E+00
  0.00000000E+00  0.00000000E+00  0.00000000E+00
  0.00000000E+00  0.00000000E+00  0.00000000E+00
  0.00000000E+00  0.00000000E+00  0.00000000E+00
  0.00000000E+00  0.00000000E+00  0.00000000E+00
  0.00000000E+00  0.00000000E+00  0.00000000E+00
  0.00000000E+00  0.00000000E+00  0.00000000E+00
  0.00000000E+00  0.00000000E+00  0.00000000E+00
  0.00000000E+00  0.00000000E+00  0.00000000E+00
  0.00000000E+00  0.00000000E+00  0.00000000E+00
  0.00000000E+00  0.00000000E+00  0.00000000E+00
  0.00000000E+00  0.00000000E+00  0.00000000E+00
  0.00000000E+00  0.00000000E+00  0.00000000E+00
  0.00000000E+00  0.00000000E+00  0.00000000E+00
  0.00000000E+00  0.00000000E+00  0.00000000E+00
  0.00000000E+00  0.00000000E+00  0.00000000E+00
  0.00000000E+00  0.00000000E+00  0.00000000E+00
  0.00000000E+00  0.00000000E+00  0.00000000E+00
  0.00000000E+00  0.00000000E+00  0.00000000E+00
  0.00000000E+00  0.00000000E+00  0.00000000E+00
  0.00000000E+00  0.00000000E+00  0.00000000E+00
  0.00000000E+00  0.00000000E+00  0.00000000E+00
  0.00000000E+00  0.00000000E+00  0.00000000E+00
  0.00000000E+00  0.00000000E+00  0.00000000E+00
  0.00000000E+00  0.00000000E+00  0.00000000E+00
  0.00000000E+00  0.00000000E+00  0.00000000E+00
  0.00000000E+00  0.00000000E+00  0.00000000E+00
  0.00000000E+00  0.00000000E+00  0.00000000E+00
  0.00000000E+00  0.00000000E+00  0.00000000E+00
  0.00000000E+00  0.00000000E+00  0.00000000E+00
  0.00000000E+00  0.00000000E+00  0.00000000E+00
  0.00000000E+00  0.00000000E+00  0.00000000E+00
  0.00000000E+00  0.00000000E+00  0.00000000E+00
  0.00000000E+00  0.00000000E+00  0.00000000E+00
  0.00000000E+00  0.00000000E+00  0.00000000E+00
  0.00000000E+00  0.00000000E+00  0.00000000E+00
  0.00000000E+00  0.00000000E+00  0.00000000E+00
  0.00000000E+00  0.00000000E+00  0.00000000E+00
  0.00000000E+00  0.00000000E+00  0.00000000E+00
  0.00000000E+00  0.00000000E+00  0.00000000E+00
  0.00000000E+00  0.00000000E+00  0.00000000E+00
  0.00000000E+00  0.00000000E+00  0.00000000E+00
  0.00000000E+00  0.00000000E+00  0.00000000E+00
  0.00000000E+00  0.00000000E+00  0.00000000E+00
  0.00000000E+00  0.00000000E+00  0.00000000E+00
  0.00000000E+00  0.00000000E+00  0.00000000E+00
  0.00000000E+00  0.00000000E+00  0.00000000E+00
  0.00000000E+00  0.00000000E+00  0.00000000E+00
  0.00000000E+00  0.00000000E+00  0.00000000E+00
  0.00000000E+00  0.00000000E+00  0.00000000E+00
  0.00000000E+00  0.00000000E+00  0.00000000E+00
  0.00000000E+00  0.00000000E+00  0.00000000E+00
  0.00000000E+00  0.00000000E+00  0.00000000E+00
  0.00000000E+00  0.00000000E+00  0.00000000E+00
  0.00000000E+00  0.00000000E+00  0.00000000E+00
  0.00000000E+00  0.00000000E+00  0.00000000E+00
  0.00000000E+00  0.00000000E+00  0.00000000E+00
  0.00000000E+00  0.00000000E+00  0.00000000E+00
  0.00000000E+00  0.00000000E+00  0.00000000E+00
  0.00000000E+00  0.00000000E+00  0.00000000E+00
  0.00000000E+00  0.00000000E+00  0.00000000E+00
  0.00000000E+00  0.00000000E+00  0.00000000E+00
  0.00000000E+00  0.00000000E+00  0.00000000E+00
  0.00000000E+00  0.00000000E+00  0.00000000E+00
  0.00000000E+00  0.00000000E+00  0.00000000E+00
  0.00000000E+00  0.00000000E+00  0.00000000E+00
  0.00000000E+00  0.00000000E+00  0.00000000E+00
