Ge Se                                   
    1.000000000000000     
     3.7000000000000002    0.0000000000000000    0.0000000000000000
     0.0000000000000000    4.1500000000000004    0.0000000000000000
     0.0000000000000000    0.0000000000000000   11.1422209999999993
   Ge   Se
     4     4
Selective dynamics
Direct
  0.2500000000000000  0.0995407808293436  0.1208579884842393   T   T   T
  0.7500000000000000  0.5995407808293436  0.3791420115157607   T   T   T
  0.7500000000000000  0.9004592191706564  0.8791420115157607   T   T   T
  0.2500000000000000  0.4004592191706564  0.6208579884842393   T   T   T
  0.2500000000000000  0.0202926159182795  0.3543543934260072   T   T   T
  0.7500000000000000  0.5202926159182795  0.1456456065739928   T   T   T
  0.7500000000000000  0.9797073840817205  0.6456456065739928   T   T   T
  0.2500000000000000  0.4797073840817205  0.8543543934260072   T   T   T
 
  0.00000000E+00  0.00000000E+00  0.00000000E+00
  0.00000000E+00  0.00000000E+00  0.00000000E+00
  0.00000000E+00  0.00000000E+00  0.00000000E+00
  0.00000000E+00  0.00000000E+00  0.00000000E+00
  0.00000000E+00  0.00000000E+00  0.00000000E+00
  0.00000000E+00  0.00000000E+00  0.00000000E+00
  0.00000000E+00  0.00000000E+00  0.00000000E+00
  0.00000000E+00  0.00000000E+00  0.00000000E+00
