Ge Se
 1.0000000000000000
     4.6499999999999995    0.0000000000000000    0.0000000000000000
     0.0000000000000000    4.5999999999999996    0.0000000000000000
     0.0000000000000000    0.0000000000000000   11.1422210000000010
 Ge  Se 
   4   4
Selective dynamics
Cartesian
  0.4869217204544279  1.1499999999999999  1.5185243403739790   T   T   T
  2.8119217204544271  3.4499999999999997  4.0525861596260295   T   T   T
  4.1630782795455712  3.4499999999999997  9.6236966596260274   T   T   T
  1.8380782795455721  1.1499999999999999  7.0896348403739777   T   T   T
 -0.2617814966678056  1.1499999999999999  3.9231508231549701   T   T   T
  2.0632185033321933  3.4499999999999997  1.6479596768450360   T   T   T
  4.9117814966678033  3.4499999999999997  7.2190701768450376   T   T   T
  2.5867814966678058  1.1499999999999999  9.4942613231549693   T   T   T
