Ge Se 
 1.0000000000000000
    12.4191910209413301   -0.0000016457148730   -0.0000034025072610
    -0.0000016567480717   12.5024505770681511    0.0000014019340730
    -0.0000038989322265    0.0000015957774979   11.0552913790836769
 Ge  Se 
  36  36
Cartesian
  0.9203898644008019  0.6456368168210530  1.2554896822168335
  2.9077935265216026 10.9077809608848000  4.1731058796074514
  6.7277736556242544  2.2934914359887992  3.9594028179596630
  7.0778453448294298  6.7018865612930805  3.9968109537621959
  7.2653446019718642 10.6715641796444292  4.0970610230784725
 11.1876507508356884  2.7789651716841326  4.1404079788523003
 11.3076779711689248  6.4957124456221331  4.2004394031837764
 11.4705946378240142 11.0492960894949395  4.3276835748998810
  1.0233334400721183  1.9747046678751403  7.0539786398571529
  0.9713851904401222  6.0638312943421990  6.8716662014843388
  0.8010990839680866 10.2204382600608206  6.9958730385372832
  4.9742146656464739  1.6536749555072392  6.9425468998859312
  5.1173432427406231  6.3487461376306378  6.9484371302829162
  5.2915823981714922 10.4871405588130155  6.7442796569296499
  9.2082255162008195  2.0838450352742730  6.8988433442812127
  9.1253884677546893  5.8882406887091392  6.8226831064756439
  3.0855386177825013  6.6889637664329493  3.9899003115234577
  3.0803487746985878  2.5075323426245149  4.0797501926955206
  9.3369292369895938 10.0952942516939821  7.0855659164563107
 11.5789810869012655  7.9709068610960268  9.8282381806265171
 11.1693418496974690 12.3469022629129821  9.7072926040426317
  0.9527480604638962  4.6204893482433045  1.4047871040009534
  0.6186171814989856  8.6900024816282340  1.4484575017748949
  5.1169401304517566  0.5070635089672549  1.4531134329589261
  4.8937082249514434  4.7971131133749125  1.2477262770683983
  9.3477004693130059  0.2815152508840940  1.6139353621938650
  8.9865925441103656  4.5959533221147213  1.6502656564059401
  4.8620943934535079  9.0081096421991305  1.3254565943420582
  2.9750763709026167  3.9897311552990886  9.6047902396609768
  3.1702865608214377  8.7592440785179289  9.6223607586331550
  2.8662888025528135 12.3588168441048101  9.6781733191525241
  7.1094469896691947  4.2826432927937752  9.4256621353618062
  7.0400790875493948  8.2604907739262288  9.6092751018190619
  7.1878632122820347 12.7264180937500857  9.7072009097601875
 11.5050183673187796  4.2045556323009015  9.6357927462645243
  9.3435361510370232  8.8046989601425967  1.5316936560747287
 11.1463035358835398  0.2469393933160549  7.1759647277884451
  2.8862492003050808  4.3113682340178121  7.0465812077943522
  2.9695675874982039  8.6594649037582467  7.1881289809263365
  6.9606278584649610  0.0038625657770864  7.1412916030997362
  6.8278889676343599  4.3569610523644053  7.0123230122626978
  7.0922785353849331  8.6650406987735238  7.0648278163383660
 11.2271184968449891  4.3201792457768171  6.9726754791388359
  9.1401010838447103  0.1691546722711330  4.0912515659046722
  0.9296809846382800  0.1421597543396050  3.8528855936302469
  0.9478264462646731  4.4053935748933855  3.9733057669560075
  0.9113528625105922  8.3736583728727432  3.9653366132841357
  5.1080946603879918 -0.0355337522641258  3.9195148874790111
  4.8842651257303764  4.3565361138344496  3.8095895074605672
  4.9886441722467634  8.4757748869078551  3.8375366713396528
  2.6753355438963933  0.0776062523843935  7.2290703232826541
 11.2750920152283332  8.4744820872543798  7.3378233310332313
 11.2348419755808457 10.5888510709747941  1.7352609434482344
  2.8849631339805373  2.3238996386403783  1.5371578605201976
 11.0733495468798697  2.2681428491415931  1.6170436347723975
  9.0583124770542600  4.1520820764436293  4.1279058573618190
  0.7380897359182639  2.3772655954894741  9.6101780753726640
  0.9393955759066458  6.2668631344058685  9.4015006003743515
  0.8156173671104050 10.6861579033209786  9.6176433831163912
  5.1203812685284671  2.2630276008716375  9.4529070280406415
  4.9749955749605430  6.6220891096641985  9.5271822219823239
  4.9503780548618996 10.6706709269482207  9.3351357785085849
  9.1343573783736627  2.3723864410532194  9.4636356792373064
  9.0588153552779644  6.6084907288961476  9.3516887157657358
  9.0651067489078621 10.7218240115287884  9.5003206475865998
  2.8728604426230731  6.5226371763523456  1.5258426781491770
  2.8723200423493971 10.5468590501519373  1.5862576207233581
  7.2358208952563912  2.0372920404549291  1.4532065115373436
  7.0973618704887196  6.3855325522177280  1.4776089926774971
  7.1421893608778433 10.5712801082484855  1.5167893889141908
 11.0872888292918681  6.3771788301647314  1.6200053783341837
  9.1086962038954198  8.3783339748526870  3.9583234666797131
