Ge Se
 1.0000000000000000
     4.7000000000000002    0.0000000000000000    0.0000000000000000
     0.0000000000000000    4.6499999999999995    0.0000000000000000
     0.0000000000000000    0.0000000000000000   11.1422209999999993
 Ge  Se 
   4   4
Cartesian
  0.0195170524896748  1.1624999999999999  1.8607424123035345
  2.3695170524896749  3.4874999999999998  3.7103680876964660
  4.6804829475103249  3.4874999999999998  9.2814785876964638
  2.3304829475103253  1.1624999999999999  7.4318529123035333
  0.0000000000000000  1.1624999999999999  4.4206680136955194
  2.3500000000000001  3.4874999999999998  1.1504424863044804
  4.7000000000000002  3.4874999999999998  6.7215529863044798
  2.3500000000000001  1.1624999999999999  9.9917785136955199
