Ge Se
 1.0000000000000000
     4.5000000000000000    0.0000000000000000    0.0000000000000000
     0.0000000000000000    3.7500000000000000    0.0000000000000000
     0.0000000000000000    0.0000000000000000   11.1422209999999993
 Ge  Se 
   4   4
Cartesian
  0.3823416961433892  0.9375000000000000  1.4252051868464137
  2.6323416961433890  2.8125000000000000  4.1459053131535866
  4.1176583038566106  2.8125000000000000  9.7170158131535853
  1.8676583038566110  0.9375000000000000  6.9963156868464136
  0.0000000000000000  0.9375000000000000  3.9564923746997001
  2.2500000000000000  2.8125000000000000  1.6146181253003000
  4.5000000000000000  2.8125000000000000  7.1857286253002997
  2.2500000000000000  0.9375000000000000  9.5276028746996992
