Ge Se
 1.0000000000000000
     4.0000000000000000    0.0000000000000000    0.0000000000000000
     0.0000000000000000    4.0000000000000000    0.0000000000000000
     0.0000000000000000    0.0000000000000000   11.1422209999999993
 Ge  Se 
   4   4
Cartesian
  0.0000000000000000  1.0000000000000000  1.6397688123730947
  2.0000000000000000  3.0000000000000000  3.9313416876269049
  4.0000000000000000  3.0000000000000000  9.5024521876269041
  2.0000000000000000  1.0000000000000000  7.2108793123730948
  0.0000000000000000  1.0000000000000000  4.1997688123730947
  2.0000000000000000  3.0000000000000000  1.3713416876269049
  4.0000000000000000  3.0000000000000000  6.9424521876269045
  2.0000000000000000  1.0000000000000000  9.7708793123730953
