Ge Se
 1.0000000000000000
     4.2000000000000002    0.0000000000000000    0.0000000000000000
     0.0000000000000000    3.7500000000000000    0.0000000000000000
     0.0000000000000000    0.0000000000000000   11.1422209999999993
 Ge  Se 
   4   4
Cartesian
  0.2241771730472679  0.9375000000000000  1.4740254908664367
  2.3241771730472678  2.8125000000000000  4.0970850091335631
  3.9758228269527325  2.8125000000000000  9.6681955091335627
  1.8758228269527324  0.9375000000000000  7.0451359908664362
  0.0000000000000000  0.9375000000000000  4.0241910923685307
  2.1000000000000001  2.8125000000000000  1.5469194076314692
  4.2000000000000002  2.8125000000000000  7.1180299076314686
  2.1000000000000001  0.9375000000000000  9.5953015923685303
