Ge Se
 1.0000000000000000
     4.0999999999999996    0.0000000000000000    0.0000000000000000
     0.0000000000000000    4.7000000000000002    0.0000000000000000
     0.0000000000000000    0.0000000000000000   11.1422209999999993
 Ge  Se 
   4   4
Cartesian
  1.0249999999999999  0.2754125177695912  1.5712963869562291
  3.0749999999999997  2.6254125177695915  3.9998141130437710
  3.0749999999999997  4.4245874822304083  9.5709246130437702
  1.0249999999999999  2.0745874822304087  7.1424068869562287
  1.0249999999999999  0.0000000000000000  4.1164384154206157
  3.0749999999999997  2.3500000000000001  1.4546720845793835
  3.0749999999999997  4.7000000000000002  7.0257825845793835
  1.0249999999999999  2.3500000000000001  9.6875489154206154
