Ge Se
 1.0000000000000000
     4.2500000000000000    0.0000000000000000    0.0000000000000000
     0.0000000000000000    3.7500000000000000    0.0000000000000000
     0.0000000000000000    0.0000000000000000   11.1422209999999993
 Ge  Se 
   4   4
Cartesian
  0.2500123224720564  0.9375000000000000  1.4657229028913252
  2.3750123224720565  2.8125000000000000  4.1053875971086748
  3.9999876775279435  2.8125000000000000  9.6764980971086736
  1.8749876775279437  0.9375000000000000  7.0368334028913244
  0.0000000000000000  0.9375000000000000  4.0134854190242804
  2.1250000000000000  2.8125000000000000  1.5576250809757186
  4.2500000000000000  2.8125000000000000  7.1287355809757189
  2.1250000000000000  0.9375000000000000  9.5845959190242809
