Ge Se
 1.0000000000000000
     4.5999999999999996    0.0000000000000000    0.0000000000000000
     0.0000000000000000    4.2999999999999998    0.0000000000000000
     0.0000000000000000    0.0000000000000000   11.1422209999999993
 Ge  Se 
   4   4
Cartesian
  0.1285771963878693  1.0750000000000000  1.6931546783415903
  2.4285771963878693  3.2249999999999996  3.8779558216584098
  4.4714228036121302  3.2249999999999996  9.4490663216584085
  2.1714228036121304  1.0750000000000000  7.2642651783415895
  0.0000000000000000  1.0750000000000000  4.2499237145607474
  2.2999999999999998  3.2249999999999996  1.3211867854392527
  4.5999999999999996  3.2249999999999996  6.8922972854392519
  2.2999999999999998  1.0750000000000000  9.8210342145607470
