Ge Se
 1.0000000000000000
     4.5499999999999998    0.0000000000000000    0.0000000000000000
     0.0000000000000000    3.8500000000000001    0.0000000000000000
     0.0000000000000000    0.0000000000000000   11.1422209999999993
 Ge  Se 
   4   4
Cartesian
  0.3457076777631894  0.9625000000000000  1.4677391653082754
  2.6207076777631895  2.8875000000000002  4.1033713346917242
  4.2042923222368103  2.8875000000000002  9.6744818346917238
  1.9292923222368104  0.9625000000000000  7.0388496653082750
  0.0000000000000000  0.9625000000000000  4.0042892242536103
  2.2749999999999999  2.8875000000000002  1.5668212757463891
  4.5499999999999998  2.8875000000000002  7.1379317757463880
  2.2749999999999999  0.9625000000000000  9.5753997242536109
