Ge Se
 1.0000000000000000
     4.4500000000000002    0.0000000000000000    0.0000000000000000
     0.0000000000000000    4.0000000000000000    0.0000000000000000
     0.0000000000000000    0.0000000000000000   11.1422209999999993
 Ge  Se 
   4   4
Cartesian
  0.2097319525236502  1.0000000000000000  1.5616939779983521
  2.4347319525236504  3.0000000000000000  4.0094165220016480
  4.2402680474763503  3.0000000000000000  9.5805270220016467
  2.0152680474763498  1.0000000000000000  7.1328044779983513
  0.0000000000000000  1.0000000000000000  4.1130882062764158
  2.2250000000000001  3.0000000000000000  1.4580222937235841
  4.4500000000000002  3.0000000000000000  7.0291327937235835
  2.2250000000000001  1.0000000000000000  9.6841987062764154
