Ge Se
 1.0000000000000000
     4.6499999999999995    0.0000000000000000    0.0000000000000000
     0.0000000000000000    4.6499999999999995    0.0000000000000000
     0.0000000000000000    0.0000000000000000   11.1422209999999993
 Ge  Se 
   4   4
Cartesian
  0.0000000000000000  1.1624999999999999  1.8695785162587224
  2.3249999999999997  3.4874999999999998  3.7015319837412766
  4.6499999999999995  3.4874999999999998  9.2726424837412775
  2.3249999999999997  1.1624999999999999  7.4406890162587223
  0.0000000000000000  1.1624999999999999  4.4295785162587222
  2.3249999999999997  3.4874999999999998  1.1415319837412770
  4.6499999999999995  3.4874999999999998  6.7126424837412770
  2.3249999999999997  1.1624999999999999 10.0006890162587219
