Ge Se
 1.0000000000000000
     4.0499999999999998    0.0000000000000000    0.0000000000000000
     0.0000000000000000    3.8000000000000003    0.0000000000000000
     0.0000000000000000    0.0000000000000000   11.1422209999999993
 Ge  Se 
   4   4
Cartesian
  0.1211187973772866  0.9500000000000001  1.5254739890377746
  2.1461187973772864  2.8500000000000001  4.0456365109622254
  3.9288812026227133  2.8500000000000001  9.6167470109622233
  1.9038812026227132  0.9500000000000001  7.0965844890377747
  0.0000000000000000  0.9500000000000001  4.0826071957600760
  2.0249999999999999  2.8500000000000001  1.4885033042399236
  4.0499999999999998  2.8500000000000001  7.0596138042399232
  2.0249999999999999  0.9500000000000001  9.6537176957600757
