Ge Se
 1.0000000000000000
     4.0999999999999996    0.0000000000000000    0.0000000000000000
     0.0000000000000000    3.7000000000000002    0.0000000000000000
     0.0000000000000000    0.0000000000000000   11.1422209999999993
 Ge  Se 
   4   4
Cartesian
  0.2013016708196990  0.9250000000000000  1.4648430818473008
  2.2513016708196987  2.7750000000000004  4.1062674181526990
  3.8986983291803008  2.7750000000000004  9.6773779181526987
  1.8486983291803010  0.9250000000000000  7.0359535818473002
  0.0000000000000000  0.9250000000000000  4.0169162856024752
  2.0499999999999998  2.7750000000000004  1.5541942143975245
  4.0999999999999996  2.7750000000000004  7.1253047143975241
  2.0499999999999998  0.9250000000000000  9.5880267856024748
