Ge Se
 1.0000000000000000
     4.0999999999999996    0.0000000000000000    0.0000000000000000
     0.0000000000000000    4.7500000000000000    0.0000000000000000
     0.0000000000000000    0.0000000000000000   11.1422209999999993
 Ge  Se 
   4   4
Cartesian
  1.0249999999999999  0.2994048456126804  1.5628659102984712
  3.0749999999999997  2.6744048456126803  4.0082445897015289
  3.0749999999999997  4.4505951543873197  9.5793550897015276
  1.0249999999999999  2.0755951543873197  7.1339764102984704
  1.0249999999999999  0.0000000000000000  4.1052971755293814
  3.0749999999999997  2.3750000000000000  1.4658133244706184
  3.0749999999999997  4.7500000000000000  7.0369238244706178
  1.0249999999999999  2.3750000000000000  9.6764076755293811
