Ge Se
 1.0000000000000000
     4.6499999999999995    0.0000000000000000    0.0000000000000000
     0.0000000000000000    4.2500000000000000    0.0000000000000000
     0.0000000000000000    0.0000000000000000   11.1422209999999993
 Ge  Se 
   4   4
Cartesian
  0.1745855568324542  1.0625000000000000  1.6581591245537033
  2.4995855568324541  3.1875000000000000  3.9129513754462963
  4.4754144431675451  3.1875000000000000  9.4840618754462955
  2.1504144431675454  1.0625000000000000  7.2292696245537025
  0.0000000000000000  1.0625000000000000  4.2121990387573760
  2.3249999999999997  3.1875000000000000  1.3589114612426239
  4.6499999999999995  3.1875000000000000  6.9300219612426233
  2.3249999999999997  1.0625000000000000  9.7833095387573756
