Ge Se
 1.0000000000000000
     4.2000000000000002    0.0000000000000000    0.0000000000000000
     0.0000000000000000    4.3499999999999996    0.0000000000000000
     0.0000000000000000    0.0000000000000000   11.1422209999999993
 Ge  Se 
   4   4
Cartesian
  1.0500000000000000  0.0652376337574440  1.6840710044265952
  3.1500000000000004  2.2402376337574439  3.8870394955734038
  3.1500000000000004  4.2847623662425551  9.4581499955734039
  1.0500000000000000  2.1097623662425558  7.2551815044265950
  1.0500000000000000  0.0000000000000000  4.2432396294182606
  3.1500000000000004  2.1749999999999998  1.3278708705817388
  3.1500000000000004  4.3499999999999996  6.8989813705817387
  1.0500000000000000  2.1749999999999998  9.8143501294182602
