Ge Se
 1.0000000000000000
     3.7000000000000002    0.0000000000000000    0.0000000000000000
     0.0000000000000000    4.4500000000000002    0.0000000000000000
     0.0000000000000000    0.0000000000000000   11.1422209999999993
 Ge  Se 
   4   4
Cartesian
  0.9250000000000000  0.3878239418905192  1.4080197043954861
  2.7750000000000004  2.6128239418905195  4.1630907956045142
  2.7750000000000004  4.0621760581094808  9.7342012956045139
  0.9250000000000000  1.8371760581094807  6.9791302043954850
  0.9250000000000000  0.0000000000000000  3.9384727448798373
  2.7750000000000004  2.2250000000000001  1.6326377551201621
  2.7750000000000004  4.4500000000000002  7.2037482551201615
  0.9250000000000000  2.2250000000000001  9.5095832448798365
