Ge Se
 1.0000000000000000
     4.0499999999999998    0.0000000000000000    0.0000000000000000
     0.0000000000000000    4.5999999999999996    0.0000000000000000
     0.0000000000000000    0.0000000000000000   11.1422209999999993
 Ge  Se 
   4   4
Cartesian
  1.0125000000000000  0.2548186787480107  1.5622662225255362
  3.0374999999999996  2.5548186787480103  4.0088442774744637
  3.0374999999999996  4.3451813212519887  9.5799547774744624
  1.0125000000000000  2.0451813212519894  7.1333767225255356
  1.0125000000000000  0.0000000000000000  4.1095525120817609
  3.0374999999999996  2.2999999999999998  1.4615579879182388
  3.0374999999999996  4.5999999999999996  7.0326684879182384
  1.0125000000000000  2.2999999999999998  9.6806630120817605
