Ge Se
 1.0000000000000000
     4.1500000000000004    0.0000000000000000    0.0000000000000000
     0.0000000000000000    4.7500000000000000    0.0000000000000000
     0.0000000000000000    0.0000000000000000   11.1422209999999993
 Ge  Se 
   4   4
Cartesian
  1.0375000000000001  0.2719582416654674  1.5887680527841241
  3.1125000000000003  2.6469582416654678  3.9823424472158755
  3.1125000000000003  4.4780417583345322  9.5534529472158756
  1.0375000000000001  2.1030417583345322  7.1598785527841233
  1.0375000000000001  0.0000000000000000  4.1342815009493910
  3.1125000000000003  2.3750000000000000  1.4368289990506085
  3.1125000000000003  4.7500000000000000  7.0079394990506083
  1.0375000000000001  2.3750000000000000  9.7053920009493897
