Ge Se
 1.0000000000000000
     4.2999999999999998    0.0000000000000000    0.0000000000000000
     0.0000000000000000    4.6499999999999995    0.0000000000000000
     0.0000000000000000    0.0000000000000000   11.1422209999999993
 Ge  Se 
   4   4
Cartesian
  1.0750000000000000  0.1504709722434317  1.6844463545329884
  3.2249999999999996  2.4754709722434312  3.8866641454670110
  3.2249999999999996  4.4995290277565676  9.4577746454670102
  1.0750000000000000  2.1745290277565683  7.2555568545329878
  1.0750000000000000  0.0000000000000000  4.2400203578661175
  3.2249999999999996  2.3249999999999997  1.3310901421338814
  3.2249999999999996  4.6499999999999995  6.9022006421338817
  1.0750000000000000  2.3249999999999997  9.8111308578661180
