Ge Se
 1.0000000000000000
     4.0999999999999996    0.0000000000000000    0.0000000000000000
     0.0000000000000000    4.5000000000000000    0.0000000000000000
     0.0000000000000000    0.0000000000000000   11.1422209999999993
 Ge  Se 
   4   4
Cartesian
  1.0249999999999999  0.1811415108164226  1.6053801032263983
  3.0749999999999997  2.4311415108164227  3.9657303967736013
  3.0749999999999997  4.3188584891835777  9.5368408967736009
  1.0249999999999999  2.0688584891835773  7.1764906032263980
  1.0249999999999999  0.0000000000000000  4.1589634194820366
  3.0749999999999997  2.2500000000000000  1.4121470805179628
  3.0749999999999997  4.5000000000000000  6.9832575805179626
  1.0249999999999999  2.2500000000000000  9.7300739194820363
