Ge Se
 1.0000000000000000
     4.7000000000000002    0.0000000000000000    0.0000000000000000
     0.0000000000000000    3.8500000000000001    0.0000000000000000
     0.0000000000000000    0.0000000000000000   11.1422209999999993
 Ge  Se 
   4   4
Cartesian
  0.4247422360308324  0.9625000000000000  1.4436582337467512
  2.7747422360308329  2.8875000000000002  4.1274522662532487
  4.2752577639691678  2.8875000000000002  9.6985627662532483
  1.9252577639691675  0.9625000000000000  7.0147687337467506
  0.0000000000000000  0.9625000000000000  3.9681768082340785
  2.3500000000000001  2.8875000000000002  1.6029336917659209
  4.7000000000000002  2.8875000000000002  7.1740441917659208
  2.3500000000000001  0.9625000000000000  9.5392873082340781
