Ge Se
 1.0000000000000000
     4.2999999999999998    0.0000000000000000    0.0000000000000000
     0.0000000000000000    4.0499999999999998    0.0000000000000000
     0.0000000000000000    0.0000000000000000   11.1422209999999993
 Ge  Se 
   4   4
Cartesian
  0.1135209910300146  1.0125000000000000  1.6136577468163935
  2.2635209910300143  3.0374999999999996  3.9574527531836061
  4.1864790089699850  3.0374999999999996  9.5285632531836058
  2.0364790089699856  1.0125000000000000  7.1847682468163931
  0.0000000000000000  1.0125000000000000  4.1711395130457376
  2.1499999999999999  3.0374999999999996  1.3999709869542623
  4.2999999999999998  3.0374999999999996  6.9710814869542617
  2.1499999999999999  1.0125000000000000  9.7422500130457372
