Ge Se
 1.0000000000000000
     4.0999999999999996    0.0000000000000000    0.0000000000000000
     0.0000000000000000    4.4000000000000004    0.0000000000000000
     0.0000000000000000    0.0000000000000000   11.1422209999999993
 Ge  Se 
   4   4
Cartesian
  1.0249999999999999  0.1349708322742963  1.6226275092935389
  3.0749999999999997  2.3349708322742968  3.9484829907064607
  3.0749999999999997  4.2650291677257037  9.5195934907064608
  1.0249999999999999  2.0650291677257036  7.1937380092935390
  1.0249999999999999  0.0000000000000000  4.1790670009371773
  3.0749999999999997  2.2000000000000002  1.3920434990628221
  3.0749999999999997  4.4000000000000004  6.9631539990628220
  1.0249999999999999  2.2000000000000002  9.7501775009371769
