Ge Se
 1.0000000000000000
     4.5000000000000000    0.0000000000000000    0.0000000000000000
     0.0000000000000000    4.5000000000000000    0.0000000000000000
     0.0000000000000000    0.0000000000000000   11.1422209999999993
 Ge  Se 
   4   4
Cartesian
  0.0000000000000000  1.1250000000000000  1.8165455076697319
  2.2500000000000000  3.3750000000000000  3.7545649923302680
  4.5000000000000000  3.3750000000000000  9.3256754923302676
  2.2500000000000000  1.1250000000000000  7.3876560076697313
  0.0000000000000000  1.1250000000000000  4.3765455076697322
  2.2500000000000000  3.3750000000000000  1.1945649923302677
  4.5000000000000000  3.3750000000000000  6.7656754923302671
  2.2500000000000000  1.1250000000000000  9.9476560076697318
