Ge Se
 1.0000000000000000
     4.0000000000000000    0.0000000000000000    0.0000000000000000
     0.0000000000000000    4.1500000000000004    0.0000000000000000
     0.0000000000000000    0.0000000000000000   11.1422209999999993
 Ge  Se 
   4   4
Cartesian
  1.0000000000000000  0.0685309852332286  1.6134095214015185
  3.0000000000000000  2.1435309852332289  3.9577009785984814
  3.0000000000000000  4.0814690147667720  9.5288114785984810
  1.0000000000000000  2.0064690147667714  7.1845200214015179
  1.0000000000000000  0.0000000000000000  4.1724920726418961
  3.0000000000000000  2.0750000000000002  1.3986184273581030
  3.0000000000000000  4.1500000000000004  6.9697289273581022
  1.0000000000000000  2.0750000000000002  9.7436025726418976
