Ge Se
 1.0000000000000000
     4.2500000000000000    0.0000000000000000    0.0000000000000000
     0.0000000000000000    3.8999999999999999    0.0000000000000000
     0.0000000000000000    0.0000000000000000   11.1422209999999993
 Ge  Se 
   4   4
Cartesian
  0.1662756039556258  0.9750000000000000  1.5435799166827850
  2.2912756039556257  2.9249999999999998  4.0275305833172146
  4.0837243960443743  2.9249999999999998  9.5986410833172133
  1.9587243960443741  0.9750000000000000  7.1146904166827847
  0.0000000000000000  0.9750000000000000  4.0981742922205520
  2.1250000000000000  2.9249999999999998  1.4729362077794479
  4.2500000000000000  2.9249999999999998  7.0440467077794473
  2.1250000000000000  0.9750000000000000  9.6692847922205516
