Ge Se
 1.0000000000000000
     4.4500000000000002    0.0000000000000000    0.0000000000000000
     0.0000000000000000    4.4000000000000004    0.0000000000000000
     0.0000000000000000    0.0000000000000000   11.1422209999999993
 Ge  Se 
   4   4
Cartesian
  0.0206291530401436  1.1000000000000001  1.7723586894679901
  2.2456291530401433  3.3000000000000003  3.7987518105320097
  4.4293708469598565  3.3000000000000003  9.3698623105320085
  2.2043708469598569  1.1000000000000001  7.3434691894679895
  0.0000000000000000  1.1000000000000001  4.3322755705492577
  2.2250000000000001  3.3000000000000003  1.2388349294507415
  4.4500000000000002  3.3000000000000003  6.8099454294507415
  2.2250000000000001  1.1000000000000001  9.9033860705492582
