Ge Se
 1.0000000000000000
     3.7500000000000000    0.0000000000000000    0.0000000000000000
     0.0000000000000000    3.8000000000000003    0.0000000000000000
     0.0000000000000000    0.0000000000000000   11.1422209999999993
 Ge  Se 
   4   4
Cartesian
  0.9375000000000000  0.0242169071923040  1.5425671906524610
  2.8125000000000000  1.9242169071923041  4.0285433093475387
  2.8125000000000000  3.7757830928076963  9.5996538093475383
  0.9375000000000000  1.8757830928076962  7.1136776906524615
  0.9375000000000000  0.0000000000000000  4.1024526453957080
  2.8125000000000000  1.9000000000000001  1.4686578546042919
  2.8125000000000000  3.8000000000000003  7.0397683546042922
  0.9375000000000000  1.9000000000000001  9.6735631453957076
