Ge Se
 1.0000000000000000
     4.2500000000000000    0.0000000000000000    0.0000000000000000
     0.0000000000000000    4.0999999999999996    0.0000000000000000
     0.0000000000000000    0.0000000000000000   11.1422209999999993
 Ge  Se 
   4   4
Cartesian
  0.0668437649799126  1.0249999999999999  1.6487391319177387
  2.1918437649799127  3.0749999999999997  3.9223713680822612
  4.1831562350200873  3.0749999999999997  9.4934818680822612
  2.0581562350200873  1.0249999999999999  7.2198496319177377
  0.0000000000000000  1.0249999999999999  4.2078663095084323
  2.1250000000000000  3.0749999999999997  1.3632441904915673
  4.2500000000000000  3.0749999999999997  6.9343546904915669
  2.1250000000000000  1.0249999999999999  9.7789768095084320
