Ge Se
 1.0000000000000000
     4.3499999999999996    0.0000000000000000    0.0000000000000000
     0.0000000000000000    4.5000000000000000    0.0000000000000000
     0.0000000000000000    0.0000000000000000   11.1422209999999993
 Ge  Se 
   4   4
Cartesian
  1.0874999999999999  0.0629681350392785  1.7370725593871985
  3.2624999999999997  2.3129681350392786  3.8340379406128009
  3.2624999999999997  4.4370318649607219  9.4051484406128001
  1.0874999999999999  2.1870318649607214  7.3081830593871988
  1.0874999999999999  0.0000000000000000  4.2962980308862759
  3.2624999999999997  2.2500000000000000  1.2748124691137235
  3.2624999999999997  4.5000000000000000  6.8459229691137224
  1.0874999999999999  2.2500000000000000  9.8674085308862765
