Ge Se
 1.0000000000000000
     4.7500000000000000    0.0000000000000000    0.0000000000000000
     0.0000000000000000    4.0000000000000000    0.0000000000000000
     0.0000000000000000    0.0000000000000000   11.1422209999999993
 Ge  Se 
   4   4
Cartesian
  0.3571102231070289  1.0000000000000000  1.5114754333945430
  2.7321102231070289  3.0000000000000000  4.0596350666054564
  4.3928897768929707  3.0000000000000000  9.6307455666054551
  2.0178897768929711  1.0000000000000000  7.0825859333945429
  0.0000000000000000  1.0000000000000000  4.0464453126145008
  2.3750000000000000  3.0000000000000000  1.5246651873854986
  4.7500000000000000  3.0000000000000000  7.0957756873854985
  2.3750000000000000  1.0000000000000000  9.6175558126145013
