Ge Se
 1.0000000000000000
     3.8999999999999999    0.0000000000000000    0.0000000000000000
     0.0000000000000000    3.8500000000000001    0.0000000000000000
     0.0000000000000000    0.0000000000000000   11.1422209999999993
 Ge  Se 
   4   4
Cartesian
  0.0235858339474814  0.9625000000000000  1.5779189640016129
  1.9735858339474812  2.8875000000000002  3.9931915359983869
  3.8764141660525189  2.8875000000000002  9.5643020359983861
  1.9264141660525187  0.9625000000000000  7.1490294640016119
  0.0000000000000000  0.9625000000000000  4.1378103109999582
  1.9500000000000000  2.8875000000000002  1.4333001890000416
  3.8999999999999999  2.8875000000000002  7.0044106890000410
  1.9500000000000000  0.9625000000000000  9.7089208109999579
