Ge Se
 1.0000000000000000
     3.8500000000000001    0.0000000000000000    0.0000000000000000
     0.0000000000000000    4.6499999999999995    0.0000000000000000
     0.0000000000000000    0.0000000000000000   11.1422209999999993
 Ge  Se 
   4   4
Cartesian
  0.9625000000000000  0.3981739169362410  1.4516212361245759
  2.8875000000000002  2.7231739169362408  4.1194892638754244
  2.8875000000000002  4.2518260830637589  9.6905997638754240
  0.9625000000000000  1.9268260830637587  7.0227317361245749
  0.9625000000000000  0.0000000000000000  3.9804663345581774
  2.8875000000000002  2.3249999999999997  1.5906441654418220
  2.8875000000000002  4.6499999999999995  7.1617546654418218
  0.9625000000000000  2.3249999999999997  9.5515768345581780
