Ge Se
 1.0000000000000000
     4.2000000000000002    0.0000000000000000    0.0000000000000000
     0.0000000000000000    4.4500000000000002    0.0000000000000000
     0.0000000000000000    0.0000000000000000   11.1422209999999993
 Ge  Se 
   4   4
Cartesian
  1.0500000000000000  0.1094033739578084  1.6665891881799766
  3.1500000000000004  2.3344033739578083  3.9045213118200230
  3.1500000000000004  4.3405966260421920  9.4756318118200227
  1.0500000000000000  2.1155966260421919  7.2376996881799762
  1.0500000000000000  0.0000000000000000  4.2242504053404213
  3.1500000000000004  2.2250000000000001  1.3468600946595783
  3.1500000000000004  4.4500000000000002  6.9179705946595780
  1.0500000000000000  2.2250000000000001  9.7953609053404218
