Ge Se
 1.0000000000000000
     3.7000000000000002    0.0000000000000000    0.0000000000000000
     0.0000000000000000    3.7500000000000000    0.0000000000000000
     0.0000000000000000    0.0000000000000000   11.1422209999999993
 Ge  Se 
   4   4
Cartesian
  0.9250000000000000  0.0245452796462676  1.5248914378816143
  2.7750000000000004  1.8995452796462677  4.0462190621183858
  2.7750000000000004  3.7254547203537323  9.6173295621183854
  0.9250000000000000  1.8504547203537323  7.0960019378816135
  0.9250000000000000  0.0000000000000000  4.0847737651082170
  2.7750000000000004  1.8750000000000000  1.4863367348917826
  2.7750000000000004  3.7500000000000000  7.0574472348917814
  0.9250000000000000  1.8750000000000000  9.6558842651082166
