Ge Se
 1.0000000000000000
     4.5999999999999996    0.0000000000000000    0.0000000000000000
     0.0000000000000000    3.8000000000000003    0.0000000000000000
     0.0000000000000000    0.0000000000000000   11.1422209999999993
 Ge  Se 
   4   4
Cartesian
  0.4037482596020340  0.9500000000000001  1.4344543756866595
  2.7037482596020341  2.8500000000000001  4.1366561243133404
  4.1962517403979662  2.8500000000000001  9.7077666243133400
  1.8962517403979655  0.9500000000000001  7.0055648756866589
  0.0000000000000000  0.9500000000000001  3.9624154795939823
  2.2999999999999998  2.8500000000000001  1.6086950204060175
  4.5999999999999996  2.8500000000000001  7.1798055204060169
  2.2999999999999998  0.9500000000000001  9.5335259795939820
