Ge Se
 1.0000000000000000
     3.7000000000000002    0.0000000000000000    0.0000000000000000
     0.0000000000000000    4.1500000000000004    0.0000000000000000
     0.0000000000000000    0.0000000000000000   11.1422209999999993
 Ge  Se 
   4   4
Cartesian
  0.9250000000000000  0.2273086427156563  1.4565144179776064
  2.7750000000000004  2.3023086427156563  4.1145960820223930
  2.7750000000000004  3.9226913572843443  9.6857065820223927
  0.9250000000000000  1.8476913572843439  7.0276249179776062
  0.9250000000000000  0.0000000000000000  4.0064028039558570
  2.7750000000000004  2.0750000000000002  1.5647076960441426
  2.7750000000000004  4.1500000000000004  7.1358181960441431
  0.9250000000000000  2.0750000000000002  9.5775133039558558
