Ge Se
 1.0000000000000000
     4.4000000000000004    0.0000000000000000    0.0000000000000000
     0.0000000000000000    3.9500000000000002    0.0000000000000000
     0.0000000000000000    0.0000000000000000   11.1422209999999993
 Ge  Se 
   4   4
Cartesian
  0.2124699551954586  0.9875000000000000  1.5441466153390033
  2.4124699551954585  2.9625000000000004  4.0269638846609972
  4.1875300448045421  2.9625000000000004  9.5980743846609951
  1.9875300448045419  0.9875000000000000  7.1152571153390021
  0.0000000000000000  0.9875000000000000  4.0953142927250354
  2.2000000000000002  2.9625000000000004  1.4757962072749646
  4.4000000000000004  2.9625000000000004  7.0469067072749638
  2.2000000000000002  0.9875000000000000  9.6664247927250351
