Ge Se
 1.0000000000000000
     4.4000000000000004    0.0000000000000000    0.0000000000000000
     0.0000000000000000    4.3499999999999996    0.0000000000000000
     0.0000000000000000    0.0000000000000000   11.1422209999999993
 Ge  Se 
   4   4
Cartesian
  0.0208669570536211  1.0874999999999999  1.7546820714140521
  2.2208669570536217  3.2624999999999997  3.8164284285859478
  4.3791330429463793  3.2624999999999997  9.3875389285859487
  2.1791330429463787  1.0874999999999999  7.3257925714140510
  0.0000000000000000  1.0874999999999999  4.3145970250996859
  2.2000000000000002  3.2624999999999997  1.2565134749003135
  4.4000000000000004  3.2624999999999997  6.8276239749003134
  2.2000000000000002  1.0874999999999999  9.8857075250996864
