Ge Se
 1.0000000000000000
     4.4000000000000004    0.0000000000000000    0.0000000000000000
     0.0000000000000000    4.2999999999999998    0.0000000000000000
     0.0000000000000000    0.0000000000000000   11.1422209999999993
 Ge  Se 
   4   4
Cartesian
  0.0423451781779196  1.0750000000000000  1.7281954103167494
  2.2423451781779198  3.2249999999999996  3.8429150896832502
  4.3576548218220807  3.2249999999999996  9.4140255896832503
  2.1576548218220806  1.0750000000000000  7.2993059103167495
  0.0000000000000000  1.0750000000000000  4.2878451687573609
  2.2000000000000002  3.2249999999999996  1.2832653312426383
  4.4000000000000004  3.2249999999999996  6.8543758312426384
  2.2000000000000002  1.0750000000000000  9.8589556687573605
