Ge Se
 1.0000000000000000
     4.7999999999999998    0.0000000000000000    0.0000000000000000
     0.0000000000000000    3.8999999999999999    0.0000000000000000
     0.0000000000000000    0.0000000000000000   11.1422209999999993
 Ge  Se 
   4   4
Cartesian
  0.4453374345987058  0.9750000000000000  1.4528117229043152
  2.8453374345987057  2.9249999999999998  4.1182987770956849
  4.3546625654012940  2.9249999999999998  9.6894092770956846
  1.9546625654012941  0.9750000000000000  7.0239222229043143
  0.0000000000000000  0.9750000000000000  3.9737787138316145
  2.3999999999999999  2.9249999999999998  1.5973317861683851
  4.7999999999999998  2.9249999999999998  7.1684422861683856
  2.3999999999999999  0.9750000000000000  9.5448892138316133
