Ge Se
 1.0000000000000000
     4.5499999999999998    0.0000000000000000    0.0000000000000000
     0.0000000000000000    3.9500000000000002    0.0000000000000000
     0.0000000000000000    0.0000000000000000   11.1422209999999993
 Ge  Se 
   4   4
Cartesian
  0.2863238961192613  0.9875000000000000  1.5189439367613893
  2.5613238961192613  2.9625000000000004  4.0521665632386101
  4.2636761038807389  2.9625000000000004  9.6232770632386089
  1.9886761038807388  0.9875000000000000  7.0900544367613891
  0.0000000000000000  0.9875000000000000  4.0628815591316956
  2.2749999999999999  2.9625000000000004  1.5082289408683041
  4.5499999999999998  2.9625000000000004  7.0793394408683037
  2.2749999999999999  0.9875000000000000  9.6339920591316943
