Ge Se
 1.0000000000000000
     4.7000000000000002    0.0000000000000000    0.0000000000000000
     0.0000000000000000    4.0499999999999998    0.0000000000000000
     0.0000000000000000    0.0000000000000000   11.1422209999999993
 Ge  Se 
   4   4
Cartesian
  0.3032719595926228  1.0125000000000000  1.5454440186076748
  2.6532719595926233  3.0374999999999996  4.0256664813923253
  4.3967280404073774  3.0374999999999996  9.5967769813923240
  2.0467280404073769  1.0125000000000000  7.1165545186076740
  0.0000000000000000  1.0125000000000000  4.0874168977951868
  2.3500000000000001  3.0374999999999996  1.4836936022048128
  4.7000000000000002  3.0374999999999996  7.0548041022048134
  2.3500000000000001  1.0125000000000000  9.6585273977951864
