Ge Se
 1.0000000000000000
     4.0000000000000000    0.0000000000000000    0.0000000000000000
     0.0000000000000000    4.0999999999999996    0.0000000000000000
     0.0000000000000000    0.0000000000000000   11.1422209999999993
 Ge  Se 
   4   4
Cartesian
  1.0000000000000000  0.0455412914245139  1.6221605625248527
  3.0000000000000000  2.0955412914245137  3.9489499374751462
  3.0000000000000000  4.0544587085754857  9.5200604374751467
  1.0000000000000000  2.0044587085754859  7.1932710625248530
  1.0000000000000000  0.0000000000000000  4.1817554505443200
  3.0000000000000000  2.0499999999999998  1.3893550494556797
  3.0000000000000000  4.0999999999999996  6.9604655494556793
  1.0000000000000000  2.0499999999999998  9.7528659505443187
