Ge Se
 1.0000000000000000
     4.4000000000000004    0.0000000000000000    0.0000000000000000
     0.0000000000000000    4.0000000000000000    0.0000000000000000
     0.0000000000000000    0.0000000000000000   11.1422209999999993
 Ge  Se 
   4   4
Cartesian
  0.1857929408720550  1.0000000000000000  1.5702149628004074
  2.3857929408720553  3.0000000000000000  4.0008955371995922
  4.2142070591279452  3.0000000000000000  9.5720060371995910
  2.0142070591279451  1.0000000000000000  7.1413254628004070
  0.0000000000000000  1.0000000000000000  4.1234640660259645
  2.2000000000000002  3.0000000000000000  1.4476464339740347
  4.4000000000000004  3.0000000000000000  7.0187569339740339
  2.2000000000000002  1.0000000000000000  9.6945745660259650
