Ge Se
 1.0000000000000000
     4.6499999999999995    0.0000000000000000    0.0000000000000000
     0.0000000000000000    3.7000000000000002    0.0000000000000000
     0.0000000000000000    0.0000000000000000   11.1422209999999993
 Ge  Se 
   4   4
Cartesian
  0.4995830988731886  0.9250000000000000  1.3772581397276515
  2.8245830988731884  2.7750000000000004  4.1938523602723485
  4.1504169011268104  2.7750000000000004  9.7649628602723482
  1.8254169011268111  0.9250000000000000  6.9483686397276507
  0.0000000000000000  0.9250000000000000  3.8880382430661062
  2.3249999999999997  2.7750000000000004  1.6830722569338936
  4.6499999999999995  2.7750000000000004  7.2541827569338926
  2.3249999999999997  0.9250000000000000  9.4591487430661072
