Ge Se
 1.0000000000000000
     4.0999999999999996    0.0000000000000000    0.0000000000000000
     0.0000000000000000    4.7999999999999998    0.0000000000000000
     0.0000000000000000    0.0000000000000000   11.1422209999999993
 Ge  Se 
   4   4
Cartesian
  1.0249999999999999  0.3235755616029239  1.5544734377525899
  3.0749999999999997  2.7235755616029240  4.0166370622474101
  3.0749999999999997  4.4764244383970757  9.5877475622474098
  1.0249999999999999  2.0764244383970758  7.1255839377525891
  1.0249999999999999  0.0000000000000000  4.0939416608129520
  3.0749999999999997  2.3999999999999999  1.4771688391870479
  3.0749999999999997  4.7999999999999998  7.0482793391870464
  1.0249999999999999  2.3999999999999999  9.6650521608129516
