Ge Se
 1.0000000000000000
     4.5499999999999998    0.0000000000000000    0.0000000000000000
     0.0000000000000000    4.5999999999999996    0.0000000000000000
     0.0000000000000000    0.0000000000000000   11.1422209999999993
 Ge  Se 
   4   4
Cartesian
  1.1375000000000000  0.0199471869061934  1.8253888048677667
  3.4124999999999996  2.3199471869061932  3.7457216951322327
  3.4124999999999996  4.5800528130938067  9.3168321951322319
  1.1375000000000000  2.2800528130938065  7.3964993048677670
  1.1375000000000000  0.0000000000000000  4.3853110907457049
  3.4124999999999996  2.2999999999999998  1.1857994092542941
  3.4124999999999996  4.5999999999999996  6.7569099092542944
  1.1375000000000000  2.2999999999999998  9.9564215907457054
