Ge Se
 1.0000000000000000
     4.5999999999999996    0.0000000000000000    0.0000000000000000
     0.0000000000000000    4.7000000000000002    0.0000000000000000
     0.0000000000000000    0.0000000000000000   11.1422209999999993
 Ge  Se 
   4   4
Cartesian
  1.1499999999999999  0.0395682690906556  1.8342375695212720
  3.4499999999999997  2.3895682690906557  3.7368729304787278
  3.4499999999999997  4.6604317309093446  9.3079834304787266
  1.1499999999999999  2.3104317309093445  7.4053480695212714
  1.1499999999999999  0.0000000000000000  4.3939317606466828
  3.4499999999999997  2.3500000000000001  1.1771787393533168
  3.4499999999999997  4.7000000000000002  6.7482892393533165
  1.1499999999999999  2.3500000000000001  9.9650422606466815
