 S  O                                   
    1.000000000000000     
    32.3722991942999982    0.0000000000000000    0.0000000000000000
     0.0000000000000000   19.9214134216000005    0.0000000000000000
     0.0000000000000000    0.0000000000000000   40.4480476378999967
   S    O 
     1     3
Direct
  0.4406319856796443  0.4516207528056935  0.4896498715980875
  0.4406319856796443  0.3796067591454530  0.4914104471594860
  0.4406319856796443  0.4907986607177456  0.5194650406157363
  0.4406319856796443  0.4844338204749899  0.4580346305474481
 
  0.00000000E+00  0.00000000E+00  0.00000000E+00
  0.00000000E+00  0.00000000E+00  0.00000000E+00
  0.00000000E+00  0.00000000E+00  0.00000000E+00
  0.00000000E+00  0.00000000E+00  0.00000000E+00
