 S  O 
 1.0000000000000000
    32.3722991942999982    0.0000000000000000    0.0000000000000000
     0.0000000000000000   19.9214134216000005    0.0000000000000000
     0.0000000000000000    0.0000000000000000   40.4480476378999967
 S   O  
   1   3
Cartesian
 14.2642704750000000  8.9945181309999995 19.8053869730000009
 14.2642704750000000  7.5810938200000004 19.8790011349999993
 14.2642704750000000  9.7688636070000001 20.9909187650000000
 14.2642704750000000  9.6427607949999992 18.5446209009999983
