 C Se 
 1.0000000000000000
    32.3722991942999982    0.0000000000000000    0.0000000000000000
     0.0000000000000000   19.9214134216000005    0.0000000000000000
     0.0000000000000000    0.0000000000000000   40.4480476378999967
 C   Se 
 364   1
Cartesian
 12.0082597680000003 10.7232570610000000  0.0368333530000000
 11.9381509189999999 10.8334414700000004  2.4891956099999999
 10.9430797359999996 11.8529292670000004  2.4156179130000002
 10.3750879779999998 12.1791698270000008  1.1515549469999999
  8.9930717880000000 12.5249515729999992  1.0779851610000000
 11.8642283360000000 10.9411489450000001  4.9415549070000004
 10.8345122719999996 11.9256414310000007  4.8679570200000004
 10.2556408060000006 12.2320415770000004  3.6038961629999999
  8.8624988919999996 12.5298591330000004  3.5303091240000000
  8.2089282029999993 12.4870292989999996  2.2662488700000001
  6.8666942910000000 12.0096375399999999  2.1926538450000002
  6.3327772339999999 11.6302485640000004  0.9286015010000001
  5.4406667549999996 10.5195713350000002  0.8550128050000000
 11.7865624449999995 11.0461764379999998  7.3938781919999998
 10.7235058710000004 11.9945693220000003  7.3202628250000004
 10.1343933740000001 12.2808084560000008  6.0562107080000001
  8.7318111890000001 12.5303293470000003  5.9826043819999999
  8.0801218010000007 12.4649138110000006  4.7185519630000003
  6.7551587140000002 11.9414553409999993  4.6449483489999999
  6.2347363729999996 11.5438325150000001  3.3809007520000001
  5.3814598040000003 10.4030307270000009  3.3073140150000002
  5.1471008429999996  9.7914487149999996  2.0432462270000000
  5.0193619590000003  8.3725920079999998  1.9696637079999999
  5.1406754770000003  7.7289345230000004  0.7056399190000000
  5.7762845660000002  6.4539864160000002  0.6320598870000000
 11.7052468310000002 11.1484800160000006  9.8461779709999995
 10.6101271009999998 12.0596274490000006  9.7725421109999999
 10.0115135520000003 12.3253671570000005  8.5084803499999992
  8.6011437460000000 12.5263337170000000  8.4348613669999999
  7.9521098859999997 12.4384535940000003  7.1708200990000002
  6.6460061179999999 11.8695541779999996  7.0972167859999997
  6.1396115279999997 11.4541522810000007  5.8331803400000002
  5.3262315620000003 10.2845736399999996  5.7596023420000000
  5.1131554210000001  9.6652295380000002  4.4955511279999998
  5.0344620510000002  8.2427856689999999  4.4219640890000003
  5.1780096520000001  7.6037299870000004  3.1579222179999999
  5.8573121959999996  6.3515088830000002  3.0843478370000001
  6.3148315530000003  5.8827751150000003  1.8203017459999999
  7.5501824890000000  5.1732787829999998  1.7467238990000000
  8.1855894589999991  5.0143185900000002  0.4826900520000000
  9.6095258569999995  5.0584919770000001  0.4091099440000000
 12.0090074649999998 10.7206245760000005 13.5624701969999997
 11.6204869899999998 11.2479385619999999 12.2984421879999992
 10.4946210139999998 12.1208241220000001 12.2248015070000005
  9.8871605270000007 12.3657307430000003 10.9607554169999997
  8.4706991649999992 12.5179458609999994 10.8871207630000004
  7.8250685300000002 12.4076403360000000  9.6230734669999993
  6.5394135379999998 11.7939934199999996  9.5494749769999991
  6.0476593279999999 11.3613076020000001  8.2854445569999999
  5.2751778790000001 10.1643021929999993  8.2118689699999994
  5.0835881240000003  9.5379345680000007  6.9478337290000001
  5.0540367460000004  8.1136217179999992  6.8742503069999996
  5.2195690360000002  7.4798731590000003  5.6102168739999998
  5.9417864659999999  6.2519030989999997  5.5366334510000002
  6.4152520190000004  5.7992664380000001  4.2726024290000000
  7.6744067180000002  5.1328890730000003  4.1990271430000004
  8.3149506039999999  4.9959921229999997  2.9349973260000000
  9.7365030560000001  5.0892909860000000  2.8614238489999999
 10.3536324640000004  5.3087710289999999  1.5973501840000000
 11.5148398840000006  6.1340646520000002  1.5237896650000000
 11.9249885659999997  6.6447216679999999  0.2597429530000000
 12.4804962039999996  7.9565750340000001  0.1861611690000000
 11.9388484479999999 10.8308481699999994 16.0146928270000011
 11.5323948329999997 11.3444725200000001 14.7506563800000006
 10.3771525849999993 12.1780869099999993 14.6770120829999993
  9.7615600550000003 12.4018730920000007 13.4129852799999991
  8.3406974129999991 12.5051800289999999 13.3393578579999996
  7.6992263830000001 12.3726272139999995 12.0753455209999991
  6.4355290660000000 11.7149119959999997 12.0017506459999996
  5.9590230420000001 11.2653899079999995 10.7377371030000006
  5.2284285170000002 10.0423849979999993 10.6641711600000004
  5.0585417379999997  9.4097502290000001  9.4001359180000001
  5.0781969910000004  7.9852705479999999  9.3265524959999997
  5.2654414239999996  7.3575949910000000  8.0625027889999998
  6.0296350179999996  6.1552854280000000  7.9889097229999999
  6.5184770700000003  5.7192701149999996  6.7248859339999996
  7.7998581329999999  5.0967336640000003  6.6512988950000000
  8.4448008869999995  4.9820626299999997  5.3872793249999997
  9.8622935880000000  5.1243260749999999  5.3137224219999997
 10.4714848709999995  5.3650530170000001  4.0496974269999999
 11.6035022189999992  6.2299692840000001  3.9761456470000001
 11.9958161689999994  6.7545094829999996  2.7120899139999999
 12.5057094959999997  8.0847540290000008  2.6385302990000001
 12.5644388859999996  8.7371128460000005  1.3744408120000000
 12.3005338539999993 10.1370737230000003  1.3008802930000001
 11.8650454950000004 10.9385924540000001 18.4669154569999989
 11.4411141129999994 11.4379465259999993 17.2029055299999989
 10.2578279390000002 12.2312768859999998 17.1292756980000007
  9.6348751810000000 12.4337288939999997 15.8652284019999996
  8.2112957479999995 12.4879281669999997 15.7916142409999996
  7.5747416660000004 12.3332895479999998 14.5275946699999992
  6.3345311860000004 11.6323087180000009 14.4540154669999996
  5.8738005930000003 11.1665915620000007 13.1900151839999999
  5.1859593549999996  9.9190304440000006 13.1164492399999997
  5.0380389350000003  9.2808581940000003 11.8524549839999995
  5.1068458269999999  7.8578948339999997 11.7788709590000007
  5.3156104129999999  7.2370118500000000 10.5148272800000004
  6.1207247139999996  6.0617330530000002 10.4412287890000002
  6.6242959050000003  5.6428247379999998  9.1771652199999991
  7.9263886440000002  5.0648143350000003  9.1035757700000008
  8.5749454249999992  4.9725114110000002  7.8395634320000003
  9.9866794159999994  5.1636572100000002  7.7660077349999996
 10.5872871429999993  5.4252647349999998  6.5020092600000003
 11.6887434809999995  6.3287569440000002  6.4284722470000002
 12.0627364539999995  6.8666038399999998  5.1644466490000003
 12.5263758270000007  8.2136757490000001  5.0908897470000003
 12.5625903880000003  8.8676969379999999  3.8268403420000001
 12.2504584469999998 10.2577013919999995  3.7532740969999998
 11.7876468469999995 11.0436555690000002 20.9191103610000013
 11.3467046450000009 11.5281444709999992 19.6551245439999995
 10.1367840739999995 12.2802242499999998 19.5815176149999992
  9.5072120309999999 12.4611259770000000 18.3175088939999995
  8.0826046349999991 12.4661973990000003 18.2439055809999999
  7.4517692269999998 12.2896819609999994 16.9798848050000011
  6.2365424220000003 11.5461918969999999 16.9063056019999998
  5.7921733580000003 11.0648543779999997 15.6422920590000007
  5.1478480570000000  9.7942878090000001 15.5687176770000004
  5.0220396770000004  9.1513760170000005 14.3047173940000008
  5.1398689290000004  7.7316477519999998 14.2311333680000001
  5.3699004150000000  7.1182757219999999 12.9671174140000005
  6.2150005620000002  5.9714009309999998 12.8935153069999995
  6.7327104530000002  5.5700745779999998 11.6294788610000008
  8.0539456690000009  5.0372599210000004 11.5558839869999996
  8.7052983529999999  4.9674013969999997 10.2918692380000003
 10.1095833570000000  5.2072149249999997 10.2183286090000003
 10.7007961569999992  5.4894542719999997  8.9543192850000004
 11.7703929049999996  6.4304721599999999  8.8807919149999996
 12.1256529450000006  6.9808764969999997  7.6167759610000001
 12.5424479259999995  8.3431709870000006  7.5432287020000004
 12.5561351129999998  8.9980963880000004  6.2791964750000000
 12.1962075179999996 10.3765004530000002  6.2056184769999998
 11.7067894979999991 11.1460256419999997 23.3712980339999987
 11.2493246510000002 11.6149761120000008 22.1073375299999988
 10.0141753520000005 12.3248351980000006 22.0337571210000007
  9.3787027779999992 12.4839740960000007 20.7697676870000016
  7.9547591439999996 12.4399057939999995 20.6961704019999999
  7.3303582660000002 12.2417807040000000 19.4321556529999988
  6.1415449259999999 11.4567515180000008 19.3585776550000013
  5.7140988879999997 10.9603422209999994 18.0945761659999995
  5.1139986300000002  9.6682900840000006 18.0209957570000014
  5.0104817360000000  9.0214331259999998 16.7569906519999989
  5.1771799500000002  7.6065934229999996 16.6834030109999993
  5.4282438979999998  7.0015362229999996 15.4193834400000007
  6.3123294230000004  5.8844339249999997 15.3457849500000005
  6.8435383720000003  5.5011235320000003 14.0817617629999994
  8.1823487979999996  5.0141553209999996 14.0081656829999996
  8.8357381099999994  4.9667735549999996 12.7441581670000001
 10.2309176179999994  5.2549493519999997 12.6706127160000008
 10.8120341030000002  5.5574797330000001 11.4066377479999996
 11.8484553160000008  6.5349196039999997 11.3331164060000003
 12.1844846009999994  7.0972971779999998 10.0691100949999992
 12.5539913950000006  8.4731542510000004  9.9955580140000002
 12.5450663109999994  9.1281449580000000  8.7315185540000009
 12.1377733469999995 10.4933046660000002  8.6579339260000001
 11.6225178299999996 11.2455281219999996 25.8235507999999996
 11.1490899030000001 11.6983773289999995 24.5595782420000006
  9.8901300879999994 12.3651394139999997 24.4860219420000007
  9.2495268690000003 12.5022483169999994 23.2220132200000009
  7.8279507800000001 12.4090901620000000 23.1484352219999998
  7.2107403310000002 12.1895750899999999 21.8844192679999985
  6.0497022280000001 11.3640422040000004 21.8108340369999993
  5.6396244560000000 10.8531928279999992 20.5468253159999996
  5.0844376039999997  9.5411999420000004 20.4732376739999999
  5.0033163910000003  8.8911411359999999 19.2092398019999990
  5.2186959200000000  7.4828927399999996 19.1356618040000015
  5.4905062750000004  6.8868663760000004 17.8716675480000013
  6.4125685120000000  5.8008878440000000 17.7980823169999987
  6.9566918680000001  5.4360968720000002 16.5340494870000008
  8.3114861159999993  4.9955409069999996 16.4604534069999993
  8.9661064750000001  4.9706958630000004 15.1964338370000007
 10.3504853860000008  5.3069091720000001 15.1228775370000008
 10.9208224989999998  5.6293120270000001 13.8589049790000001
 11.9228178339999999  6.6420161569999996 13.7853788149999996
 12.2392439639999999  7.2156711450000000 12.5214062570000007
 12.5610014119999995  8.6034794879999996 12.4478632170000001
 12.5295171179999993  9.2577714049999997 11.1838400300000007
 12.0753440649999995 10.6080605989999999 11.1102318960000002
 11.5349041989999996 11.3420965149999997 28.2757842789999998
 11.0460631120000006 11.7782816280000002 27.0118165419999983
  9.7648344829999996 12.4011452099999993 26.9382698860000005
  9.1198348080000002 12.5160590690000006 25.6743021499999990
  7.7023247410000000 12.3739499869999996 25.6007386170000011
  7.0930490400000004 12.1332657909999995 24.3367154300000017
  5.9611527710000001 11.2681921930000009 24.2631253780000016
  5.5689087669999999 10.7435249410000004 22.9990877259999991
  5.0592411960000003  9.4131729350000004 22.9254928510000013
  5.0005807869999996  8.7607114070000005 21.6614865409999986
  5.2644062260000002  7.3607434060000001 21.5879157759999991
  5.5566238720000003  6.7743979860000003 20.3239263410000000
  6.5156063980000001  5.7208778669999996 20.2503459319999983
  7.0720021070000003  5.3750420940000003 18.9863396219999991
  8.4411743179999998  4.9814493339999997 18.9127580080000008
  9.0962606600000004  4.9791398239999998 17.6487444650000000
 10.4682171959999994  5.3629643649999998 17.5751688769999994
 11.0270426780000008  5.7048858449999997 16.3111710049999985
 11.9934119629999998  6.7516329849999996 16.2376207319999999
 12.2898278039999997  7.3358665980000000 14.9736481739999991
 12.5634490329999995  8.7339751180000000 14.9000858469999997
 12.5094634150000008  9.3868035540000001 13.6360952070000003
 11.4439814089999992 11.4356061429999993 30.7280949059999990
 10.9404053940000008 11.8546225120000006 29.4640765410000007
  9.6383965899999993 12.4328502120000000 29.3905443499999990
  8.9898108659999991 12.5253790400000007 28.1265573270000004
  7.5780570970000003 12.3344057130000007 28.0530106699999990
  6.9773847309999999 12.0729288019999998 26.7890043599999998
  5.8759602299999996 11.1693855350000000 26.7154118959999991
  5.5020130829999996 10.6314952989999991 25.4513935310000008
  5.0385044360000002  9.2843853920000008 25.3777962459999991
  5.0023545159999996  8.6302804910000006 24.1137802920000013
  5.3143330579999999  7.2402404139999996 24.0402071160000013
  5.6265928299999999  6.6643459729999996 22.7761887509999994
  6.6213494979999998  5.6445334200000001 22.7026155749999994
  7.1893132780000002  5.3180601279999999 21.4386189079999987
  8.5712735109999993  4.9719711400000000 21.3650360880000001
  9.2260704229999995  4.9921763849999996 20.1010261610000001
 10.5839625470000005  5.4231072129999998 20.0274252600000011
 11.1306290350000001  5.7840984779999998 18.7634334150000015
 12.0602309470000009  6.8636115689999997 18.6898578280000009
 12.3362341919999992  7.4577624199999999 17.4258937080000003
 12.5614046859999995  8.6652562100000008 17.1905424780000011
 12.4849235329999999  9.5150549820000005 16.0883106050000002
 11.3497986619999995 11.5259133299999998 33.1804199990000015
 10.8320771929999999 11.9272812419999994 31.9164040450000002
  9.5108791200000002 12.4601653629999998 31.8428718539999984
  8.8595274009999994 12.5302307919999993 30.5788583110000012
  7.4552091130000004 12.2905927039999998 30.5053140650000003
  6.8639442150000001 12.0085510610000004 29.2412908780000009
  5.7942924749999998 11.0675996669999996 29.1677032370000013
  5.4390517310000002 10.5172297649999997 27.9036728170000004
  5.0222413140000004  9.1549471489999998 27.8300731210000016
  5.0086332369999997  8.4999932509999994 26.5660619890000014
  5.3683678790000000  7.1215262539999999 26.4924839910000003
  5.7003210119999999  6.5567429900000000 25.2284897350000001
  6.7297375150000001  5.5719340600000002 25.1549237910000016
  7.3086075340000001  5.2652703089999999 23.8909078370000003
  8.7016833610000006  4.9671312619999997 23.8173177850000002
  9.3553466679999993  5.0098705560000001 22.5532849549999987
 10.6975477770000005  5.4873786810000000 22.4796732040000009
 11.2314590459999994  5.8669065849999997 21.2156668940000017
 12.1232863650000002  6.9778278250000003 21.1420551430000003
 12.3785499550000004  7.5811496280000004 19.8780825850000014
 12.5550072979999996  8.9947864860000006 19.8044889160000004
 12.4560692010000000  9.7618911419999996 18.7427744850000018
 11.2524746239999995 11.6128732110000001 35.6327547349999989
 10.7212521689999996 11.9961390770000005 34.3687170829999999
  9.3824267890000002 12.4830431680000000 34.2951728379999992
  8.7290828200000004 12.5305763280000004 33.0311617050000024
  7.3338656870000003 12.2425750810000000 32.9576150489999975
  6.7527207410000001 11.9402869309999993 31.6935990949999997
  5.7161417879999998 10.9630138899999992 31.6200210969999986
  5.3800970660000003 10.4007497139999998 30.3559689790000000
  5.0104344620000001  9.0249383569999999 30.2823716939999983
  5.0194203269999997  8.3699684290000000 29.0183364529999999
  5.4265328789999998  7.0047434140000000 28.9447632769999998
  5.7777621110000004  6.4517790230000003 27.6807593770000011
  6.8405823170000000  5.5031320340000001 27.6071958449999997
  7.4297054259999999  5.2166512630000001 26.3431895340000004
  8.8322427500000007  4.9668246140000001 26.2696043030000013
  9.4840073900000004  5.0320739129999996 25.0055811169999984
 10.8089555229999998  5.5555786920000001 24.9319452569999989
 11.3293889589999992  5.9532763240000000 23.6678955510000009
 12.1824421839999992  7.0942490989999998 23.5942669239999994
 12.4167046669999994  7.7059492580000004 22.3302582029999996
 12.5443244029999992  9.1248166519999998 22.2566609180000015
 12.4230094369999993  9.7685839720000001 20.9926955920000005
 11.1521569060000001 11.6964371029999992 38.0850894719999999
 10.6080239029999994 12.0611045860000008 36.8210421759999988
  9.2531746629999994 12.5014943130000002 36.7474858759999989
  8.5986334150000001 12.5264251469999994 35.4834602780000026
  7.2142086780000003 12.1904003390000000 35.4099015680000022
  6.6438619169999997 11.8682314039999994 34.1458783810000028
  5.6416128470000002 10.8557968149999997 34.0723076149999997
  5.3251510199999998 10.2822866909999995 32.8082820179999999
  5.0031436979999997  8.8945276260000004 32.7346919650000032
  5.0346781600000003  8.2402832050000008 31.4706470809999992
  5.4887069799999999  6.8899524520000002 31.3970666720000011
  5.8588456979999997  6.3495027559999997 30.1330217870000006
  6.9538414560000001  5.4381944290000002 30.0594582539999990
  7.5524583810000001  5.1722599860000003 28.7954398890000007
  8.9628059980000003  4.9710716780000004 28.7218450149999995
  9.6119011200000006  5.0587437079999997 27.4578218280000002
 10.9180150190000003  5.6275890970000004 27.3841811469999996
 11.4244284210000000  6.0429743699999996 26.1201386729999996
 12.2376935800000002  7.2126343469999998 26.0465076360000012
 12.4506896450000006  7.8320384140000003 24.7824772160000002
 12.5293675780000004  9.2544793149999993 24.7088702880000000
 12.3858166010000001  9.8936377080000000 23.4448760319999998
 11.0489776810000002 11.7765088260000006  0.0893910350000000
 10.4925805259999994 12.1221445209999992 39.2733962000000005
  9.1233330630000005 12.5154902999999997 39.1998399000000006
  8.4683316200000007 12.5178235579999999 37.9357709060000019
  7.0963490350000002 12.1341990949999996 37.8622049619999999
  6.5375167999999997 11.7924925359999992 36.5981624879999998
  5.5708407180000004 10.7460303740000001 36.5245869009999993
  5.2743563780000002 10.1619689350000009 35.2605588930000025
  5.0004505430000004  8.7639197860000007 35.1869808949999978
  5.0544665510000000  8.1111542819999993 33.9229384209999978
  5.5548578610000003  6.7773148560000003 33.8493459580000007
  5.9434318810000004  6.2500252119999997 32.5853155380000032
  7.0692939980000000  5.3771176839999999 32.5117375399999986
  7.6767491779999997  5.1320893539999997 31.2477119429999988
  9.0931859389999996  4.9797367929999998 31.1741074249999990
  9.7388484109999993  5.0898211640000000 29.9100601290000014
 11.0245757609999995  5.7033416199999998 29.8364218590000014
 11.5163603610000003  6.1359098860000003 28.5723649199999983
 12.2888668939999999  7.3328927330000004 28.4987266490000017
 12.4803862209999998  7.9592597649999997 27.2347010519999984
 12.5100239460000004  9.3835714279999998 27.1610917120000011
 12.3444530649999997 10.0173924180000000 25.8971022779999984
  8.3383752120000008 12.5047145650000004 40.3881080530000034
  6.9804295439999997 12.0739559110000005 40.3145131790000022
  6.4337727029999998 11.7131617559999999 39.0504827600000013
  5.5038485579999996 10.6339235500000004 38.9769023509999997
  5.2277724729999999 10.0399318110000006 37.7128478220000005
  5.0023275020000000  8.6332733550000000 37.6392698240000030
  5.0788337390000002  7.9827841140000002 36.3752297609999999
  5.6249517559999997  6.6670057690000002 36.3016397089999998
  6.0314555390000004  6.1534657240000001 35.0375851809999972
  7.1867783459999997  5.3199593880000000 34.9639975389999975
  7.8023486860000002  5.0961441150000004 33.6999671199999966
  9.2232021629999998  4.9927855250000004 33.6263698340000019
  9.8646784990000000  5.1251127329999999 32.3623345929999999
 11.1284747040000003  5.7826302470000002 32.2887011449999974
 11.6050246260000005  6.2319688800000002 31.0246417950000009
 12.3357923270000001  7.4548544559999996 30.9510155789999999
 12.5056438910000001  8.0874441039999994 29.6869489960000017
 12.4861516839999993  9.5119332839999995 29.6133541220000005
 12.2988599779999994 10.1396385260000006 28.3493357569999986
  5.1853076529999997  9.9164044899999997 40.1651391629999992
  5.0086298600000001  8.5027931609999996 40.0915563430000006
  5.1075940060000002  7.8553116259999998 38.8275379780000023
  5.6987764160000003  6.5591664910000000 38.7539455149999981
  6.1227748499999999  6.0599614390000003 37.4898765209999993
  7.3062023629999997  5.2668495620000000 37.4162937010000007
  7.9291015759999999  5.0644444569999996 36.1522415840000022
  9.3526819739999993  5.0102635890000000 36.0786442980000004
  9.9892003589999998  5.1647145969999997 34.8145970030000029
 11.2295574850000008  5.8654288540000001 34.7409900740000026
 11.6903488580000001  6.3309168409999996 33.4769355460000000
 12.3784920690000000  7.5783140959999997 33.4033213840000016
 12.5264192419999993  8.2164038210000001 32.1392740889999970
 12.4577961380000009  9.6393671810000008 32.0656864469999974
 12.2489659490000005 10.2602341349999993 30.8016391519999999
  6.2172875479999998  5.9696910630000000 39.9421847369999981
  7.4273909429999998  5.2179271340000000 39.8686019180000031
  8.0569113710000000  5.0371328679999996 38.6045570329999990
  9.4815124960000006  5.0321243779999998 38.5309669800000023
 10.1122866420000008  5.2085044509999996 37.2668979870000001
 11.3276842109999993  5.9516899460000001 37.1933055229999994
 11.7721198430000005  6.4328024499999996 35.9292534060000008
 12.4168088619999999  7.7031825960000004 35.8556440660000035
 12.5426621049999998  8.3459827709999992 34.5915823050000029
 12.4249987920000002  9.7657258789999997 34.5180043069999982
 12.1949079729999994 10.3790320079999994 33.2539666549999993
 10.2338514830000005  5.2565131689999998 39.7192158470000010
 11.4228423400000008  6.0412407530000003 39.6456402600000004
 11.8503732779999993  6.5374398789999999 38.3815760880000028
 12.4508333950000001  7.8293150919999999 38.3079860349999990
 12.5544004579999999  8.4760550899999991 37.0439194530000009
 12.3878030619999997  9.8909036990000008 36.9703438660000003
 12.1366889459999996 10.4958706559999992 35.7062989810000033
 12.5616844689999994  8.6065079739999995 39.4962662439999974
 12.3463141049999994 10.0147433090000000 39.4227099439999975
 12.0744352510000006 10.6106610240000006 38.1586409499999988
 13.9405477910000002  9.3334414040000002 18.1056783219999993
