 running  256 mpi-ranks, with    1 threads/rank, on    7 nodes
 distrk:  each k-point on  128 cores,    2 groups
 distr:  one band on    4 cores,   32 groups
 vasp.6.4.1 05Apr23 (build Jun 14 2024 13:23:31) complex                         
 POSCAR found type information on POSCAR C Se
 POSCAR found :  2 types and     365 ions
 Reading from existing POTCAR
 scaLAPACK will be used
 Reading from existing POTCAR
 -----------------------------------------------------------------------------
|                                                                             |
|               ----> ADVICE to this user running VASP <----                  |
|                                                                             |
|     You have a (more or less) 'large supercell' and for larger cells it     |
|     might be more efficient to use real-space projection operators.         |
|     Therefore, try LREAL= Auto in the INCAR file.                           |
|     Mind: If you want to do very accurate calculations, keep the            |
|     reciprocal projection scheme (i.e. LREAL=.FALSE.).                      |
|                                                                             |
 -----------------------------------------------------------------------------

 LDA part: xc-table for Pade appr. of Perdew
 POSCAR, INCAR and KPOINTS ok, starting setup
 FFT: planning ... GRIDC
 FFT: planning ... GRID_SOFT
 FFT: planning ... GRID
 WAVECAR not read
 WARNING: chargedensity file is incomplete
 WARNING: random wavefunctions but no delay for mixing, default for NELMDL
 entering main loop
       N       E                     dE             d eps       ncg     rms          rms(c)
DAV:   1     0.131223032821E+05    0.13122E+05   -0.45148E+05  4544   0.932E+02
DAV:   2     0.892883289653E+02   -0.13033E+05   -0.12253E+05  5280   0.239E+02
DAV:   3    -0.334581093680E+04   -0.34351E+04   -0.33837E+04  4512   0.130E+02
DAV:   4    -0.353246682706E+04   -0.18666E+03   -0.18370E+03  4384   0.391E+01
DAV:   5    -0.353766844732E+04   -0.52016E+01   -0.51323E+01  4928   0.576E+00    0.748E+01
DAV:   6    -0.341198972707E+04    0.12568E+03   -0.80061E+01  4128   0.833E+00    0.549E+01
DAV:   7    -0.330238434084E+04    0.10961E+03   -0.42740E+02  4064   0.187E+01    0.119E+01
DAV:   8    -0.330147759842E+04    0.90674E+00   -0.25074E+01  4064   0.686E+00    0.789E+00
DAV:   9    -0.330158170959E+04   -0.10411E+00   -0.71585E+00  3904   0.285E+00    0.407E+00
DAV:  10    -0.330145351443E+04    0.12820E+00   -0.11873E+00  4160   0.170E+00    0.161E+00
DAV:  11    -0.330140309287E+04    0.50422E-01   -0.66675E-01  3904   0.105E+00    0.445E-01
DAV:  12    -0.330141149341E+04   -0.84005E-02   -0.13355E-01  4256   0.376E-01    0.239E-01
DAV:  13    -0.330141054553E+04    0.94788E-03   -0.19946E-02  4128   0.157E-01    0.155E-01
DAV:  14    -0.330141153319E+04   -0.98766E-03   -0.39508E-03  4160   0.662E-02    0.794E-02
DAV:  15    -0.330141147971E+04    0.53479E-04   -0.91275E-04  4096   0.331E-02    0.452E-02
DAV:  16    -0.330141151027E+04   -0.30557E-04   -0.43970E-04  4160   0.224E-02    0.159E-02
DAV:  17    -0.330141152713E+04   -0.16863E-04   -0.76569E-05  4256   0.946E-03    0.962E-03
DAV:  18    -0.330141152728E+04   -0.14703E-06   -0.13117E-05  4160   0.405E-03    0.507E-03
DAV:  19    -0.330141152858E+04   -0.13048E-05   -0.22948E-06  3264   0.193E-03    0.301E-03
DAV:  20    -0.330141152870E+04   -0.12084E-06   -0.11200E-06  2560   0.132E-03
   1 F= -.33154610E+04 E0= -.33154610E+04  d E =-.331546E+04
 BRION: g(F)=  0.466E+02 g(S)=  0.000E+00
 bond charge predicted
       N       E                     dE             d eps       ncg     rms          rms(c)
DAV:   1    -0.326619418323E+04    0.35217E+02   -0.45374E+03  4160   0.757E+01    0.142E+01
DAV:   2    -0.328525101146E+04   -0.19057E+02   -0.22347E+02  4096   0.149E+01    0.134E+01
DAV:   3    -0.328364309295E+04    0.16079E+01   -0.79364E+00  4160   0.321E+00    0.110E+01
DAV:   4    -0.328069525868E+04    0.29478E+01   -0.93612E+00  4096   0.367E+00    0.385E+00
DAV:   5    -0.328077887312E+04   -0.83614E-01   -0.26820E+00  4160   0.170E+00    0.200E+00
DAV:   6    -0.328070028506E+04    0.78588E-01   -0.36926E-01  4128   0.751E-01    0.115E+00
DAV:   7    -0.328070041461E+04   -0.12954E-03   -0.16035E-01  4160   0.431E-01    0.473E-01
DAV:   8    -0.328070090312E+04   -0.48851E-03   -0.19073E-02  4224   0.167E-01    0.260E-01
DAV:   9    -0.328070085482E+04    0.48299E-04   -0.78876E-03  4128   0.980E-02    0.100E-01
DAV:  10    -0.328070080698E+04    0.47842E-04   -0.13503E-03  4320   0.427E-02    0.617E-02
DAV:  11    -0.328070078401E+04    0.22969E-04   -0.40020E-04  4160   0.223E-02    0.270E-02
DAV:  12    -0.328070078037E+04    0.36418E-05   -0.81514E-05  4160   0.106E-02    0.119E-02
DAV:  13    -0.328070078039E+04   -0.22119E-07   -0.18045E-05  4160   0.486E-03    0.570E-03
DAV:  14    -0.328070078024E+04    0.15425E-06   -0.35029E-06  3488   0.228E-03
   2 F= -.32947523E+04 E0= -.32947523E+04  d E =0.207086E+02
 BRION: g(F)=  0.143E+03 g(S)=  0.000E+00 retain N=  1 mean eig= 0.36
 eig:   0.358
 bond charge predicted
       N       E                     dE             d eps       ncg     rms          rms(c)
DAV:   1    -0.329933994690E+04   -0.18639E+02   -0.21799E+03  4000   0.541E+01    0.906E+00
DAV:   2    -0.330623010912E+04   -0.68902E+01   -0.84505E+01  4320   0.947E+00    0.947E+00
DAV:   3    -0.330600019130E+04    0.22992E+00   -0.24866E+00  4384   0.169E+00    0.876E+00
DAV:   4    -0.330405664577E+04    0.19435E+01   -0.33649E+00  4224   0.217E+00    0.437E+00
DAV:   5    -0.330382058893E+04    0.23606E+00   -0.24189E+00  3904   0.170E+00    0.190E+00
DAV:   6    -0.330375477511E+04    0.65814E-01   -0.60390E-01  4128   0.898E-01    0.103E+00
DAV:   7    -0.330375615121E+04   -0.13761E-02   -0.10038E-01  4032   0.356E-01    0.470E-01
DAV:   8    -0.330375506545E+04    0.10858E-02   -0.13420E-02  4160   0.137E-01    0.311E-01
DAV:   9    -0.330375423919E+04    0.82627E-03   -0.90150E-03  4160   0.107E-01    0.104E-01
DAV:  10    -0.330375427588E+04   -0.36694E-04   -0.14877E-03  4224   0.502E-02    0.583E-02
DAV:  11    -0.330375428598E+04   -0.10102E-04   -0.47059E-04  4288   0.246E-02    0.239E-02
DAV:  12    -0.330375428699E+04   -0.10048E-05   -0.67053E-05  4160   0.103E-02    0.139E-02
DAV:  13    -0.330375428395E+04    0.30313E-05   -0.28343E-05  4224   0.603E-03    0.526E-03
DAV:  14    -0.330375428444E+04   -0.48417E-06   -0.42594E-06  3232   0.236E-03
   3 F= -.33178288E+04 E0= -.33178288E+04  d E =-.230765E+02
 BRION: g(F)=  0.320E+02 g(S)=  0.000E+00 retain N=  2 mean eig= 0.63
 eig:   0.198  1.060
 bond charge predicted
       N       E                     dE             d eps       ncg     rms          rms(c)
DAV:   1    -0.330745354863E+04   -0.36993E+01   -0.47458E+02  3776   0.257E+01    0.428E+00
DAV:   2    -0.330830766772E+04   -0.85412E+00   -0.12488E+01  4224   0.395E+00    0.435E+00
DAV:   3    -0.330820921457E+04    0.98453E-01   -0.48002E-01  4736   0.727E-01    0.384E+00
DAV:   4    -0.330785781594E+04    0.35140E+00   -0.72090E-01  4256   0.107E+00    0.164E+00
DAV:   5    -0.330783530240E+04    0.22514E-01   -0.26178E-01  4000   0.574E-01    0.652E-01
DAV:   6    -0.330783423140E+04    0.10710E-02   -0.36003E-02  4448   0.221E-01    0.285E-01
DAV:   7    -0.330783453878E+04   -0.30738E-03   -0.52011E-03  4064   0.859E-02    0.157E-01
DAV:   8    -0.330783433156E+04    0.20722E-03   -0.17553E-03  4096   0.497E-02    0.717E-02
DAV:   9    -0.330783431119E+04    0.20364E-04   -0.41253E-04  4288   0.259E-02    0.340E-02
DAV:  10    -0.330783430736E+04    0.38318E-05   -0.17382E-04  4224   0.165E-02    0.166E-02
DAV:  11    -0.330783430637E+04    0.99628E-06   -0.38875E-05  4096   0.743E-03    0.974E-03
DAV:  12    -0.330783430567E+04    0.69966E-06   -0.12514E-05  4128   0.379E-03    0.321E-03
DAV:  13    -0.330783430578E+04   -0.11106E-06   -0.13537E-06  2432   0.161E-03
   4 F= -.33219177E+04 E0= -.33219177E+04  d E =-.408889E+01
 BRION: g(F)=  0.112E+02 g(S)=  0.000E+00 retain N=  3 mean eig= 2.58
 eig:   7.117  0.312  0.312
 bond charge predicted
       N       E                     dE             d eps       ncg     rms          rms(c)
DAV:   1    -0.330913175965E+04   -0.12975E+01   -0.15298E+02  3680   0.146E+01    0.224E+00
DAV:   2    -0.330939639091E+04   -0.26463E+00   -0.36161E+00  4288   0.212E+00    0.229E+00
DAV:   3    -0.330937660105E+04    0.19790E-01   -0.13311E-01  4928   0.382E-01    0.207E+00
DAV:   4    -0.330928571931E+04    0.90882E-01   -0.16902E-01  4480   0.553E-01    0.932E-01
DAV:   5    -0.330927809195E+04    0.76274E-02   -0.90686E-02  3968   0.342E-01    0.336E-01
DAV:   6    -0.330927798115E+04    0.11080E-03   -0.12164E-02  4320   0.133E-01    0.168E-01
DAV:   7    -0.330927803495E+04   -0.53796E-04   -0.26579E-03  4160   0.581E-02    0.823E-02
DAV:   8    -0.330927804849E+04   -0.13543E-04   -0.36667E-04  4256   0.239E-02    0.462E-02
DAV:   9    -0.330927805007E+04   -0.15791E-05   -0.15004E-04  4224   0.147E-02    0.194E-02
DAV:  10    -0.330927804553E+04    0.45355E-05   -0.40156E-05  4352   0.874E-03    0.913E-03
DAV:  11    -0.330927804618E+04   -0.64890E-06   -0.16703E-05  4128   0.465E-03    0.488E-03
DAV:  12    -0.330927804582E+04    0.36252E-06   -0.21554E-06  2720   0.182E-03
   5 F= -.33233622E+04 E0= -.33233622E+04  d E =-.144454E+01
 BRION: g(F)=  0.424E+01 g(S)=  0.000E+00 retain N=  3 mean eig= 1.08
 eig:   2.886  0.097  0.243
 bond charge predicted
       N       E                     dE             d eps       ncg     rms          rms(c)
DAV:   1    -0.330914391095E+04    0.13414E+00   -0.20518E+02  3680   0.168E+01    0.285E+00
DAV:   2    -0.330944750231E+04   -0.30359E+00   -0.47322E+00  4224   0.246E+00    0.281E+00
DAV:   3    -0.330937791781E+04    0.69584E-01   -0.21244E-01  4704   0.525E-01    0.231E+00
DAV:   4    -0.330926016810E+04    0.11775E+00   -0.31668E-01  4128   0.724E-01    0.789E-01
DAV:   5    -0.330926056511E+04   -0.39701E-03   -0.98865E-02  4032   0.365E-01    0.313E-01
DAV:   6    -0.330926139186E+04   -0.82675E-03   -0.12336E-02  4224   0.123E-01    0.161E-01
DAV:   7    -0.330926119852E+04    0.19334E-03   -0.22948E-03  4224   0.565E-02    0.879E-02
DAV:   8    -0.330926121264E+04   -0.14128E-04   -0.51956E-04  4032   0.270E-02    0.467E-02
DAV:   9    -0.330926118917E+04    0.23471E-04   -0.15951E-04  4160   0.177E-02    0.219E-02
DAV:  10    -0.330926118789E+04    0.12786E-05   -0.77730E-05  4224   0.993E-03    0.101E-02
DAV:  11    -0.330926118647E+04    0.14240E-05   -0.11158E-05  4128   0.397E-03    0.508E-03
DAV:  12    -0.330926118629E+04    0.17730E-06   -0.26275E-06  3008   0.197E-03
   6 F= -.33233453E+04 E0= -.33233453E+04  d E =0.169730E-01
 BRION: g(F)=  0.730E+01 g(S)=  0.000E+00 retain N=  4 mean eig= 1.24
 eig:   0.393  0.393  2.482  1.700
 bond charge predicted
       N       E                     dE             d eps       ncg     rms          rms(c)
DAV:   1    -0.330987907558E+04   -0.61789E+00   -0.82340E+01  3680   0.107E+01    0.182E+00
DAV:   2    -0.331002426491E+04   -0.14519E+00   -0.21395E+00  4160   0.156E+00    0.185E+00
DAV:   3    -0.331000757939E+04    0.16686E-01   -0.81928E-02  4768   0.291E-01    0.165E+00
DAV:   4    -0.330993854498E+04    0.69034E-01   -0.11745E-01  4032   0.429E-01    0.685E-01
DAV:   5    -0.330993440859E+04    0.41364E-02   -0.46260E-02  4192   0.232E-01    0.243E-01
DAV:   6    -0.330993459867E+04   -0.19008E-03   -0.60785E-03  4160   0.854E-02    0.127E-01
DAV:   7    -0.330993465652E+04   -0.57848E-04   -0.78940E-04  4192   0.335E-02    0.639E-02
DAV:   8    -0.330993459933E+04    0.57183E-04   -0.35653E-04  4032   0.221E-02    0.271E-02
DAV:   9    -0.330993460684E+04   -0.75046E-05   -0.80202E-05  4480   0.101E-02    0.127E-02
DAV:  10    -0.330993460643E+04    0.40547E-06   -0.14739E-05  4096   0.489E-03    0.672E-03
DAV:  11    -0.330993460639E+04    0.38301E-07   -0.42074E-06  3808   0.251E-03
   7 F= -.33240199E+04 E0= -.33240199E+04  d E =-.674618E+00
 BRION: g(F)=  0.134E+01 g(S)=  0.000E+00 retain N=  2 mean eig= 1.95
 eig:   0.257  3.649
 bond charge predicted
       N       E                     dE             d eps       ncg     rms          rms(c)
DAV:   1    -0.331004850719E+04   -0.11390E+00   -0.19039E+01  3648   0.523E+00    0.812E-01
DAV:   2    -0.331008081606E+04   -0.32309E-01   -0.45237E-01  4224   0.741E-01    0.836E-01
DAV:   3    -0.331007883338E+04    0.19827E-02   -0.17411E-02  5024   0.135E-01    0.775E-01
DAV:   4    -0.331006550658E+04    0.13327E-01   -0.22003E-02  4352   0.234E-01    0.362E-01
DAV:   5    -0.331006446096E+04    0.10456E-02   -0.15802E-02  3904   0.160E-01    0.138E-01
DAV:   6    -0.331006461704E+04   -0.15609E-03   -0.28889E-03  4096   0.555E-02    0.833E-02
DAV:   7    -0.331006454559E+04    0.71449E-04   -0.36371E-04  4256   0.234E-02    0.487E-02
DAV:   8    -0.331006455290E+04   -0.73030E-05   -0.10236E-04  4032   0.133E-02    0.243E-02
DAV:   9    -0.331006454362E+04    0.92800E-05   -0.53622E-05  4064   0.915E-03    0.107E-02
DAV:  10    -0.331006454400E+04   -0.37777E-06   -0.13513E-05  4544   0.485E-03    0.549E-03
DAV:  11    -0.331006454418E+04   -0.18487E-06   -0.31413E-06  3136   0.218E-03
   8 F= -.33241495E+04 E0= -.33241495E+04  d E =-.129580E+00
 BRION: g(F)=  0.596E+00 g(S)=  0.000E+00 retain N=  2 mean eig= 0.34
 eig:   0.177  0.509
 bond charge predicted
       N       E                     dE             d eps       ncg     rms          rms(c)
DAV:   1    -0.330996154985E+04    0.10299E+00   -0.25639E+01  3648   0.603E+00    0.979E-01
DAV:   2    -0.331000269896E+04   -0.41149E-01   -0.61459E-01  4224   0.860E-01    0.983E-01
DAV:   3    -0.330999645870E+04    0.62403E-02   -0.23988E-02  4864   0.162E-01    0.850E-01
DAV:   4    -0.330998005863E+04    0.16400E-01   -0.26494E-02  4224   0.213E-01    0.379E-01
DAV:   5    -0.330997875131E+04    0.13073E-02   -0.13604E-02  4192   0.136E-01    0.119E-01
DAV:   6    -0.330997888407E+04   -0.13275E-03   -0.21889E-03  4064   0.500E-02    0.576E-02
DAV:   7    -0.330997890695E+04   -0.22883E-04   -0.20601E-04  4416   0.157E-02    0.290E-02
DAV:   8    -0.330997889561E+04    0.11333E-04   -0.48450E-05  4160   0.962E-03    0.126E-02
DAV:   9    -0.330997889741E+04   -0.17986E-05   -0.24891E-05  4256   0.544E-03    0.640E-03
DAV:  10    -0.330997889662E+04    0.79488E-06   -0.35133E-06  3456   0.242E-03
   9 F= -.33240636E+04 E0= -.33240636E+04  d E =0.858519E-01
 BRION: g(F)=  0.188E+01 g(S)=  0.000E+00 retain N=  3 mean eig= 0.43
 eig:   0.241  0.241  0.820
 bond charge predicted
       N       E                     dE             d eps       ncg     rms          rms(c)
DAV:   1    -0.331016955059E+04   -0.19065E+00   -0.12649E+01  3680   0.423E+00    0.711E-01
DAV:   2    -0.331019061429E+04   -0.21064E-01   -0.31719E-01  4224   0.614E-01    0.713E-01
DAV:   3    -0.331018720836E+04    0.34059E-02   -0.11959E-02  4864   0.114E-01    0.617E-01
DAV:   4    -0.331017785518E+04    0.93532E-02   -0.14859E-02  4192   0.157E-01    0.259E-01
DAV:   5    -0.331017721423E+04    0.64095E-03   -0.65997E-03  4096   0.913E-02    0.860E-02
DAV:   6    -0.331017725704E+04   -0.42806E-04   -0.10100E-03  4032   0.338E-02    0.431E-02
DAV:   7    -0.331017727090E+04   -0.13869E-04   -0.10291E-04  4288   0.115E-02    0.209E-02
DAV:   8    -0.331017726315E+04    0.77562E-05   -0.37631E-05  4128   0.760E-03    0.806E-03
DAV:   9    -0.331017726471E+04   -0.15637E-05   -0.10915E-05  4288   0.360E-03    0.488E-03
DAV:  10    -0.331017726425E+04    0.46566E-06   -0.15033E-06  2368   0.164E-03
  10 F= -.33242623E+04 E0= -.33242623E+04  d E =-.198645E+00
 BRION: g(F)=  0.858E-01 g(S)=  0.000E+00 retain N=  2 mean eig= 3.56
 eig:   0.220  6.909
 bond charge predicted
       N       E                     dE             d eps       ncg     rms          rms(c)
DAV:   1    -0.331019493028E+04   -0.17666E-01   -0.57120E+00  3648   0.281E+00    0.444E-01
DAV:   2    -0.331020264198E+04   -0.77117E-02   -0.11556E-01  4256   0.365E-01    0.434E-01
DAV:   3    -0.331020106912E+04    0.15729E-02   -0.42616E-03  4576   0.802E-02    0.359E-01
DAV:   4    -0.331019889146E+04    0.21777E-02   -0.80451E-03  4128   0.120E-01    0.111E-01
DAV:   5    -0.331019901481E+04   -0.12334E-03   -0.22282E-03  4000   0.655E-02    0.576E-02
DAV:   6    -0.331019903440E+04   -0.19588E-04   -0.40952E-04  4096   0.243E-02    0.267E-02
DAV:   7    -0.331019903434E+04    0.54948E-07   -0.85855E-05  4352   0.987E-03    0.157E-02
DAV:   8    -0.331019903268E+04    0.16580E-05   -0.19474E-05  4192   0.581E-03    0.702E-03
DAV:   9    -0.331019903244E+04    0.24133E-06   -0.70235E-06  4032   0.340E-03
  11 F= -.33242837E+04 E0= -.33242837E+04  d E =-.214211E-01
 BRION: g(F)=  0.186E+00 g(S)=  0.000E+00 retain N=  2 mean eig= 0.08
 eig:   0.154  0.012
 bond charge predicted
       N       E                     dE             d eps       ncg     rms          rms(c)
DAV:   1    -0.331022280280E+04   -0.23770E-01   -0.26923E+00  3680   0.192E+00    0.335E-01
DAV:   2    -0.331022663617E+04   -0.38334E-02   -0.61832E-02  4224   0.270E-01    0.328E-01
DAV:   3    -0.331022543144E+04    0.12047E-02   -0.24566E-03  4544   0.582E-02    0.264E-01
DAV:   4    -0.331022370662E+04    0.17248E-02   -0.52559E-03  4032   0.913E-02    0.746E-02
DAV:   5    -0.331022375246E+04   -0.45839E-04   -0.10777E-03  4000   0.407E-02    0.390E-02
DAV:   6    -0.331022376272E+04   -0.10265E-04   -0.19010E-04  3968   0.169E-02    0.149E-02
DAV:   7    -0.331022376341E+04   -0.68289E-06   -0.32821E-05  4320   0.600E-03    0.102E-02
DAV:   8    -0.331022376131E+04    0.20962E-05   -0.92018E-06  4096   0.417E-03    0.433E-03
DAV:   9    -0.331022376136E+04   -0.49244E-07   -0.32769E-06  3232   0.224E-03
  12 F= -.33243085E+04 E0= -.33243085E+04  d E =-.248227E-01
 BRION: g(F)=  0.855E-01 g(S)=  0.000E+00 retain N=  3 mean eig= 1.36
 eig:   3.681  0.204  0.204
 bond charge predicted
       N       E                     dE             d eps       ncg     rms          rms(c)
DAV:   1    -0.331023663100E+04   -0.12870E-01   -0.93811E-01  3648   0.115E+00    0.183E-01
DAV:   2    -0.331023812331E+04   -0.14923E-02   -0.21319E-02  4160   0.158E-01    0.183E-01
DAV:   3    -0.331023791220E+04    0.21110E-03   -0.81246E-04  4544   0.315E-02    0.160E-01
DAV:   4    -0.331023735474E+04    0.55746E-03   -0.10691E-03  4288   0.487E-02    0.602E-02
DAV:   5    -0.331023735449E+04    0.24575E-06   -0.51657E-04  3904   0.295E-02    0.257E-02
DAV:   6    -0.331023735773E+04   -0.32340E-05   -0.90744E-05  4000   0.984E-03    0.157E-02
DAV:   7    -0.331023735591E+04    0.18199E-05   -0.16456E-05  4224   0.438E-03    0.663E-03
DAV:   8    -0.331023735625E+04   -0.34983E-06   -0.24882E-06  2624   0.216E-03
  13 F= -.33243221E+04 E0= -.33243221E+04  d E =-.136037E-01
 BRION: g(F)=  0.402E-01 g(S)=  0.000E+00 retain N=  2 mean eig= 0.12
 eig:   0.213  0.036
 bond charge predicted
       N       E                     dE             d eps       ncg     rms          rms(c)
DAV:   1    -0.331025675816E+04   -0.19402E-01   -0.20286E+00  3648   0.165E+00    0.240E-01
DAV:   2    -0.331025922256E+04   -0.24644E-02   -0.33152E-02  4064   0.189E-01    0.228E-01
DAV:   3    -0.331025888201E+04    0.34055E-03   -0.10925E-03  4288   0.519E-02    0.182E-01
DAV:   4    -0.331025864253E+04    0.23948E-03   -0.20965E-03  3968   0.584E-02    0.422E-02
DAV:   5    -0.331025865845E+04   -0.15916E-04   -0.45808E-04  4032   0.307E-02    0.307E-02
DAV:   6    -0.331025865731E+04    0.11305E-05   -0.10067E-04  3904   0.123E-02    0.125E-02
DAV:   7    -0.331025865603E+04    0.12872E-05   -0.19063E-05  4256   0.745E-03    0.735E-03
DAV:   8    -0.331025865611E+04   -0.82655E-07   -0.10090E-05  4128   0.396E-03    0.270E-03
DAV:   9    -0.331025865596E+04    0.15239E-06   -0.13416E-06  2656   0.177E-03
  14 F= -.33243433E+04 E0= -.33243433E+04  d E =-.211708E-01
 BRION: g(F)=  0.297E-01 g(S)=  0.000E+00 retain N=  3 mean eig= 1.28
 eig:   3.375  0.180  0.299
 bond charge predicted
       N       E                     dE             d eps       ncg     rms          rms(c)
DAV:   1    -0.331026882064E+04   -0.10165E-01   -0.87647E-01  3648   0.110E+00    0.166E-01
DAV:   2    -0.331026999958E+04   -0.11789E-02   -0.16475E-02  4064   0.137E-01    0.162E-01
DAV:   3    -0.331026981381E+04    0.18577E-03   -0.64414E-04  4352   0.331E-02    0.134E-01
DAV:   4    -0.331026957293E+04    0.24088E-03   -0.10778E-03  4224   0.461E-02    0.400E-02
DAV:   5    -0.331026959217E+04   -0.19241E-04   -0.32560E-04  3904   0.262E-02    0.232E-02
DAV:   6    -0.331026959412E+04   -0.19465E-05   -0.57058E-05  3968   0.994E-03    0.104E-02
DAV:   7    -0.331026959337E+04    0.74541E-06   -0.13082E-05  4192   0.452E-03    0.625E-03
DAV:   8    -0.331026959304E+04    0.33434E-06   -0.58414E-06  4096   0.298E-03
  15 F= -.33243541E+04 E0= -.33243541E+04  d E =-.108472E-01
 BRION: g(F)=  0.304E-01 g(S)=  0.000E+00 retain N=  3 mean eig= 1.81
 eig:   4.922  0.251  0.251
 bond charge predicted
       N       E                     dE             d eps       ncg     rms          rms(c)
DAV:   1    -0.331028354787E+04   -0.13955E-01   -0.19593E+00  3616   0.163E+00    0.236E-01
DAV:   2    -0.331028606694E+04   -0.25191E-02   -0.33390E-02  4096   0.192E-01    0.227E-01
DAV:   3    -0.331028575647E+04    0.31047E-03   -0.11523E-03  4352   0.500E-02    0.187E-01
DAV:   4    -0.331028543826E+04    0.31821E-03   -0.19999E-03  4000   0.608E-02    0.476E-02
DAV:   5    -0.331028547013E+04   -0.31877E-04   -0.53610E-04  4032   0.331E-02    0.321E-02
DAV:   6    -0.331028546761E+04    0.25177E-05   -0.99619E-05  3872   0.130E-02    0.128E-02
DAV:   7    -0.331028546579E+04    0.18252E-05   -0.22887E-05  4224   0.762E-03    0.787E-03
DAV:   8    -0.331028546564E+04    0.15099E-06   -0.12027E-05  4064   0.407E-03    0.287E-03
DAV:   9    -0.331028546550E+04    0.14168E-06   -0.14207E-06  2656   0.181E-03
  16 F= -.33243699E+04 E0= -.33243699E+04  d E =-.158141E-01
 BRION: g(F)=  0.373E-01 g(S)=  0.000E+00 retain N=  3 mean eig= 1.71
 eig:   4.628  0.097  0.419
 bond charge predicted
       N       E                     dE             d eps       ncg     rms          rms(c)
DAV:   1    -0.331029242729E+04   -0.69616E-02   -0.71350E-01  3648   0.999E-01    0.156E-01
DAV:   2    -0.331029346599E+04   -0.10387E-02   -0.14889E-02  4160   0.132E-01    0.153E-01
DAV:   3    -0.331029329098E+04    0.17501E-03   -0.59777E-04  4384   0.297E-02    0.129E-01
DAV:   4    -0.331029296990E+04    0.32108E-03   -0.91189E-04  4064   0.435E-02    0.421E-02
DAV:   5    -0.331029298660E+04   -0.16707E-04   -0.31342E-04  3872   0.244E-02    0.223E-02
DAV:   6    -0.331029298771E+04   -0.11035E-05   -0.53236E-05  3904   0.890E-03    0.108E-02
DAV:   7    -0.331029298690E+04    0.80769E-06   -0.12018E-05  4288   0.375E-03    0.541E-03
DAV:   8    -0.331029298657E+04    0.33260E-06   -0.25865E-06  2688   0.233E-03
  17 F= -.33243774E+04 E0= -.33243774E+04  d E =-.744264E-02
 BRION: g(F)=  0.327E-01 g(S)=  0.000E+00 retain N=  3 mean eig= 1.70
 eig:   4.631  0.232  0.232
 bond charge predicted
       N       E                     dE             d eps       ncg     rms          rms(c)
DAV:   1    -0.331029465385E+04   -0.16670E-02   -0.29677E-01  3648   0.648E-01    0.110E-01
DAV:   2    -0.331029516099E+04   -0.50714E-03   -0.74912E-03  4224   0.938E-02    0.111E-01
DAV:   3    -0.331029509630E+04    0.64696E-04   -0.27004E-04  5024   0.169E-02    0.100E-01
DAV:   4    -0.331029482666E+04    0.26963E-03   -0.46422E-04  4096   0.288E-02    0.365E-02
DAV:   5    -0.331029481956E+04    0.71031E-05   -0.17319E-04  4128   0.150E-02    0.144E-02
DAV:   6    -0.331029482052E+04   -0.95670E-06   -0.24329E-05  4032   0.517E-03    0.875E-03
DAV:   7    -0.331029482038E+04    0.13888E-06   -0.27857E-06  2624   0.210E-03
  18 F= -.33243792E+04 E0= -.33243792E+04  d E =-.180312E-02
 BRION: g(F)=  0.255E-01 g(S)=  0.000E+00 retain N=  3 mean eig= 2.32
 eig:   6.444  0.257  0.257
 bond charge predicted
       N       E                     dE             d eps       ncg     rms          rms(c)
DAV:   1    -0.331030520101E+04   -0.10380E-01   -0.97984E-01  3616   0.116E+00    0.167E-01
DAV:   2    -0.331030643065E+04   -0.12296E-02   -0.16207E-02  4032   0.134E-01    0.160E-01
DAV:   3    -0.331030628407E+04    0.14657E-03   -0.55195E-04  4288   0.361E-02    0.131E-01
DAV:   4    -0.331030614081E+04    0.14327E-03   -0.95806E-04  4000   0.422E-02    0.316E-02
DAV:   5    -0.331030615456E+04   -0.13749E-04   -0.25666E-04  4000   0.235E-02    0.223E-02
DAV:   6    -0.331030615334E+04    0.12158E-05   -0.47171E-05  3840   0.941E-03    0.894E-03
DAV:   7    -0.331030615207E+04    0.12734E-05   -0.12043E-05  4224   0.588E-03    0.530E-03
DAV:   8    -0.331030615213E+04   -0.59605E-07   -0.61541E-06  4064   0.288E-03
  19 F= -.33243905E+04 E0= -.33243905E+04  d E =-.112730E-01
 BRION: g(F)=  0.162E-01 g(S)=  0.000E+00 retain N=  3 mean eig= 1.96
 eig:   5.345  0.196  0.329
 bond charge predicted
       N       E                     dE             d eps       ncg     rms          rms(c)
DAV:   1    -0.331031106326E+04   -0.49112E-02   -0.30176E-01  3648   0.646E-01    0.961E-02
DAV:   2    -0.331031146862E+04   -0.40536E-03   -0.55214E-03  4096   0.799E-02    0.934E-02
DAV:   3    -0.331031141273E+04    0.55885E-04   -0.21618E-04  4288   0.201E-02    0.781E-02
DAV:   4    -0.331031132938E+04    0.83355E-04   -0.34267E-04  3968   0.268E-02    0.219E-02
DAV:   5    -0.331031133736E+04   -0.79834E-05   -0.10902E-04  3968   0.146E-02    0.139E-02
DAV:   6    -0.331031133718E+04    0.17567E-06   -0.16917E-05  3872   0.541E-03    0.619E-03
DAV:   7    -0.331031133656E+04    0.62434E-06   -0.42246E-06  3488   0.308E-03
  20 F= -.33243956E+04 E0= -.33243956E+04  d E =-.514512E-02
 BRION: g(F)=  0.140E-01 g(S)=  0.000E+00 retain N=  3 mean eig= 1.83
 eig:   0.251  0.251  4.999
 bond charge predicted
       N       E                     dE             d eps       ncg     rms          rms(c)
DAV:   1    -0.331031984977E+04   -0.85126E-02   -0.96197E-01  3616   0.114E+00    0.164E-01
DAV:   2    -0.331032101191E+04   -0.11621E-02   -0.15213E-02  4032   0.130E-01    0.157E-01
DAV:   3    -0.331032088191E+04    0.13000E-03   -0.52654E-04  4256   0.363E-02    0.129E-01
DAV:   4    -0.331032075166E+04    0.13025E-03   -0.94609E-04  4000   0.428E-02    0.271E-02
DAV:   5    -0.331032076413E+04   -0.12470E-04   -0.26841E-04  3968   0.239E-02    0.211E-02
DAV:   6    -0.331032076209E+04    0.20423E-05   -0.40151E-05  3904   0.804E-03    0.105E-02
DAV:   7    -0.331032075937E+04    0.27228E-05   -0.14600E-05  4192   0.673E-03    0.464E-03
DAV:   8    -0.331032075973E+04   -0.36100E-06   -0.66932E-06  3872   0.317E-03
  21 F= -.33244049E+04 E0= -.33244049E+04  d E =-.932933E-02
 BRION: g(F)=  0.143E-01 g(S)=  0.000E+00 retain N=  3 mean eig= 1.75
 eig:   4.741  0.094  0.409
 bond charge predicted
       N       E                     dE             d eps       ncg     rms          rms(c)
DAV:   1    -0.331032623013E+04   -0.54708E-02   -0.54018E-01  3616   0.863E-01    0.128E-01
DAV:   2    -0.331032693253E+04   -0.70240E-03   -0.95267E-03  4064   0.104E-01    0.124E-01
DAV:   3    -0.331032683813E+04    0.94399E-04   -0.35930E-04  4288   0.271E-02    0.103E-01
DAV:   4    -0.331032671300E+04    0.12514E-03   -0.61590E-04  4032   0.351E-02    0.270E-02
DAV:   5    -0.331032672521E+04   -0.12217E-04   -0.18139E-04  3872   0.192E-02    0.183E-02
DAV:   6    -0.331032672484E+04    0.37474E-06   -0.28577E-05  3904   0.722E-03    0.794E-03
DAV:   7    -0.331032672381E+04    0.10297E-05   -0.80198E-06  4224   0.434E-03    0.439E-03
DAV:   8    -0.331032672378E+04    0.32131E-07   -0.40716E-06  3488   0.239E-03
  22 F= -.33244109E+04 E0= -.33244109E+04  d E =-.592705E-02
 BRION: g(F)=  0.159E-01 g(S)=  0.000E+00 retain N=  3 mean eig= 2.02
 eig:   5.611  0.200  0.243
 bond charge predicted
       N       E                     dE             d eps       ncg     rms          rms(c)
DAV:   1    -0.331032845046E+04   -0.17267E-02   -0.20564E-01  3648   0.541E-01    0.871E-02
DAV:   2    -0.331032878894E+04   -0.33848E-03   -0.47969E-03  4224   0.753E-02    0.874E-02
DAV:   3    -0.331032874642E+04    0.42517E-04   -0.18148E-04  4512   0.149E-02    0.776E-02
DAV:   4    -0.331032860807E+04    0.13835E-03   -0.23442E-04  4320   0.244E-02    0.300E-02
DAV:   5    -0.331032860693E+04    0.11387E-05   -0.14105E-04  3904   0.152E-02    0.135E-02
DAV:   6    -0.331032860766E+04   -0.72352E-06   -0.22886E-05  4032   0.480E-03    0.917E-03
DAV:   7    -0.331032860660E+04    0.10537E-05   -0.56721E-06  3840   0.260E-03    0.418E-03
DAV:   8    -0.331032860669E+04   -0.83237E-07   -0.11070E-06  2240   0.145E-03
  23 F= -.33244127E+04 E0= -.33244127E+04  d E =-.187632E-02
 BRION: g(F)=  0.180E-01 g(S)=  0.000E+00 retain N=  3 mean eig= 1.61
 eig:   4.325  0.219  0.277
 bond charge predicted
       N       E                     dE             d eps       ncg     rms          rms(c)
DAV:   1    -0.331033426120E+04   -0.56546E-02   -0.48646E-01  3616   0.820E-01    0.118E-01
DAV:   2    -0.331033489464E+04   -0.63344E-03   -0.83717E-03  4000   0.980E-02    0.115E-01
DAV:   3    -0.331033482373E+04    0.70916E-04   -0.32027E-04  4256   0.250E-02    0.973E-02
DAV:   4    -0.331033471027E+04    0.11346E-03   -0.46188E-04  4128   0.327E-02    0.271E-02
DAV:   5    -0.331033472310E+04   -0.12836E-04   -0.17360E-04  3936   0.188E-02    0.170E-02
DAV:   6    -0.331033472239E+04    0.70734E-06   -0.24658E-05  3872   0.655E-03    0.806E-03
DAV:   7    -0.331033472114E+04    0.12536E-05   -0.71264E-06  4192   0.414E-03    0.416E-03
DAV:   8    -0.331033472114E+04   -0.58208E-09   -0.35459E-06  3232   0.221E-03
  24 F= -.33244188E+04 E0= -.33244188E+04  d E =-.604190E-02
 BRION: g(F)=  0.116E-01 g(S)=  0.000E+00 retain N=  3 mean eig= 2.11
 eig:   5.825  0.176  0.344
 bond charge predicted
       N       E                     dE             d eps       ncg     rms          rms(c)
DAV:   1    -0.331033686689E+04   -0.21458E-02   -0.11672E-01  3712   0.406E-01    0.636E-02
DAV:   2    -0.331033704291E+04   -0.17602E-03   -0.24849E-03  4128   0.541E-02    0.632E-02
DAV:   3    -0.331033701731E+04    0.25602E-04   -0.93543E-05  4512   0.116E-02    0.547E-02
DAV:   4    -0.331033695770E+04    0.59612E-04   -0.13342E-04  4032   0.178E-02    0.191E-02
DAV:   5    -0.331033696031E+04   -0.26101E-05   -0.62588E-05  3872   0.104E-02    0.943E-03
DAV:   6    -0.331033696048E+04   -0.17532E-06   -0.92874E-06  3840   0.329E-03
  25 F= -.33244210E+04 E0= -.33244210E+04  d E =-.222660E-02
 BRION: g(F)=  0.896E-02 g(S)=  0.000E+00 retain N=  3 mean eig= 1.94
 eig:   5.320  0.246  0.246
 bond charge predicted
       N       E                     dE             d eps       ncg     rms          rms(c)
DAV:   1    -0.331034186530E+04   -0.49050E-02   -0.43790E-01  3616   0.775E-01    0.110E-01
DAV:   2    -0.331034237881E+04   -0.51351E-03   -0.67236E-03  4032   0.872E-02    0.106E-01
DAV:   3    -0.331034232793E+04    0.50874E-04   -0.25545E-04  4192   0.251E-02    0.876E-02
DAV:   4    -0.331034227426E+04    0.53670E-04   -0.36697E-04  4032   0.281E-02    0.194E-02
DAV:   5    -0.331034228214E+04   -0.78750E-05   -0.12230E-04  3904   0.162E-02    0.141E-02
DAV:   6    -0.331034228081E+04    0.13260E-05   -0.17374E-05  3936   0.531E-03    0.688E-03
DAV:   7    -0.331034227952E+04    0.12934E-05   -0.61213E-06  3936   0.445E-03    0.305E-03
DAV:   8    -0.331034227970E+04   -0.17951E-06   -0.28722E-06  2880   0.206E-03
  26 F= -.33244263E+04 E0= -.33244263E+04  d E =-.528008E-02
 BRION: g(F)=  0.766E-02 g(S)=  0.000E+00 retain N=  3 mean eig= 1.89
 eig:   5.128  0.150  0.382
 bond charge predicted
       N       E                     dE             d eps       ncg     rms          rms(c)
DAV:   1    -0.331034614428E+04   -0.38648E-02   -0.33784E-01  3616   0.681E-01    0.976E-02
DAV:   2    -0.331034655454E+04   -0.41026E-03   -0.54221E-03  4000   0.785E-02    0.945E-02
DAV:   3    -0.331034650771E+04    0.46832E-04   -0.20003E-04  4256   0.214E-02    0.790E-02
DAV:   4    -0.331034644772E+04    0.59985E-04   -0.34108E-04  4096   0.271E-02    0.181E-02
DAV:   5    -0.331034645468E+04   -0.69597E-05   -0.11102E-04  3872   0.154E-02    0.134E-02
DAV:   6    -0.331034645405E+04    0.63435E-06   -0.15221E-05  3904   0.522E-03    0.667E-03
DAV:   7    -0.331034645287E+04    0.11775E-05   -0.58883E-06  3840   0.409E-03    0.296E-03
DAV:   8    -0.331034645297E+04   -0.98371E-07   -0.23907E-06  2464   0.192E-03
  27 F= -.33244304E+04 E0= -.33244304E+04  d E =-.411901E-02
 BRION: g(F)=  0.820E-02 g(S)=  0.000E+00 retain N=  3 mean eig= 2.26
 eig:   6.315  0.185  0.275
 bond charge predicted
       N       E                     dE             d eps       ncg     rms          rms(c)
DAV:   1    -0.331034976065E+04   -0.33078E-02   -0.34633E-01  3616   0.692E-01    0.101E-01
DAV:   2    -0.331035020736E+04   -0.44670E-03   -0.59480E-03  4000   0.830E-02    0.985E-02
DAV:   3    -0.331035015383E+04    0.53523E-04   -0.22242E-04  4320   0.212E-02    0.835E-02
DAV:   4    -0.331035006590E+04    0.87936E-04   -0.36127E-04  4128   0.293E-02    0.213E-02
DAV:   5    -0.331035007603E+04   -0.10128E-04   -0.13457E-04  3840   0.166E-02    0.144E-02
DAV:   6    -0.331035007559E+04    0.43551E-06   -0.17570E-05  3872   0.539E-03    0.753E-03
DAV:   7    -0.331035007436E+04    0.12316E-05   -0.62312E-06  3840   0.387E-03    0.334E-03
DAV:   8    -0.331035007444E+04   -0.84285E-07   -0.24224E-06  2432   0.192E-03
  28 F= -.33244340E+04 E0= -.33244340E+04  d E =-.357808E-02
 BRION: g(F)=  0.108E-01 g(S)=  0.000E+00 retain N=  3 mean eig= 1.29
 eig:   3.395  0.122  0.340
 bond charge predicted
       N       E                     dE             d eps       ncg     rms          rms(c)
DAV:   1    -0.331035294129E+04   -0.28669E-02   -0.23241E-01  3584   0.572E-01    0.832E-02
DAV:   2    -0.331035326094E+04   -0.31965E-03   -0.42645E-03  4096   0.707E-02    0.820E-02
DAV:   3    -0.331035322720E+04    0.33745E-04   -0.16603E-04  4448   0.168E-02    0.709E-02
DAV:   4    -0.331035315839E+04    0.68807E-04   -0.20041E-04  4224   0.233E-02    0.236E-02
DAV:   5    -0.331035316608E+04   -0.76917E-05   -0.10255E-04  3840   0.140E-02    0.126E-02
DAV:   6    -0.331035316579E+04    0.29046E-06   -0.14013E-05  3808   0.473E-03    0.674E-03
DAV:   7    -0.331035316498E+04    0.81549E-06   -0.43914E-06  3584   0.282E-03
  29 F= -.33244371E+04 E0= -.33244371E+04  d E =-.307912E-02
 BRION: g(F)=  0.854E-02 g(S)=  0.000E+00 retain N=  3 mean eig= 2.05
 eig:   5.612  0.184  0.343
 bond charge predicted
       N       E                     dE             d eps       ncg     rms          rms(c)
DAV:   1    -0.331035393262E+04   -0.76683E-03   -0.63201E-02  3712   0.302E-01    0.489E-02
DAV:   2    -0.331035404001E+04   -0.10739E-03   -0.15501E-03  4224   0.430E-02    0.495E-02
DAV:   3    -0.331035402859E+04    0.11424E-04   -0.60784E-05  4608   0.826E-03    0.446E-02
DAV:   4    -0.331035398318E+04    0.45411E-04   -0.56619E-05  3968   0.126E-02    0.213E-02
DAV:   5    -0.331035397886E+04    0.43137E-05   -0.60110E-05  3808   0.933E-03    0.840E-03
DAV:   6    -0.331035397923E+04   -0.36345E-06   -0.92914E-06  3904   0.313E-03
  30 F= -.33244379E+04 E0= -.33244379E+04  d E =-.802582E-03
 BRION: g(F)=  0.713E-02 g(S)=  0.000E+00 retain N=  3 mean eig= 1.90
 eig:   5.213  0.250  0.250
 bond charge predicted
       N       E                     dE             d eps       ncg     rms          rms(c)
DAV:   1    -0.331035712794E+04   -0.31491E-02   -0.25476E-01  3584   0.592E-01    0.846E-02
DAV:   2    -0.331035744010E+04   -0.31216E-03   -0.40974E-03  4032   0.685E-02    0.823E-02
DAV:   3    -0.331035740693E+04    0.33173E-04   -0.14744E-04  4192   0.184E-02    0.693E-02
DAV:   4    -0.331035736100E+04    0.45924E-04   -0.23633E-04  4032   0.231E-02    0.162E-02
DAV:   5    -0.331035736738E+04   -0.63744E-05   -0.84605E-05  3872   0.129E-02    0.115E-02
DAV:   6    -0.331035736673E+04    0.64785E-06   -0.10860E-05  3808   0.425E-03    0.604E-03
DAV:   7    -0.331035736564E+04    0.10887E-05   -0.46864E-06  3744   0.383E-03    0.244E-03
DAV:   8    -0.331035736575E+04   -0.11199E-06   -0.19068E-06  2272   0.175E-03
  31 F= -.33244412E+04 E0= -.33244412E+04  d E =-.334374E-02
 BRION: g(F)=  0.525E-02 g(S)=  0.000E+00 retain N=  3 mean eig= 1.90
 eig:   5.162  0.179  0.352
 bond charge predicted
       N       E                     dE             d eps       ncg     rms          rms(c)
DAV:   1    -0.331035972460E+04   -0.23590E-02   -0.16666E-01  3616   0.480E-01    0.684E-02
DAV:   2    -0.331035992377E+04   -0.19916E-03   -0.26465E-03  4064   0.552E-02    0.665E-02
DAV:   3    -0.331035990168E+04    0.22088E-04   -0.99433E-05  4192   0.150E-02    0.559E-02
DAV:   4    -0.331035987310E+04    0.28583E-04   -0.15587E-04  4064   0.189E-02    0.135E-02
DAV:   5    -0.331035987720E+04   -0.41072E-05   -0.56068E-05  3872   0.108E-02    0.952E-03
DAV:   6    -0.331035987678E+04    0.41781E-06   -0.73765E-06  3840   0.363E-03
  32 F= -.33244437E+04 E0= -.33244437E+04  d E =-.249326E-02
 BRION: g(F)=  0.482E-02 g(S)=  0.000E+00 retain N=  3 mean eig= 2.44
 eig:   6.813  0.250  0.250
 bond charge predicted
       N       E                     dE             d eps       ncg     rms          rms(c)
DAV:   1    -0.331036286230E+04   -0.29851E-02   -0.33546E-01  3616   0.680E-01    0.961E-02
DAV:   2    -0.331036326171E+04   -0.39941E-03   -0.52110E-03  4064   0.773E-02    0.935E-02
DAV:   3    -0.331036322307E+04    0.38634E-04   -0.18594E-04  4256   0.209E-02    0.792E-02
DAV:   4    -0.331036317162E+04    0.51458E-04   -0.28439E-04  4032   0.253E-02    0.191E-02
DAV:   5    -0.331036318031E+04   -0.86963E-05   -0.10333E-04  3872   0.139E-02    0.130E-02
DAV:   6    -0.331036317904E+04    0.12740E-05   -0.13344E-05  3872   0.470E-03    0.663E-03
DAV:   7    -0.331036317758E+04    0.14591E-05   -0.57386E-06  3840   0.438E-03    0.262E-03
DAV:   8    -0.331036317776E+04   -0.17660E-06   -0.26116E-06  2592   0.197E-03
  33 F= -.33244470E+04 E0= -.33244470E+04  d E =-.326639E-02
 BRION: g(F)=  0.592E-02 g(S)=  0.000E+00 retain N=  3 mean eig= 1.31
 eig:   3.436  0.116  0.364
 bond charge predicted
       N       E                     dE             d eps       ncg     rms          rms(c)
DAV:   1    -0.331036505005E+04   -0.18725E-02   -0.15024E-01  3584   0.458E-01    0.661E-02
DAV:   2    -0.331036525062E+04   -0.20057E-03   -0.26528E-03  4064   0.557E-02    0.652E-02
DAV:   3    -0.331036522978E+04    0.20835E-04   -0.98428E-05  4224   0.133E-02    0.565E-02
DAV:   4    -0.331036518602E+04    0.43761E-04   -0.13581E-04  4224   0.196E-02    0.171E-02
DAV:   5    -0.331036519140E+04   -0.53812E-05   -0.69995E-05  3904   0.116E-02    0.100E-02
DAV:   6    -0.331036519105E+04    0.35053E-06   -0.85159E-06  3840   0.357E-03
  34 F= -.33244489E+04 E0= -.33244489E+04  d E =-.197758E-02
 BRION: g(F)=  0.575E-02 g(S)=  0.000E+00 retain N=  3 mean eig= 1.98
 eig:   5.442  0.158  0.352
 bond charge predicted
       N       E                     dE             d eps       ncg     rms          rms(c)
DAV:   1    -0.331036611872E+04   -0.92732E-03   -0.73181E-02  3648   0.323E-01    0.502E-02
DAV:   2    -0.331036623349E+04   -0.11477E-03   -0.15992E-03  4160   0.436E-02    0.504E-02
DAV:   3    -0.331036622100E+04    0.12495E-04   -0.60880E-05  4384   0.898E-03    0.449E-02
DAV:   4    -0.331036618247E+04    0.38527E-04   -0.61473E-05  4096   0.137E-02    0.197E-02
DAV:   5    -0.331036618244E+04    0.30384E-07   -0.56129E-05  3840   0.909E-03    0.845E-03
DAV:   6    -0.331036618250E+04   -0.56112E-07   -0.75189E-06  3616   0.282E-03
  35 F= -.33244499E+04 E0= -.33244499E+04  d E =-.984712E-03
 BRION: g(F)=  0.589E-02 g(S)=  0.000E+00 retain N=  3 mean eig= 1.68
 eig:   4.529  0.252  0.252
 bond charge predicted
       N       E                     dE             d eps       ncg     rms          rms(c)
DAV:   1    -0.331036789497E+04   -0.17125E-02   -0.11505E-01  3616   0.402E-01    0.581E-02
DAV:   2    -0.331036804623E+04   -0.15126E-03   -0.20128E-03  4128   0.489E-02    0.571E-02
DAV:   3    -0.331036803126E+04    0.14966E-04   -0.81043E-05  4256   0.122E-02    0.491E-02
DAV:   4    -0.331036800274E+04    0.28529E-04   -0.93249E-05  4096   0.158E-02    0.159E-02
DAV:   5    -0.331036800687E+04   -0.41386E-05   -0.47500E-05  3840   0.896E-03    0.878E-03
DAV:   6    -0.331036800643E+04    0.44808E-06   -0.63497E-06  3552   0.308E-03
  36 F= -.33244517E+04 E0= -.33244517E+04  d E =-.181261E-02
 BRION: g(F)=  0.412E-02 g(S)=  0.000E+00 retain N=  3 mean eig= 1.87
 eig:   5.080  0.198  0.323
 bond charge predicted
       N       E                     dE             d eps       ncg     rms          rms(c)
DAV:   1    -0.331036953110E+04   -0.15242E-02   -0.94356E-02  3648   0.361E-01    0.521E-02
DAV:   2    -0.331036964809E+04   -0.11699E-03   -0.15545E-03  4064   0.425E-02    0.510E-02
DAV:   3    -0.331036963503E+04    0.13059E-04   -0.57290E-05  4192   0.110E-02    0.434E-02
DAV:   4    -0.331036961457E+04    0.20459E-04   -0.89318E-05  4096   0.144E-02    0.116E-02
DAV:   5    -0.331036961750E+04   -0.29241E-05   -0.34317E-05  3904   0.788E-03    0.746E-03
DAV:   6    -0.331036961720E+04    0.30140E-06   -0.42453E-06  2944   0.272E-03
  37 F= -.33244533E+04 E0= -.33244533E+04  d E =-.158533E-02
 BRION: g(F)=  0.330E-02 g(S)=  0.000E+00 retain N=  3 mean eig= 2.62
 eig:   7.366  0.202  0.303
 bond charge predicted
       N       E                     dE             d eps       ncg     rms          rms(c)
DAV:   1    -0.331037157676E+04   -0.19593E-02   -0.18077E-01  3648   0.498E-01    0.705E-02
DAV:   2    -0.331037178676E+04   -0.20999E-03   -0.27584E-03  4128   0.563E-02    0.686E-02
DAV:   3    -0.331037176430E+04    0.22458E-04   -0.92786E-05  4192   0.154E-02    0.578E-02
DAV:   4    -0.331037173730E+04    0.26997E-04   -0.15893E-04  4064   0.188E-02    0.133E-02
DAV:   5    -0.331037174154E+04   -0.42417E-05   -0.55899E-05  3872   0.104E-02    0.949E-03
DAV:   6    -0.331037174089E+04    0.65158E-06   -0.73662E-06  3776   0.367E-03
  38 F= -.33244554E+04 E0= -.33244554E+04  d E =-.209609E-02
 BRION: g(F)=  0.343E-02 g(S)=  0.000E+00 retain N=  3 mean eig= 1.45
 eig:   3.843  0.148  0.353
 bond charge predicted
       N       E                     dE             d eps       ncg     rms          rms(c)
DAV:   1    -0.331037322796E+04   -0.14864E-02   -0.12339E-01  3648   0.414E-01    0.590E-02
DAV:   2    -0.331037338057E+04   -0.15261E-03   -0.20086E-03  4096   0.484E-02    0.577E-02
DAV:   3    -0.331037336480E+04    0.15769E-04   -0.72592E-05  4256   0.126E-02    0.493E-02
DAV:   4    -0.331037334072E+04    0.24089E-04   -0.10682E-04  4064   0.161E-02    0.133E-02
DAV:   5    -0.331037334466E+04   -0.39431E-05   -0.43927E-05  3840   0.895E-03    0.842E-03
DAV:   6    -0.331037334424E+04    0.41828E-06   -0.56421E-06  3424   0.328E-03
  39 F= -.33244570E+04 E0= -.33244570E+04  d E =-.159047E-02
 BRION: g(F)=  0.361E-02 g(S)=  0.000E+00 retain N=  3 mean eig= 2.04
 eig:   5.623  0.165  0.328
 bond charge predicted
       N       E                     dE             d eps       ncg     rms          rms(c)
DAV:   1    -0.331037473684E+04   -0.13922E-02   -0.13453E-01  3648   0.433E-01    0.619E-02
DAV:   2    -0.331037490788E+04   -0.17104E-03   -0.22710E-03  4096   0.518E-02    0.609E-02
DAV:   3    -0.331037489056E+04    0.17319E-04   -0.89137E-05  4256   0.130E-02    0.525E-02
DAV:   4    -0.331037485822E+04    0.32338E-04   -0.11328E-04  4064   0.172E-02    0.166E-02
DAV:   5    -0.331037486301E+04   -0.47942E-05   -0.55109E-05  3872   0.965E-03    0.947E-03
DAV:   6    -0.331037486247E+04    0.53784E-06   -0.69877E-06  3584   0.332E-03
  40 F= -.33244585E+04 E0= -.33244585E+04  d E =-.149354E-02
 BRION: g(F)=  0.435E-02 g(S)=  0.000E+00 retain N=  3 mean eig= 1.59
 eig:   4.262  0.139  0.355
 bond charge predicted
       N       E                     dE             d eps       ncg     rms          rms(c)
DAV:   1    -0.331037574325E+04   -0.88024E-03   -0.57836E-02  3616   0.286E-01    0.430E-02
DAV:   2    -0.331037583090E+04   -0.87644E-04   -0.11813E-03  4192   0.374E-02    0.431E-02
DAV:   3    -0.331037582289E+04    0.80053E-05   -0.42462E-05  4352   0.778E-03    0.387E-02
DAV:   4    -0.331037579665E+04    0.26241E-04   -0.43046E-05  4128   0.126E-02    0.163E-02
DAV:   5    -0.331037579777E+04   -0.11233E-05   -0.45555E-05  3872   0.820E-03    0.736E-03
DAV:   6    -0.331037579772E+04    0.54482E-07   -0.52875E-06  3072   0.237E-03
  41 F= -.33244594E+04 E0= -.33244594E+04  d E =-.917736E-03
 BRION: g(F)=  0.344E-02 g(S)=  0.000E+00 retain N=  3 mean eig= 1.70
 eig:   4.576  0.211  0.300
 bond charge predicted
       N       E                     dE             d eps       ncg     rms          rms(c)
DAV:   1    -0.331037652643E+04   -0.72866E-03   -0.36384E-02  3648   0.227E-01    0.344E-02
DAV:   2    -0.331037657886E+04   -0.52425E-04   -0.71441E-04  4192   0.292E-02    0.341E-02
DAV:   3    -0.331037657273E+04    0.61285E-05   -0.27328E-05  4384   0.665E-03    0.296E-02
DAV:   4    -0.331037655922E+04    0.13507E-04   -0.32731E-05  4096   0.938E-03    0.109E-02
DAV:   5    -0.331037656042E+04   -0.11995E-05   -0.19007E-05  3840   0.548E-03    0.548E-03
DAV:   6    -0.331037656031E+04    0.11141E-06   -0.25771E-06  2592   0.192E-03
  42 F= -.33244602E+04 E0= -.33244602E+04  d E =-.760924E-03
 BRION: g(F)=  0.255E-02 g(S)=  0.000E+00 retain N=  3 mean eig= 2.71
 eig:   7.609  0.207  0.306
 bond charge predicted
       N       E                     dE             d eps       ncg     rms          rms(c)
DAV:   1    -0.331037798566E+04   -0.14252E-02   -0.12244E-01  3648   0.410E-01    0.575E-02
DAV:   2    -0.331037812604E+04   -0.14038E-03   -0.18418E-03  4160   0.460E-02    0.560E-02
DAV:   3    -0.331037811143E+04    0.14615E-04   -0.63029E-05  4256   0.125E-02    0.472E-02
DAV:   4    -0.331037809415E+04    0.17275E-04   -0.10300E-04  4032   0.150E-02    0.112E-02
DAV:   5    -0.331037809697E+04   -0.28133E-05   -0.36252E-05  3904   0.838E-03    0.774E-03
DAV:   6    -0.331037809646E+04    0.50990E-06   -0.48374E-06  3456   0.298E-03
  43 F= -.33244617E+04 E0= -.33244617E+04  d E =-.151570E-02
 BRION: g(F)=  0.225E-02 g(S)=  0.000E+00 retain N=  3 mean eig= 1.58
 eig:   4.223  0.165  0.355
 bond charge predicted
       N       E                     dE             d eps       ncg     rms          rms(c)
DAV:   1    -0.331037912559E+04   -0.10286E-02   -0.75195E-02  3648   0.322E-01    0.459E-02
DAV:   2    -0.331037921820E+04   -0.92607E-04   -0.12170E-03  4160   0.376E-02    0.450E-02
DAV:   3    -0.331037920844E+04    0.97574E-05   -0.40701E-05  4192   0.956E-03    0.386E-02
DAV:   4    -0.331037919313E+04    0.15315E-04   -0.67470E-05  4096   0.127E-02    0.101E-02
DAV:   5    -0.331037919554E+04   -0.24085E-05   -0.26792E-05  3872   0.677E-03    0.656E-03
DAV:   6    -0.331037919520E+04    0.33528E-06   -0.31437E-06  2848   0.236E-03
  44 F= -.33244628E+04 E0= -.33244628E+04  d E =-.107882E-02
 BRION: g(F)=  0.233E-02 g(S)=  0.000E+00 retain N=  3 mean eig= 2.02
 eig:   5.580  0.220  0.262
 bond charge predicted
       N       E                     dE             d eps       ncg     rms          rms(c)
DAV:   1    -0.331038074528E+04   -0.15497E-02   -0.20734E-01  3648   0.534E-01    0.754E-02
DAV:   2    -0.331038098724E+04   -0.24196E-03   -0.31950E-03  4128   0.606E-02    0.736E-02
DAV:   3    -0.331038096030E+04    0.26947E-04   -0.10596E-04  4224   0.161E-02    0.623E-02
DAV:   4    -0.331038092669E+04    0.33609E-04   -0.18762E-04  4032   0.201E-02    0.151E-02
DAV:   5    -0.331038093175E+04   -0.50609E-05   -0.64426E-05  3840   0.110E-02    0.104E-02
DAV:   6    -0.331038093098E+04    0.76403E-06   -0.86136E-06  3840   0.401E-03
  45 F= -.33244645E+04 E0= -.33244645E+04  d E =-.171313E-02
 BRION: g(F)=  0.292E-02 g(S)=  0.000E+00 retain N=  3 mean eig= 1.56
 eig:   4.199  0.084  0.392
 bond charge predicted
       N       E                     dE             d eps       ncg     rms          rms(c)
DAV:   1    -0.331038159489E+04   -0.66315E-03   -0.53313E-02  3648   0.275E-01    0.401E-02
DAV:   2    -0.331038167257E+04   -0.77676E-04   -0.10348E-03  4160   0.353E-02    0.401E-02
DAV:   3    -0.331038166627E+04    0.63017E-05   -0.42059E-05  4320   0.786E-03    0.358E-02
DAV:   4    -0.331038164706E+04    0.19206E-04   -0.33789E-05  4032   0.110E-02    0.159E-02
DAV:   5    -0.331038164848E+04   -0.14205E-05   -0.37392E-05  3808   0.712E-03    0.717E-03
DAV:   6    -0.331038164811E+04    0.36880E-06   -0.40692E-06  2912   0.215E-03
  46 F= -.33244652E+04 E0= -.33244652E+04  d E =-.710865E-03
 BRION: g(F)=  0.292E-02 g(S)=  0.000E+00 retain N=  3 mean eig= 1.57
 eig:   4.190  0.212  0.293
 bond charge predicted
       N       E                     dE             d eps       ncg     rms          rms(c)
DAV:   1    -0.331038171129E+04   -0.62803E-04   -0.16331E-02  3712   0.154E-01    0.249E-02
DAV:   2    -0.331038174104E+04   -0.29756E-04   -0.42205E-04  4224   0.223E-02    0.256E-02
DAV:   3    -0.331038173947E+04    0.15750E-05   -0.15047E-05  4896   0.392E-03    0.240E-02
DAV:   4    -0.331038172568E+04    0.13783E-04   -0.14689E-05  3712   0.515E-03    0.123E-02
DAV:   5    -0.331038172315E+04    0.25388E-05   -0.14664E-05  3936   0.438E-03    0.407E-03
DAV:   6    -0.331038172321E+04   -0.65542E-07   -0.22399E-06  2560   0.175E-03
  47 F= -.33244653E+04 E0= -.33244653E+04  d E =-.675121E-04
 BRION: g(F)=  0.222E-02 g(S)=  0.000E+00 retain N=  3 mean eig= 2.43
 eig:   6.773  0.253  0.276
 bond charge predicted
       N       E                     dE             d eps       ncg     rms          rms(c)
DAV:   1    -0.331038291396E+04   -0.11908E-02   -0.11350E-01  3648   0.395E-01    0.555E-02
DAV:   2    -0.331038304456E+04   -0.13060E-03   -0.17306E-03  4160   0.446E-02    0.541E-02
DAV:   3    -0.331038302952E+04    0.15033E-04   -0.58008E-05  4256   0.120E-02    0.456E-02
DAV:   4    -0.331038301178E+04    0.17742E-04   -0.10250E-04  4064   0.149E-02    0.108E-02
DAV:   5    -0.331038301419E+04   -0.24029E-05   -0.34937E-05  3872   0.839E-03    0.764E-03
DAV:   6    -0.331038301378E+04    0.40256E-06   -0.47189E-06  3456   0.300E-03
  48 F= -.33244665E+04 E0= -.33244665E+04  d E =-.127261E-02
 BRION: g(F)=  0.171E-02 g(S)=  0.000E+00 retain N=  3 mean eig= 1.74
 eig:   4.695  0.165  0.367
 bond charge predicted
       N       E                     dE             d eps       ncg     rms          rms(c)
DAV:   1    -0.331038361892E+04   -0.60473E-03   -0.34785E-02  3648   0.220E-01    0.312E-02
DAV:   2    -0.331038366345E+04   -0.44540E-04   -0.58332E-04  4096   0.262E-02    0.307E-02
DAV:   3    -0.331038365925E+04    0.42090E-05   -0.21517E-05  4224   0.648E-03    0.266E-02
DAV:   4    -0.331038365160E+04    0.76465E-05   -0.27431E-05  4064   0.852E-03    0.830E-03
DAV:   5    -0.331038365294E+04   -0.13408E-05   -0.13788E-05  3872   0.470E-03    0.470E-03
DAV:   6    -0.331038365276E+04    0.17916E-06   -0.15429E-06  2304   0.164E-03
  49 F= -.33244672E+04 E0= -.33244672E+04  d E =-.632645E-03
 BRION: g(F)=  0.159E-02 g(S)=  0.000E+00 retain N=  3 mean eig= 2.08
 eig:   5.731  0.259  0.259
 bond charge predicted
       N       E                     dE             d eps       ncg     rms          rms(c)
DAV:   1    -0.331038492306E+04   -0.12701E-02   -0.17202E-01  3648   0.485E-01    0.676E-02
DAV:   2    -0.331038511890E+04   -0.19584E-03   -0.25714E-03  4192   0.542E-02    0.660E-02
DAV:   3    -0.331038509806E+04    0.20841E-04   -0.83477E-05  4256   0.146E-02    0.558E-02
DAV:   4    -0.331038507406E+04    0.24005E-04   -0.14764E-04  4032   0.177E-02    0.128E-02
DAV:   5    -0.331038507792E+04   -0.38586E-05   -0.50221E-05  3904   0.961E-03    0.902E-03
DAV:   6    -0.331038507712E+04    0.79733E-06   -0.64721E-06  3776   0.329E-03
  50 F= -.33244686E+04 E0= -.33244686E+04  d E =-.139857E-02
 BRION: g(F)=  0.174E-02 g(S)=  0.000E+00 retain N=  3 mean eig= 1.52
 eig:   4.090  0.046  0.427
 bond charge predicted
       N       E                     dE             d eps       ncg     rms          rms(c)
DAV:   1    -0.331038583068E+04   -0.75276E-03   -0.77410E-02  3648   0.327E-01    0.470E-02
DAV:   2    -0.331038592994E+04   -0.99264E-04   -0.13190E-03  4160   0.392E-02    0.464E-02
DAV:   3    -0.331038591918E+04    0.10766E-04   -0.44475E-05  4256   0.946E-03    0.402E-02
DAV:   4    -0.331038590009E+04    0.19088E-04   -0.71696E-05  4128   0.132E-02    0.117E-02
DAV:   5    -0.331038590290E+04   -0.28150E-05   -0.30935E-05  3872   0.712E-03    0.704E-03
DAV:   6    -0.331038590260E+04    0.30210E-06   -0.35978E-06  2880   0.247E-03
  51 F= -.33244694E+04 E0= -.33244694E+04  d E =-.808418E-03
 BRION: g(F)=  0.213E-02 g(S)=  0.000E+00 retain N=  3 mean eig= 1.57
 eig:   4.226  0.179  0.309
 bond charge predicted
       N       E                     dE             d eps       ncg     rms          rms(c)
DAV:   1    -0.331038578920E+04    0.11371E-03   -0.16415E-02  3712   0.155E-01    0.250E-02
DAV:   2    -0.331038581855E+04   -0.29351E-04   -0.41580E-04  4256   0.222E-02    0.256E-02
DAV:   3    -0.331038581660E+04    0.19433E-05   -0.14340E-05  4832   0.388E-03    0.238E-02
DAV:   4    -0.331038580296E+04    0.13642E-04   -0.15415E-05  3712   0.591E-03    0.115E-02
DAV:   5    -0.331038580128E+04    0.16837E-05   -0.15260E-05  3840   0.460E-03    0.388E-03
DAV:   6    -0.331038580142E+04   -0.14284E-06   -0.22352E-06  2368   0.168E-03
  52 F= -.33244693E+04 E0= -.33244693E+04  d E =0.918583E-04
 BRION: g(F)=  0.206E-02 g(S)=  0.000E+00 retain N=  3 mean eig= 1.96
 eig:   5.306  0.288  0.288
 bond charge predicted
       N       E                     dE             d eps       ncg     rms          rms(c)
DAV:   1    -0.331038684299E+04   -0.10417E-02   -0.12208E-01  3648   0.409E-01    0.569E-02
DAV:   2    -0.331038698577E+04   -0.14278E-03   -0.18787E-03  4192   0.464E-02    0.557E-02
DAV:   3    -0.331038697010E+04    0.15671E-04   -0.60722E-05  4256   0.119E-02    0.475E-02
DAV:   4    -0.331038694968E+04    0.20419E-04   -0.10837E-04  4064   0.153E-02    0.120E-02
DAV:   5    -0.331038695267E+04   -0.29970E-05   -0.38029E-05  3936   0.844E-03    0.804E-03
DAV:   6    -0.331038695218E+04    0.49104E-06   -0.49589E-06  3424   0.304E-03
  53 F= -.33244704E+04 E0= -.33244704E+04  d E =-.112990E-02
 BRION: g(F)=  0.151E-02 g(S)=  0.000E+00 retain N=  3 mean eig= 1.91
 eig:   5.198  0.138  0.388
 bond charge predicted
       N       E                     dE             d eps       ncg     rms          rms(c)
DAV:   1    -0.331038709168E+04   -0.13900E-03   -0.69964E-03  3648   0.101E-01    0.157E-02
DAV:   2    -0.331038710482E+04   -0.13143E-04   -0.17671E-04  4320   0.144E-02    0.162E-02
DAV:   3    -0.331038710444E+04    0.37986E-06   -0.56775E-06  3680   0.255E-03
  54 F= -.33244706E+04 E0= -.33244706E+04  d E =-.146854E-03
 BRION: g(F)=  0.116E-02 g(S)=  0.000E+00 retain N=  3 mean eig= 2.18
 eig:   6.022  0.262  0.262
 bond charge predicted
       N       E                     dE             d eps       ncg     rms          rms(c)
DAV:   1    -0.331038797242E+04   -0.86760E-03   -0.95562E-02  3648   0.360E-01    0.542E-02
DAV:   2    -0.331038807381E+04   -0.10139E-03   -0.14077E-03  4224   0.401E-02    0.518E-02
DAV:   3    -0.331038805745E+04    0.16353E-04   -0.49854E-05  4224   0.127E-02    0.406E-02
DAV:   4    -0.331038805013E+04    0.73216E-05   -0.98341E-05  4032   0.121E-02    0.819E-03
DAV:   5    -0.331038805004E+04    0.97090E-07   -0.21334E-05  3968   0.707E-03    0.639E-03
DAV:   6    -0.331038804983E+04    0.20314E-06   -0.48155E-06  3776   0.266E-03
  55 F= -.33244715E+04 E0= -.33244715E+04  d E =-.931137E-03
 BRION: g(F)=  0.105E-02 g(S)=  0.000E+00 retain N=  3 mean eig= 0.85
 eig:   2.048  0.105  0.391
 bond charge predicted
       N       E                     dE             d eps       ncg     rms          rms(c)
DAV:   1    -0.331038884619E+04   -0.79616E-03   -0.10720E-01  3648   0.383E-01    0.535E-02
DAV:   2    -0.331038897196E+04   -0.12577E-03   -0.16612E-03  4256   0.435E-02    0.524E-02
DAV:   3    -0.331038895818E+04    0.13775E-04   -0.51829E-05  4256   0.110E-02    0.447E-02
DAV:   4    -0.331038894150E+04    0.16682E-04   -0.94638E-05  4064   0.139E-02    0.112E-02
DAV:   5    -0.331038894437E+04   -0.28675E-05   -0.31682E-05  3904   0.726E-03    0.738E-03
DAV:   6    -0.331038894383E+04    0.53586E-06   -0.40342E-06  3424   0.258E-03
  56 F= -.33244724E+04 E0= -.33244724E+04  d E =-.877105E-03
 BRION: g(F)=  0.145E-02 g(S)=  0.000E+00 retain N=  3 mean eig= 1.25
 eig:   3.363  0.189  0.189
 bond charge predicted
       N       E                     dE             d eps       ncg     rms          rms(c)
DAV:   1    -0.331038961038E+04   -0.66601E-03   -0.10873E-01  3648   0.387E-01    0.553E-02
DAV:   2    -0.331038974861E+04   -0.13824E-03   -0.18435E-03  4192   0.461E-02    0.546E-02
DAV:   3    -0.331038973306E+04    0.15548E-04   -0.60058E-05  4256   0.108E-02    0.474E-02
DAV:   4    -0.331038970609E+04    0.26971E-04   -0.10409E-04  4064   0.155E-02    0.136E-02
DAV:   5    -0.331038970989E+04   -0.37979E-05   -0.42056E-05  3872   0.823E-03    0.829E-03
DAV:   6    -0.331038970943E+04    0.46275E-06   -0.51460E-06  3392   0.284E-03
  57 F= -.33244731E+04 E0= -.33244731E+04  d E =-.740947E-03
 BRION: g(F)=  0.236E-02 g(S)=  0.000E+00 retain N=  3 mean eig= 2.38
 eig:   6.722  0.043  0.363
 bond charge predicted
       N       E                     dE             d eps       ncg     rms          rms(c)
DAV:   1    -0.331039118140E+04   -0.14715E-02   -0.60788E-01  3648   0.910E-01    0.127E-01
DAV:   2    -0.331039187970E+04   -0.69829E-03   -0.92549E-03  4192   0.102E-01    0.124E-01
DAV:   3    -0.331039179909E+04    0.80609E-04   -0.28515E-04  4224   0.267E-02    0.105E-01
DAV:   4    -0.331039171408E+04    0.85007E-04   -0.53838E-04  4000   0.324E-02    0.253E-02
DAV:   5    -0.331039172790E+04   -0.13822E-04   -0.16912E-04  3872   0.170E-02    0.172E-02
DAV:   6    -0.331039172518E+04    0.27292E-05   -0.22749E-05  3840   0.604E-03    0.824E-03
DAV:   7    -0.331039172325E+04    0.19283E-05   -0.10700E-05  3936   0.503E-03    0.307E-03
DAV:   8    -0.331039172346E+04   -0.21211E-06   -0.38790E-06  3520   0.234E-03
  58 F= -.33244751E+04 E0= -.33244751E+04  d E =-.197371E-02
 BRION: g(F)=  0.200E-02 g(S)=  0.000E+00 retain N=  3 mean eig= 1.71
 eig:   4.650  0.074  0.397
 bond charge predicted
       N       E                     dE             d eps       ncg     rms          rms(c)
DAV:   1    -0.331038909110E+04    0.26321E-02   -0.67946E-01  3648   0.962E-01    0.134E-01
DAV:   2    -0.331038986082E+04   -0.76971E-03   -0.10217E-02  4192   0.108E-01    0.131E-01
DAV:   3    -0.331038976895E+04    0.91864E-04   -0.31697E-04  4224   0.285E-02    0.110E-01
DAV:   4    -0.331038967450E+04    0.94457E-04   -0.61128E-04  4032   0.346E-02    0.247E-02
DAV:   5    -0.331038968756E+04   -0.13063E-04   -0.18867E-04  3968   0.187E-02    0.176E-02
DAV:   6    -0.331038968521E+04    0.23458E-05   -0.25842E-05  3872   0.646E-03    0.864E-03
DAV:   7    -0.331038968335E+04    0.18633E-05   -0.12062E-05  3936   0.529E-03    0.314E-03
DAV:   8    -0.331038968358E+04   -0.22526E-06   -0.41222E-06  3552   0.246E-03
  59 F= -.33244731E+04 E0= -.33244731E+04  d E =0.198730E-02
 BRION: g(F)=  0.132E-02 g(S)=  0.000E+00 retain N=  3 mean eig= 2.44
 eig:   6.645  0.331  0.331
 bond charge predicted
       N       E                     dE             d eps       ncg     rms          rms(c)
DAV:   1    -0.331039086936E+04   -0.11860E-02   -0.27437E-01  3648   0.609E-01    0.848E-02
DAV:   2    -0.331039117596E+04   -0.30660E-03   -0.40833E-03  4128   0.678E-02    0.826E-02
DAV:   3    -0.331039113896E+04    0.36999E-04   -0.13121E-04  4224   0.182E-02    0.691E-02
DAV:   4    -0.331039110429E+04    0.34666E-04   -0.24514E-04  4000   0.215E-02    0.154E-02
DAV:   5    -0.331039110910E+04   -0.48054E-05   -0.72879E-05  3936   0.115E-02    0.109E-02
DAV:   6    -0.331039110804E+04    0.10617E-05   -0.96060E-06  3872   0.376E-03    0.562E-03
DAV:   7    -0.331039110724E+04    0.79826E-06   -0.49310E-06  3744   0.318E-03
  60 F= -.33244745E+04 E0= -.33244745E+04  d E =-.139215E-02
 BRION: g(F)=  0.828E-03 g(S)=  0.000E+00 retain N=  3 mean eig= 0.93
 eig:   2.138  0.077  0.569
 bond charge predicted
       N       E                     dE             d eps       ncg     rms          rms(c)
DAV:   1    -0.331039161953E+04   -0.51149E-03   -0.53029E-02  3680   0.268E-01    0.374E-02
DAV:   2    -0.331039168177E+04   -0.62241E-04   -0.83098E-04  4192   0.307E-02    0.367E-02
DAV:   3    -0.331039167468E+04    0.70902E-05   -0.27063E-05  4224   0.772E-03    0.313E-02
DAV:   4    -0.331039166659E+04    0.80871E-05   -0.48172E-05  4096   0.101E-02    0.796E-03
DAV:   5    -0.331039166799E+04   -0.14020E-05   -0.16418E-05  3904   0.534E-03    0.528E-03
DAV:   6    -0.331039166774E+04    0.25518E-06   -0.18859E-06  2560   0.174E-03
  61 F= -.33244750E+04 E0= -.33244750E+04  d E =-.547756E-03
 BRION: g(F)=  0.819E-03 g(S)=  0.000E+00 retain N=  3 mean eig= 1.92
 eig:   5.028  0.365  0.365
 bond charge predicted
       N       E                     dE             d eps       ncg     rms          rms(c)
DAV:   1    -0.331039249634E+04   -0.82835E-03   -0.20303E-01  3680   0.524E-01    0.733E-02
DAV:   2    -0.331039273025E+04   -0.23391E-03   -0.31244E-03  4192   0.594E-02    0.717E-02
DAV:   3    -0.331039270206E+04    0.28188E-04   -0.98315E-05  4224   0.152E-02    0.606E-02
DAV:   4    -0.331039267429E+04    0.27776E-04   -0.18639E-04  4000   0.188E-02    0.145E-02
DAV:   5    -0.331039267884E+04   -0.45502E-05   -0.56618E-05  3872   0.970E-03    0.982E-03
DAV:   6    -0.331039267799E+04    0.84448E-06   -0.71786E-06  3872   0.327E-03
  62 F= -.33244760E+04 E0= -.33244760E+04  d E =-.991452E-03
 BRION: g(F)=  0.110E-02 g(S)=  0.000E+00 retain N=  3 mean eig= 1.04
 eig:   2.303  0.322  0.490
 bond charge predicted
       N       E                     dE             d eps       ncg     rms          rms(c)
DAV:   1    -0.331039358681E+04   -0.90798E-03   -0.30603E-01  3680   0.643E-01    0.896E-02
DAV:   2    -0.331039394172E+04   -0.35491E-03   -0.47100E-03  4128   0.728E-02    0.878E-02
DAV:   3    -0.331039390125E+04    0.40471E-04   -0.14721E-04  4224   0.185E-02    0.745E-02
DAV:   4    -0.331039385978E+04    0.41468E-04   -0.27513E-04  4000   0.231E-02    0.181E-02
DAV:   5    -0.331039386721E+04   -0.74280E-05   -0.86316E-05  3936   0.118E-02    0.121E-02
DAV:   6    -0.331039386575E+04    0.14557E-05   -0.10600E-05  3872   0.393E-03    0.624E-03
DAV:   7    -0.331039386461E+04    0.11398E-05   -0.62013E-06  3744   0.360E-03    0.204E-03
DAV:   8    -0.331039386472E+04   -0.10920E-06   -0.18097E-06  2496   0.168E-03
  63 F= -.33244772E+04 E0= -.33244772E+04  d E =-.115358E-02
 BRION: g(F)=  0.111E-02 g(S)=  0.000E+00 retain N=  2 mean eig= 0.67
 eig:   0.089  1.245
 bond charge predicted
       N       E                     dE             d eps       ncg     rms          rms(c)
DAV:   1    -0.331039266195E+04    0.12027E-02   -0.18777E-01  3648   0.508E-01    0.716E-02
DAV:   2    -0.331039289228E+04   -0.23033E-03   -0.30773E-03  4160   0.596E-02    0.704E-02
DAV:   3    -0.331039286554E+04    0.26745E-04   -0.10439E-04  4224   0.145E-02    0.603E-02
DAV:   4    -0.331039282609E+04    0.39447E-04   -0.16578E-04  4032   0.189E-02    0.175E-02
DAV:   5    -0.331039283149E+04   -0.54025E-05   -0.60646E-05  3904   0.102E-02    0.106E-02
DAV:   6    -0.331039283092E+04    0.57335E-06   -0.83472E-06  3840   0.371E-03
  64 F= -.33244762E+04 E0= -.33244762E+04  d E =0.101988E-02
 BRION: g(F)=  0.300E-02 g(S)=  0.000E+00 retain N=  3 mean eig= 1.13
 eig:   2.885  0.252  0.252
 bond charge predicted
       N       E                     dE             d eps       ncg     rms          rms(c)
DAV:   1    -0.331039344527E+04   -0.61378E-03   -0.56853E-02  3648   0.281E-01    0.403E-02
DAV:   2    -0.331039351906E+04   -0.73785E-04   -0.10086E-03  4192   0.342E-02    0.399E-02
DAV:   3    -0.331039350946E+04    0.95925E-05   -0.34735E-05  4384   0.771E-03    0.345E-02
DAV:   4    -0.331039349240E+04    0.17058E-04   -0.54599E-05  4096   0.112E-02    0.110E-02
DAV:   5    -0.331039349405E+04   -0.16468E-05   -0.22197E-05  3840   0.646E-03    0.629E-03
DAV:   6    -0.331039349398E+04    0.72527E-07   -0.30012E-06  2816   0.225E-03
  65 F= -.33244768E+04 E0= -.33244768E+04  d E =-.658554E-03
 BRION: g(F)=  0.709E-03 g(S)=  0.000E+00 retain N=  3 mean eig= 2.11
 eig:   5.817  0.160  0.344
 bond charge predicted
       N       E                     dE             d eps       ncg     rms          rms(c)
DAV:   1    -0.331039390721E+04   -0.41316E-03   -0.43972E-02  3680   0.243E-01    0.341E-02
DAV:   2    -0.331039395887E+04   -0.51658E-04   -0.68845E-04  4256   0.279E-02    0.334E-02
DAV:   3    -0.331039395289E+04    0.59750E-05   -0.22129E-05  4256   0.693E-03    0.284E-02
DAV:   4    -0.331039394688E+04    0.60132E-05   -0.38137E-05  4064   0.852E-03    0.749E-03
DAV:   5    -0.331039394809E+04   -0.12114E-05   -0.11953E-05  3904   0.428E-03    0.463E-03
DAV:   6    -0.331039394785E+04    0.23853E-06   -0.13397E-06  2368   0.148E-03
  66 F= -.33244773E+04 E0= -.33244773E+04  d E =-.444622E-03
 BRION: g(F)=  0.471E-03 g(S)=  0.000E+00 retain N=  2 mean eig= 0.15
 eig:   0.151  0.151
 bond charge predicted
       N       E                     dE             d eps       ncg     rms          rms(c)
DAV:   1    -0.331039432650E+04   -0.37841E-03   -0.53047E-02  3680   0.267E-01    0.374E-02
DAV:   2    -0.331039439038E+04   -0.63884E-04   -0.85802E-04  4256   0.310E-02    0.368E-02
DAV:   3    -0.331039438255E+04    0.78375E-05   -0.26167E-05  4224   0.731E-03    0.315E-02
DAV:   4    -0.331039437372E+04    0.88244E-05   -0.50548E-05  4032   0.980E-03    0.837E-03
DAV:   5    -0.331039437521E+04   -0.14876E-05   -0.15651E-05  3904   0.485E-03    0.528E-03
DAV:   6    -0.331039437495E+04    0.26217E-06   -0.17241E-06  2528   0.166E-03
  67 F= -.33244777E+04 E0= -.33244777E+04  d E =-.411394E-03
 BRION: g(F)=  0.770E-03 g(S)=  0.000E+00 retain N=  3 mean eig= 0.31
 eig:   0.471  0.163  0.294
 bond charge predicted
       N       E                     dE             d eps       ncg     rms          rms(c)
DAV:   1    -0.331039454718E+04   -0.17197E-03   -0.86943E-03  3680   0.110E-01    0.160E-02
DAV:   2    -0.331039455968E+04   -0.12498E-04   -0.16931E-04  4256   0.140E-02    0.161E-02
DAV:   3    -0.331039455845E+04    0.12332E-05   -0.57354E-06  3808   0.292E-03    0.144E-02
DAV:   4    -0.331039455539E+04    0.30575E-05   -0.76167E-06  3840   0.453E-03    0.561E-03
DAV:   5    -0.331039455574E+04   -0.34866E-06   -0.47062E-06  3584   0.262E-03
  68 F= -.33244779E+04 E0= -.33244779E+04  d E =-.179908E-03
 BRION: g(F)=  0.464E-03 g(S)=  0.000E+00 retain N=  1 mean eig= 0.19
 eig:   0.195
 bond charge predicted
       N       E                     dE             d eps       ncg     rms          rms(c)
DAV:   1    -0.331039484481E+04   -0.28942E-03   -0.43210E-02  3680   0.241E-01    0.345E-02
DAV:   2    -0.331039489832E+04   -0.53505E-04   -0.71859E-04  4256   0.285E-02    0.341E-02
DAV:   3    -0.331039489176E+04    0.65530E-05   -0.23257E-05  4256   0.654E-03    0.291E-02
DAV:   4    -0.331039488403E+04    0.77357E-05   -0.38869E-05  4064   0.864E-03    0.848E-03
DAV:   5    -0.331039488539E+04   -0.13619E-05   -0.12592E-05  3872   0.433E-03    0.488E-03
DAV:   6    -0.331039488522E+04    0.17206E-06   -0.15955E-06  2400   0.157E-03
  69 F= -.33244782E+04 E0= -.33244782E+04  d E =-.323957E-03
 BRION: g(F)=  0.914E-03 g(S)=  0.000E+00 retain N=  2 mean eig= 0.20
 eig:   0.202  0.202
 bond charge predicted
       N       E                     dE             d eps       ncg     rms          rms(c)
DAV:   1    -0.331039502337E+04   -0.13798E-03   -0.54729E-03  3648   0.886E-02    0.136E-02
DAV:   2    -0.331039503235E+04   -0.89731E-05   -0.12483E-04  4192   0.121E-02    0.139E-02
DAV:   3    -0.331039503175E+04    0.59512E-06   -0.43641E-06  3488   0.232E-03
  70 F= -.33244783E+04 E0= -.33244783E+04  d E =-.139517E-03
 BRION: g(F)=  0.400E-03 g(S)=  0.000E+00 retain N=  1 mean eig= 0.21
 eig:   0.209
 bond charge predicted
       N       E                     dE             d eps       ncg     rms          rms(c)
DAV:   1    -0.331039537657E+04   -0.34422E-03   -0.43545E-02  3680   0.240E-01    0.375E-02
DAV:   2    -0.331039542179E+04   -0.45219E-04   -0.66340E-04  4224   0.272E-02    0.357E-02
DAV:   3    -0.331039541176E+04    0.10030E-04   -0.24448E-05  4192   0.846E-03    0.266E-02
DAV:   4    -0.331039541004E+04    0.17192E-05   -0.49839E-05  3968   0.813E-03    0.562E-03
DAV:   5    -0.331039540963E+04    0.40710E-06   -0.10081E-05  3968   0.443E-03    0.431E-03
DAV:   6    -0.331039540961E+04    0.23167E-07   -0.21440E-06  2720   0.179E-03
  71 F= -.33244787E+04 E0= -.33244787E+04  d E =-.368904E-03
 BRION: g(F)=  0.396E-03 g(S)=  0.000E+00 retain N=  2 mean eig= 0.25
 eig:   0.053  0.450
 bond charge predicted
       N       E                     dE             d eps       ncg     rms          rms(c)
DAV:   1    -0.331039559214E+04   -0.18251E-03   -0.15293E-02  3680   0.144E-01    0.205E-02
DAV:   2    -0.331039561163E+04   -0.19490E-04   -0.26570E-04  4224   0.174E-02    0.203E-02
DAV:   3    -0.331039560918E+04    0.24501E-05   -0.85417E-06  4032   0.385E-03    0.176E-02
DAV:   4    -0.331039560567E+04    0.35045E-05   -0.15575E-05  3904   0.561E-03    0.502E-03
DAV:   5    -0.331039560618E+04   -0.50443E-06   -0.51026E-06  3328   0.281E-03
  72 F= -.33244789E+04 E0= -.33244789E+04  d E =-.191256E-03
 BRION: g(F)=  0.512E-03 g(S)=  0.000E+00 retain N=  2 mean eig= 3.84
 eig:   0.155  7.523
 bond charge predicted
       N       E                     dE             d eps       ncg     rms          rms(c)
DAV:   1    -0.331039617178E+04   -0.56611E-03   -0.32906E-01  3680   0.661E-01    0.930E-02
DAV:   2    -0.331039655766E+04   -0.38588E-03   -0.52067E-03  4160   0.758E-02    0.912E-02
DAV:   3    -0.331039650597E+04    0.51694E-04   -0.15355E-04  4224   0.179E-02    0.769E-02
DAV:   4    -0.331039646331E+04    0.42656E-04   -0.31764E-04  4032   0.234E-02    0.189E-02
DAV:   5    -0.331039647051E+04   -0.71959E-05   -0.85730E-05  3904   0.114E-02    0.123E-02
DAV:   6    -0.331039646942E+04    0.10878E-05   -0.11294E-05  3936   0.396E-03    0.593E-03
DAV:   7    -0.331039646880E+04    0.61619E-06   -0.52162E-06  3680   0.284E-03
  73 F= -.33244797E+04 E0= -.33244797E+04  d E =-.838359E-03
 BRION: g(F)=  0.157E-02 g(S)=  0.000E+00 retain N=  2 mean eig= 0.21
 eig:   0.207  0.207
 bond charge predicted
       N       E                     dE             d eps       ncg     rms          rms(c)
DAV:   1    -0.331039582014E+04    0.64928E-03   -0.15358E-01  3680   0.452E-01    0.642E-02
DAV:   2    -0.331039600062E+04   -0.18048E-03   -0.24687E-03  4224   0.524E-02    0.630E-02
DAV:   3    -0.331039597423E+04    0.26387E-04   -0.72155E-05  4288   0.122E-02    0.531E-02
DAV:   4    -0.331039594854E+04    0.25690E-04   -0.15864E-04  4000   0.164E-02    0.131E-02
DAV:   5    -0.331039595178E+04   -0.32333E-05   -0.41546E-05  3936   0.793E-03    0.861E-03
DAV:   6    -0.331039595142E+04    0.35123E-06   -0.54146E-06  3776   0.284E-03
  74 F= -.33244792E+04 E0= -.33244792E+04  d E =0.503175E-03
 BRION: g(F)=  0.346E-03 g(S)=  0.000E+00 retain N=  1 mean eig= 0.23
 eig:   0.226
 bond charge predicted
       N       E                     dE             d eps       ncg     rms          rms(c)
DAV:   1    -0.331039630181E+04   -0.35003E-03   -0.52774E-02  3680   0.263E-01    0.370E-02
DAV:   2    -0.331039636028E+04   -0.58471E-04   -0.80751E-04  4160   0.297E-02    0.360E-02
DAV:   3    -0.331039635053E+04    0.97462E-05   -0.23145E-05  4224   0.741E-03    0.294E-02
DAV:   4    -0.331039634460E+04    0.59350E-05   -0.55399E-05  3968   0.921E-03    0.629E-03
DAV:   5    -0.331039634502E+04   -0.42189E-06   -0.12845E-05  3936   0.460E-03    0.459E-03
DAV:   6    -0.331039634490E+04    0.11676E-06   -0.15818E-06  2368   0.162E-03
  75 F= -.33244796E+04 E0= -.33244796E+04  d E =-.381395E-03
 BRION: g(F)=  0.312E-03 g(S)=  0.000E+00 retain N=  2 mean eig= 0.79
 eig:   0.209  1.374
 bond charge predicted
       N       E                     dE             d eps       ncg     rms          rms(c)
DAV:   1    -0.331039666920E+04   -0.32418E-03   -0.64176E-02  3712   0.291E-01    0.412E-02
DAV:   2    -0.331039674557E+04   -0.76377E-04   -0.10436E-03  4256   0.339E-02    0.404E-02
DAV:   3    -0.331039673474E+04    0.10830E-04   -0.30168E-05  4288   0.780E-03    0.342E-02
DAV:   4    -0.331039672542E+04    0.93211E-05   -0.66924E-05  4032   0.107E-02    0.831E-03
DAV:   5    -0.331039672686E+04   -0.14342E-05   -0.17479E-05  3904   0.506E-03    0.549E-03
DAV:   6    -0.331039672664E+04    0.21572E-06   -0.19818E-06  2624   0.174E-03
  76 F= -.33244800E+04 E0= -.33244800E+04  d E =-.369997E-03
 BRION: g(F)=  0.557E-03 g(S)=  0.000E+00 retain N=  3 mean eig= 1.31
 eig:   3.427  0.218  0.282
 bond charge predicted
       N       E                     dE             d eps       ncg     rms          rms(c)
DAV:   1    -0.331039459919E+04    0.21277E-02   -0.61346E+00  3712   0.284E+00    0.399E-01
DAV:   2    -0.331040165433E+04   -0.70551E-02   -0.95865E-02  4192   0.323E-01    0.389E-01
DAV:   3    -0.331040063680E+04    0.10175E-02   -0.27573E-03  4192   0.779E-02    0.324E-01
DAV:   4    -0.331039991484E+04    0.72196E-03   -0.61657E-03  3936   0.992E-02    0.740E-02
DAV:   5    -0.331040001393E+04   -0.99098E-04   -0.15195E-03  3904   0.473E-02    0.504E-02
DAV:   6    -0.331039999642E+04    0.17509E-04   -0.19733E-04  3872   0.165E-02    0.248E-02
DAV:   7    -0.331039998775E+04    0.86777E-05   -0.10539E-04  3968   0.124E-02    0.770E-03
DAV:   8    -0.331039998899E+04   -0.12411E-05   -0.26620E-05  4064   0.572E-03    0.473E-03
DAV:   9    -0.331039998850E+04    0.48534E-06   -0.25300E-06  3296   0.215E-03
  77 F= -.33244831E+04 E0= -.33244831E+04  d E =-.313977E-02
 BRION: g(F)=  0.296E-03 g(S)=  0.000E+00 retain N=  2 mean eig= 2.30
 eig:   0.513  4.084
 bond charge predicted
       N       E                     dE             d eps       ncg     rms          rms(c)
DAV:   1    -0.331039734437E+04    0.26446E-02   -0.14204E+00  3680   0.137E+00    0.192E-01
DAV:   2    -0.331039897473E+04   -0.16304E-02   -0.22140E-02  4128   0.156E-01    0.188E-01
DAV:   3    -0.331039874349E+04    0.23124E-03   -0.63998E-04  4256   0.375E-02    0.157E-01
DAV:   4    -0.331039857302E+04    0.17047E-03   -0.14031E-03  4064   0.480E-02    0.359E-02
DAV:   5    -0.331039859696E+04   -0.23939E-04   -0.35621E-04  3872   0.234E-02    0.244E-02
DAV:   6    -0.331039859320E+04    0.37535E-05   -0.46972E-05  3872   0.807E-03    0.120E-02
DAV:   7    -0.331039859116E+04    0.20411E-05   -0.24074E-05  4000   0.600E-03    0.386E-03
DAV:   8    -0.331039859149E+04   -0.33341E-06   -0.61224E-06  3936   0.278E-03
  78 F= -.33244818E+04 E0= -.33244818E+04  d E =0.134376E-02
 BRION: g(F)=  0.791E-03 g(S)=  0.000E+00 retain N=  2 mean eig= 1.83
 eig:   3.040  0.627
 bond charge predicted
       N       E                     dE             d eps       ncg     rms          rms(c)
DAV:   1    -0.331039897089E+04   -0.37973E-03   -0.10127E+00  3712   0.115E+00    0.162E-01
DAV:   2    -0.331040012448E+04   -0.11536E-02   -0.15861E-02  4096   0.131E-01    0.158E-01
DAV:   3    -0.331039994485E+04    0.17963E-03   -0.45841E-04  4224   0.317E-02    0.131E-01
DAV:   4    -0.331039983337E+04    0.11148E-03   -0.10386E-03  4064   0.401E-02    0.295E-02
DAV:   5    -0.331039984717E+04   -0.13802E-04   -0.24543E-04  3872   0.191E-02    0.203E-02
DAV:   6    -0.331039984503E+04    0.21469E-05   -0.33444E-05  3904   0.680E-03    0.972E-03
DAV:   7    -0.331039984417E+04    0.85332E-06   -0.15805E-05  4000   0.467E-03    0.322E-03
DAV:   8    -0.331039984430E+04   -0.12841E-06   -0.37691E-06  3136   0.220E-03
  79 F= -.33244830E+04 E0= -.33244830E+04  d E =-.120432E-02
 BRION: g(F)=  0.216E-03 g(S)=  0.000E+00 retain N=  3 mean eig= 2.64
 eig:   4.460  2.525  0.935
 reached required accuracy - stopping structural energy minimisation
 PROFILE, used timers:     336
