Ge Se
 1.0000000000000000
     4.6999999999999993    0.0000000000000000    0.0000000000000000
     0.0000000000000000    4.7500000000000000    0.0000000000000000
     0.0000000000000000    0.0000000000000000   11.1422209999999993
 Ge  Se 
   4   4
Selective dynamics
Cartesian
  1.1749999999999998  0.5071625520405345  1.5461211779862514   T   T   T
  3.5249999999999995  2.8821625520405343  4.0249893220137487   T   T   T
  3.5249999999999995  4.2428374479594666  9.5960998220137466   T   T   T
  1.1749999999999998  1.8678374479594657  7.1172316779862497   T   T   T
  1.1749999999999998 -0.3210215666547396  3.9076833834139615   T   T   T
  3.5249999999999995  2.0539784333452604  1.6634271165860368   T   T   T
  3.5249999999999995  5.0710215666547374  7.2345376165860378   T   T   T
  1.1749999999999998  2.6960215666547391  9.4787938834139620   T   T   T
