Ge Se
 1.0000000000000000
     4.7000000000000002    0.0000000000000000    0.0000000000000000
     0.0000000000000000    3.8999999999999995    0.0000000000000000
     0.0000000000000000    0.0000000000000000   11.1422210000000010
 Ge  Se 
   4   4
Selective dynamics
Cartesian
  0.5180937656622807  0.9750000000000001  1.3925298865028322   T   T   T
  2.8680937656622820  2.9249999999999998  4.1785806134971688   T   T   T
  4.1819062343377196  2.9249999999999998  9.7496911134971675   T   T   T
  1.8319062343377190  0.9750000000000001  6.9636403865028340   T   T   T
 -0.1245813124443566  0.9750000000000001  3.9034277980455552   T   T   T
  2.2254186875556439  2.9249999999999998  1.6676827019544447   T   T   T
  4.8245813124443577  2.9249999999999998  7.2387932019544454   T   T   T
  2.4745813124443563  0.9750000000000001  9.4745382980455553   T   T   T
