Ge Se 
 1.0000000000000000
    23.1486008672739842    0.0000000000000000    0.0000000000000000
     0.0000000000000000   27.1594512754624837    0.0000000000000000
     0.0000000000000000    0.0000000000000000   22.1703538108823395
 Ge  Se 
 288 288
Cartesian
  0.9645250365841038  0.5234617475239711  1.3794657700054431
  4.8226251811297685  0.5234617475239711  1.3694657700054451
  8.6807253256754340  0.5234617475239711  1.3694657700054451
 12.5388254702210951  0.5234617475239711  1.3694657700054451
 16.3969256147667615  0.5234617475239711  1.3694657700054451
 20.2550257593124243  0.5234617475239711  1.3694657700054451
  0.9645250365841038  5.0500369601010497  1.3694657700054451
  4.8226251811297685  5.0500369601010497  1.3694657700054451
  8.6807253256754340  5.0500369601010497  1.3694657700054451
 12.5388254702210951  5.0500369601010497  1.3694657700054451
 16.3969256147667615  5.0500369601010497  1.3694657700054451
 20.2550257593124243  5.0500369601010497  1.3694657700054451
  0.9645250365841038  9.5766121726781321  1.3694657700054451
  4.8226251811297685  9.5766121726781321  1.3694657700054451
  8.6807253256754340  9.5766121726781321  1.3694657700054451
 12.5388254702210951  9.5766121726781321  1.3694657700054451
 16.3969256147667615  9.5766121726781321  1.3694657700054451
 20.2550257593124243  9.5766121726781321  1.3694657700054451
  0.9645250365841038 14.1031873852552128  1.3694657700054451
  4.8226251811297685 14.1031873852552128  1.3694657700054451
  8.6807253256754340 14.1031873852552128  1.3694657700054451
 12.5388254702210951 14.1031873852552128  1.3694657700054451
 16.3969256147667615 14.1031873852552128  1.3694657700054451
 20.2550257593124243 14.1031873852552128  1.3694657700054451
  0.9645250365841038 18.6297625978322969  1.3694657700054451
  4.8226251811297685 18.6297625978322969  1.3694657700054451
  8.6807253256754340 18.6297625978322969  1.3694657700054451
 12.5388254702210951 18.6297625978322969  1.3694657700054451
 16.3969256147667615 18.6297625978322969  1.3694657700054451
 20.2550257593124243 18.6297625978322969  1.3694657700054451
  0.9645250365841038 23.1563378104093758  1.3694657700054451
  4.8226251811297685 23.1563378104093758  1.3694657700054451
  8.6807253256754340 23.1563378104093758  1.3694657700054451
 12.5388254702210951 23.1563378104093758  1.3694657700054451
 16.3969256147667615 23.1563378104093758  1.3694657700054451
 20.2550257593124243 23.1563378104093758  1.3694657700054451
  0.9645250365841038  0.5234617475239711 12.4546426754466122
  4.8226251811297685  0.5234617475239711 12.4546426754466122
  8.6807253256754340  0.5234617475239711 12.4546426754466122
 12.5388254702210951  0.5234617475239711 12.4546426754466122
 16.3969256147667615  0.5234617475239711 12.4546426754466122
 20.2550257593124243  0.5234617475239711 12.4546426754466122
  0.9645250365841038  5.0500369601010497 12.4546426754466122
  4.8226251811297685  5.0500369601010497 12.4546426754466122
  8.6807253256754340  5.0500369601010497 12.4546426754466122
 12.5388254702210951  5.0500369601010497 12.4546426754466122
 16.3969256147667615  5.0500369601010497 12.4546426754466122
 20.2550257593124243  5.0500369601010497 12.4546426754466122
  0.9645250365841038  9.5766121726781321 12.4546426754466122
  4.8226251811297685  9.5766121726781321 12.4546426754466122
  8.6807253256754340  9.5766121726781321 12.4546426754466122
 12.5388254702210951  9.5766121726781321 12.4546426754466122
 16.3969256147667615  9.5766121726781321 12.4546426754466122
 20.2550257593124243  9.5766121726781321 12.4546426754466122
  0.9645250365841038 14.1031873852552128 12.4546426754466122
  4.8226251811297685 14.1031873852552128 12.4546426754466122
  8.6807253256754340 14.1031873852552128 12.4546426754466122
 12.5388254702210951 14.1031873852552128 12.4546426754466122
 16.3969256147667615 14.1031873852552128 12.4546426754466122
 20.2550257593124243 14.1031873852552128 12.4546426754466122
  0.9645250365841038 18.6297625978322969 12.4546426754466122
  4.8226251811297685 18.6297625978322969 12.4546426754466122
  8.6807253256754340 18.6297625978322969 12.4546426754466122
 12.5388254702210951 18.6297625978322969 12.4546426754466122
 16.3969256147667615 18.6297625978322969 12.4546426754466122
 20.2550257593124243 18.6297625978322969 12.4546426754466122
  0.9645250365841038 23.1563378104093758 12.4546426754466122
  4.8226251811297685 23.1563378104093758 12.4546426754466122
  8.6807253256754340 23.1563378104093758 12.4546426754466122
 12.5388254702210951 23.1563378104093758 12.4546426754466122
 16.3969256147667615 23.1563378104093758 12.4546426754466122
 20.2550257593124243 23.1563378104093758 12.4546426754466122
  2.8935751087574535  4.0031135670283353  9.7157109704845794
  6.7516752533031168  4.0031135670283353  9.7157109704845794
 10.6097753978487788  4.0031135670283353  9.7157109704845794
 14.4678755423944452  4.0031135670283353  9.7157109704845794
 18.3259756869401080  4.0031135670283353  9.7157109704845794
 22.1840758314857709  4.0031135670283353  9.7157109704845794
  2.8935751087574535  8.5296887796054133  9.7157109704845794
  6.7516752533031168  8.5296887796054133  9.7157109704845794
 10.6097753978487788  8.5296887796054133  9.7157109704845794
 14.4678755423944452  8.5296887796054133  9.7157109704845794
 18.3259756869401080  8.5296887796054133  9.7157109704845794
 22.1840758314857709  8.5296887796054133  9.7157109704845794
  2.8935751087574535 13.0562639921824957  9.7157109704845794
  6.7516752533031168 13.0562639921824957  9.7157109704845794
 10.6097753978487788 13.0562639921824957  9.7157109704845794
 14.4678755423944452 13.0562639921824957  9.7157109704845794
 18.3259756869401080 13.0562639921824957  9.7157109704845794
 22.1840758314857709 13.0562639921824957  9.7157109704845794
  2.8935751087574535 17.5828392047595727  9.7157109704845794
  6.7516752533031168 17.5828392047595727  9.7157109704845794
 10.6097753978487788 17.5828392047595727  9.7157109704845794
 14.4678755423944452 17.5828392047595727  9.7157109704845794
 18.3259756869401080 17.5828392047595727  9.7157109704845794
 22.1840758314857709 17.5828392047595727  9.7157109704845794
  2.8935751087574535 22.1094144173366587  9.7157109704845794
  6.7516752533031168 22.1094144173366587  9.7157109704845794
 10.6097753978487788 22.1094144173366587  9.7157109704845794
 14.4678755423944452 22.1094144173366587  9.7157109704845794
 18.3259756869401080 22.1094144173366587  9.7157109704845794
 22.1840758314857709 22.1094144173366587  9.7157109704845794
  2.8935751087574535 26.6359896299137375  9.7157109704845794
  6.7516752533031168 26.6359896299137375  9.7157109704845794
 10.6097753978487788 26.6359896299137375  9.7157109704845794
 14.4678755423944452 26.6359896299137375  9.7157109704845794
 18.3259756869401080 26.6359896299137375  9.7157109704845794
 22.1840758314857709 26.6359896299137375  9.7157109704845794
  2.8935751087574535  4.0031135670283353 20.8008878759257492
  6.7516752533031168  4.0031135670283353 20.8008878759257492
 10.6097753978487788  4.0031135670283353 20.8008878759257492
 14.4678755423944452  4.0031135670283353 20.8008878759257492
 18.3259756869401080  4.0031135670283353 20.8008878759257492
 22.1840758314857709  4.0031135670283353 20.8008878759257492
  2.8935751087574535  8.5296887796054133 20.8008878759257492
  6.7516752533031168  8.5296887796054133 20.8008878759257492
 10.6097753978487788  8.5296887796054133 20.8008878759257492
 14.4678755423944452  8.5296887796054133 20.8008878759257492
 18.3259756869401080  8.5296887796054133 20.8008878759257492
 22.1840758314857709  8.5296887796054133 20.8008878759257492
  2.8935751087574535 13.0562639921824957 20.8008878759257492
  6.7516752533031168 13.0562639921824957 20.8008878759257492
 10.6097753978487788 13.0562639921824957 20.8008878759257492
 14.4678755423944452 13.0562639921824957 20.8008878759257492
 18.3259756869401080 13.0562639921824957 20.8008878759257492
 22.1840758314857709 13.0562639921824957 20.8008878759257492
  2.8935751087574535 17.5828392047595727 20.8008878759257492
  6.7516752533031168 17.5828392047595727 20.8008878759257492
 10.6097753978487788 17.5828392047595727 20.8008878759257492
 14.4678755423944452 17.5828392047595727 20.8008878759257492
 18.3259756869401080 17.5828392047595727 20.8008878759257492
 22.1840758314857709 17.5828392047595727 20.8008878759257492
  2.8935751087574535 22.1094144173366587 20.8008878759257492
  6.7516752533031168 22.1094144173366587 20.8008878759257492
 10.6097753978487788 22.1094144173366587 20.8008878759257492
 14.4678755423944452 22.1094144173366587 20.8008878759257492
 18.3259756869401080 22.1094144173366587 20.8008878759257492
 22.1840758314857709 22.1094144173366587 20.8008878759257492
  2.8935751087574535 26.6359896299137375 20.8008878759257492
  6.7516752533031168 26.6359896299137375 20.8008878759257492
 10.6097753978487788 26.6359896299137375 20.8008878759257492
 14.4678755423944452 26.6359896299137375 20.8008878759257492
 18.3259756869401080 26.6359896299137375 20.8008878759257492
 22.1840758314857709 26.6359896299137375 20.8008878759257492
  2.8935751087574535  2.7867492520860035  4.1731225181619118
  6.7516752533031168  2.7867492520860035  4.1731225181619118
 10.6097753978487788  2.7867492520860035  4.1731225181619118
 14.4678755423944452  2.7867492520860035  4.1731225181619118
 18.3259756869401080  2.7867492520860035  4.1731225181619118
 22.1840758314857709  2.7867492520860035  4.1731225181619118
  2.8935751087574535  7.3133244646630855  4.1731225181619118
  6.7516752533031168  7.3133244646630855  4.1731225181619118
 10.6097753978487788  7.3133244646630855  4.1731225181619118
 14.4678755423944452  7.3133244646630855  4.1731225181619118
 18.3259756869401080  7.3133244646630855  4.1731225181619118
 22.1840758314857709  7.3133244646630855  4.1731225181619118
  2.8935751087574535 11.8398996772401635  4.1731225181619118
  6.7516752533031168 11.8398996772401635  4.1731225181619118
 10.6097753978487788 11.8398996772401635  4.1731225181619118
 14.4678755423944452 11.8398996772401635  4.1731225181619118
 18.3259756869401080 11.8398996772401635  4.1731225181619118
 22.1840758314857709 11.8398996772401635  4.1731225181619118
  2.8935751087574535 16.3664748898172441  4.1731225181619118
  6.7516752533031168 16.3664748898172441  4.1731225181619118
 10.6097753978487788 16.3664748898172441  4.1731225181619118
 14.4678755423944452 16.3664748898172441  4.1731225181619118
 18.3259756869401080 16.3664748898172441  4.1731225181619118
 22.1840758314857709 16.3664748898172441  4.1731225181619118
  2.8935751087574535 20.8930501023943229  4.1731225181619118
  6.7516752533031168 20.8930501023943229  4.1731225181619118
 10.6097753978487788 20.8930501023943229  4.1731225181619118
 14.4678755423944452 20.8930501023943229  4.1731225181619118
 18.3259756869401080 20.8930501023943229  4.1731225181619118
 22.1840758314857709 20.8930501023943229  4.1731225181619118
  2.8935751087574535 25.4196253149714053  4.1731225181619118
  6.7516752533031168 25.4196253149714053  4.1731225181619118
 10.6097753978487788 25.4196253149714053  4.1731225181619118
 14.4678755423944452 25.4196253149714053  4.1731225181619118
 18.3259756869401080 25.4196253149714053  4.1731225181619118
 22.1840758314857709 25.4196253149714053  4.1731225181619118
  2.8935751087574535  2.7867492520860035 15.2582994236030807
  6.7516752533031168  2.7867492520860035 15.2582994236030807
 10.6097753978487788  2.7867492520860035 15.2582994236030807
 14.4678755423944452  2.7867492520860035 15.2582994236030807
 18.3259756869401080  2.7867492520860035 15.2582994236030807
 22.1840758314857709  2.7867492520860035 15.2582994236030807
  2.8935751087574535  7.3133244646630855 15.2582994236030807
  6.7516752533031168  7.3133244646630855 15.2582994236030807
 10.6097753978487788  7.3133244646630855 15.2582994236030807
 14.4678755423944452  7.3133244646630855 15.2582994236030807
 18.3259756869401080  7.3133244646630855 15.2582994236030807
 22.1840758314857709  7.3133244646630855 15.2582994236030807
  2.8935751087574535 11.8398996772401635 15.2582994236030807
  6.7516752533031168 11.8398996772401635 15.2582994236030807
 10.6097753978487788 11.8398996772401635 15.2582994236030807
 14.4678755423944452 11.8398996772401635 15.2582994236030807
 18.3259756869401080 11.8398996772401635 15.2582994236030807
 22.1840758314857709 11.8398996772401635 15.2582994236030807
  2.8935751087574535 16.3664748898172441 15.2582994236030807
  6.7516752533031168 16.3664748898172441 15.2582994236030807
 10.6097753978487788 16.3664748898172441 15.2582994236030807
 14.4678755423944452 16.3664748898172441 15.2582994236030807
 18.3259756869401080 16.3664748898172441 15.2582994236030807
 22.1840758314857709 16.3664748898172441 15.2582994236030807
  2.8935751087574535 20.8930501023943229 15.2582994236030807
  6.7516752533031168 20.8930501023943229 15.2582994236030807
 10.6097753978487788 20.8930501023943229 15.2582994236030807
 14.4678755423944452 20.8930501023943229 15.2582994236030807
 18.3259756869401080 20.8930501023943229 15.2582994236030807
 22.1840758314857709 20.8930501023943229 15.2582994236030807
  2.8935751087574535 25.4196253149714053 15.2582994236030807
  6.7516752533031168 25.4196253149714053 15.2582994236030807
 10.6097753978487788 25.4196253149714053 15.2582994236030807
 14.4678755423944452 25.4196253149714053 15.2582994236030807
 18.3259756869401080 25.4196253149714053 15.2582994236030807
 22.1840758314857709 25.4196253149714053 15.2582994236030807
  0.9645250365841038  1.7398258256847912  6.9120543874782170
  4.8226251811297685  1.7398258256847912  6.9120543874782170
  8.6807253256754340  1.7398258256847912  6.9120543874782170
 12.5388254702210951  1.7398258256847912  6.9120543874782170
 16.3969256147667615  1.7398258256847912  6.9120543874782170
 20.2550257593124243  1.7398258256847912  6.9120543874782170
  0.9645250365841038  6.2664010382618729  6.9120543874782170
  4.8226251811297685  6.2664010382618729  6.9120543874782170
  8.6807253256754340  6.2664010382618729  6.9120543874782170
 12.5388254702210951  6.2664010382618729  6.9120543874782170
 16.3969256147667615  6.2664010382618729  6.9120543874782170
 20.2550257593124243  6.2664010382618729  6.9120543874782170
  0.9645250365841038 10.7929762508389544  6.9120543874782170
  4.8226251811297685 10.7929762508389544  6.9120543874782170
  8.6807253256754340 10.7929762508389544  6.9120543874782170
 12.5388254702210951 10.7929762508389544  6.9120543874782170
 16.3969256147667615 10.7929762508389544  6.9120543874782170
 20.2550257593124243 10.7929762508389544  6.9120543874782170
  0.9645250365841038 15.3195514634160332  6.9120543874782170
  4.8226251811297685 15.3195514634160332  6.9120543874782170
  8.6807253256754340 15.3195514634160332  6.9120543874782170
 12.5388254702210951 15.3195514634160332  6.9120543874782170
 16.3969256147667615 15.3195514634160332  6.9120543874782170
 20.2550257593124243 15.3195514634160332  6.9120543874782170
  0.9645250365841038 19.8461266759931121  6.9120543874782170
  4.8226251811297685 19.8461266759931121  6.9120543874782170
  8.6807253256754340 19.8461266759931121  6.9120543874782170
 12.5388254702210951 19.8461266759931121  6.9120543874782170
 16.3969256147667615 19.8461266759931121  6.9120543874782170
 20.2550257593124243 19.8461266759931121  6.9120543874782170
  0.9645250365841038 24.3727018885701945  6.9120543874782170
  4.8226251811297685 24.3727018885701945  6.9120543874782170
  8.6807253256754340 24.3727018885701945  6.9120543874782170
 12.5388254702210951 24.3727018885701945  6.9120543874782170
 16.3969256147667615 24.3727018885701945  6.9120543874782170
 20.2550257593124243 24.3727018885701945  6.9120543874782170
  0.9645250365841038  1.7398258256847912 17.9972312929193841
  4.8226251811297685  1.7398258256847912 17.9972312929193841
  8.6807253256754340  1.7398258256847912 17.9972312929193841
 12.5388254702210951  1.7398258256847912 17.9972312929193841
 16.3969256147667615  1.7398258256847912 17.9972312929193841
 20.2550257593124243  1.7398258256847912 17.9972312929193841
  0.9645250365841038  6.2664010382618729 17.9972312929193841
  4.8226251811297685  6.2664010382618729 17.9972312929193841
  8.6807253256754340  6.2664010382618729 17.9972312929193841
 12.5388254702210951  6.2664010382618729 17.9972312929193841
 16.3969256147667615  6.2664010382618729 17.9972312929193841
 20.2550257593124243  6.2664010382618729 17.9972312929193841
  0.9645250365841038 10.7929762508389544 17.9972312929193841
  4.8226251811297685 10.7929762508389544 17.9972312929193841
  8.6807253256754340 10.7929762508389544 17.9972312929193841
 12.5388254702210951 10.7929762508389544 17.9972312929193841
 16.3969256147667615 10.7929762508389544 17.9972312929193841
 20.2550257593124243 10.7929762508389544 17.9972312929193841
  0.9645250365841038 15.3195514634160332 17.9972312929193841
  4.8226251811297685 15.3195514634160332 17.9972312929193841
  8.6807253256754340 15.3195514634160332 17.9972312929193841
 12.5388254702210951 15.3195514634160332 17.9972312929193841
 16.3969256147667615 15.3195514634160332 17.9972312929193841
 20.2550257593124243 15.3195514634160332 17.9972312929193841
  0.9645250365841038 19.8461266759931121 17.9972312929193841
  4.8226251811297685 19.8461266759931121 17.9972312929193841
  8.6807253256754340 19.8461266759931121 17.9972312929193841
 12.5388254702210951 19.8461266759931121 17.9972312929193841
 16.3969256147667615 19.8461266759931121 17.9972312929193841
 20.2550257593124243 19.8461266759931121 17.9972312929193841
  0.9645250365841038 24.3727018885701945 17.9972312929193841
  4.8226251811297685 24.3727018885701945 17.9972312929193841
  8.6807253256754340 24.3727018885701945 17.9972312929193841
 12.5388254702210951 24.3727018885701945 17.9972312929193841
 16.3969256147667615 24.3727018885701945 17.9972312929193841
 20.2550257593124243 24.3727018885701945 17.9972312929193841
  0.9645250365841038  2.2856896354906158  9.4515553170958935
  4.8226251811297685  2.2856896354906158  9.4515553170958935
  8.6807253256754340  2.2856896354906158  9.4515553170958935
 12.5388254702210951  2.2856896354906158  9.4515553170958935
 16.3969256147667615  2.2856896354906158  9.4515553170958935
 20.2550257593124243  2.2856896354906158  9.4515553170958935
  0.9645250365841038  6.8122648480676977  9.4515553170958935
  4.8226251811297685  6.8122648480676977  9.4515553170958935
  8.6807253256754340  6.8122648480676977  9.4515553170958935
 12.5388254702210951  6.8122648480676977  9.4515553170958935
 16.3969256147667615  6.8122648480676977  9.4515553170958935
 20.2550257593124243  6.8122648480676977  9.4515553170958935
  0.9645250365841038 11.3388400606447757  9.4515553170958935
  4.8226251811297685 11.3388400606447757  9.4515553170958935
  8.6807253256754340 11.3388400606447757  9.4515553170958935
 12.5388254702210951 11.3388400606447757  9.4515553170958935
 16.3969256147667615 11.3388400606447757  9.4515553170958935
 20.2550257593124243 11.3388400606447757  9.4515553170958935
  0.9645250365841038 15.8654152732218581  9.4515553170958935
  4.8226251811297685 15.8654152732218581  9.4515553170958935
  8.6807253256754340 15.8654152732218581  9.4515553170958935
 12.5388254702210951 15.8654152732218581  9.4515553170958935
 16.3969256147667615 15.8654152732218581  9.4515553170958935
 20.2550257593124243 15.8654152732218581  9.4515553170958935
  0.9645250365841038 20.3919904857989387  9.4515553170958935
  4.8226251811297685 20.3919904857989387  9.4515553170958935
  8.6807253256754340 20.3919904857989387  9.4515553170958935
 12.5388254702210951 20.3919904857989387  9.4515553170958935
 16.3969256147667615 20.3919904857989387  9.4515553170958935
 20.2550257593124243 20.3919904857989387  9.4515553170958935
  0.9645250365841038 24.9185656983760175  9.4515553170958935
  4.8226251811297685 24.9185656983760175  9.4515553170958935
  8.6807253256754340 24.9185656983760175  9.4515553170958935
 12.5388254702210951 24.9185656983760175  9.4515553170958935
 16.3969256147667615 24.9185656983760175  9.4515553170958935
 20.2550257593124243 24.9185656983760175  9.4515553170958935
  0.9645250365841038  2.2856896354906158 20.5367322225370650
  4.8226251811297685  2.2856896354906158 20.5367322225370650
  8.6807253256754340  2.2856896354906158 20.5367322225370650
 12.5388254702210951  2.2856896354906158 20.5367322225370650
 16.3969256147667615  2.2856896354906158 20.5367322225370650
 20.2550257593124243  2.2856896354906158 20.5367322225370650
  0.9645250365841038  6.8122648480676977 20.5367322225370650
  4.8226251811297685  6.8122648480676977 20.5367322225370650
  8.6807253256754340  6.8122648480676977 20.5367322225370650
 12.5388254702210951  6.8122648480676977 20.5367322225370650
 16.3969256147667615  6.8122648480676977 20.5367322225370650
 20.2550257593124243  6.8122648480676977 20.5367322225370650
  0.9645250365841038 11.3388400606447757 20.5367322225370650
  4.8226251811297685 11.3388400606447757 20.5367322225370650
  8.6807253256754340 11.3388400606447757 20.5367322225370650
 12.5388254702210951 11.3388400606447757 20.5367322225370650
 16.3969256147667615 11.3388400606447757 20.5367322225370650
 20.2550257593124243 11.3388400606447757 20.5367322225370650
  0.9645250365841038 15.8654152732218581 20.5367322225370650
  4.8226251811297685 15.8654152732218581 20.5367322225370650
  8.6807253256754340 15.8654152732218581 20.5367322225370650
 12.5388254702210951 15.8654152732218581 20.5367322225370650
 16.3969256147667615 15.8654152732218581 20.5367322225370650
 20.2550257593124243 15.8654152732218581 20.5367322225370650
  0.9645250365841038 20.3919904857989387 20.5367322225370650
  4.8226251811297685 20.3919904857989387 20.5367322225370650
  8.6807253256754340 20.3919904857989387 20.5367322225370650
 12.5388254702210951 20.3919904857989387 20.5367322225370650
 16.3969256147667615 20.3919904857989387 20.5367322225370650
 20.2550257593124243 20.3919904857989387 20.5367322225370650
  0.9645250365841038 24.9185656983760175 20.5367322225370650
  4.8226251811297685 24.9185656983760175 20.5367322225370650
  8.6807253256754340 24.9185656983760175 20.5367322225370650
 12.5388254702210951 24.9185656983760175 20.5367322225370650
 16.3969256147667615 24.9185656983760175 20.5367322225370650
 20.2550257593124243 24.9185656983760175 20.5367322225370650
  2.8935751087574535  2.2408854422801814  1.6336212572491429
  6.7516752533031168  2.2408854422801814  1.6336212572491429
 10.6097753978487788  2.2408854422801814  1.6336212572491429
 14.4678755423944452  2.2408854422801814  1.6336212572491429
 18.3259756869401080  2.2408854422801814  1.6336212572491429
 22.1840758314857709  2.2408854422801814  1.6336212572491429
  2.8935751087574535  6.7674606548572633  1.6336212572491429
  6.7516752533031168  6.7674606548572633  1.6336212572491429
 10.6097753978487788  6.7674606548572633  1.6336212572491429
 14.4678755423944452  6.7674606548572633  1.6336212572491429
 18.3259756869401080  6.7674606548572633  1.6336212572491429
 22.1840758314857709  6.7674606548572633  1.6336212572491429
  2.8935751087574535 11.2940358674343457  1.6336212572491429
  6.7516752533031168 11.2940358674343457  1.6336212572491429
 10.6097753978487788 11.2940358674343457  1.6336212572491429
 14.4678755423944452 11.2940358674343457  1.6336212572491429
 18.3259756869401080 11.2940358674343457  1.6336212572491429
 22.1840758314857709 11.2940358674343457  1.6336212572491429
  2.8935751087574535 15.8206110800114228  1.6336212572491429
  6.7516752533031168 15.8206110800114228  1.6336212572491429
 10.6097753978487788 15.8206110800114228  1.6336212572491429
 14.4678755423944452 15.8206110800114228  1.6336212572491429
 18.3259756869401080 15.8206110800114228  1.6336212572491429
 22.1840758314857709 15.8206110800114228  1.6336212572491429
  2.8935751087574535 20.3471862925885034  1.6336212572491429
  6.7516752533031168 20.3471862925885034  1.6336212572491429
 10.6097753978487788 20.3471862925885034  1.6336212572491429
 14.4678755423944452 20.3471862925885034  1.6336212572491429
 18.3259756869401080 20.3471862925885034  1.6336212572491429
 22.1840758314857709 20.3471862925885034  1.6336212572491429
  2.8935751087574535 24.8737615051655858  1.6336212572491429
  6.7516752533031168 24.8737615051655858  1.6336212572491429
 10.6097753978487788 24.8737615051655858  1.6336212572491429
 14.4678755423944452 24.8737615051655858  1.6336212572491429
 18.3259756869401080 24.8737615051655858  1.6336212572491429
 22.1840758314857709 24.8737615051655858  1.6336212572491429
  2.8935751087574535  2.2408854422801814 12.7187981626903124
  6.7516752533031168  2.2408854422801814 12.7187981626903124
 10.6097753978487788  2.2408854422801814 12.7187981626903124
 14.4678755423944452  2.2408854422801814 12.7187981626903124
 18.3259756869401080  2.2408854422801814 12.7187981626903124
 22.1840758314857709  2.2408854422801814 12.7187981626903124
  2.8935751087574535  6.7674606548572633 12.7187981626903124
  6.7516752533031168  6.7674606548572633 12.7187981626903124
 10.6097753978487788  6.7674606548572633 12.7187981626903124
 14.4678755423944452  6.7674606548572633 12.7187981626903124
 18.3259756869401080  6.7674606548572633 12.7187981626903124
 22.1840758314857709  6.7674606548572633 12.7187981626903124
  2.8935751087574535 11.2940358674343457 12.7187981626903124
  6.7516752533031168 11.2940358674343457 12.7187981626903124
 10.6097753978487788 11.2940358674343457 12.7187981626903124
 14.4678755423944452 11.2940358674343457 12.7187981626903124
 18.3259756869401080 11.2940358674343457 12.7187981626903124
 22.1840758314857709 11.2940358674343457 12.7187981626903124
  2.8935751087574535 15.8206110800114228 12.7187981626903124
  6.7516752533031168 15.8206110800114228 12.7187981626903124
 10.6097753978487788 15.8206110800114228 12.7187981626903124
 14.4678755423944452 15.8206110800114228 12.7187981626903124
 18.3259756869401080 15.8206110800114228 12.7187981626903124
 22.1840758314857709 15.8206110800114228 12.7187981626903124
  2.8935751087574535 20.3471862925885034 12.7187981626903124
  6.7516752533031168 20.3471862925885034 12.7187981626903124
 10.6097753978487788 20.3471862925885034 12.7187981626903124
 14.4678755423944452 20.3471862925885034 12.7187981626903124
 18.3259756869401080 20.3471862925885034 12.7187981626903124
 22.1840758314857709 20.3471862925885034 12.7187981626903124
  2.8935751087574535 24.8737615051655858 12.7187981626903124
  6.7516752533031168 24.8737615051655858 12.7187981626903124
 10.6097753978487788 24.8737615051655858 12.7187981626903124
 14.4678755423944452 24.8737615051655858 12.7187981626903124
 18.3259756869401080 24.8737615051655858 12.7187981626903124
 22.1840758314857709 24.8737615051655858 12.7187981626903124
  2.8935751087574535  0.0224021219746556  7.1762100408669030
  6.7516752533031168  0.0224021219746556  7.1762100408669030
 10.6097753978487788  0.0224021219746556  7.1762100408669030
 14.4678755423944452  0.0224021219746556  7.1762100408669030
 18.3259756869401080  0.0224021219746556  7.1762100408669030
 22.1840758314857709  0.0224021219746556  7.1762100408669030
  2.8935751087574535  4.5489773345517373  7.1762100408669030
  6.7516752533031168  4.5489773345517373  7.1762100408669030
 10.6097753978487788  4.5489773345517373  7.1762100408669030
 14.4678755423944452  4.5489773345517373  7.1762100408669030
 18.3259756869401080  4.5489773345517373  7.1762100408669030
 22.1840758314857709  4.5489773345517373  7.1762100408669030
  2.8935751087574535  9.0755525471288152  7.1762100408669030
  6.7516752533031168  9.0755525471288152  7.1762100408669030
 10.6097753978487788  9.0755525471288152  7.1762100408669030
 14.4678755423944452  9.0755525471288152  7.1762100408669030
 18.3259756869401080  9.0755525471288152  7.1762100408669030
 22.1840758314857709  9.0755525471288152  7.1762100408669030
  2.8935751087574535 13.6021277597058976  7.1762100408669030
  6.7516752533031168 13.6021277597058976  7.1762100408669030
 10.6097753978487788 13.6021277597058976  7.1762100408669030
 14.4678755423944452 13.6021277597058976  7.1762100408669030
 18.3259756869401080 13.6021277597058976  7.1762100408669030
 22.1840758314857709 13.6021277597058976  7.1762100408669030
  2.8935751087574535 18.1287029722829764  7.1762100408669030
  6.7516752533031168 18.1287029722829764  7.1762100408669030
 10.6097753978487788 18.1287029722829764  7.1762100408669030
 14.4678755423944452 18.1287029722829764  7.1762100408669030
 18.3259756869401080 18.1287029722829764  7.1762100408669030
 22.1840758314857709 18.1287029722829764  7.1762100408669030
  2.8935751087574535 22.6552781848600517  7.1762100408669030
  6.7516752533031168 22.6552781848600517  7.1762100408669030
 10.6097753978487788 22.6552781848600517  7.1762100408669030
 14.4678755423944452 22.6552781848600517  7.1762100408669030
 18.3259756869401080 22.6552781848600517  7.1762100408669030
 22.1840758314857709 22.6552781848600517  7.1762100408669030
  2.8935751087574535  0.0224021219746556 18.2613869463080718
  6.7516752533031168  0.0224021219746556 18.2613869463080718
 10.6097753978487788  0.0224021219746556 18.2613869463080718
 14.4678755423944452  0.0224021219746556 18.2613869463080718
 18.3259756869401080  0.0224021219746556 18.2613869463080718
 22.1840758314857709  0.0224021219746556 18.2613869463080718
  2.8935751087574535  4.5489773345517373 18.2613869463080718
  6.7516752533031168  4.5489773345517373 18.2613869463080718
 10.6097753978487788  4.5489773345517373 18.2613869463080718
 14.4678755423944452  4.5489773345517373 18.2613869463080718
 18.3259756869401080  4.5489773345517373 18.2613869463080718
 22.1840758314857709  4.5489773345517373 18.2613869463080718
  2.8935751087574535  9.0755525471288152 18.2613869463080718
  6.7516752533031168  9.0755525471288152 18.2613869463080718
 10.6097753978487788  9.0755525471288152 18.2613869463080718
 14.4678755423944452  9.0755525471288152 18.2613869463080718
 18.3259756869401080  9.0755525471288152 18.2613869463080718
 22.1840758314857709  9.0755525471288152 18.2613869463080718
  2.8935751087574535 13.6021277597058976 18.2613869463080718