Ge Se                                   
    1.000000000000000     
    12.4579715550550105   -0.0000043955235451   -0.0000043137398356
    -0.0000043994226891   12.4690205448567273    0.0000002618614448
    -0.0000049049990664    0.0000002974893757   11.0043020187531724
   Ge   Se
    36    36
Direct
  0.0951157073917628  0.0313339852071692  0.1020822408916757
  0.2454438606929799  0.8757525637411021  0.4600456824548331
  0.5680626529734738  0.2014279711125795  0.3937906781085090
  0.5747648878620666  0.5506499212267570  0.4215987245522186
  0.5537102727670984  0.8875207567525933  0.3625370202412768
  0.8920936291991453  0.2151135715902726  0.3622582273863202
  0.9011175781295719  0.5417252436651836  0.3884503385516922
  0.9301132888046197  0.8645136100064121  0.3861277395937890
  0.0800693786863818  0.1577967382714434  0.6093677025263560
  0.0992781369505025  0.4974223025873172  0.6490964334369878
  0.0474454085000673  0.8030751180697564  0.5998579677645495
  0.3944994284794490  0.1326109003722351  0.5768759751693437
  0.3951529826784608  0.4810139832404730  0.6041755294419460
  0.3946119708950704  0.7972194638078562  0.6170538702909667
  0.7778044652077014  0.1850482702803333  0.6266751412435738
  0.7355778369832464  0.4713107138345336  0.6316910464127119
  0.2414955160044769  0.5510649957129701  0.3454209954823213
  0.2410588176989279  0.2177095640234583  0.3840988700080814
  0.7416540536890821  0.8232817512432646  0.6212126947633934
  0.9031699584557273  0.6446709641683341  0.8516380907443022
  0.8977872551561106  0.9933876653359874  0.8793732008958344
  0.0716227478311211  0.3940814700718178  0.1404755912959885
  0.0686150821471117  0.7043558620113828  0.1127176907969556
  0.4196921549179251  0.0565481304740842  0.1087037203159653
  0.3994703934188095  0.3768694793980600  0.1262679699820026
  0.7300425942964495  0.0312352455424616  0.1440420021240101
  0.7314041000582705  0.3852470148637934  0.1274967880807552
  0.4059357706889983  0.7033732357954037  0.1283772089852775
  0.2299252415633433  0.3187021194052235  0.8760703061878559
  0.2120875492992411  0.6600089744028992  0.8773761677805112
  0.2230694582873411  0.9610615085396503  0.9043413470843618
  0.5511619672858217  0.3265542433170623  0.8801477346859272
  0.5602628688023259  0.6348333000048001  0.8826134686716358
  0.5785631678318168  0.9922876321898997  0.8588996325060236
  0.9054117540903093  0.3140236240600913  0.8886190102144553
  0.7458229280579829  0.6958691582065910  0.1550449733964001
  0.9124796937724611  0.0164435683238651  0.6172926044845184
  0.2419432250720206  0.3307287698384016  0.6454743098912061
  0.2187619685311191  0.6697665522169061  0.6577238536611461
  0.5655139931785911  0.0041317412831461  0.6341565828770470
  0.5683417912827409  0.3535541572418737  0.6450551127709687
  0.5696376070159133  0.7017846062446722  0.6364422458564007
  0.9103941875492154  0.3676328088033145  0.6381108716034944
  0.7285594227998615  0.0233826122345491  0.3556096444688635
  0.0782719015776578  0.0036068920203789  0.3471178987571548
  0.0578955301425808  0.3496800955979893  0.3701476400048449
  0.0503981074882560  0.6874144790199423  0.3520468886561829
  0.3962757315851633  0.0263067442778606  0.3530617942928984
  0.3890548330346917  0.3565483263899338  0.3677490289793184
  0.3974532858390347  0.6814436001967863  0.3461508467550090
  0.2286555249292093  0.0176951014731657  0.6410896872994698
  0.8883813316477998  0.6668875395134961  0.6257806518888671
  0.8965208385477723  0.8347990749809924  0.1493830522213813
  0.2321814639208100  0.1884745694730370  0.1612687380916071
  0.9039448931828815  0.1747208654490819  0.1396997288638744
  0.7101532834655515  0.3528889645941859  0.3567140598487555
  0.0671999559325727  0.1837623359296003  0.8321834396810743
  0.0526731542465413  0.5071119991738655  0.8596207439424859
  0.0642457809366661  0.8554650523770420  0.8425478685852923
  0.4053877665871539  0.1752170315082964  0.8747421227302468
  0.3966107555840424  0.5147744515676251  0.8492997151364534
  0.3914451552103273  0.8145262484787779  0.8637110869034643
  0.7470674162196147  0.1656091359625762  0.8473096986452049
  0.7326184116073620  0.5221700922429449  0.8594914069268995
  0.7417143999128797  0.8452509781951036  0.8547536255556736
  0.2284649948542068  0.5141615629818119  0.1328914002238335
  0.2319327702266349  0.8485560270920516  0.1204903672579789
  0.5579324477562011  0.1959092233025146  0.1426353469115895
  0.5680720694284460  0.5197322835842542  0.1177029600692094
  0.5596590098248697  0.8536816585849749  0.1448775415091177
  0.8771181035458469  0.5237054954363032  0.1488527012858185
  0.7194122584649563  0.6860834899916455  0.3626897699024383
 
  0.00000000E+00  0.00000000E+00  0.00000000E+00
  0.00000000E+00  0.00000000E+00  0.00000000E+00
  0.00000000E+00  0.00000000E+00  0.00000000E+00
  0.00000000E+00  0.00000000E+00  0.00000000E+00
  0.00000000E+00  0.00000000E+00  0.00000000E+00
  0.00000000E+00  0.00000000E+00  0.00000000E+00
  0.00000000E+00  0.00000000E+00  0.00000000E+00
  0.00000000E+00  0.00000000E+00  0.00000000E+00
  0.00000000E+00  0.00000000E+00  0.00000000E+00
  0.00000000E+00  0.00000000E+00  0.00000000E+00
  0.00000000E+00  0.00000000E+00  0.00000000E+00
  0.00000000E+00  0.00000000E+00  0.00000000E+00
  0.00000000E+00  0.00000000E+00  0.00000000E+00
  0.00000000E+00  0.00000000E+00  0.00000000E+00
  0.00000000E+00  0.00000000E+00  0.00000000E+00
  0.00000000E+00  0.00000000E+00  0.00000000E+00
  0.00000000E+00  0.00000000E+00  0.00000000E+00
  0.00000000E+00  0.00000000E+00  0.00000000E+00
  0.00000000E+00  0.00000000E+00  0.00000000E+00
  0.00000000E+00  0.00000000E+00  0.00000000E+00
  0.00000000E+00  0.00000000E+00  0.00000000E+00
  0.00000000E+00  0.00000000E+00  0.00000000E+00
  0.00000000E+00  0.00000000E+00  0.00000000E+00
  0.00000000E+00  0.00000000E+00  0.00000000E+00
  0.00000000E+00  0.00000000E+00  0.00000000E+00
  0.00000000E+00  0.00000000E+00  0.00000000E+00
  0.00000000E+00  0.00000000E+00  0.00000000E+00
  0.00000000E+00  0.00000000E+00  0.00000000E+00
  0.00000000E+00  0.00000000E+00  0.00000000E+00
  0.00000000E+00  0.00000000E+00  0.00000000E+00
  0.00000000E+00  0.00000000E+00  0.00000000E+00
  0.00000000E+00  0.00000000E+00  0.00000000E+00
  0.00000000E+00  0.00000000E+00  0.00000000E+00
  0.00000000E+00  0.00000000E+00  0.00000000E+00
  0.00000000E+00  0.00000000E+00  0.00000000E+00
  0.00000000E+00  0.00000000E+00  0.00000000E+00
  0.00000000E+00  0.00000000E+00  0.00000000E+00
  0.00000000E+00  0.00000000E+00  0.00000000E+00
  0.00000000E+00  0.00000000E+00  0.00000000E+00
  0.00000000E+00  0.00000000E+00  0.00000000E+00
  0.00000000E+00  0.00000000E+00  0.00000000E+00
  0.00000000E+00  0.00000000E+00  0.00000000E+00
  0.00000000E+00  0.00000000E+00  0.00000000E+00
  0.00000000E+00  0.00000000E+00  0.00000000E+00
  0.00000000E+00  0.00000000E+00  0.00000000E+00
  0.00000000E+00  0.00000000E+00  0.00000000E+00
  0.00000000E+00  0.00000000E+00  0.00000000E+00
  0.00000000E+00  0.00000000E+00  0.00000000E+00
  0.00000000E+00  0.00000000E+00  0.00000000E+00
  0.00000000E+00  0.00000000E+00  0.00000000E+00
  0.00000000E+00  0.00000000E+00  0.00000000E+00
  0.00000000E+00  0.00000000E+00  0.00000000E+00
  0.00000000E+00  0.00000000E+00  0.00000000E+00
  0.00000000E+00  0.00000000E+00  0.00000000E+00
  0.00000000E+00  0.00000000E+00  0.00000000E+00
  0.00000000E+00  0.00000000E+00  0.00000000E+00
  0.00000000E+00  0.00000000E+00  0.00000000E+00
  0.00000000E+00  0.00000000E+00  0.00000000E+00
  0.00000000E+00  0.00000000E+00  0.00000000E+00
  0.00000000E+00  0.00000000E+00  0.00000000E+00
  0.00000000E+00  0.00000000E+00  0.00000000E+00
  0.00000000E+00  0.00000000E+00  0.00000000E+00
  0.00000000E+00  0.00000000E+00  0.00000000E+00
  0.00000000E+00  0.00000000E+00  0.00000000E+00
  0.00000000E+00  0.00000000E+00  0.00000000E+00
  0.00000000E+00  0.00000000E+00  0.00000000E+00
  0.00000000E+00  0.00000000E+00  0.00000000E+00
  0.00000000E+00  0.00000000E+00  0.00000000E+00
  0.00000000E+00  0.00000000E+00  0.00000000E+00
  0.00000000E+00  0.00000000E+00  0.00000000E+00
  0.00000000E+00  0.00000000E+00  0.00000000E+00
  0.00000000E+00  0.00000000E+00  0.00000000E+00
