Ge Se                                   
    1.000000000000000     
     4.2000000000000002    0.0000000000000000    0.0000000000000000
     0.0000000000000000    4.1500000000000004    0.0000000000000000
     0.0000000000000000    0.0000000000000000   11.1422210000000010
   Ge   Se
     4     4
Selective dynamics
Direct
  0.0982640350807102  0.2500000000000000  0.1314988915174524   T   T   T
  0.5982640350807102  0.7500000000000000  0.3685011084825476   T   T   T
  0.9017359649192898  0.7500000000000000  0.8685011084825476   T   T   T
  0.4017359649192898  0.2500000000000000  0.6314988915174524   T   T   T
  0.9987395849403740  0.2500000000000000  0.3580907407138838   T   T   T
  0.4987395849403740  0.7500000000000000  0.1419092592861162   T   T   T
  0.0012604150596260  0.7500000000000000  0.6419092592861162   T   T   T
  0.5012604150596260  0.2500000000000000  0.8580907407138838   T   T   T
 
  0.00000000E+00  0.00000000E+00  0.00000000E+00
  0.00000000E+00  0.00000000E+00  0.00000000E+00
  0.00000000E+00  0.00000000E+00  0.00000000E+00
  0.00000000E+00  0.00000000E+00  0.00000000E+00
  0.00000000E+00  0.00000000E+00  0.00000000E+00
  0.00000000E+00  0.00000000E+00  0.00000000E+00
  0.00000000E+00  0.00000000E+00  0.00000000E+00
  0.00000000E+00  0.00000000E+00  0.00000000E+00
