 C  S  O 
 1.0000000000000000
    32.3722991942999982    0.0000000000000000    0.0000000000000000
     0.0000000000000000   19.9214134216000005    0.0000000000000000
     0.0000000000000000    0.0000000000000000   40.4480476378999967
 C   S   O  
 364   1   2
Cartesian
 12.0076527935382487 10.7240375926704807  0.0997675810540792
 11.9364809647066359 10.8342325233663157  2.5454354467748304
 10.9412045149254560 11.8532940551436337  2.4718726948483529
 10.3730566282265926 12.1797207013850066  1.2111831434512228
  8.9913148295528611 12.5254504057172280  1.1375347477491005
 11.8600004553719387 10.9423865740750621  4.9908119322759781
 10.8305481178384735 11.9268726021695866  4.9167961607174648
 10.2520803011430282 12.2332029537282025  3.6559732658661326
  8.8592003489901270 12.5309420973610184  3.5817087796825975
  8.2055067966386179 12.4877262479317412  2.3214908505324101
  6.8635118450542132 12.0105841418400452  2.2481308561799702
  6.3292110933353607 11.6305948754644888  0.9881218863594996
  5.4366577735691628 10.5205599258960021  0.9149539982425332
 11.7781328948246102 11.0483007487217986  7.4359383521797886
 10.7160892734354665 11.9974277609364588  7.3614347479302129
 10.1281884722798896 12.2833867878269842  6.1004510369830429
  8.7259621496611306 12.5330238952427848  6.0258183960244089
  8.0747114030460860 12.4665762121507395  4.7654362302356450
  6.7501664350341493 11.9429867392753479  4.6921082387645319
  6.2298511449086513 11.5445496854132550  3.4320196712902744
  5.3764179072978528 10.4042397586465789  3.3586586698955840
  5.1418568235425290  9.7917559043983076  2.0989224366976629
  5.0138542626695006  8.3731973839740235  2.0255771439727202
  5.1358849871278407  7.7283870647374853  0.7658652090639068
  5.7719959156811322  6.4539775420005929  0.6928957122786537
 11.6920730073450994 11.1521189052166427  9.8806370013773268
 10.5988707297272526 12.0650763889959709  9.8057342956675519
 10.0016927065940902 12.3303976566006561  8.5446995833106119
  8.5917750561858988 12.5317405915974671  8.4699471270503945
  7.9436613399867806 12.4420464883310480  7.2093808580659404
  6.6383037732669825 11.8722022008456349  7.1361980544902517
  6.1326291585018984 11.4555166726356852  5.8760503673343534
  5.3195905642704995 10.2860200020637436  5.8025876957847506
  5.1068929128371687  9.6656734953561614  4.5427058524641817
  5.0278834700885540  8.2435127733231806  4.4695010524516254
  5.1723841505723174  7.6033426150795078  3.2096317902461431
  5.8517696248977922  6.3514849475712234  3.1365404773898384
  6.3109244870049981  5.8821429297668182  1.8770007925798722
  7.5462550917639044  5.1731003708901024  1.8036476566806088
  8.1832460866079959  5.0141213036397732  0.5438796938194397
  9.6069654229881376  5.0583998983325040  0.4710497026436490
 11.9866141618909356 10.7253612183491107 13.5860820405303873
 11.6025645791612995 11.2539866022601345 12.3248909986900070
 10.4799449057751808 12.1304663629650999 12.2498017918299791
  9.8737630052671985 12.3744650696134588 10.9888049806098209
  8.4576624304712755 12.5269024022347253 10.9142238633597231
  7.8130175619666247 12.4139691567907935  9.6536068471368850
  6.5286745855014017 11.7981522615122874  9.5805419796323577
  6.0383679640888586 11.3633572581208924  8.3203258028167735
  5.2672826138884972 10.1657651988492113  8.2468706129876619
  5.0761820429344713  9.5384520872689436  6.9868371504432911
  5.0462014582866717  8.1144001036088849  6.9137691191524473
  5.2123501389184108  7.4796212988972428  5.6537169685969157
  5.9340188431533099  6.2516127455668160  5.5803712861310002
  6.4095506751879414  5.7984993179358169  4.3208228470563048
  7.6685364349387886  5.1323254337556365  4.2478014977045042
  8.3112950817021201  4.9956391113766330  2.9882112660397540
  9.7326699644697889  5.0891298982274371  2.9158302479585294
 10.3514051464182657  5.3090832907034402  1.6558787063897340
 11.5127239692635452  6.1339446573200718  1.5826072469775754
 11.9240586159350794  6.6450340602329172  0.3219934751557574
 12.4803015394050494  7.9564047441653827  0.2489881790139681
 11.9120286688999748 10.8382748134048743 16.0296866617551927
 11.5103168753716858 11.3538062648764484 14.7687424738976549
 10.3595708075805248 12.1930923620653626 14.6939314929361196
  9.7451617005422531 12.4158749269242126 13.4329696215051051
  8.3245316519965069 12.5184262336447532 13.3588737065620666
  7.6840644714917836 12.3818792338579513 12.0982219779266789
  6.4227678142322571 11.7200865355645441 12.0252325492173551
  5.9477246399620078 11.2682547698261750 10.7650249859281839
  5.2197022163128226 10.0439162081069870 10.6916661989849775
  5.0502306067107119  9.4103693594982278  9.4314108669382417
  5.0692111218211506  7.9861293993302080  9.3583669229279121
  5.2566243434929403  7.3574042551140648  8.0981579613049188
  6.0191618326434133  6.1543136757033334  8.0245265960610972
  6.5098317451269052  5.7177503833094496  6.7648378341983353
  7.7906979527945870  5.0947178543878575  6.6921375322264112
  8.4384547971400643  4.9807646312053517  5.4326600268423419
  9.8557010447859010  5.1234415990661457  5.3605800307780358
 10.4673324141826960  5.3649335778508931  4.1010414391161429
 11.5993962521633200  6.2295980216468170  4.0283523419310683
 11.9936414315279016  6.7546608850385912  2.7679731389948103
 12.5043290475507298  8.0844257126663770  2.6952927937628712
 12.5642689219799664  8.7375111071766067  1.4343477717734345
 12.3000990572042141 10.1372299328583395  1.3605610567732158
 11.8353104004638396 10.9490132299764920 18.4727491888708215
 11.4167541746970667 11.4515766284797689 17.2123832122492040
 10.2385225062056620 12.2518250431625511 17.1382791386916011
  9.6159863305399735 12.4533798409725431 15.8774670396628270
  8.1925989185570014 12.5052912349827636 15.8039662047479190
  7.5569854290053371 12.3457757721709935 14.5432530728776452
  6.3207299073198371 11.6382035650417528 14.4702212093686313
  5.8619931279746664 11.1693468614715634 13.2100060460213307
  5.1778970948698566  9.9199942578556790 13.1367931145291141
  5.0297701448124510  9.2812070493159062 11.8763072831039995
  5.0969125083119184  7.8583854732924134 11.8031872707946661
  5.3049639335774108  7.2364134650444552 10.5427869391238787
  6.1069135134215458  6.0592107796665129 10.4689093709222263
  6.6122386507564261  5.6396144182551504  9.2090572580350543
  7.9133787750194227  5.0600701634402832  9.1365313042920029
  8.5649893596794655  4.9690512476549777  7.8771571269731879
  9.9764357185606354  5.1612012603494755  7.8052708933112083
 10.5796679020725826  5.4245102522362965  6.5460926091493681
 11.6807584484905895  6.3283534154673093  6.4740311788586773
 12.0574942762729691  6.8667966022926947  5.2138952385013733
 12.5216012521666009  8.2135112109272370  5.1413069554025892
 12.5601891661489553  8.8681638750637806  3.8805070490171607
 12.2481785299773343 10.2580132897703642  3.8063993914353094
 11.7597900271505100 11.0539031405172405 20.9171746339067468
 11.3211038493266489 11.5428140572235982 19.6572561333724281
 10.1167001144204516 12.3019025363997727 19.5835333835461327
  9.4870197035598611 12.4838922680625242 18.3226655443454867
  8.0626884406437309 12.4853981486702708 18.2495832378983991
  7.4326472835490316 12.3043215832104451 16.9888092329204667
  6.2228741314280400 11.5523064402364817 16.9155315072941690
  5.7809239445616010 11.0674148890216202 15.6552150758905348
  5.1410391255832240  9.7948021239847982 15.5821401719686836
  5.0146355347052651  9.1512463779396462 14.3215859735733133
  5.1293506394513813  7.7314390378367186 14.2483351036867987
  5.3574570868261437  7.1168039028852954 12.9877238228469114
  6.1975954348625191  5.9665065915782529 12.9137186358546412
  6.7163945943880190  5.5641279688870711 11.6535738214057076
  8.0364454349549295  5.0288754831839331 11.5810990383016605
  8.6910798243984662  4.9607848515251618 10.3218305443293410
 10.0948587536692678  5.2028207197339222 10.2499219728898954
 10.6888413318274935  5.4875556531525609  8.9909957346800145
 11.7570725353847259  6.4300182888807740  8.9194601471244308
 12.1153574683324816  6.9813383639455209  7.6596281014348291
 12.5322928059649676  8.3434394232696789  7.5869619217549262
 12.5492653821385929  8.9989090071320064  6.3263143333763585
 12.1899863975019560 10.3772218593816330  6.2520045485832023
 11.6821097138581376 11.1542808172189822 23.3603666165474557
 11.2261507036902355 11.6292154136213970 22.1019301291104640
  9.9945550063858342 12.3451684044419689 22.0288179974052198
  9.3581434972166644 12.5064360386334137 20.7687550490749899
  7.9346686173639123 12.4583859984357535 20.6956306376836991
  7.3109684985528505 12.2561916705580458 19.4346913727499988
  6.1282882351269432 11.4625022181022143 19.3610271533334100
  5.7037094728644773 10.9625988500334905 18.1004856515610442
  5.1087045268469593  9.6684817157422991 18.0274918299259497
  5.0045805967074424  9.0208129970494699 16.7669473481729092
  5.1669870957591257  7.6056847820934914 16.6935929030238341
  5.4147546329338603  6.9988117981879654 15.4328808097170249
  6.2919313143289903  5.8764852348285173 15.3589641138748458
  6.8232862002509904  5.4916035383441004 14.0984475511778893
  8.1606479549740101  5.0013191066297846 14.0258131918076039
  8.8171685576772632  4.9564182262957690 12.7664628052827513
 10.2113600046229642  5.2483027965505569 12.6944183911879946
 10.7947866890228212  5.5544448639903656 11.4356817569966722
 11.8283564744108389  6.5347881725315249 11.3644508546337377
 12.1676601589151527  7.0982423675194903 10.1049741801993829
 12.5369327011590492  8.4739599733963473 10.0321087974136098
 12.5321589860405815  9.1294666826416879  8.7716051756747433
 12.1265212993480205 10.4948275120851893  8.6971756189656535
 11.6016903196514818 11.2520738035965397 25.8043238095415823
 11.1279689967130100 11.7092805478192759 24.5456911730185183
  9.8718836030008852 12.3808890280061199 24.4735331070442577
  9.2296521366059743 12.5215216090226988 23.2138235076645323
  7.8085062668035050 12.4249576987573906 23.1409865393494059
  7.1913227993277600 12.2029178953250916 21.8805083978717434
  6.0363018817814051 11.3692378499332367 21.8065795555426760
  5.6295654477750832 10.8549996894279399 20.5459392082760779
  5.0794393662529265  9.5412866945485746 20.4728899137838098
  4.9984354080883708  8.8903705026075706 19.2122945841754884
  5.2086524389135045  7.4816353166660905 19.1388619802701605
  5.4766581735740187  6.8831484826491423 17.8783010404156038
  6.3903541986253405  5.7903070924465476 17.8047484578227575
  6.9332773533799692  5.4225940894521507 16.5438666600733946
  8.2863378977933895  4.9773736693598885 16.4708438955452330
  8.9435508518382960  4.9556105492311469 15.2111675230009595
 10.3263843945270768  5.2974970487717314 15.1387420066713432
 10.8982565765483770  5.6248604417540644 13.8801375241933069
 11.8956566423226491  6.6420106298721358 13.8088780000024194
 12.2145340079371767  7.2174077893169315 12.5497098695436637
 12.5359338007989720  8.6050187611913085 12.4765792001886719
 12.5093909751794694  9.2598974601151181 11.2163102761911002
 12.0585932630075217 10.6109510130010118 11.1418793126061022
 11.5189468121666447 11.3470201400689525 28.2486633378643255
 11.0285724020528075 11.7865798967250512 26.9898138222374975
  9.7491457280785276 12.4127900998170198 26.9182379285145217
  9.1018797447054283 12.5305609494785397 25.6588515938341786
  7.6847696422169012 12.3857933840511123 25.5861667423485066
  7.0748366992747354 12.1436955623708744 24.3258681687126135
  5.9478542568098609 11.2725515620617447 24.2519989856324898
  5.5582219191254172 10.7452675147045316 22.9912549428155231
  5.0528091089779039  9.4136065326376155 22.9181935600174072
  4.9948106252453943  8.7601368333131120 21.6577680847446850
  5.2534639869822737  7.3594613242637692 21.5843396467746800
  5.5425010118915692  6.7703413315090168 20.3239161763499041
  6.4929149807978765  5.7094609550617008 20.2508311818490441
  7.0472775866468469  5.3591591150194251 18.9898543004693714
  8.4146505148926636  4.9600572549923205 18.9165261526473145
  9.0708455123247873  4.9590230940460298 17.6561350553705516
 10.4405824798141698  5.3499827991819915 17.5830884952766304
 10.9994882583470712  5.6984970163301929 16.3243064136493103
 11.9591009245630602  6.7513703181899292 16.2524335080057227
 12.2575090031638858  7.3380675368422850 14.9937275429013823
 12.5302957893107436  8.7362273054161097 14.9203130508658184
 12.4817746748945417  9.3898959211620632 13.6603303264171334
 11.4329339807511356 11.4392979720493209 30.6933426755112109
 10.9271084603239093 11.8606785529807528 29.4342993409827400
  9.6261096667275332 12.4409137385241202 29.3629665842536767
  8.9747313252550747 12.5355855394301230 28.1036792893124172
  7.5634655933275914 12.3426602551558009 28.0309848491910181
  6.9612683585333892 12.0803829295536200 26.7709807835794997
  5.8636277208109853 11.1725482759742665 26.6973650595734071
  5.4910642287515739 10.6328772899023729 25.4366938593824159
  5.0304081424195877  9.2850491427032988 25.3635325590860461
  4.9948453336840757  8.6299742586123429 24.1030932013617623
  5.3021385637951930  7.2391682617439868 24.0297123424678958
  5.6114877295174281  6.6603631941653054 22.7694202713164131
  6.5989769688816331  5.6336744364476559 22.6967082480358791
  7.1649405061439708  5.3023422905728221 21.4360447095682218
  8.5454232135070765  4.9514274046374602 21.3625292289883681
  9.2003547237569911  4.9711942314017925 20.1016903791690034
 10.5552432549119430  5.4095563925992360 20.0282771503543806
 11.0991727523929846  5.7753806096933422 18.7681541215904168
 12.0163153069926683  6.8642871607006963 18.6952054942276114
 12.2945580285554499  7.4605514713844272 17.4369820978818204
 12.5185899423367317  8.8678190059186477 17.3631540283913317
 12.4495381380681565  9.5193934473124777 16.1032714807658905
 11.3429733623222422 11.5284298716206433 33.1383248554794108
 10.8227369269622908 11.9314476117727750 31.8789912893585345
  9.5020757401874949 12.4651527342838477 31.8075847019972926
  8.8478877181228519 12.5368086331281354 30.5483018218558087
  7.4440079449912577 12.2957509390833266 30.4755912489657739
  6.8508360390410576 12.0133577858812668 29.2158466003235802
  5.7837121307398593 11.0698243339796853 29.1425690217089510
  5.4286243331151871 10.5181671507784760 27.8820648678659673
  5.0132047667604924  9.1557348211646836 27.8087556415526507
  4.9994974614866710  8.4999000548071368 26.5483811381606003
  5.3556213016552245  7.1207529616536540 26.4750648925304439
  5.6851728491184002  6.5533911089984898 25.2148303906823656
  6.7092133277445019  5.5632300248168098 25.1421863315957594
  7.2859338625119934  5.2518231023703459 23.8816226626353156
  8.6781122613979811  4.9507846427335878 23.8076008889930115
  9.3312043374659996  4.9920620838491496 22.5468333525085711
 10.6705621680275016  5.4768192550023871 22.4728631450882332
 11.2004252225856202  5.8598473799600699 21.2121778224378268
 12.0808784043351363  6.9784984172698987 21.1390796859002279
 12.3263548434286783  7.5845618131939005 19.8794135094854241
 12.5068697495471586  8.9990039080192101 19.8057451947545964
 12.4117955190359019  9.6479753384094344 18.5451674038520480
 11.2491958665540341 11.6146788640336958 35.5836589618284407
 10.7156853373524665 11.9989671106540641 34.3239148839233081
  9.3770423871011168 12.4858783939300313 34.2521708483195084
  8.7210006180680431 12.5343200002160398 32.9928535354173746
  7.3262001316579424 12.2452888759468674 32.9199736107623906
  6.7428058638962192 11.9428015345479555 31.6603831334885442
  5.7075944449703231 10.9644023123411678 31.5873989439304133
  5.3708534904834631 10.4013044946336457 30.3271174176933904
  5.0016262349153555  9.0256140427959668 30.2537063977372149
  5.0099355224036701  8.3698641754240963 28.9934718272782419
  5.4146380182940836  7.0041777702870966 28.9202503683462808
  5.7638263687072229  6.4491810632108164 27.6599207181163607
  6.8233236572323612  5.4970980209040921 27.5870542526188878
  7.4104394385245840  5.2068630637361180 26.3265909572724723
  8.8124059822767720  4.9556560798704625 26.2521316402497682
  9.4629341142577701  5.0199527026622262 24.9911293483854990
 10.7849694954433062  5.5496563761145818 24.9164964422120327
 11.3016562582763935  5.9498246601685150 23.6553878642989304
 12.1485604516360102  7.0952063926552666 23.5808810533598212
 12.3775070362652002  7.7085936403032163 22.3211574156500703
 12.5065064184828838  9.1280336445318486 22.2481874788823006
 12.3831882138910085  9.7745020417962838 20.9906807756371556
 11.1508642845985211 11.6974411134044640 38.0291420011243062
 10.6050101963862495 12.0628415517023253 36.7690216653137938
  9.2502720399180873 12.5029549620305929 36.6967124739486081
  8.5935117304468083 12.5283061787472079 35.4371884708369222
  7.2095643134791940 12.1915853014408029 35.3641215027367579
  6.6371014260890071 11.8691912494564580 34.1045568902827227
  5.6352592683556884 10.8566418428356499 34.0317557517166165
  5.3173844284045302 10.2824121711047631 32.7718239335518717
  4.9951679300791145  8.8949480340039155 32.6982825492779838
  5.0258307925580592  8.2398786106543884 31.4381895137564129
  5.4784152585201840  6.8893317662124121 31.3650937694925958
  5.8469806844081349  6.3474351891343943 30.1047350853653448
  6.9400235796086562  5.4341156893656350 30.0315039758578592
  7.5371908762608086  5.1657182471641807 28.7710744302415655
  8.9471209701546073  4.9640440261469569 28.6964240482672182
  9.5948865836580524  5.0510880251123611 27.4353443822833967
 10.8987801114001801  5.6241046398838783 27.3605179117231927
 11.4012855035114580  6.0415164760330553 26.0993158057963726
 12.2101334278262676  7.2138724491528601 26.0243830084746683
 12.4183744284059223  7.8348362314550624 24.7642333729284481
 12.4979917186312335  9.2568171245901052 24.6913775106600539
 12.3537775604226248  9.8981800682905607 23.4323764767909530
 11.0481229052826944 11.7768443596659402  0.0265954063788943
 10.4908768628722289 12.1231546834349633 39.2141793043121751
  9.1217919136492984 12.5162660351838113 39.1411938844538909
  8.4652128681938006 12.5187650513978159 37.8814213510892657
  7.0935865063005092 12.1347982789244675 37.8081826444753801
  6.5330459326100270 11.7927331735769201 36.5485473608678149
  5.5663243274424188 10.7466390031527510 36.4757546511558246
  5.2684191956754196 10.1618319755402329 35.2160483006282092
  4.9939427342715552  8.7642611717597632 35.1424487365744440
  5.0469590417187238  8.1105027218983601 33.8825523745258508
  5.5466865686372540  6.7767190922259850 33.8095400000600748
  5.9341234492872665  6.2482410327998865 32.5493127118004111
  7.0592162783643797  5.3747234846066299 32.4757665707181076
  7.6654311988783403  5.1281380667300729 31.2152997067597227
  9.0815409309966579  4.9758137676544134 31.1407331973044705
  9.7258961030791422  5.0855662087086655 29.8796261553641251
 11.0100175968346754  5.7015900591281286 29.8047792397752147
 11.4987413985743423  6.1355416790815722 28.5436019081027759
 12.2684093993701904  7.3339271754808859 28.4685971043666868
 12.4556847213892752  7.9615509673026246 27.2081083999424642
 12.4859413754462665  9.3855105069264635 27.1353589230919710
 12.3182978079108079 10.0209169030866487 25.8759926943694474
  8.3359409328813037 12.5051886223975401 40.3255435042843260
  6.9783289161462490 12.0743431974529791 40.2522158361437405
  6.4305236691234944 11.7131915246494547 38.9923943090899812
  5.5002689627029371 10.6345976315341471 38.9194467520022016
  5.2230395999469659 10.0397927557938669 37.6598624279387266
  4.9970093150615638  8.6335767994162911 37.5862884170547957
  5.0730303099054046  7.9820906230723141 36.3265495479298934
  5.6190715796757233  6.6666345422170687 36.2536360501399813
  6.0250309198542409  6.1522025826132678 34.9935471492101300
  7.1800681500780845  5.3188401224374733 34.9197891778500278
  7.7949344537671754  5.0941746085765907 33.6594005363746973
  9.2154560217434689  4.9909604678190629 33.5851322853812988
  9.8558160024271846  5.1231060003715942 32.3240515839318263
 11.1186251425534586  5.7817498118753248 32.2493726505922780
 11.5927015294631346  6.2320469932300098 30.9881915531816361
 12.3218969298917731  7.4555674678114805 30.9133947174206014
 12.4882804837060117  8.0892210763152050 29.6527360171827254
 12.4695004381764765  9.5135413982618751 29.5801051897712100
 12.2795749690627680 10.1426482527685327 28.3204618815610587
  5.1809183770404745  9.9163696464841120 40.1034135448839351
  5.0036909664648350  8.5031370592935946 40.0299157549190028
  5.1028045715920731  7.8545336341132419 38.7702480708398269
  5.6942760787772801  6.5588854703166204 38.6973580178753238
  6.1184837127597769  6.0589100545918448 37.4374906702262322
  7.3019212895194450  5.2662726870921697 37.3637131873523742
  7.9247404146505067  5.0634671418039483 36.1034921201047325
  9.3480273076971123  5.0094816079956281 36.0296722714613509
  9.9838699135747753  5.1639184249107544 34.7687336004069394
 11.2237736375483514  5.8649581012253176 34.6942934788932789
 11.6828121117531509  6.3312409442593545 33.4331849925088562
 12.3702926207143129  7.5787543455355486 33.3587516313906818
 12.5155258067601149  8.2177719611328985 32.0979010173898303
 12.4474765348005381  9.6405925561300734 32.0252395323686159
 12.2361511646126981 10.2628390878756157 30.7653928470675382
  6.2140119592646617  5.9689897966459302 39.8813212897588087
  7.4241498375235535  5.2177448189148077 39.8076898859365471
  8.0543003563392102  5.0366415004225171 38.5476657072524063
  9.4786845231496049  5.0318033801543889 38.4743939624397129
 10.1094466934612335  5.2084926966159637 37.2136927502568966
 11.3246420030671260  5.9515906644096068 37.1395427267812650
 11.7682884084372130  6.4332172845453446 35.8785367219475333
 12.4128593792104081  7.7034291477811205 35.8045752850211301
 12.5369242959525735  8.3470834155299212 34.5435606056225808
 12.4194979330644806  9.7667112848187205 34.4707682926768442
 12.1872522867722868 10.3810401064757301 33.2106476773130765
 10.2323151777619721  5.2565516357044029 39.6587964958520729
 11.4213284548592000  6.0410351665250026 39.5850332157907943
 11.8488303217919579  6.5378258139261236 38.3241806298257828
 12.4497650098371277  7.8292717488917809 38.2507339096518635
 12.5524167393565023  8.4768760903871918 36.9896580494393135
 12.3859827633463215  9.8916446807905842 36.9165953475317110
 12.1331470150894063 10.4975994859369628 35.6562604510637300
 12.5616816332289272  8.6070517290470363 39.4359856199933532
 12.3461587640589272 10.0151362759374383 39.3625827242646906
 12.0733670655788075 10.6119347568201654 38.1020153997847117
 15.5557223367940232  8.1653152824485531 19.4000464088753795
 15.7319495099136599  6.8877188206150421 20.0623564826696494
 16.0596281270477625  9.3608775027093341 20.0468851454071242
