Ge Se
 1.0000000000000000
     3.8581001759000002    0.0000000000000000    0.0000000000000000
     0.0000000000000000    4.5265750884999996    0.0000000000000000
     0.0000000000000000    0.0000000000000000   10.0851764679000002
 Ge  Se 
   4   4
Cartesian
  2.9215323795764494  3.0564221925831250  1.0954101588471559
  0.9924822916264496  0.7931346483331260  3.9471780751028440
  2.8935751319250000  4.0286518589820917  8.9897663090528450
  0.9645250439750001  1.7653643147320919  6.1379983927971562
  2.9215323795764494  2.4824881721206524  3.5836540938862731
  0.9924822916264496  0.2192006278706522  1.4589341400637270
  2.8935751319250000  0.0760107909445650  6.5015223740137262
  0.9645250439750001  2.3392983351945649  8.6262423278362732
