Ge Se
 1.0000000000000000
     3.8581001759000002    0.0000000000000000    0.0000000000000000
     0.0000000000000000    4.5265750884999996    0.0000000000000000
     0.0000000000000000    0.0000000000000000   10.0851764679000002
 Ge  Se 
   4   4
Cartesian
  0.6290380721576092  4.0404602553005162  1.0954101588471559
  2.5580881601076104  1.7771727110505164  3.9471780751028440
  2.8935751319250000  4.0286518589820917  8.9897663090528450
  0.9645250439750001  1.7653643147320919  6.1379983927971562
  0.6290380721576092  3.4665262348380432  3.5836540938862731
  2.5580881601076104  1.2032386905880437  1.4589341400637270
  2.8935751319250000  0.0760107909445650  6.5015223740137262
  0.9645250439750001  2.3392983351945649  8.6262423278362732
