 C Se 
 1.0000000000000000
    32.3722991942999982    0.0000000000000000    0.0000000000000000
     0.0000000000000000   19.9214134216000005    0.0000000000000000
     0.0000000000000000    0.0000000000000000   40.4480476378999967
 C   Se 
 364   1
Cartesian
 12.0098313779999994 10.7247721949999999  0.0995830890000000
 11.9398103229999997 10.8346989360000006  2.5425641589999999
 10.9447179150000000 11.8541368620000007  2.4697980290000001
 10.3757102539999995 12.1811872339999994  1.2103672889999999
  8.9939313970000008 12.5272218980000005  1.1372373400000000
 11.8658395010000000 10.9421748660000002  4.9857884380000002
 10.8361417679999992 11.9266317300000004  4.9129415429999996
 10.2562563289999993 12.2337799440000001  3.6535101999999999
  8.8632764959999992 12.5316841809999993  3.5800970470000002
  8.2084168749999993 12.4890134590000006  2.3207470720000001
  6.8664236740000000 12.0115362060000006  2.2476575809999999
  6.3315037380000003 11.6314359720000002  0.9882266910000000
  5.4393879529999998 10.5208572989999993  0.9150966659999999
 11.7876603529999997 11.0469411300000004  7.4294569240000001
 10.7246838550000003 11.9952603940000007  7.3565696459999996
 10.1349249629999996 12.2821692260000006  6.0968963100000000
  8.7325251189999999 12.5318242949999998  6.0233207230000003
  8.0797050200000005 12.4664420059999994  4.7638092189999997
  6.7549980800000000 11.9429467260000006  4.6908405730000000
  6.2334802429999998 11.5447776930000003  3.4312886859999998
  5.3802113919999996 10.4041967619999998  3.3579969820000000
  5.1451563499999997  9.7916137649999992  2.0985660909999999
  5.0172857740000003  8.3728306769999996  2.0252742360000000
  5.1389408210000003  7.7279347249999999  0.7658838030000000
  5.7747327339999996  6.4531433560000000  0.6928750770000000
 11.7059848800000008 11.1490392850000006  9.8737326519999993
 10.6109924990000000 12.0600252309999991  9.8006832419999999
 10.0116515150000005 12.3264346380000003  8.5406868469999999
  8.6016116589999996 12.5277004240000007  8.4670708779999995
  7.9516077239999996 12.4398072400000004  7.2072354089999999
  6.6457417710000000 11.8708710140000004  7.1343481320000004
  6.1384031539999997 11.4549525939999999  5.8746338109999998
  5.3249841150000004 10.2855853130000003  5.8012209590000001
  5.1114241419999997  9.6652129139999996  4.5416277850000002
  5.0325653140000002  8.2429026289999996  4.4684578310000003
  5.1763955929999996  7.6026886290000002  3.2088245760000000
  5.8555987649999999  6.3505482700000000  3.1357347839999998
  6.3139256340000003  5.8808811980000000  1.8764253420000001
  7.5491231719999998  5.1712999660000003  1.8028503570000001
  8.1858210039999992  5.0120084860000000  0.5435812980000000
  9.6096194399999995  5.0563136760000003  0.4706534870000000
 12.0097020990000001 10.7204690249999999 13.5793801900000002
 11.6209105239999992 11.2484064010000004 12.3186960879999994
 10.4952616209999992 12.1212242789999998 12.2454447660000003
  9.8871151830000006 12.3665156209999996 10.9851235030000005
  8.4709567579999998 12.5191142709999994 10.9115889010000000
  7.8244496300000002 12.4088693039999995  9.6513490060000002
  6.5389456240000001 11.7953090690000000  9.5784213460000007
  6.0465628669999996 11.3618989310000007  8.3184641280000005
  5.2742893270000000 10.1650609480000007  8.2448903490000003
  5.0822567420000002  9.5377350829999994  6.9851350429999997
  5.0525389409999999  8.1136134060000007  6.9120862350000003
  5.2180263699999996  7.4787973670000003  5.6522507670000000
  5.9400580810000001  6.2508813329999997  5.5789180770000000
  6.4143769730000004  5.7974698880000002  4.3194065730000002
  7.6733681430000003  5.1311186470000001  4.2459530369999996
  8.3150837420000006  4.9938601299999998  2.9865219960000000
  9.7365194570000000  5.0873709460000001  2.9135536520000000
 10.3547651040000002  5.3073431700000002  1.6542442100000001
 11.5157004589999996  6.1327276299999998  1.5806692259999999
 11.9267319050000005  6.6444087859999996  0.3213597460000000
 12.4824344269999994  7.9559747979999997  0.2485532520000000
 11.9396164040000006 10.8307341780000002 16.0252742300000008
 11.5325993649999994 11.3447669970000007 14.7643864069999999
 10.3776204980000006 12.1783386409999999 14.6908518049999994
  9.7615426890000005 12.4025736630000001 13.4302484680000003
  8.3409820200000002 12.5061252070000002 13.3568753959999995
  7.6987155370000000 12.3734892720000005 12.0962720590000004
  6.4351923620000004 11.7159830389999993 12.0232220460000008
  5.9578952259999998 11.2661166030000004 10.7629417689999993
  5.2275438230000004 10.0431817490000004 10.6893264020000007
  5.0574269469999997  9.4096000219999993  9.4292486390000008
  5.0771420159999998  7.9853394169999996  9.3562805959999995
  5.2644481929999998  7.3566391270000002  8.0962426129999994
  6.0283374030000001  6.1543818100000003  8.0227086140000008
  6.5176767939999998  5.7175851819999997  6.7628731459999996
  7.7987780740000003  5.0950012339999997  6.6896218239999996
  8.4448317599999996  4.9800944999999999  5.4298671199999999
  9.8620909870000002  5.1226120509999999  5.3567369459999998
 10.4725036679999999  5.3636613740000003  4.0973468899999999
 11.6044013849999992  6.2285093649999999  4.0237719050000003
 11.9974977620000001  6.7539965219999996  2.7643812460000001
 12.5078146229999998  8.0839097819999992  2.6916154180000000
 12.5667967829999991  8.7376115569999993  1.4321845270000000
 12.3027364230000007 10.1374299459999992  1.3588926720000001
 11.8657430240000004 10.9386090780000007 18.4714503440000009
 11.4416003570000004 11.4384974830000008 17.2104419769999986
 10.2585225730000005 12.2317079149999994 17.1367458450000001
  9.6348703570000005 12.4343879059999995 15.8759399929999994
  8.2115900019999994 12.4886738600000005 15.8027284510000001
  7.5742438449999998 12.3340637389999994 14.5418418339999995
  6.3342875809999999 11.6330698469999998 14.4685905120000005
  5.8730471079999997 11.1668682280000002 13.2080269539999993
  5.1854272840000002  9.9194887840000003 13.1344513670000005
  5.0371296399999999  9.2806693960000004 11.8739697799999995
  5.1060503749999997  7.8579417370000000 11.8010005319999998
  5.3149162609999996  7.2361545400000002 10.5407202540000000
  6.1198212070000002  6.0609505510000004 10.4670241229999998
  6.6239553410000003  5.6412858569999997  9.2069463599999999
  7.9256452890000002  5.0630272850000004  9.1338155820000004
  8.5750332189999998  4.9705320009999996  7.8736980399999998
  9.9864980390000007  5.1619568400000002  7.8004467179999999
 10.5879759880000002  5.4241230409999996  6.5407727790000001
 11.6894111019999993  6.3274193280000004  6.4673599270000004
 12.0643466549999996  6.8659946989999998  5.2076859889999998
 12.5283391339999994  8.2127418520000006  5.1348390940000002
 12.5649839809999992  8.8679973519999997  3.8753679710000002
 12.2528182739999991 10.2578747539999995  3.8019141340000000
 11.7882112370000005 11.0437541239999995 20.9177482079999990
 11.3469439080000001 11.5286419949999992 19.6567398410000003
 10.1373532879999999 12.2806350940000009 19.5830015189999997
  9.5072265020000000 12.4617208680000005 18.3220353419999995
  8.0828781480000007 12.4667210470000001 18.2490275199999985
  7.4515207979999998 12.2900179979999997 16.9879781680000015
  6.2366528880000001 11.5465113099999996 16.9144845510000010
  5.7917604369999998 11.0648306299999994 15.6536774940000001
  5.1472928319999998  9.7946416569999997 15.5802646419999995
  5.0212027389999996  9.1510999450000003 14.3194178050000005
  5.1390700999999996  7.7316002560000001 14.2463280119999993
  5.3694961770000003  7.1176024609999997 12.9857644550000000
  6.2143806970000002  5.9708458179999999 12.9120683229999997
  6.7325319700000001  5.5687719900000001 11.6516265160000003
  8.0533865850000002  5.0356551380000001 11.5786174880000008
  8.7055906780000001  4.9655318220000000 10.3182564459999995
 10.1095457310000008  5.2057840979999996 10.2448435940000007
 10.7015052629999996  5.4883891660000002  8.9847248460000007
 11.7710537730000002  6.4292378489999997  8.9115542879999996
 12.1270190590000002  6.9803439450000004  7.6515169079999996
 12.5442009120000009  8.3423107099999996  7.5785078800000001
 12.5581215739999994  8.9983035910000009  6.3188749270000004
 12.1980444390000002 10.3765063899999994  6.2453403249999999
 11.7074416830000008 11.1462892470000003 23.3639665120000011
 11.2497944939999996 11.6157977989999992 22.1030774850000000
 10.0148883170000005 12.3255773279999996 22.0294633230000017
  9.3787404040000002 12.4846307329999995 20.7684151770000014
  7.9551363689999999 12.4402857650000005 20.6954061490000001
  7.3301243100000004 12.2419671270000006 19.4343567969999995
  6.1415429970000002 11.4570044370000002 19.3607004449999991
  5.7137756900000003 10.9601439230000004 18.0997330629999986
  5.1135606249999999  9.6685192539999996 18.0265215209999994
  5.0098396820000000  9.0210531550000006 16.7654323890000008
  5.1768162320000002  7.6065334590000004 16.6921400820000017
  5.4279607380000003  7.0008231839999997 15.4313752149999992
  6.3120158730000000  5.8840088330000002 15.3577598480000006
  6.8436334009999999  5.5001825100000001 14.0969937759999997
  8.1820014810000004  5.0129649440000001 14.0239847480000002
  8.8361163000000005  4.9653130420000000 12.7633814109999992
 10.2309089350000004  5.2538545609999998 12.6897660440000006
 10.8127036529999998  5.5566996059999996 11.4294050019999993
 11.8491036409999992  6.5339447420000001 11.3563959739999998
 12.1857108239999992  7.0968643670000002 10.0959951520000004
 12.5554993300000000  8.4724180570000005 10.0228239919999993
 12.5467585170000007  9.1283100079999997  8.7627866109999992
 12.1392880349999999 10.4932061109999992  8.6893731570000003
 11.6230474889999993 11.2460161470000006 25.8099003320000016
 11.1492461960000000 11.6992085150000005 24.5491728340000002
  9.8905468689999996 12.3657592409999992 24.4757611869999998
  9.2494776650000006 12.5029583879999997 23.2147516150000008
  7.8282691540000000 12.4094273860000008 23.1417040129999982
  7.2106380650000004 12.1895347180000009 21.8807354260000011
  6.0498971109999999 11.3640908879999998 21.8069983090000008
  5.6393514270000002 10.8528472919999999 20.5460297220000001
  5.0840695440000001  9.5412818730000009 20.4729411349999992
  5.0027182339999996  8.8906881400000000 19.2118110179999988
  5.2182849280000001  7.4827817169999999 19.1383174009999983
  5.4905361829999997  6.8862750469999998 17.8773897989999995
  6.4124990490000000  5.8005779310000003 17.8039757419999987
  6.9570338789999999  5.4353583030000001 16.5429263900000016
  8.3113934979999993  4.9945969170000000 16.4697968169999989
  8.9666409569999992  4.9695960259999996 15.2089921710000002
 10.3505895809999995  5.3061480430000003 15.1353768039999999
 10.9214100429999998  5.6288750600000004 13.8746914970000006
 11.9232683819999998  6.6413411150000004 13.8017632339999992
 12.2403225770000006  7.2154360380000000 12.5411189120000000
 12.5622652600000002  8.6029421849999999 12.4677060599999994
 12.5308311339999996  9.2580195740000004 11.2073450169999997
 12.0765181889999997 10.6079537320000004 11.1340936950000007
 11.5354155269999996 11.3428540820000006 28.2553471509999987
 11.0460110149999995 11.7793122980000007 26.9949065489999995
  9.7650390139999992 12.4021153230000003 26.9217359919999986
  9.1195357290000008 12.5168831300000001 25.6608879489999993
  7.7023411419999999 12.3743655799999992 25.5877173919999983
  7.0926414250000001 12.1333358479999998 24.3269127450000013
  5.9608734700000001 11.2685472279999992 24.2532961729999990
  5.5684886100000002 10.7432791479999992 22.9923275859999983
  5.0586575109999998  9.4134056669999993 22.9193209690000010
  5.0000308679999996  8.7602827530000003 21.6583523820000003
  5.2640270710000001  7.3606834409999999 21.5846562499999983
  5.5565109939999999  6.7737983450000003 20.3237286479999995
  6.5155403109999996  5.7206926310000004 20.2504761209999984
  7.0723113160000004  5.3743593340000002 18.9893472090000017
  8.4410768760000003  4.9805724319999998 18.9160561069999993
  9.0968105789999996  4.9782017710000002 17.6550887259999989
 10.4683599820000008  5.3622067990000000 17.5815119330000016
 11.0276562709999997  5.7045961170000004 16.3205855359999994
 11.9938721580000003  6.7511081510000004 16.2476572740000016
 12.2906613650000001  7.3358410689999998 14.9868104360000007
 12.5644659000000001  8.7335470569999991 14.9131950700000004
 12.5103722279999996  9.3870695340000001 13.6525507469999994
 11.4447406829999991 11.4369027929999998 30.7002298220000007
 10.9402828680000006 11.8560901489999999 29.4400303090000008
  9.6385287640000001 12.4343083490000001 29.3671032519999997
  8.9891403509999996 12.5267041880000001 28.1065806800000004
  7.5777078510000004 12.3354981289999994 28.0332485929999997
  6.9765863840000000 12.0732731510000004 26.7727236089999998
  5.8754103110000004 11.1698367500000000 26.6993529480000014
  5.5011221189999997 10.6314204920000002 25.4384639200000002
  5.0374533200000000  9.2847125229999996 25.3654163180000012
  5.0015199900000002  8.6298773660000005 24.1046092610000002
  5.3137836209999998  7.2402386329999997 24.0309131290000018
  5.6265643689999996  6.6638324190000002 22.7700265120000012
  6.6212679750000003  5.6443339349999997 22.6969765000000017
  7.1897903569999997  5.3176427540000004 21.4358873679999995
  8.5712464980000007  4.9711500470000001 21.3624347360000009
  9.2266560379999998  4.9913499479999999 20.1014275749999989
 10.5840908610000000  5.4223698320000002 20.0279737380000000
 11.1312474530000003  5.7837042580000002 18.7668424149999993
 12.0607210499999997  6.8630665490000000 18.6937948130000002
 12.3370185489999997  7.4577802310000001 17.4329467710000010
 12.5623298999999999  8.8641531160000007 17.3592506389999990
 12.4857368330000007  9.5152835580000001 16.0983242420000003
 11.3506341519999996 11.5275258310000002 33.1444253889999985
 10.8319334430000005 11.9292416540000001 31.8845489350000015
  9.5109495489999993 12.4620996519999991 31.8117424229999983
  8.8586147289999992 12.5319834080000003 30.5516634539999998
  7.4545960019999997 12.2921102120000008 30.4782518079999996
  6.8627657490000002 12.0094249939999997 29.2180113100000014
  5.7934762800000001 11.0683774199999991 29.1448817379999987
  5.4378665110000002 10.5172713249999994 27.8843181800000011
  5.0208139369999998  9.1553437439999996 27.8111066379999983
  5.0074769610000001  8.4996097180000003 26.5505020949999988
  5.3676833750000004  7.1216265900000000 26.4768469489999987
  5.7001468710000003  6.5562567459999999 25.2161218620000014
  6.7292946860000002  5.5715214350000002 25.1431538189999984
  7.3088559620000000  5.2645121479999997 23.8823081869999996
  8.7015444340000005  4.9660896079999999 23.8086916150000008
  9.3559178119999995  5.0089408149999999 22.5478049980000002
 10.6977175770000006  5.4865564009999996 22.4745524709999991
 11.2321199130000000  5.8663977799999998 21.2133837790000008
 12.1235883379999994  6.9772560879999999 21.1401312519999998
 12.6380807219999998  7.5811935620000002 19.8791638699999993
 12.7822018780000004  8.8949105660000001 20.0077873430000004
 12.6185923740000003  9.7821714899999996 18.2209550990000011
 11.2537770629999994 11.6149404900000004 35.5881773509999988
 10.7214460870000003 11.9985875140000005 34.3285781499999985
  9.3827876119999996 12.4854666689999991 34.2557378850000021
  8.7282521539999998 12.5327006020000002 32.9960639470000032
  7.3333292749999996 12.2442778249999993 32.9225703299999992
  6.7512755159999998 11.9412938529999995 31.6627324510000001
  5.7150380920000003 10.9639293819999999 31.5897644080000006
  5.3787545889999997 10.4008304579999997 30.3294829250000006
  5.0088686410000003  9.0253159529999998 30.2561508379999999
  5.0179331349999998  8.3695237440000003 28.9958307809999987
  5.4253061740000001  7.0046478270000003 28.9223757379999995
  5.7773549780000000  6.4512108479999997 27.6618121809999984
  6.8399431570000004  5.5026731000000000 27.5888031530000006
  7.4297338870000003  5.2157446759999999 26.3282805810000013
  8.8319398119999999  4.9656912320000002 26.2546254340000011
  9.4844039099999993  5.0310931129999998 24.9939413329999987
 10.8088841299999991  5.5549463960000001 24.9208503350000008
 11.3299166880000008  5.9529765030000004 23.6598841580000006
 12.1827644169999996  7.0937961029999999 23.5863495559999983
 12.4171079409999994  7.7059813180000001 22.3254219539999994
 12.5447836329999998  9.1245453290000000 22.2519669120000003
 12.4232901850000008  9.7689039780000009 20.9908777800000017
 11.1537458820000008 11.6984521360000002 38.0316014329999987
 10.6084348950000003 12.0637703179999995 36.7721300090000014
  9.2537187930000009 12.5042134790000006 36.6992415260000016
  8.5978886130000003 12.5288961449999992 35.4397701019999971
  7.2138430299999996 12.1922431979999999 35.3662764859999967
  6.6425691259999997 11.8692573249999995 34.1067230920000029
  5.6404845490000000 10.8568322360000007 34.0338370200000000
  5.3233980340000002 10.2823579360000004 32.7740449470000001
  5.0012937519999996  8.8948316030000001 32.7005079349999974
  5.0329536340000001  8.2395962889999996 31.4405109369999991
  5.4870721780000000  6.8895422020000003 31.3672993939999998
  5.8578968470000001  6.3485160199999999 30.1069793369999985
  6.9526311520000004  5.4371910689999998 30.0338087790000010
  7.5522630150000003  5.1710808889999997 28.7736092670000012
  8.9623033529999994  4.9698548809999998 28.6999926939999987
  9.6123391260000002  5.0577878439999999 27.4395906670000009
 10.9179465199999992  5.6270624810000003 27.3665430649999983
 11.4249291369999995  6.0428419739999999 26.1058565519999988
 12.2381209729999991  7.2122490330000000 26.0322014049999986
 12.4513572650000004  7.8322830210000003 24.7714763180000013
 12.5299570530000004  9.2544525980000003 24.6982262020000007
 12.3862246979999995  9.8941298880000002 23.4372166290000017
 11.0506727819999995 11.7780975790000006  0.0267766070000000
 10.4932867370000000 12.1247105110000000 39.2153130009999984
  9.1241974960000007 12.5182177780000004 39.1423449589999990
  8.4677845959999996 12.5204691050000001 37.8829964910000001
  7.0961049479999998 12.1362248140000002 37.8096210080000006
  6.5362910599999999 11.7936561960000006 36.5502315539999998
  5.5698484529999996 10.7471239769999993 36.4773454819999969
  5.2727678850000004 10.1620330550000002 35.2178354839999983
  4.9986715080000002  8.7642671029999999 35.1442140899999984
  5.0527010230000000  8.1103064719999995 33.8845835480000019
  5.5530469890000003  6.7767069030000000 33.8115359459999993
  5.9421945640000002  6.2485902280000003 32.5515775220000023
  7.0680060310000004  5.3758732800000004 32.4782454349999981
  7.6763135849999999  5.1306407150000002 31.2182894230000016
  9.0925376139999994  4.9784413299999999 31.1448343799999989
  9.7390770619999998  5.0889650419999999 29.8846348669999990
 11.0243220270000002  5.7028630939999996 29.8115462800000017
 11.5167694229999995  6.1360541560000001 28.5512647970000017
 12.2892373650000000  7.3327538060000004 28.4775686649999997
 12.4810750660000007  7.9597204789999996 27.2170870779999987
 12.5106954259999998  9.3837821930000000 27.1440370649999991
 12.3448852819999999 10.0181001139999992 25.8833119779999983
  8.3380037760000008 12.5070822580000005 40.3259359830000008
  6.9804063889999997 12.0758225170000006 40.2527244400000015
  6.4326670769999996 11.7143087930000007 38.9933325760000002
  5.5028697990000000 10.6351062089999999 38.9203259599999996
  5.2261839800000001 10.0400137429999994 37.6610570510000002
  5.0004843100000000  8.6335618949999997 37.5874404790000014
  5.0772066550000003  7.9819327419999997 36.3280534359999976
  5.6232947639999997  6.6663426010000002 36.2551239679999995
  6.0304415660000004  6.1519517779999999 34.9954500300000007
  7.1856143509999999  5.3185992110000004 34.9219540019999997
  7.8021774400000004  5.0945826729999997 33.6622800629999972
  9.2228037129999993  4.9912306129999999 33.5890323579999972
  9.8651348349999992  5.1240862189999996 32.3290739340000002
 11.1285933709999991  5.7817319720000002 32.2559057870000032
 11.6055986640000004  6.2319362270000003 30.9959859380000005
 12.3362737469999999  7.4546727830000004 30.9223717769999986
 12.5063906229999997  8.0881138020000005 29.6622108380000000
 12.4870643569999995  9.5123560020000006 29.5892837809999989
 12.2993047369999999 10.1406573229999992 28.3288817530000010
  5.1836468020000002  9.9164620790000004 40.1038735879999990
  5.0066675189999996  8.5029973949999995 40.0303413959999972
  5.1059210960000003  7.8542963920000002 38.7710724880000015
  5.6971686269999999  6.5582884029999997 38.6981430200000034
  6.1218607299999999  6.0581613279999997 37.4387125809999972
  7.3051652349999996  5.2650702300000001 37.3651345829999997
  7.9291416139999997  5.0624692030000000 36.1057041449999971
  9.3525517300000001  5.0083031770000002 36.0326565430000016
  9.9900271669999992  5.1632517089999999 34.7729030449999996
 11.2301122269999993  5.8641666389999996 34.6996529279999990
 11.6913203810000006  6.3307464470000001 33.4400223860000025
 12.3791992450000006  7.5780659269999999 33.3665649320000028
 12.5273348080000009  8.2171649500000008 32.1066884789999989
 12.4589326370000002  9.6399519799999993 32.0337590110000008
 12.2498072279999999 10.2617789540000004 30.7737644239999995
  6.2165171800000003  5.9678974819999997 39.8816520729999979
  7.4264642820000004  5.2160035310000001 39.8080379120000032
  8.0570449919999998  5.0347984219999997 38.5487280179999985
  9.4815877480000008  5.0299175790000001 38.4758829310000010
 10.1133324519999999  5.2069994110000000 37.2162885520000017
 11.3283624439999997  5.9504467290000003 37.1429130690000022
 11.7733846559999993  6.4325845609999996 35.8834850419999967
 12.4177224989999999  7.7029332400000001 35.8102349250000032
 12.5436509940000001  8.3468721410000004 34.5506019709999990
 12.4259780339999999  9.7664929449999995 34.4775495479999989
 12.1955842770000000 10.3806896309999992 33.2179190049999988
 10.2352465400000003  5.2547510539999998 39.6593510000000009
 11.4239257760000008  6.0397743029999997 39.5858573829999969
 11.8519516409999994  6.5371721190000001 38.3265450780000023
 12.4523934280000006  7.8288567530000002 38.2535408720000021
 12.5559199699999997  8.4769794879999996 36.9940260529999989
 12.3893968609999998  9.8916986690000002 36.9208940700000028
 12.1377019540000006 10.4978275060000001 35.6615480130000009
 12.5637867019999998  8.6072465420000004 39.4371294860000035
 12.3483488050000005 10.0153714479999998 39.3639613389999994
 12.0758708289999994 10.6125549410000009 38.1046900199999996
 14.0700372500000004  9.2935979030000002 19.1168809589999995
