 running  256 mpi-ranks, with    1 threads/rank, on    7 nodes
 distrk:  each k-point on  128 cores,    2 groups
 distr:  one band on    4 cores,   32 groups
 vasp.6.4.1 05Apr23 (build May 18 2023 13:19:41) complex                         
 POSCAR found type information on POSCAR C Se
 POSCAR found :  2 types and     365 ions
 Reading from existing POTCAR
 scaLAPACK will be used
 Reading from existing POTCAR
 -----------------------------------------------------------------------------
|                                                                             |
|               ----> ADVICE to this user running VASP <----                  |
|                                                                             |
|     You have a (more or less) 'large supercell' and for larger cells it     |
|     might be more efficient to use real-space projection operators.         |
|     Therefore, try LREAL= Auto in the INCAR file.                           |
|     Mind: If you want to do very accurate calculations, keep the            |
|     reciprocal projection scheme (i.e. LREAL=.FALSE.).                      |
|                                                                             |
 -----------------------------------------------------------------------------

 LDA part: xc-table for Pade appr. of Perdew
 POSCAR, INCAR and KPOINTS ok, starting setup
 FFT: planning ... GRIDC
 FFT: planning ... GRID_SOFT
 FFT: planning ... GRID
 WAVECAR not read
 WARNING: chargedensity file is incomplete
 WARNING: random wavefunctions but no delay for mixing, default for NELMDL
 entering main loop
       N       E                     dE             d eps       ncg     rms          rms(c)
DAV:   1     0.131069986264E+05    0.13107E+05   -0.45137E+05  4544   0.932E+02
DAV:   2     0.766008041871E+02   -0.13030E+05   -0.12253E+05  5312   0.239E+02
DAV:   3    -0.335026114255E+04   -0.34269E+04   -0.33825E+04  4544   0.130E+02
DAV:   4    -0.353284913483E+04   -0.18259E+03   -0.17982E+03  4416   0.387E+01
DAV:   5    -0.353785472805E+04   -0.50056E+01   -0.49346E+01  4928   0.565E+00    0.745E+01
DAV:   6    -0.341355390649E+04    0.12430E+03   -0.78479E+01  4064   0.798E+00    0.546E+01
DAV:   7    -0.330468576442E+04    0.10887E+03   -0.42746E+02  4032   0.182E+01    0.117E+01
DAV:   8    -0.330358498943E+04    0.11008E+01   -0.21973E+01  4032   0.562E+00    0.761E+00
DAV:   9    -0.330378365620E+04   -0.19867E+00   -0.55544E+00  3968   0.250E+00    0.353E+00
DAV:  10    -0.330362734925E+04    0.15631E+00   -0.12221E+00  4000   0.134E+00    0.124E+00
DAV:  11    -0.330358730591E+04    0.40043E-01   -0.38362E-01  4096   0.739E-01    0.340E-01
DAV:  12    -0.330359311420E+04   -0.58083E-02   -0.75705E-02  4128   0.272E-01    0.192E-01
DAV:  13    -0.330359324807E+04   -0.13387E-03   -0.68608E-03  4128   0.864E-02    0.141E-01
DAV:  14    -0.330359394206E+04   -0.69399E-03   -0.16134E-03  4160   0.430E-02    0.601E-02
DAV:  15    -0.330359404804E+04   -0.10598E-03   -0.44778E-04  4128   0.223E-02    0.278E-02
DAV:  16    -0.330359407469E+04   -0.26647E-04   -0.13193E-04  4096   0.128E-02    0.104E-02
DAV:  17    -0.330359407931E+04   -0.46216E-05   -0.21325E-05  4224   0.496E-03    0.549E-03
DAV:  18    -0.330359408004E+04   -0.72864E-06   -0.42022E-06  3936   0.228E-03
   1 F= -.33176550E+04 E0= -.33176550E+04  d E =-.331766E+04
 BRION: g(F)=  0.299E+02 g(S)=  0.000E+00
 bond charge predicted
       N       E                     dE             d eps       ncg     rms          rms(c)
DAV:   1    -0.328632163751E+04    0.17272E+02   -0.18470E+03  3776   0.442E+01    0.106E+01
DAV:   2    -0.329824001313E+04   -0.11918E+02   -0.13480E+02  4000   0.105E+01    0.814E+00
DAV:   3    -0.329731164007E+04    0.92837E+00   -0.56889E+00  4320   0.347E+00    0.616E+00
DAV:   4    -0.329685528317E+04    0.45636E+00   -0.34126E+00  4128   0.235E+00    0.309E+00
DAV:   5    -0.329686792149E+04   -0.12638E-01   -0.10474E+00  4032   0.138E+00    0.164E+00
DAV:   6    -0.329684957949E+04    0.18342E-01   -0.22281E-01  4288   0.585E-01    0.756E-01
DAV:   7    -0.329685649360E+04   -0.69141E-02   -0.63986E-02  4032   0.289E-01    0.375E-01
DAV:   8    -0.329685752341E+04   -0.10298E-02   -0.12519E-02  4128   0.135E-01    0.204E-01
DAV:   9    -0.329685787750E+04   -0.35409E-03   -0.33451E-03  4096   0.645E-02    0.999E-02
DAV:  10    -0.329685792281E+04   -0.45314E-04   -0.78611E-04  4192   0.366E-02    0.510E-02
DAV:  11    -0.329685792940E+04   -0.65885E-05   -0.32698E-04  4064   0.205E-02    0.228E-02
DAV:  12    -0.329685792917E+04    0.22876E-06   -0.65878E-05  4160   0.863E-03    0.116E-02
DAV:  13    -0.329685792932E+04   -0.15320E-06   -0.14257E-05  4288   0.452E-03    0.486E-03
DAV:  14    -0.329685792943E+04   -0.10163E-06   -0.31716E-06  3360   0.222E-03
   2 F= -.33109322E+04 E0= -.33109322E+04  d E =0.672282E+01
 BRION: g(F)=  0.657E+02 g(S)=  0.000E+00 retain N=  1 mean eig= 0.35
 eig:   0.350
 bond charge predicted
       N       E                     dE             d eps       ncg     rms          rms(c)
DAV:   1    -0.330152450058E+04   -0.46666E+01   -0.10085E+03  3776   0.361E+01    0.607E+00
DAV:   2    -0.330497804171E+04   -0.34535E+01   -0.41170E+01  4192   0.666E+00    0.612E+00
DAV:   3    -0.330477465004E+04    0.20339E+00   -0.13024E+00  4320   0.117E+00    0.526E+00
DAV:   4    -0.330424005415E+04    0.53460E+00   -0.95764E-01  4064   0.112E+00    0.276E+00
DAV:   5    -0.330414959285E+04    0.90461E-01   -0.68682E-01  4160   0.909E-01    0.104E+00
DAV:   6    -0.330414555524E+04    0.40376E-02   -0.17524E-01  4352   0.454E-01    0.614E-01
DAV:   7    -0.330414189431E+04    0.36609E-02   -0.56624E-02  4128   0.235E-01    0.306E-01
DAV:   8    -0.330414233279E+04   -0.43848E-03   -0.85441E-03  4128   0.114E-01    0.172E-01
DAV:   9    -0.330414208675E+04    0.24604E-03   -0.31039E-03  4128   0.597E-02    0.841E-02
DAV:  10    -0.330414191964E+04    0.16711E-03   -0.78401E-04  4288   0.335E-02    0.377E-02
DAV:  11    -0.330414192324E+04   -0.36013E-05   -0.24352E-04  4192   0.164E-02    0.181E-02
DAV:  12    -0.330414192056E+04    0.26812E-05   -0.25235E-05  4096   0.600E-03    0.107E-02
DAV:  13    -0.330414191840E+04    0.21659E-05   -0.15484E-05  4160   0.437E-03    0.359E-03
DAV:  14    -0.330414191859E+04   -0.19069E-06   -0.24922E-06  3424   0.185E-03
   3 F= -.33182171E+04 E0= -.33182171E+04  d E =-.728488E+01
 BRION: g(F)=  0.263E+02 g(S)=  0.000E+00 retain N=  2 mean eig= 0.84
 eig:   0.193  1.486
 bond charge predicted
       N       E                     dE             d eps       ncg     rms          rms(c)
DAV:   1    -0.330792518676E+04   -0.37833E+01   -0.35844E+02  3648   0.219E+01    0.332E+00
DAV:   2    -0.330864861585E+04   -0.72343E+00   -0.94163E+00  4224   0.340E+00    0.343E+00
DAV:   3    -0.330860450337E+04    0.44112E-01   -0.33683E-01  4416   0.610E-01    0.311E+00
DAV:   4    -0.330840301488E+04    0.20149E+00   -0.42699E-01  4288   0.812E-01    0.148E+00
DAV:   5    -0.330838454791E+04    0.18467E-01   -0.20095E-01  4064   0.514E-01    0.679E-01
DAV:   6    -0.330837862722E+04    0.59207E-02   -0.41808E-02  4160   0.251E-01    0.306E-01
DAV:   7    -0.330837935817E+04   -0.73095E-03   -0.96667E-03  4160   0.110E-01    0.131E-01
DAV:   8    -0.330837921307E+04    0.14510E-03   -0.13284E-03  4032   0.450E-02    0.807E-02
DAV:   9    -0.330837918268E+04    0.30388E-04   -0.50800E-04  4128   0.263E-02    0.305E-02
DAV:  10    -0.330837917227E+04    0.10413E-04   -0.14117E-04  4256   0.156E-02    0.149E-02
DAV:  11    -0.330837917291E+04   -0.64145E-06   -0.42056E-05  4160   0.734E-03    0.854E-03
DAV:  12    -0.330837917183E+04    0.10793E-05   -0.58273E-06  4000   0.282E-03    0.463E-03
DAV:  13    -0.330837917144E+04    0.38987E-06   -0.28824E-06  3488   0.213E-03
   4 F= -.33224576E+04 E0= -.33224576E+04  d E =-.424054E+01
 BRION: g(F)=  0.796E+01 g(S)=  0.000E+00 retain N=  3 mean eig= 2.15
 eig:   5.801  0.328  0.328
 bond charge predicted
       N       E                     dE             d eps       ncg     rms          rms(c)
DAV:   1    -0.330932303761E+04   -0.94387E+00   -0.13663E+02  3648   0.137E+01    0.223E+00
DAV:   2    -0.330954479322E+04   -0.22176E+00   -0.32459E+00  4224   0.201E+00    0.223E+00
DAV:   3    -0.330950969084E+04    0.35102E-01   -0.12336E-01  4544   0.382E-01    0.191E+00
DAV:   4    -0.330942827290E+04    0.81418E-01   -0.17023E-01  4160   0.518E-01    0.789E-01
DAV:   5    -0.330942419028E+04    0.40826E-02   -0.58911E-02  3968   0.277E-01    0.285E-01
DAV:   6    -0.330942451853E+04   -0.32825E-03   -0.76328E-03  4224   0.102E-01    0.124E-01
DAV:   7    -0.330942457520E+04   -0.56668E-04   -0.12900E-03  4224   0.449E-02    0.737E-02
DAV:   8    -0.330942448948E+04    0.85720E-04   -0.46393E-04  4032   0.248E-02    0.368E-02
DAV:   9    -0.330942447576E+04    0.13722E-04   -0.10761E-04  4224   0.140E-02    0.162E-02
DAV:  10    -0.330942447494E+04    0.81270E-06   -0.45903E-05  4096   0.797E-03    0.816E-03
DAV:  11    -0.330942447392E+04    0.10218E-05   -0.71133E-06  4096   0.323E-03    0.481E-03
DAV:  12    -0.330942447350E+04    0.42224E-06   -0.21526E-06  2528   0.168E-03
   5 F= -.33235052E+04 E0= -.33235052E+04  d E =-.104759E+01
 BRION: g(F)=  0.354E+01 g(S)=  0.000E+00 retain N=  3 mean eig= 1.14
 eig:   2.888  0.263  0.263
 bond charge predicted
       N       E                     dE             d eps       ncg     rms          rms(c)
DAV:   1    -0.330942846383E+04   -0.39899E-02   -0.16970E+02  3680   0.151E+01    0.246E+00
DAV:   2    -0.330968208123E+04   -0.25362E+00   -0.37264E+00  4192   0.219E+00    0.242E+00
DAV:   3    -0.330963491348E+04    0.47168E-01   -0.14890E-01  4640   0.449E-01    0.201E+00
DAV:   4    -0.330955964263E+04    0.75271E-01   -0.23839E-01  4128   0.623E-01    0.693E-01
DAV:   5    -0.330956006258E+04   -0.41995E-03   -0.73689E-02  4032   0.316E-01    0.293E-01
DAV:   6    -0.330956048867E+04   -0.42609E-03   -0.87924E-03  4256   0.103E-01    0.151E-01
DAV:   7    -0.330956036820E+04    0.12047E-03   -0.18937E-03  4128   0.497E-02    0.792E-02
DAV:   8    -0.330956037474E+04   -0.65363E-05   -0.39796E-04  4064   0.234E-02    0.430E-02
DAV:   9    -0.330956034878E+04    0.25961E-04   -0.12606E-04  4224   0.163E-02    0.181E-02
DAV:  10    -0.330956035046E+04   -0.16813E-05   -0.71763E-05  4192   0.939E-03    0.788E-03
DAV:  11    -0.330956034953E+04    0.92550E-06   -0.87669E-06  4128   0.349E-03
   6 F= -.33236406E+04 E0= -.33236406E+04  d E =-.135380E+00
 BRION: g(F)=  0.549E+01 g(S)=  0.000E+00 retain N=  4 mean eig= 1.18
 eig:   2.974  0.431  0.431  0.879
 bond charge predicted
       N       E                     dE             d eps       ncg     rms          rms(c)
DAV:   1    -0.330997998836E+04   -0.41964E+00   -0.70161E+01  3744   0.980E+00    0.161E+00
DAV:   2    -0.331010506494E+04   -0.12508E+00   -0.17909E+00  4224   0.144E+00    0.166E+00
DAV:   3    -0.331009588049E+04    0.91845E-02   -0.61955E-02  4736   0.251E-01    0.152E+00
DAV:   4    -0.331004365825E+04    0.52222E-01   -0.85795E-02  4160   0.362E-01    0.731E-01
DAV:   5    -0.331003771166E+04    0.59466E-02   -0.39568E-02  4096   0.222E-01    0.283E-01
DAV:   6    -0.331003777069E+04   -0.59030E-04   -0.60883E-03  4192   0.861E-02    0.142E-01
DAV:   7    -0.331003776126E+04    0.94365E-05   -0.78424E-04  4128   0.348E-02    0.786E-02
DAV:   8    -0.331003767325E+04    0.88006E-04   -0.47754E-04  4032   0.245E-02    0.338E-02
DAV:   9    -0.331003767442E+04   -0.11694E-05   -0.86814E-05  4384   0.108E-02    0.162E-02
DAV:  10    -0.331003767743E+04   -0.30086E-05   -0.22571E-05  4224   0.562E-03    0.786E-03
DAV:  11    -0.331003767842E+04   -0.98837E-06   -0.35776E-06  3328   0.251E-03
   7 F= -.33241193E+04 E0= -.33241193E+04  d E =-.478696E+00
 BRION: g(F)=  0.121E+01 g(S)=  0.000E+00 retain N=  2 mean eig= 1.49
 eig:   0.238  2.735
 bond charge predicted
       N       E                     dE             d eps       ncg     rms          rms(c)
DAV:   1    -0.331006203662E+04   -0.24359E-01   -0.24124E+01  3648   0.585E+00    0.920E-01
DAV:   2    -0.331010077432E+04   -0.38738E-01   -0.57880E-01  4224   0.840E-01    0.930E-01
DAV:   3    -0.331009579467E+04    0.49796E-02   -0.24560E-02  4672   0.162E-01    0.814E-01
DAV:   4    -0.331008158093E+04    0.14214E-01   -0.25296E-02  4352   0.209E-01    0.383E-01
DAV:   5    -0.331008030275E+04    0.12782E-02   -0.13402E-02  3968   0.137E-01    0.137E-01
DAV:   6    -0.331008036346E+04   -0.60710E-04   -0.22341E-03  4064   0.519E-02    0.645E-02
DAV:   7    -0.331008038304E+04   -0.19580E-04   -0.29301E-04  4384   0.177E-02    0.322E-02
DAV:   8    -0.331008037253E+04    0.10515E-04   -0.45626E-05  4160   0.889E-03    0.169E-02
DAV:   9    -0.331008037137E+04    0.11559E-05   -0.29950E-05  4128   0.636E-03    0.636E-03
DAV:  10    -0.331008037150E+04   -0.13155E-06   -0.55017E-06  4160   0.307E-03
   8 F= -.33241625E+04 E0= -.33241625E+04  d E =-.432311E-01
 BRION: g(F)=  0.128E+01 g(S)=  0.000E+00 retain N=  3 mean eig= 1.69
 eig:   4.561  0.250  0.250
 bond charge predicted
       N       E                     dE             d eps       ncg     rms          rms(c)
DAV:   1    -0.331021511067E+04   -0.13474E+00   -0.96560E+00  3648   0.370E+00    0.618E-01
DAV:   2    -0.331022950642E+04   -0.14396E-01   -0.23965E-01  4224   0.542E-01    0.614E-01
DAV:   3    -0.331022613684E+04    0.33696E-02   -0.10680E-02  4672   0.108E-01    0.504E-01
DAV:   4    -0.331022118270E+04    0.49541E-02   -0.68047E-03  4128   0.103E-01    0.272E-01
DAV:   5    -0.331022013449E+04    0.10482E-02   -0.54335E-03  4000   0.874E-02    0.669E-02
DAV:   6    -0.331022020683E+04   -0.72336E-04   -0.94401E-04  4128   0.336E-02    0.293E-02
DAV:   7    -0.331022021774E+04   -0.10916E-04   -0.99626E-05  4256   0.125E-02    0.167E-02
DAV:   8    -0.331022021211E+04    0.56338E-05   -0.31263E-05  4000   0.663E-03    0.899E-03
DAV:   9    -0.331022021130E+04    0.80862E-06   -0.74572E-06  4288   0.329E-03
   9 F= -.33243022E+04 E0= -.33243022E+04  d E =-.139652E+00
 BRION: g(F)=  0.105E+00 g(S)=  0.000E+00 retain N=  2 mean eig= 1.64
 eig:   0.211  3.071
 bond charge predicted
       N       E                     dE             d eps       ncg     rms          rms(c)
DAV:   1    -0.331023194955E+04   -0.11737E-01   -0.70267E+00  3648   0.306E+00    0.475E-01
DAV:   2    -0.331024339250E+04   -0.11443E-01   -0.16517E-01  4128   0.432E-01    0.459E-01
DAV:   3    -0.331024165616E+04    0.17363E-02   -0.76521E-03  4576   0.972E-02    0.375E-01
DAV:   4    -0.331023942077E+04    0.22354E-02   -0.75507E-03  4224   0.112E-01    0.151E-01
DAV:   5    -0.331023948668E+04   -0.65914E-04   -0.25234E-03  4000   0.595E-02    0.622E-02
DAV:   6    -0.331023950666E+04   -0.19977E-04   -0.35784E-04  4128   0.235E-02    0.288E-02
DAV:   7    -0.331023950738E+04   -0.72585E-06   -0.92589E-05  4096   0.112E-02    0.159E-02
DAV:   8    -0.331023950697E+04    0.40978E-06   -0.21754E-05  4128   0.574E-03    0.825E-03
DAV:   9    -0.331023950716E+04   -0.18510E-06   -0.52337E-06  4128   0.282E-03
  10 F= -.33243218E+04 E0= -.33243218E+04  d E =-.196671E-01
 BRION: g(F)=  0.210E+00 g(S)=  0.000E+00 retain N=  3 mean eig= 1.21
 eig:   0.236  0.236  3.152
 bond charge predicted
       N       E                     dE             d eps       ncg     rms          rms(c)
DAV:   1    -0.331026694200E+04   -0.27435E-01   -0.24582E+00  3712   0.186E+00    0.298E-01
DAV:   2    -0.331027087739E+04   -0.39354E-02   -0.60086E-02  4224   0.274E-01    0.302E-01
DAV:   3    -0.331027026262E+04    0.61477E-03   -0.23249E-03  4768   0.501E-02    0.261E-01
DAV:   4    -0.331026877816E+04    0.14845E-02   -0.36290E-03  4448   0.750E-02    0.114E-01
DAV:   5    -0.331026872115E+04    0.57013E-04   -0.10986E-03  3936   0.377E-02    0.435E-02
DAV:   6    -0.331026873386E+04   -0.12710E-04   -0.14173E-04  4256   0.138E-02    0.156E-02
DAV:   7    -0.331026873253E+04    0.13326E-05   -0.23322E-05  3968   0.576E-03    0.911E-03
DAV:   8    -0.331026873243E+04    0.95111E-07   -0.72368E-06  4192   0.300E-03
  11 F= -.33243513E+04 E0= -.33243513E+04  d E =-.294311E-01
 BRION: g(F)=  0.444E-01 g(S)=  0.000E+00 retain N=  2 mean eig= 3.03
 eig:   0.245  5.824
 bond charge predicted
       N       E                     dE             d eps       ncg     rms          rms(c)
DAV:   1    -0.331028126005E+04   -0.12528E-01   -0.15281E+00  3680   0.137E+00    0.219E-01
DAV:   2    -0.331028397480E+04   -0.27148E-02   -0.36734E-02  4000   0.190E-01    0.203E-01
DAV:   3    -0.331028359055E+04    0.38425E-03   -0.15799E-03  4448   0.432E-02    0.159E-01
DAV:   4    -0.331028326797E+04    0.32258E-03   -0.15180E-03  4096   0.489E-02    0.587E-02
DAV:   5    -0.331028328749E+04   -0.19518E-04   -0.42212E-04  4032   0.251E-02    0.254E-02
DAV:   6    -0.331028329062E+04   -0.31288E-05   -0.79095E-05  4160   0.103E-02    0.111E-02
DAV:   7    -0.331028329165E+04   -0.10361E-05   -0.13842E-05  4064   0.443E-03    0.675E-03
DAV:   8    -0.331028329198E+04   -0.32806E-06   -0.38232E-06  3936   0.256E-03
  12 F= -.33243659E+04 E0= -.33243659E+04  d E =-.146804E-01
 BRION: g(F)=  0.418E-01 g(S)=  0.000E+00 retain N=  2 mean eig= 0.12
 eig:   0.113  0.124
 bond charge predicted
       N       E                     dE             d eps       ncg     rms          rms(c)
DAV:   1    -0.331029306780E+04   -0.97761E-02   -0.85494E-01  3648   0.104E+00    0.172E-01
DAV:   2    -0.331029453423E+04   -0.14664E-02   -0.21267E-02  4096   0.148E-01    0.157E-01
DAV:   3    -0.331029428457E+04    0.24967E-03   -0.11329E-03  4384   0.367E-02    0.119E-01
DAV:   4    -0.331029407265E+04    0.21192E-03   -0.75747E-04  4064   0.336E-02    0.496E-02
DAV:   5    -0.331029407736E+04   -0.47138E-05   -0.20344E-04  4064   0.165E-02    0.199E-02
DAV:   6    -0.331029407978E+04   -0.24121E-05   -0.39729E-05  4096   0.760E-03    0.756E-03
DAV:   7    -0.331029408067E+04   -0.89058E-06   -0.63691E-06  4032   0.334E-03
  13 F= -.33243769E+04 E0= -.33243769E+04  d E =-.109536E-01
 BRION: g(F)=  0.255E-01 g(S)=  0.000E+00 retain N=  3 mean eig= 1.79
 eig:   4.835  0.264  0.264
 bond charge predicted
       N       E                     dE             d eps       ncg     rms          rms(c)
DAV:   1    -0.331030099208E+04   -0.69123E-02   -0.72008E-01  3680   0.931E-01    0.156E-01
DAV:   2    -0.331030230418E+04   -0.13121E-02   -0.18138E-02  4032   0.132E-01    0.142E-01
DAV:   3    -0.331030209310E+04    0.21107E-03   -0.86016E-04  4512   0.314E-02    0.107E-01
DAV:   4    -0.331030192077E+04    0.17234E-03   -0.72178E-04  4000   0.322E-02    0.396E-02
DAV:   5    -0.331030192747E+04   -0.66985E-05   -0.17009E-04  4096   0.149E-02    0.168E-02
DAV:   6    -0.331030192895E+04   -0.14881E-05   -0.34435E-05  4160   0.685E-03    0.675E-03
DAV:   7    -0.331030192959E+04   -0.63167E-06   -0.48249E-06  3904   0.287E-03
  14 F= -.33243849E+04 E0= -.33243849E+04  d E =-.801690E-02
 BRION: g(F)=  0.242E-01 g(S)=  0.000E+00 retain N=  2 mean eig= 0.16
 eig:   0.099  0.225
 bond charge predicted
       N       E                     dE             d eps       ncg     rms          rms(c)
DAV:   1    -0.331030805812E+04   -0.61292E-02   -0.44339E-01  3680   0.731E-01    0.121E-01
DAV:   2    -0.331030889539E+04   -0.83727E-03   -0.11361E-02  4032   0.104E-01    0.111E-01
DAV:   3    -0.331030877055E+04    0.12484E-03   -0.48184E-04  4512   0.235E-02    0.859E-02
DAV:   4    -0.331030866624E+04    0.10431E-03   -0.48203E-04  4064   0.269E-02    0.320E-02
DAV:   5    -0.331030867110E+04   -0.48641E-05   -0.11978E-04  4000   0.129E-02    0.140E-02
DAV:   6    -0.331030867188E+04   -0.78056E-06   -0.23715E-05  4160   0.557E-03    0.557E-03
DAV:   7    -0.331030867229E+04   -0.41293E-06   -0.33891E-06  3648   0.241E-03
  15 F= -.33243917E+04 E0= -.33243917E+04  d E =-.675915E-02
 BRION: g(F)=  0.140E-01 g(S)=  0.000E+00 retain N=  2 mean eig= 0.97
 eig:   0.207  1.725
 bond charge predicted
       N       E                     dE             d eps       ncg     rms          rms(c)
DAV:   1    -0.331031364482E+04   -0.49729E-02   -0.41892E-01  3648   0.687E-01    0.116E-01
DAV:   2    -0.331031446480E+04   -0.81999E-03   -0.10793E-02  4064   0.960E-02    0.102E-01
DAV:   3    -0.331031436707E+04    0.97734E-04   -0.46309E-04  4448   0.232E-02    0.768E-02
DAV:   4    -0.331031430039E+04    0.66681E-04   -0.42215E-04  3968   0.246E-02    0.253E-02
DAV:   5    -0.331031430316E+04   -0.27705E-05   -0.89416E-05  4096   0.112E-02    0.131E-02
DAV:   6    -0.331031430386E+04   -0.70129E-06   -0.23019E-05  4128   0.530E-03    0.523E-03
DAV:   7    -0.331031430432E+04   -0.46322E-06   -0.27499E-06  3424   0.232E-03
  16 F= -.33243974E+04 E0= -.33243974E+04  d E =-.575974E-02
 BRION: g(F)=  0.129E-01 g(S)=  0.000E+00 retain N=  2 mean eig= 0.39
 eig:   0.170  0.608
 bond charge predicted
       N       E                     dE             d eps       ncg     rms          rms(c)
DAV:   1    -0.331031833850E+04   -0.40346E-02   -0.27430E-01  3712   0.560E-01    0.965E-02
DAV:   2    -0.331031885929E+04   -0.52079E-03   -0.71261E-03  4032   0.795E-02    0.846E-02
DAV:   3    -0.331031878357E+04    0.75722E-04   -0.32611E-04  4448   0.197E-02    0.625E-02
DAV:   4    -0.331031873636E+04    0.47211E-04   -0.26891E-04  4000   0.194E-02    0.233E-02
DAV:   5    -0.331031873861E+04   -0.22482E-05   -0.57740E-05  4192   0.892E-03    0.110E-02
DAV:   6    -0.331031873927E+04   -0.65740E-06   -0.14977E-05  3936   0.428E-03    0.400E-03
DAV:   7    -0.331031873954E+04   -0.27427E-06   -0.15115E-06  2656   0.178E-03
  17 F= -.33244019E+04 E0= -.33244019E+04  d E =-.448601E-02
 BRION: g(F)=  0.907E-02 g(S)=  0.000E+00 retain N=  2 mean eig= 1.07
 eig:   0.157  1.990
 bond charge predicted
       N       E                     dE             d eps       ncg     rms          rms(c)
DAV:   1    -0.331032250752E+04   -0.37683E-02   -0.30330E-01  3680   0.573E-01    0.978E-02
DAV:   2    -0.331032311064E+04   -0.60311E-03   -0.78215E-03  4000   0.795E-02    0.847E-02
DAV:   3    -0.331032304367E+04    0.66970E-04   -0.31491E-04  4352   0.193E-02    0.635E-02
DAV:   4    -0.331032300770E+04    0.35963E-04   -0.30793E-04  4064   0.211E-02    0.210E-02
DAV:   5    -0.331032300832E+04   -0.61875E-06   -0.67768E-05  4064   0.100E-02    0.113E-02
DAV:   6    -0.331032300900E+04   -0.67882E-06   -0.18796E-05  4160   0.467E-03    0.448E-03
DAV:   7    -0.331032300935E+04   -0.34494E-06   -0.20471E-06  3008   0.202E-03
  18 F= -.33244062E+04 E0= -.33244062E+04  d E =-.429846E-02
 BRION: g(F)=  0.847E-02 g(S)=  0.000E+00 retain N=  2 mean eig= 0.38
 eig:   0.176  0.580
 bond charge predicted
       N       E                     dE             d eps       ncg     rms          rms(c)
DAV:   1    -0.331032562517E+04   -0.26162E-02   -0.16714E-01  3680   0.440E-01    0.760E-02
DAV:   2    -0.331032594419E+04   -0.31902E-03   -0.43630E-03  4064   0.626E-02    0.676E-02
DAV:   3    -0.331032589498E+04    0.49207E-04   -0.19751E-04  4448   0.154E-02    0.503E-02
DAV:   4    -0.331032586246E+04    0.32520E-04   -0.18062E-04  4000   0.161E-02    0.180E-02
DAV:   5    -0.331032586400E+04   -0.15431E-05   -0.38976E-05  4160   0.741E-03    0.848E-03
DAV:   6    -0.331032586452E+04   -0.51432E-06   -0.92631E-06  4032   0.339E-03
  19 F= -.33244091E+04 E0= -.33244091E+04  d E =-.292395E-02
 BRION: g(F)=  0.643E-02 g(S)=  0.000E+00 retain N=  2 mean eig= 0.94
 eig:   0.180  1.692
 bond charge predicted
       N       E                     dE             d eps       ncg     rms          rms(c)
DAV:   1    -0.331032871200E+04   -0.28480E-02   -0.21398E-01  3680   0.478E-01    0.827E-02
DAV:   2    -0.331032913608E+04   -0.42408E-03   -0.55037E-03  4000   0.659E-02    0.701E-02
DAV:   3    -0.331032909230E+04    0.43789E-04   -0.22036E-04  4320   0.165E-02    0.519E-02
DAV:   4    -0.331032907329E+04    0.19006E-04   -0.20669E-04  3968   0.169E-02    0.173E-02
DAV:   5    -0.331032907374E+04   -0.45309E-06   -0.41969E-05  4064   0.793E-03    0.974E-03
DAV:   6    -0.331032907419E+04   -0.44482E-06   -0.13485E-05  4000   0.385E-03    0.356E-03
DAV:   7    -0.331032907444E+04   -0.25460E-06   -0.11592E-06  2496   0.161E-03
  20 F= -.33244124E+04 E0= -.33244124E+04  d E =-.322363E-02
 BRION: g(F)=  0.600E-02 g(S)=  0.000E+00 retain N=  2 mean eig= 0.47
 eig:   0.160  0.785
 bond charge predicted
       N       E                     dE             d eps       ncg     rms          rms(c)
DAV:   1    -0.331033101438E+04   -0.19402E-02   -0.11559E-01  3680   0.363E-01    0.608E-02
DAV:   2    -0.331033123837E+04   -0.22399E-03   -0.29472E-03  4032   0.506E-02    0.544E-02
DAV:   3    -0.331033121000E+04    0.28370E-04   -0.12413E-04  4512   0.120E-02    0.413E-02
DAV:   4    -0.331033119082E+04    0.19177E-04   -0.11807E-04  4032   0.132E-02    0.144E-02
DAV:   5    -0.331033119181E+04   -0.98476E-06   -0.25978E-05  4064   0.629E-03    0.703E-03
DAV:   6    -0.331033119217E+04   -0.36065E-06   -0.66778E-06  4096   0.283E-03
  21 F= -.33244145E+04 E0= -.33244145E+04  d E =-.214341E-02
 BRION: g(F)=  0.480E-02 g(S)=  0.000E+00 retain N=  2 mean eig= 1.07
 eig:   0.189  1.955
 bond charge predicted
       N       E                     dE             d eps       ncg     rms          rms(c)
DAV:   1    -0.331033344950E+04   -0.22577E-02   -0.17474E-01  3680   0.432E-01    0.753E-02
DAV:   2    -0.331033378753E+04   -0.33803E-03   -0.44023E-03  3968   0.585E-02    0.634E-02
DAV:   3    -0.331033375157E+04    0.35958E-04   -0.17166E-04  4320   0.149E-02    0.465E-02
DAV:   4    -0.331033373802E+04    0.13551E-04   -0.16414E-04  3968   0.149E-02    0.146E-02
DAV:   5    -0.331033373826E+04   -0.24296E-06   -0.32588E-05  4160   0.695E-03    0.853E-03
DAV:   6    -0.331033373855E+04   -0.28592E-06   -0.10461E-05  4064   0.337E-03    0.324E-03
DAV:   7    -0.331033373875E+04   -0.20885E-06   -0.82413E-07  2368   0.141E-03
  22 F= -.33244171E+04 E0= -.33244171E+04  d E =-.257531E-02
 BRION: g(F)=  0.453E-02 g(S)=  0.000E+00 retain N=  2 mean eig= 0.37
 eig:   0.127  0.613
 bond charge predicted
       N       E                     dE             d eps       ncg     rms          rms(c)
DAV:   1    -0.331033515074E+04   -0.14122E-02   -0.80241E-02  3680   0.306E-01    0.506E-02
DAV:   2    -0.331033530272E+04   -0.15198E-03   -0.20201E-03  4032   0.426E-02    0.458E-02
DAV:   3    -0.331033528262E+04    0.20106E-04   -0.85934E-05  4480   0.101E-02    0.350E-02
DAV:   4    -0.331033526810E+04    0.14520E-04   -0.85253E-05  4096   0.112E-02    0.125E-02
DAV:   5    -0.331033526892E+04   -0.82189E-06   -0.18672E-05  4064   0.536E-03    0.616E-03
DAV:   6    -0.331033526914E+04   -0.22096E-06   -0.46030E-06  3712   0.242E-03
  23 F= -.33244186E+04 E0= -.33244186E+04  d E =-.152783E-02
 BRION: g(F)=  0.374E-02 g(S)=  0.000E+00 retain N=  2 mean eig= 0.83
 eig:   0.169  1.493
 bond charge predicted
       N       E                     dE             d eps       ncg     rms          rms(c)
DAV:   1    -0.331033705683E+04   -0.17879E-02   -0.13757E-01  3680   0.385E-01    0.655E-02
DAV:   2    -0.331033731686E+04   -0.26004E-03   -0.33525E-03  4032   0.513E-02    0.558E-02
DAV:   3    -0.331033729033E+04    0.26540E-04   -0.12923E-04  4352   0.130E-02    0.413E-02
DAV:   4    -0.331033728055E+04    0.97802E-05   -0.12672E-04  3968   0.132E-02    0.127E-02
DAV:   5    -0.331033728069E+04   -0.14936E-06   -0.25800E-05  4160   0.631E-03    0.742E-03
DAV:   6    -0.331033728090E+04   -0.20431E-06   -0.81275E-06  4032   0.296E-03
  24 F= -.33244206E+04 E0= -.33244206E+04  d E =-.203298E-02
 BRION: g(F)=  0.347E-02 g(S)=  0.000E+00 retain N=  2 mean eig= 0.58
 eig:   0.167  0.984
 bond charge predicted
       N       E                     dE             d eps       ncg     rms          rms(c)
DAV:   1    -0.331033838864E+04   -0.11079E-02   -0.60796E-02  3744   0.267E-01    0.443E-02
DAV:   2    -0.331033850200E+04   -0.11336E-03   -0.15021E-03  4000   0.367E-02    0.399E-02
DAV:   3    -0.331033848723E+04    0.14767E-04   -0.62322E-05  4544   0.871E-03    0.303E-02
DAV:   4    -0.331033847789E+04    0.93402E-05   -0.62030E-05  3968   0.957E-03    0.104E-02
DAV:   5    -0.331033847855E+04   -0.65565E-06   -0.13443E-05  4096   0.461E-03    0.526E-03
DAV:   6    -0.331033847868E+04   -0.13353E-06   -0.34381E-06  3456   0.211E-03
  25 F= -.33244218E+04 E0= -.33244218E+04  d E =-.119731E-02
 BRION: g(F)=  0.290E-02 g(S)=  0.000E+00 retain N=  2 mean eig= 0.93
 eig:   0.151  1.718
 bond charge predicted
       N       E                     dE             d eps       ncg     rms          rms(c)
DAV:   1    -0.331033996607E+04   -0.14875E-02   -0.11792E-01  3680   0.358E-01    0.598E-02
DAV:   2    -0.331034018250E+04   -0.21643E-03   -0.27727E-03  3968   0.467E-02    0.512E-02
DAV:   3    -0.331034016103E+04    0.21477E-04   -0.10283E-04  4448   0.118E-02    0.381E-02
DAV:   4    -0.331034015361E+04    0.74203E-05   -0.10893E-04  3968   0.123E-02    0.108E-02
DAV:   5    -0.331034015355E+04    0.58208E-07   -0.22082E-05  4160   0.584E-03    0.676E-03
DAV:   6    -0.331034015356E+04   -0.13737E-07   -0.66150E-06  4064   0.269E-03
  26 F= -.33244235E+04 E0= -.33244235E+04  d E =-.168032E-02
 BRION: g(F)=  0.273E-02 g(S)=  0.000E+00 retain N=  2 mean eig= 0.45
 eig:   0.147  0.762
 bond charge predicted
       N       E                     dE             d eps       ncg     rms          rms(c)
DAV:   1    -0.331034100536E+04   -0.85181E-03   -0.46748E-02  3744   0.236E-01    0.387E-02
DAV:   2    -0.331034108970E+04   -0.84333E-04   -0.11258E-03  4032   0.321E-02    0.352E-02
DAV:   3    -0.331034107815E+04    0.11551E-04   -0.47557E-05  4480   0.765E-03    0.268E-02
DAV:   4    -0.331034107082E+04    0.73232E-05   -0.45673E-05  4000   0.822E-03    0.949E-03
DAV:   5    -0.331034107142E+04   -0.60198E-06   -0.10032E-05  4128   0.398E-03    0.455E-03
DAV:   6    -0.331034107153E+04   -0.10419E-06   -0.23295E-06  2816   0.181E-03
  27 F= -.33244244E+04 E0= -.33244244E+04  d E =-.922260E-03
 BRION: g(F)=  0.237E-02 g(S)=  0.000E+00 retain N=  2 mean eig= 0.72
 eig:   0.144  1.288
 bond charge predicted
       N       E                     dE             d eps       ncg     rms          rms(c)
DAV:   1    -0.331034228631E+04   -0.12149E-02   -0.96178E-02  3680   0.326E-01    0.538E-02
DAV:   2    -0.331034245690E+04   -0.17059E-03   -0.22018E-03  3936   0.423E-02    0.465E-02
DAV:   3    -0.331034243910E+04    0.17800E-04   -0.81827E-05  4384   0.107E-02    0.346E-02
DAV:   4    -0.331034243313E+04    0.59676E-05   -0.88900E-05  3968   0.111E-02    0.980E-03
DAV:   5    -0.331034243312E+04    0.13271E-07   -0.18221E-05  4096   0.530E-03    0.614E-03
DAV:   6    -0.331034243312E+04    0.23283E-09   -0.53157E-06  4128   0.241E-03
  28 F= -.33244258E+04 E0= -.33244258E+04  d E =-.135742E-02
 BRION: g(F)=  0.222E-02 g(S)=  0.000E+00 retain N=  2 mean eig= 0.56
 eig:   0.151  0.972
 bond charge predicted
       N       E                     dE             d eps       ncg     rms          rms(c)
DAV:   1    -0.331034312204E+04   -0.68892E-03   -0.37142E-02  3744   0.211E-01    0.341E-02
DAV:   2    -0.331034318796E+04   -0.65921E-04   -0.86901E-04  4096   0.283E-02    0.312E-02
DAV:   3    -0.331034317931E+04    0.86441E-05   -0.35042E-05  4480   0.660E-03    0.240E-02
DAV:   4    -0.331034317346E+04    0.58544E-05   -0.36527E-05  4064   0.741E-03    0.801E-03
DAV:   5    -0.331034317396E+04   -0.49965E-06   -0.79960E-06  4000   0.355E-03
  29 F= -.33244265E+04 E0= -.33244265E+04  d E =-.744348E-03
 BRION: g(F)=  0.190E-02 g(S)=  0.000E+00 retain N=  2 mean eig= 0.93
 eig:   0.155  1.705
 bond charge predicted
       N       E                     dE             d eps       ncg     rms          rms(c)
DAV:   1    -0.331034419194E+04   -0.10185E-02   -0.81573E-02  3680   0.302E-01    0.499E-02
DAV:   2    -0.331034433069E+04   -0.13875E-03   -0.18096E-03  3968   0.386E-02    0.432E-02
DAV:   3    -0.331034431520E+04    0.15494E-04   -0.67581E-05  4352   0.994E-03    0.319E-02
DAV:   4    -0.331034431084E+04    0.43525E-05   -0.75347E-05  3936   0.102E-02    0.890E-03
DAV:   5    -0.331034431073E+04    0.11001E-06   -0.15294E-05  4096   0.483E-03    0.567E-03
DAV:   6    -0.331034431073E+04    0.82655E-08   -0.44862E-06  4000   0.221E-03
  30 F= -.33244277E+04 E0= -.33244277E+04  d E =-.113198E-02
 BRION: g(F)=  0.179E-02 g(S)=  0.000E+00 retain N=  2 mean eig= 0.59
 eig:   0.147  1.042
 bond charge predicted
       N       E                     dE             d eps       ncg     rms          rms(c)
DAV:   1    -0.331034490039E+04   -0.58965E-03   -0.32029E-02  3744   0.196E-01    0.312E-02
DAV:   2    -0.331034495562E+04   -0.55227E-04   -0.72544E-04  4032   0.259E-02    0.286E-02
DAV:   3    -0.331034494867E+04    0.69439E-05   -0.29158E-05  4576   0.607E-03    0.220E-02
DAV:   4    -0.331034494438E+04    0.42873E-05   -0.30946E-05  4000   0.684E-03    0.723E-03
DAV:   5    -0.331034494481E+04   -0.42177E-06   -0.67661E-06  3904   0.335E-03
  31 F= -.33244283E+04 E0= -.33244283E+04  d E =-.630929E-03
 BRION: g(F)=  0.159E-02 g(S)=  0.000E+00 retain N=  2 mean eig= 0.60
 eig:   0.132  1.076
 bond charge predicted
       N       E                     dE             d eps       ncg     rms          rms(c)
DAV:   1    -0.331034576564E+04   -0.82125E-03   -0.64334E-02  3744   0.271E-01    0.441E-02
DAV:   2    -0.331034587161E+04   -0.10597E-03   -0.13897E-03  4032   0.343E-02    0.387E-02
DAV:   3    -0.331034585898E+04    0.12630E-04   -0.51840E-05  4352   0.877E-03    0.286E-02
DAV:   4    -0.331034585527E+04    0.37092E-05   -0.58791E-05  3936   0.899E-03    0.801E-03
DAV:   5    -0.331034585532E+04   -0.47963E-07   -0.11979E-05  4096   0.425E-03    0.497E-03
DAV:   6    -0.331034585533E+04   -0.13970E-07   -0.32595E-06  3456   0.192E-03
  32 F= -.33244292E+04 E0= -.33244292E+04  d E =-.908652E-03
 BRION: g(F)=  0.148E-02 g(S)=  0.000E+00 retain N=  2 mean eig= 0.57
 eig:   0.148  0.998
 bond charge predicted
       N       E                     dE             d eps       ncg     rms          rms(c)
DAV:   1    -0.331034638291E+04   -0.52759E-03   -0.29295E-02  3744   0.188E-01    0.296E-02
DAV:   2    -0.331034643197E+04   -0.49067E-04   -0.64513E-04  4032   0.243E-02    0.271E-02
DAV:   3    -0.331034642572E+04    0.62531E-05   -0.24881E-05  4480   0.576E-03    0.208E-02
DAV:   4    -0.331034642221E+04    0.35128E-05   -0.28789E-05  4032   0.655E-03    0.632E-03
DAV:   5    -0.331034642245E+04   -0.24715E-06   -0.60983E-06  3808   0.313E-03
  33 F= -.33244298E+04 E0= -.33244298E+04  d E =-.560178E-03
 BRION: g(F)=  0.131E-02 g(S)=  0.000E+00 retain N=  2 mean eig= 0.79
 eig:   0.130  1.442
 bond charge predicted
       N       E                     dE             d eps       ncg     rms          rms(c)
DAV:   1    -0.331034709784E+04   -0.67563E-03   -0.51653E-02  3744   0.244E-01    0.392E-02
DAV:   2    -0.331034718085E+04   -0.83004E-04   -0.10871E-03  4064   0.307E-02    0.349E-02
DAV:   3    -0.331034717055E+04    0.10297E-04   -0.38803E-05  4352   0.769E-03    0.260E-02
DAV:   4    -0.331034716755E+04    0.30012E-05   -0.49248E-05  3936   0.822E-03    0.706E-03
DAV:   5    -0.331034716758E+04   -0.28638E-07   -0.98342E-06  4096   0.381E-03
  34 F= -.33244305E+04 E0= -.33244305E+04  d E =-.740945E-03
 BRION: g(F)=  0.122E-02 g(S)=  0.000E+00 retain N=  2 mean eig= 0.75
 eig:   0.143  1.355
 bond charge predicted
       N       E                     dE             d eps       ncg     rms          rms(c)
DAV:   1    -0.331034765028E+04   -0.48273E-03   -0.29995E-02  3744   0.190E-01    0.304E-02
DAV:   2    -0.331034769878E+04   -0.48504E-04   -0.64509E-04  4096   0.244E-02    0.276E-02
DAV:   3    -0.331034769228E+04    0.65044E-05   -0.25143E-05  4416   0.599E-03    0.209E-02
DAV:   4    -0.331034768963E+04    0.26493E-05   -0.28987E-05  3936   0.643E-03    0.649E-03
DAV:   5    -0.331034768984E+04   -0.21537E-06   -0.59010E-06  3680   0.304E-03
  35 F= -.33244310E+04 E0= -.33244310E+04  d E =-.518199E-03
 BRION: g(F)=  0.117E-02 g(S)=  0.000E+00 retain N=  2 mean eig= 0.64
 eig:   0.137  1.140
 bond charge predicted
       N       E                     dE             d eps       ncg     rms          rms(c)
DAV:   1    -0.331034821878E+04   -0.52915E-03   -0.36214E-02  3744   0.207E-01    0.327E-02
DAV:   2    -0.331034827581E+04   -0.57028E-04   -0.74958E-04  4032   0.259E-02    0.294E-02
DAV:   3    -0.331034826861E+04    0.72034E-05   -0.27603E-05  4448   0.639E-03    0.222E-02
DAV:   4    -0.331034826615E+04    0.24548E-05   -0.34140E-05  4000   0.695E-03    0.613E-03
DAV:   5    -0.331034826625E+04   -0.97207E-07   -0.69695E-06  3936   0.327E-03
  36 F= -.33244316E+04 E0= -.33244316E+04  d E =-.568322E-03
 BRION: g(F)=  0.104E-02 g(S)=  0.000E+00 retain N=  2 mean eig= 0.56
 eig:   0.141  0.981
 bond charge predicted
       N       E                     dE             d eps       ncg     rms          rms(c)
DAV:   1    -0.331034868453E+04   -0.41838E-03   -0.24879E-02  3744   0.173E-01    0.274E-02
DAV:   2    -0.331034872364E+04   -0.39113E-04   -0.51788E-04  4096   0.218E-02    0.250E-02
DAV:   3    -0.331034871838E+04    0.52612E-05   -0.19096E-05  4352   0.533E-03    0.189E-02
DAV:   4    -0.331034871638E+04    0.19971E-05   -0.23975E-05  3936   0.585E-03    0.538E-03
DAV:   5    -0.331034871652E+04   -0.14168E-06   -0.48413E-06  3392   0.273E-03
  37 F= -.33244321E+04 E0= -.33244321E+04  d E =-.447208E-03
 BRION: g(F)=  0.925E-03 g(S)=  0.000E+00 retain N=  2 mean eig= 0.77
 eig:   0.145  1.395
 bond charge predicted
       N       E                     dE             d eps       ncg     rms          rms(c)
DAV:   1    -0.331034923098E+04   -0.51460E-03   -0.39998E-02  3744   0.217E-01    0.342E-02
DAV:   2    -0.331034929143E+04   -0.60442E-04   -0.79988E-04  4064   0.267E-02    0.307E-02
DAV:   3    -0.331034928351E+04    0.79173E-05   -0.28195E-05  4352   0.674E-03    0.229E-02
DAV:   4    -0.331034928163E+04    0.18768E-05   -0.37618E-05  4000   0.719E-03    0.587E-03
DAV:   5    -0.331034928159E+04    0.39581E-07   -0.76451E-06  3936   0.335E-03
  38 F= -.33244326E+04 E0= -.33244326E+04  d E =-.557598E-03
 BRION: g(F)=  0.865E-03 g(S)=  0.000E+00 retain N=  2 mean eig= 0.74
 eig:   0.121  1.353
 bond charge predicted
       N       E                     dE             d eps       ncg     rms          rms(c)
DAV:   1    -0.331034964080E+04   -0.35917E-03   -0.22413E-02  3744   0.165E-01    0.258E-02
DAV:   2    -0.331034967534E+04   -0.34541E-04   -0.45692E-04  4096   0.208E-02    0.238E-02
DAV:   3    -0.331034967071E+04    0.46312E-05   -0.16892E-05  4384   0.496E-03    0.182E-02
DAV:   4    -0.331034966893E+04    0.17849E-05   -0.21954E-05  4000   0.562E-03    0.532E-03
DAV:   5    -0.331034966908E+04   -0.15786E-06   -0.44224E-06  3264   0.264E-03
  39 F= -.33244330E+04 E0= -.33244330E+04  d E =-.381167E-03
 BRION: g(F)=  0.856E-03 g(S)=  0.000E+00 retain N=  2 mean eig= 0.68
 eig:   0.139  1.230
 bond charge predicted
       N       E                     dE             d eps       ncg     rms          rms(c)
DAV:   1    -0.331035008050E+04   -0.41157E-03   -0.30031E-02  3744   0.190E-01    0.297E-02
DAV:   2    -0.331035012516E+04   -0.44658E-04   -0.59617E-04  4096   0.235E-02    0.270E-02
DAV:   3    -0.331035011886E+04    0.63011E-05   -0.21314E-05  4352   0.581E-03    0.203E-02
DAV:   4    -0.331035011688E+04    0.19729E-05   -0.28659E-05  3936   0.632E-03    0.546E-03
DAV:   5    -0.331035011698E+04   -0.91852E-07   -0.58165E-06  3616   0.291E-03
  40 F= -.33244334E+04 E0= -.33244334E+04  d E =-.443026E-03
 BRION: g(F)=  0.785E-03 g(S)=  0.000E+00 retain N=  2 mean eig= 0.56
 eig:   0.134  0.978
 bond charge predicted
       N       E                     dE             d eps       ncg     rms          rms(c)
DAV:   1    -0.331035041087E+04   -0.29398E-03   -0.16191E-02  3744   0.141E-01    0.219E-02
DAV:   2    -0.331035043540E+04   -0.24533E-04   -0.32617E-04  4128   0.177E-02    0.203E-02
DAV:   3    -0.331035043202E+04    0.33759E-05   -0.11768E-05  4416   0.415E-03    0.157E-02
DAV:   4    -0.331035043054E+04    0.14817E-05   -0.15594E-05  3840   0.478E-03    0.445E-03
DAV:   5    -0.331035043067E+04   -0.13108E-06   -0.31849E-06  2944   0.221E-03
  41 F= -.33244337E+04 E0= -.33244337E+04  d E =-.307901E-03
 BRION: g(F)=  0.701E-03 g(S)=  0.000E+00 retain N=  2 mean eig= 0.71
 eig:   0.151  1.272
 bond charge predicted
       N       E                     dE             d eps       ncg     rms          rms(c)
DAV:   1    -0.331035083972E+04   -0.40918E-03   -0.33091E-02  3744   0.199E-01    0.307E-02
DAV:   2    -0.331035088704E+04   -0.47320E-04   -0.62979E-04  4096   0.240E-02    0.279E-02
DAV:   3    -0.331035088033E+04    0.67073E-05   -0.21078E-05  4320   0.597E-03    0.209E-02
DAV:   4    -0.331035087880E+04    0.15284E-05   -0.31425E-05  3968   0.654E-03    0.510E-03
DAV:   5    -0.331035087879E+04    0.14668E-07   -0.63441E-06  3840   0.299E-03
  42 F= -.33244342E+04 E0= -.33244342E+04  d E =-.440740E-03
 BRION: g(F)=  0.640E-03 g(S)=  0.000E+00 retain N=  2 mean eig= 0.72
 eig:   0.119  1.330
 bond charge predicted
       N       E                     dE             d eps       ncg     rms          rms(c)
DAV:   1    -0.331035116533E+04   -0.28653E-03   -0.18647E-02  3744   0.151E-01    0.235E-02
DAV:   2    -0.331035119267E+04   -0.27341E-04   -0.36609E-04  4128   0.188E-02    0.218E-02
DAV:   3    -0.331035118876E+04    0.39131E-05   -0.13080E-05  4352   0.450E-03    0.166E-02
DAV:   4    -0.331035118747E+04    0.12885E-05   -0.18315E-05  3904   0.511E-03    0.465E-03
DAV:   5    -0.331035118757E+04   -0.10338E-06   -0.36978E-06  3136   0.236E-03
  43 F= -.33244345E+04 E0= -.33244345E+04  d E =-.304339E-03
 BRION: g(F)=  0.652E-03 g(S)=  0.000E+00 retain N=  2 mean eig= 0.67
 eig:   0.123  1.221
 bond charge predicted
       N       E                     dE             d eps       ncg     rms          rms(c)
DAV:   1    -0.331035153126E+04   -0.34380E-03   -0.27382E-02  3744   0.182E-01    0.279E-02
DAV:   2    -0.331035157007E+04   -0.38802E-04   -0.51755E-04  4128   0.221E-02    0.257E-02
DAV:   3    -0.331035156450E+04    0.55669E-05   -0.17756E-05  4352   0.534E-03    0.195E-02
DAV:   4    -0.331035156286E+04    0.16413E-05   -0.26083E-05  4000   0.605E-03    0.495E-03
DAV:   5    -0.331035156292E+04   -0.61700E-07   -0.53269E-06  3520   0.278E-03
  44 F= -.33244349E+04 E0= -.33244349E+04  d E =-.367522E-03
 BRION: g(F)=  0.618E-03 g(S)=  0.000E+00 retain N=  2 mean eig= 0.58
 eig:   0.125  1.040
 bond charge predicted
       N       E                     dE             d eps       ncg     rms          rms(c)
DAV:   1    -0.331035175488E+04   -0.19203E-03   -0.95679E-03  3744   0.110E-01    0.170E-02
DAV:   2    -0.331035176921E+04   -0.14322E-04   -0.19260E-04  4128   0.139E-02    0.161E-02
DAV:   3    -0.331035176712E+04    0.20857E-05   -0.70691E-06  4064   0.316E-03    0.127E-02
DAV:   4    -0.331035176587E+04    0.12544E-05   -0.97328E-06  3712   0.384E-03    0.383E-03
DAV:   5    -0.331035176601E+04   -0.14564E-06   -0.19945E-06  2752   0.179E-03
  45 F= -.33244351E+04 E0= -.33244351E+04  d E =-.199864E-03
 BRION: g(F)=  0.561E-03 g(S)=  0.000E+00 retain N=  2 mean eig= 0.69
 eig:   0.172  1.209
 bond charge predicted
       N       E                     dE             d eps       ncg     rms          rms(c)
DAV:   1    -0.331035209857E+04   -0.33270E-03   -0.27234E-02  3744   0.182E-01    0.276E-02
DAV:   2    -0.331035213557E+04   -0.37004E-04   -0.49821E-04  4192   0.217E-02    0.254E-02
DAV:   3    -0.331035212991E+04    0.56656E-05   -0.16152E-05  4256   0.530E-03    0.191E-02
DAV:   4    -0.331035212865E+04    0.12593E-05   -0.25479E-05  4000   0.589E-03    0.452E-03
DAV:   5    -0.331035212866E+04   -0.18976E-07   -0.51032E-06  3456   0.265E-03
  46 F= -.33244354E+04 E0= -.33244354E+04  d E =-.355689E-03
 BRION: g(F)=  0.485E-03 g(S)=  0.000E+00 retain N=  2 mean eig= 0.65
 eig:   0.117  1.181
 bond charge predicted
       N       E                     dE             d eps       ncg     rms          rms(c)
DAV:   1    -0.331035237577E+04   -0.24712E-03   -0.17516E-02  3744   0.147E-01    0.224E-02
DAV:   2    -0.331035240029E+04   -0.24525E-04   -0.32710E-04  4160   0.178E-02    0.209E-02
DAV:   3    -0.331035239675E+04    0.35445E-05   -0.10904E-05  4320   0.418E-03    0.161E-02
DAV:   4    -0.331035239570E+04    0.10479E-05   -0.17126E-05  3872   0.493E-03    0.414E-03
DAV:   5    -0.331035239578E+04   -0.79395E-07   -0.34690E-06  3136   0.225E-03
  47 F= -.33244357E+04 E0= -.33244357E+04  d E =-.260953E-03
 BRION: g(F)=  0.517E-03 g(S)=  0.000E+00 retain N=  2 mean eig= 0.60
 eig:   0.092  1.101
 bond charge predicted
       N       E                     dE             d eps       ncg     rms          rms(c)
DAV:   1    -0.331035271591E+04   -0.32021E-03   -0.31308E-02  3744   0.196E-01    0.297E-02
DAV:   2    -0.331035275825E+04   -0.42340E-04   -0.57178E-04  4160   0.235E-02    0.276E-02
DAV:   3    -0.331035275163E+04    0.66181E-05   -0.18804E-05  4288   0.566E-03    0.209E-02
DAV:   4    -0.331035274991E+04    0.17222E-05   -0.30125E-05  4000   0.645E-03    0.509E-03
DAV:   5    -0.331035274999E+04   -0.81025E-07   -0.61450E-06  3776   0.290E-03
  48 F= -.33244360E+04 E0= -.33244360E+04  d E =-.347219E-03
 BRION: g(F)=  0.517E-03 g(S)=  0.000E+00 retain N=  2 mean eig= 0.62
 eig:   0.108  1.136
 bond charge predicted
       N       E                     dE             d eps       ncg     rms          rms(c)
DAV:   1    -0.331035281282E+04   -0.62911E-04   -0.26343E-03  3744   0.611E-02    0.952E-03
DAV:   2    -0.331035281735E+04   -0.45309E-05   -0.62843E-05  4256   0.849E-03    0.963E-03
DAV:   3    -0.331035281687E+04    0.48219E-06   -0.19665E-06  2976   0.159E-03
  49 F= -.33244361E+04 E0= -.33244361E+04  d E =-.650629E-04
 BRION: g(F)=  0.462E-03 g(S)=  0.000E+00 retain N=  2 mean eig= 0.77
 eig:   0.263  1.282
 bond charge predicted
       N       E                     dE             d eps       ncg     rms          rms(c)
DAV:   1    -0.331035311355E+04   -0.29620E-03   -0.26299E-02  3744   0.179E-01    0.286E-02
DAV:   2    -0.331035314604E+04   -0.32499E-04   -0.45524E-04  4192   0.209E-02    0.262E-02
DAV:   3    -0.331035313988E+04    0.61635E-05   -0.15217E-05  4192   0.543E-03    0.187E-02
DAV:   4    -0.331035313957E+04    0.30803E-06   -0.24718E-05  3968   0.569E-03    0.426E-03
DAV:   5    -0.331035313948E+04    0.96741E-07   -0.50814E-06  3456   0.258E-03
  50 F= -.33244364E+04 E0= -.33244364E+04  d E =-.315864E-03
 BRION: g(F)=  0.378E-03 g(S)=  0.000E+00 retain N=  2 mean eig= 0.38
 eig:   0.382  0.382
 bond charge predicted
       N       E                     dE             d eps       ncg     rms          rms(c)
DAV:   1    -0.331035344516E+04   -0.30559E-03   -0.39682E-02  3744   0.221E-01    0.334E-02
DAV:   2    -0.331035349819E+04   -0.53031E-04   -0.71400E-04  4192   0.264E-02    0.313E-02
DAV:   3    -0.331035348998E+04    0.82131E-05   -0.22658E-05  4288   0.618E-03    0.240E-02
DAV:   4    -0.331035348766E+04    0.23245E-05   -0.38788E-05  4000   0.736E-03    0.568E-03
DAV:   5    -0.331035348781E+04   -0.15623E-06   -0.80210E-06  3904   0.328E-03
  51 F= -.33244367E+04 E0= -.33244367E+04  d E =-.340232E-03
 BRION: g(F)=  0.591E-03 g(S)=  0.000E+00 retain N=  2 mean eig= 0.55
 eig:   0.552  0.552
 bond charge predicted
       N       E                     dE             d eps       ncg     rms          rms(c)
DAV:   1    -0.331035402409E+04   -0.53643E-03   -0.16589E-01  3680   0.451E-01    0.675E-02
DAV:   2    -0.331035423981E+04   -0.21572E-03   -0.29056E-03  4128   0.530E-02    0.629E-02
DAV:   3    -0.331035420583E+04    0.33980E-04   -0.90692E-05  4288   0.126E-02    0.478E-02
DAV:   4    -0.331035419738E+04    0.84531E-05   -0.15679E-04  4064   0.146E-02    0.107E-02
DAV:   5    -0.331035419764E+04   -0.25774E-06   -0.32535E-05  3968   0.651E-03    0.729E-03
DAV:   6    -0.331035419725E+04    0.38964E-06   -0.57645E-06  3968   0.260E-03
  52 F= -.33244374E+04 E0= -.33244374E+04  d E =-.689638E-03
 BRION: g(F)=  0.701E-03 g(S)=  0.000E+00 retain N=  2 mean eig= 0.47
 eig:   0.034  0.902
 bond charge predicted
       N       E                     dE             d eps       ncg     rms          rms(c)
DAV:   1    -0.331035341078E+04    0.78686E-03   -0.14442E-01  3680   0.422E-01    0.627E-02
DAV:   2    -0.331035359582E+04   -0.18504E-03   -0.25220E-03  4128   0.495E-02    0.585E-02
DAV:   3    -0.331035356412E+04    0.31694E-04   -0.79938E-05  4288   0.118E-02    0.444E-02
DAV:   4    -0.331035355341E+04    0.10708E-04   -0.13825E-04  4032   0.137E-02    0.101E-02
DAV:   5    -0.331035355381E+04   -0.39628E-06   -0.28490E-05  4032   0.609E-03    0.679E-03
DAV:   6    -0.331035355350E+04    0.30769E-06   -0.49769E-06  3936   0.241E-03
  53 F= -.33244368E+04 E0= -.33244368E+04  d E =0.625456E-03
 BRION: g(F)=  0.456E-03 g(S)=  0.000E+00 retain N=  2 mean eig= 0.69
 eig:   0.368  1.018
 bond charge predicted
       N       E                     dE             d eps       ncg     rms          rms(c)
DAV:   1    -0.331035399361E+04   -0.43980E-03   -0.84701E-02  3680   0.323E-01    0.478E-02
DAV:   2    -0.331035409849E+04   -0.10488E-03   -0.14402E-03  4160   0.375E-02    0.446E-02
DAV:   3    -0.331035407940E+04    0.19092E-04   -0.44961E-05  4256   0.900E-03    0.335E-02
DAV:   4    -0.331035407355E+04    0.58475E-05   -0.81124E-05  4032   0.104E-02    0.734E-03
DAV:   5    -0.331035407362E+04   -0.74855E-07   -0.16810E-05  4000   0.464E-03    0.503E-03
DAV:   6    -0.331035407346E+04    0.16787E-06   -0.25823E-06  3264   0.180E-03
  54 F= -.33244373E+04 E0= -.33244373E+04  d E =-.506853E-03
 BRION: g(F)=  0.406E-03 g(S)=  0.000E+00 retain N=  3 mean eig= 0.70
 eig:   0.630  0.004  1.470
 bond charge predicted
       N       E                     dE             d eps       ncg     rms          rms(c)
DAV:   1    -0.331035421356E+04   -0.13993E-03   -0.82017E-03  3776   0.103E-01    0.152E-02
DAV:   2    -0.331035422496E+04   -0.11399E-04   -0.15576E-04  4224   0.127E-02    0.147E-02
DAV:   3    -0.331035422317E+04    0.17834E-05   -0.49913E-06  3616   0.269E-03    0.120E-02
DAV:   4    -0.331035422193E+04    0.12384E-05   -0.10107E-05  3808   0.387E-03    0.330E-03
DAV:   5    -0.331035422201E+04   -0.80909E-07   -0.19114E-06  2656   0.172E-03
  55 F= -.33244375E+04 E0= -.33244375E+04  d E =-.144799E-03
 BRION: g(F)=  0.348E-03 g(S)=  0.000E+00 retain N=  2 mean eig= 1.17
 eig:   0.055  2.289
 bond charge predicted
       N       E                     dE             d eps       ncg     rms          rms(c)
DAV:   1    -0.331035469767E+04   -0.47574E-03   -0.16682E-01  3712   0.454E-01    0.671E-02
DAV:   2    -0.331035490441E+04   -0.20674E-03   -0.28249E-03  4128   0.528E-02    0.631E-02
DAV:   3    -0.331035486847E+04    0.35936E-04   -0.87009E-05  4256   0.124E-02    0.479E-02
DAV:   4    -0.331035485861E+04    0.98660E-05   -0.15908E-04  4064   0.147E-02    0.107E-02
DAV:   5    -0.331035485898E+04   -0.37474E-06   -0.33175E-05  3968   0.650E-03    0.720E-03
DAV:   6    -0.331035485867E+04    0.31304E-06   -0.53688E-06  3904   0.255E-03
  56 F= -.33244381E+04 E0= -.33244381E+04  d E =-.618478E-03
 BRION: g(F)=  0.638E-03 g(S)=  0.000E+00 retain N=  3 mean eig= 1.74
 eig:   4.258  0.432  0.527
 bond charge predicted
       N       E                     dE             d eps       ncg     rms          rms(c)
DAV:   1    -0.331035526068E+04   -0.40169E-03   -0.11360E-01  3712   0.376E-01    0.555E-02
DAV:   2    -0.331035540425E+04   -0.14357E-03   -0.19638E-03  4160   0.443E-02    0.524E-02
DAV:   3    -0.331035537967E+04    0.24578E-04   -0.60775E-05  4256   0.102E-02    0.403E-02
DAV:   4    -0.331035537192E+04    0.77464E-05   -0.11276E-04  4064   0.125E-02    0.931E-03
DAV:   5    -0.331035537241E+04   -0.48371E-06   -0.23354E-05  3936   0.547E-03    0.619E-03
DAV:   6    -0.331035537223E+04    0.17474E-06   -0.38270E-06  3680   0.217E-03
  57 F= -.33244386E+04 E0= -.33244386E+04  d E =-.500045E-03
 BRION: g(F)=  0.518E-03 g(S)=  0.000E+00 retain N=  3 mean eig= 1.52
 eig:   4.165  0.301  0.097
 bond charge predicted
       N       E                     dE             d eps       ncg     rms          rms(c)
DAV:   1    -0.331035422374E+04    0.11487E-02   -0.30973E-01  3712   0.619E-01    0.916E-02
DAV:   2    -0.331035460430E+04   -0.38057E-03   -0.52432E-03  4128   0.720E-02    0.860E-02
DAV:   3    -0.331035453457E+04    0.69733E-04   -0.16199E-04  4256   0.170E-02    0.651E-02
DAV:   4    -0.331035451285E+04    0.21724E-04   -0.29879E-04  4064   0.201E-02    0.145E-02
DAV:   5    -0.331035451360E+04   -0.75926E-06   -0.62131E-05  3936   0.885E-03    0.979E-03
DAV:   6    -0.331035451303E+04    0.57870E-06   -0.10012E-05  3968   0.347E-03    0.434E-03
DAV:   7    -0.331035451331E+04   -0.28324E-06   -0.20462E-06  3040   0.165E-03
  58 F= -.33244377E+04 E0= -.33244377E+04  d E =0.835489E-03
 BRION: g(F)=  0.534E-03 g(S)=  0.000E+00 retain N=  2 mean eig= 0.28
 eig:   0.415  0.151
 bond charge predicted
       N       E                     dE             d eps       ncg     rms          rms(c)
DAV:   1    -0.331035503450E+04   -0.52147E-03   -0.17965E-01  3712   0.472E-01    0.697E-02
DAV:   2    -0.331035525151E+04   -0.21701E-03   -0.29952E-03  4128   0.546E-02    0.656E-02
DAV:   3    -0.331035521080E+04    0.40710E-04   -0.90959E-05  4256   0.129E-02    0.496E-02
DAV:   4    -0.331035519897E+04    0.11826E-04   -0.17220E-04  4064   0.152E-02    0.107E-02
DAV:   5    -0.331035519931E+04   -0.34040E-06   -0.36182E-05  3936   0.672E-03    0.729E-03
DAV:   6    -0.331035519902E+04    0.28964E-06   -0.53874E-06  3936   0.258E-03
  59 F= -.33244384E+04 E0= -.33244384E+04  d E =-.667217E-03
 BRION: g(F)=  0.297E-03 g(S)=  0.000E+00 retain N=  3 mean eig= 1.06
 eig:   2.507  0.011  0.673
 bond charge predicted
       N       E                     dE             d eps       ncg     rms          rms(c)
DAV:   1    -0.331035532390E+04   -0.12459E-03   -0.88214E-03  3776   0.106E-01    0.155E-02
DAV:   2    -0.331035533564E+04   -0.11735E-04   -0.16040E-04  4224   0.129E-02    0.150E-02
DAV:   3    -0.331035533381E+04    0.18274E-05   -0.48649E-06  3616   0.272E-03    0.122E-02
DAV:   4    -0.331035533285E+04    0.96124E-06   -0.10837E-05  3840   0.396E-03    0.317E-03
DAV:   5    -0.331035533292E+04   -0.65425E-07   -0.20292E-06  2784   0.174E-03
  60 F= -.33244385E+04 E0= -.33244385E+04  d E =-.130603E-03
 BRION: g(F)=  0.278E-03 g(S)=  0.000E+00 retain N=  3 mean eig= 2.45
 eig:   6.584  0.381  0.381
 bond charge predicted
       N       E                     dE             d eps       ncg     rms          rms(c)
DAV:   1    -0.331035565349E+04   -0.32064E-03   -0.75966E-02  3712   0.308E-01    0.452E-02
DAV:   2    -0.331035574482E+04   -0.91335E-04   -0.12584E-03  4192   0.356E-02    0.429E-02
DAV:   3    -0.331035572817E+04    0.16652E-04   -0.37291E-05  4224   0.816E-03    0.329E-02
DAV:   4    -0.331035572364E+04    0.45302E-05   -0.73616E-05  4032   0.100E-02    0.731E-03
DAV:   5    -0.331035572391E+04   -0.26647E-06   -0.15315E-05  3968   0.436E-03    0.488E-03
DAV:   6    -0.331035572379E+04    0.11385E-06   -0.21947E-06  3008   0.171E-03
  61 F= -.33244389E+04 E0= -.33244389E+04  d E =-.379363E-03
 BRION: g(F)=  0.329E-03 g(S)=  0.000E+00 retain N=  3 mean eig= 0.85
 eig:   0.974  0.974  0.600
 bond charge predicted
       N       E                     dE             d eps       ncg     rms          rms(c)
DAV:   1    -0.331035597550E+04   -0.25160E-03   -0.45551E-02  3712   0.239E-01    0.348E-02
DAV:   2    -0.331035603123E+04   -0.55731E-04   -0.76638E-04  4224   0.279E-02    0.332E-02
DAV:   3    -0.331035602141E+04    0.98265E-05   -0.22654E-05  4256   0.620E-03    0.258E-02
DAV:   4    -0.331035601805E+04    0.33601E-05   -0.45054E-05  4000   0.790E-03    0.591E-03
DAV:   5    -0.331035601832E+04   -0.27602E-06   -0.93502E-06  3936   0.343E-03
  62 F= -.33244392E+04 E0= -.33244392E+04  d E =-.285036E-03
 BRION: g(F)=  0.294E-03 g(S)=  0.000E+00 retain N=  2 mean eig= 0.59
 eig:   0.273  0.906
 bond charge predicted
       N       E                     dE             d eps       ncg     rms          rms(c)
DAV:   1    -0.331035585136E+04    0.16669E-03   -0.11079E-02  3744   0.124E-01    0.183E-02
DAV:   2    -0.331035586871E+04   -0.17350E-04   -0.24391E-04  4160   0.165E-02    0.184E-02
DAV:   3    -0.331035586664E+04    0.20728E-05   -0.94578E-06  4480   0.317E-03    0.160E-02
DAV:   4    -0.331035586153E+04    0.51045E-05   -0.85087E-06  3808   0.395E-03    0.731E-03
DAV:   5    -0.331035586131E+04    0.22305E-06   -0.51135E-06  3840   0.265E-03
  63 F= -.33244390E+04 E0= -.33244390E+04  d E =0.153420E-03
 BRION: g(F)=  0.899E-03 g(S)=  0.000E+00 retain N=  3 mean eig= 0.90
 eig:   2.232  0.231  0.231
 bond charge predicted
       N       E                     dE             d eps       ncg     rms          rms(c)
DAV:   1    -0.331035607586E+04   -0.21433E-03   -0.19748E-02  3712   0.161E-01    0.227E-02
DAV:   2    -0.331035610247E+04   -0.26606E-04   -0.36454E-04  4192   0.197E-02    0.223E-02
DAV:   3    -0.331035609854E+04    0.39265E-05   -0.11824E-05  4416   0.389E-03    0.188E-02
DAV:   4    -0.331035609353E+04    0.50087E-05   -0.19176E-05  3904   0.553E-03    0.568E-03
DAV:   5    -0.331035609397E+04   -0.43761E-06   -0.47778E-06  3168   0.255E-03
  64 F= -.33244393E+04 E0= -.33244393E+04  d E =-.227547E-03
 BRION: g(F)=  0.256E-03 g(S)=  0.000E+00 retain N=  2 mean eig= 2.96
 eig:   0.197  5.723
 bond charge predicted
       N       E                     dE             d eps       ncg     rms          rms(c)
DAV:   1    -0.331035621492E+04   -0.12139E-03   -0.11868E-02  3712   0.124E-01    0.185E-02
DAV:   2    -0.331035622991E+04   -0.14985E-04   -0.20732E-04  4160   0.148E-02    0.179E-02
DAV:   3    -0.331035622732E+04    0.25904E-05   -0.65982E-06  4000   0.316E-03    0.144E-02
DAV:   4    -0.331035622602E+04    0.12943E-05   -0.12300E-05  3808   0.425E-03    0.390E-03
DAV:   5    -0.331035622618E+04   -0.16356E-06   -0.25093E-06  2848   0.190E-03
  65 F= -.33244394E+04 E0= -.33244394E+04  d E =-.127667E-03
 BRION: g(F)=  0.310E-03 g(S)=  0.000E+00 retain N=  2 mean eig= 0.20
 eig:   0.203  0.203
 bond charge predicted
       N       E                     dE             d eps       ncg     rms          rms(c)
DAV:   1    -0.331035627967E+04   -0.53648E-04   -0.10588E-02  3744   0.121E-01    0.177E-02
DAV:   2    -0.331035629572E+04   -0.16050E-04   -0.22040E-04  4160   0.158E-02    0.180E-02
DAV:   3    -0.331035629427E+04    0.14472E-05   -0.77501E-06  4224   0.291E-03    0.163E-02
DAV:   4    -0.331035628988E+04    0.43908E-05   -0.87574E-06  3744   0.406E-03    0.742E-03
DAV:   5    -0.331035628986E+04    0.16182E-07   -0.51099E-06  3680   0.267E-03
  66 F= -.33244395E+04 E0= -.33244395E+04  d E =-.593597E-04
 BRION: g(F)=  0.729E-03 g(S)=  0.000E+00 retain N=  3 mean eig= 0.18
 eig:   0.118  0.171  0.239
 bond charge predicted
       N       E                     dE             d eps       ncg     rms          rms(c)
DAV:   1    -0.331035637853E+04   -0.88651E-04   -0.37159E-03  3712   0.732E-02    0.114E-02
DAV:   2    -0.331035638485E+04   -0.63163E-05   -0.90201E-05  4256   0.103E-02    0.115E-02
DAV:   3    -0.331035638413E+04    0.71689E-06   -0.30824E-06  3328   0.190E-03
  67 F= -.33244396E+04 E0= -.33244396E+04  d E =-.939591E-04
 BRION: g(F)=  0.196E-03 g(S)=  0.000E+00 retain N=  1 mean eig= 0.20
 eig:   0.196
 bond charge predicted
       N       E                     dE             d eps       ncg     rms          rms(c)
DAV:   1    -0.331035654790E+04   -0.16305E-03   -0.22692E-02  3712   0.169E-01    0.274E-02
DAV:   2    -0.331035657175E+04   -0.23846E-04   -0.36105E-04  4192   0.194E-02    0.258E-02
DAV:   3    -0.331035656504E+04    0.67013E-05   -0.13025E-05  4160   0.509E-03    0.180E-02
DAV:   4    -0.331035656463E+04    0.41025E-06   -0.21330E-05  3968   0.536E-03    0.436E-03
DAV:   5    -0.331035656465E+04   -0.12922E-07   -0.48201E-06  3264   0.244E-03
  68 F= -.33244397E+04 E0= -.33244397E+04  d E =-.174604E-03
 BRION: g(F)=  0.251E-03 g(S)=  0.000E+00 retain N=  2 mean eig= 0.18
 eig:   0.298  0.052
 bond charge predicted
       N       E                     dE             d eps       ncg     rms          rms(c)
DAV:   1    -0.331035661819E+04   -0.53559E-04   -0.27263E-03  3776   0.611E-02    0.913E-03
DAV:   2    -0.331035662236E+04   -0.41672E-05   -0.56250E-05  4192   0.794E-03    0.919E-03
DAV:   3    -0.331035662191E+04    0.45088E-06   -0.15451E-06  2880   0.148E-03
  69 F= -.33244398E+04 E0= -.33244398E+04  d E =-.556079E-04
 BRION: g(F)=  0.210E-03 g(S)=  0.000E+00 retain N=  1 mean eig= 0.18
 eig:   0.178
 bond charge predicted
       N       E                     dE             d eps       ncg     rms          rms(c)
DAV:   1    -0.331035675729E+04   -0.13493E-03   -0.16210E-02  3712   0.144E-01    0.224E-02
DAV:   2    -0.331035677521E+04   -0.17921E-04   -0.25940E-04  4224   0.165E-02    0.214E-02
DAV:   3    -0.331035677108E+04    0.41396E-05   -0.84239E-06  4192   0.389E-03    0.159E-02
DAV:   4    -0.331035677041E+04    0.66974E-06   -0.15629E-05  3968   0.463E-03    0.386E-03
DAV:   5    -0.331035677047E+04   -0.62166E-07   -0.33379E-06  3008   0.208E-03
  70 F= -.33244399E+04 E0= -.33244399E+04  d E =-.143544E-03
 BRION: g(F)=  0.267E-03 g(S)=  0.000E+00 retain N=  2 mean eig= 0.25
 eig:   0.207  0.290
 bond charge predicted
       N       E                     dE             d eps       ncg     rms          rms(c)
DAV:   1    -0.331035681483E+04   -0.44424E-04   -0.19333E-03  3776   0.519E-02    0.782E-03
DAV:   2    -0.331035681790E+04   -0.30728E-05   -0.41933E-05  4192   0.689E-03    0.792E-03
DAV:   3    -0.331035681758E+04    0.31805E-06   -0.10751E-06  2624   0.128E-03
  71 F= -.33244400E+04 E0= -.33244400E+04  d E =-.462334E-04
 BRION: g(F)=  0.192E-03 g(S)=  0.000E+00 retain N=  1 mean eig= 0.18
 eig:   0.178
 bond charge predicted
       N       E                     dE             d eps       ncg     rms          rms(c)
DAV:   1    -0.331035694465E+04   -0.12674E-03   -0.17886E-02  3712   0.152E-01    0.233E-02
DAV:   2    -0.331035696494E+04   -0.20296E-04   -0.29323E-04  4224   0.177E-02    0.224E-02
DAV:   3    -0.331035696041E+04    0.45263E-05   -0.95931E-06  4192   0.398E-03    0.171E-02
DAV:   4    -0.331035695904E+04    0.13745E-05   -0.17624E-05  3872   0.499E-03    0.432E-03
DAV:   5    -0.331035695920E+04   -0.16333E-06   -0.37827E-06  3008   0.221E-03
  72 F= -.33244401E+04 E0= -.33244401E+04  d E =-.136589E-03
 BRION: g(F)=  0.336E-03 g(S)=  0.000E+00 retain N=  2 mean eig= 0.21
 eig:   0.149  0.277
 bond charge predicted
       N       E                     dE             d eps       ncg     rms          rms(c)
DAV:   1    -0.331035700688E+04   -0.47844E-04   -0.20450E-03  3744   0.539E-02    0.820E-03
DAV:   2    -0.331035701026E+04   -0.33805E-05   -0.46762E-05  4224   0.735E-03    0.837E-03
DAV:   3    -0.331035700997E+04    0.29197E-06   -0.12592E-06  2656   0.135E-03
  73 F= -.33244402E+04 E0= -.33244402E+04  d E =-.496012E-04
 BRION: g(F)=  0.177E-03 g(S)=  0.000E+00 retain N=  1 mean eig= 0.19
 eig:   0.190
 bond charge predicted
       N       E                     dE             d eps       ncg     rms          rms(c)
DAV:   1    -0.331035713610E+04   -0.12583E-03   -0.18487E-02  3712   0.154E-01    0.238E-02
DAV:   2    -0.331035715689E+04   -0.20789E-04   -0.30165E-04  4224   0.179E-02    0.228E-02
DAV:   3    -0.331035715209E+04    0.47989E-05   -0.96366E-06  4192   0.404E-03    0.174E-02
DAV:   4    -0.331035715069E+04    0.14020E-05   -0.18037E-05  3872   0.503E-03    0.433E-03
DAV:   5    -0.331035715086E+04   -0.17462E-06   -0.38939E-06  3072   0.220E-03
  74 F= -.33244403E+04 E0= -.33244403E+04  d E =-.135914E-03
 BRION: g(F)=  0.321E-03 g(S)=  0.000E+00 retain N=  2 mean eig= 0.22
 eig:   0.143  0.289
 bond charge predicted
       N       E                     dE             d eps       ncg     rms          rms(c)
DAV:   1    -0.331035719670E+04   -0.46017E-04   -0.19869E-03  3744   0.530E-02    0.811E-03
DAV:   2    -0.331035720000E+04   -0.33004E-05   -0.45550E-05  4224   0.723E-03    0.827E-03
DAV:   3    -0.331035719971E+04    0.29069E-06   -0.12606E-06  2656   0.133E-03
  75 F= -.33244403E+04 E0= -.33244403E+04  d E =-.479951E-04
 BRION: g(F)=  0.169E-03 g(S)=  0.000E+00 retain N=  1 mean eig= 0.18
 eig:   0.185
 bond charge predicted
       N       E                     dE             d eps       ncg     rms          rms(c)
DAV:   1    -0.331035732268E+04   -0.12268E-03   -0.17522E-02  3712   0.150E-01    0.232E-02
DAV:   2    -0.331035734211E+04   -0.19433E-04   -0.28419E-04  4160   0.174E-02    0.223E-02
DAV:   3    -0.331035733749E+04    0.46218E-05   -0.93520E-06  4192   0.402E-03    0.168E-02
DAV:   4    -0.331035733635E+04    0.11385E-05   -0.17286E-05  3872   0.492E-03    0.414E-03
DAV:   5    -0.331035733648E+04   -0.12456E-06   -0.37744E-06  3072   0.219E-03
  76 F= -.33244405E+04 E0= -.33244405E+04  d E =-.131780E-03
 BRION: g(F)=  0.282E-03 g(S)=  0.000E+00 retain N=  2 mean eig= 0.22
 eig:   0.136  0.296
 bond charge predicted
       N       E                     dE             d eps       ncg     rms          rms(c)
DAV:   1    -0.331035737977E+04   -0.43417E-04   -0.19080E-03  3744   0.519E-02    0.788E-03
DAV:   2    -0.331035738286E+04   -0.30951E-05   -0.42651E-05  4224   0.701E-03    0.803E-03
DAV:   3    -0.331035738259E+04    0.27695E-06   -0.11252E-06  2528   0.129E-03
  77 F= -.33244405E+04 E0= -.33244405E+04  d E =-.449856E-04
 BRION: g(F)=  0.164E-03 g(S)=  0.000E+00 retain N=  1 mean eig= 0.19
 eig:   0.188
 bond charge predicted
       N       E                     dE             d eps       ncg     rms          rms(c)
DAV:   1    -0.331035749812E+04   -0.11525E-03   -0.16518E-02  3712   0.146E-01    0.224E-02
DAV:   2    -0.331035751652E+04   -0.18403E-04   -0.26726E-04  4160   0.169E-02    0.216E-02
DAV:   3    -0.331035751228E+04    0.42375E-05   -0.85986E-06  4160   0.382E-03    0.164E-02
DAV:   4    -0.331035751109E+04    0.11957E-05   -0.16152E-05  3840   0.477E-03    0.402E-03
DAV:   5    -0.331035751122E+04   -0.13527E-06   -0.35097E-06  3040   0.211E-03
  78 F= -.33244406E+04 E0= -.33244406E+04  d E =-.124319E-03
 BRION: g(F)=  0.278E-03 g(S)=  0.000E+00 retain N=  2 mean eig= 0.22
 eig:   0.142  0.306
 bond charge predicted
       N       E                     dE             d eps       ncg     rms          rms(c)
DAV:   1    -0.331035755273E+04   -0.41648E-04   -0.18010E-03  3744   0.504E-02    0.772E-03
DAV:   2    -0.331035755569E+04   -0.29515E-05   -0.40779E-05  4192   0.684E-03    0.787E-03
DAV:   3    -0.331035755541E+04    0.27800E-06   -0.10744E-06  2560   0.126E-03
  79 F= -.33244407E+04 E0= -.33244407E+04  d E =-.431150E-04
 BRION: g(F)=  0.158E-03 g(S)=  0.000E+00 retain N=  1 mean eig= 0.18
 eig:   0.184
 bond charge predicted
       N       E                     dE             d eps       ncg     rms          rms(c)
DAV:   1    -0.331035766732E+04   -0.11164E-03   -0.16122E-02  3712   0.144E-01    0.222E-02
DAV:   2    -0.331035768527E+04   -0.17953E-04   -0.26197E-04  4160   0.167E-02    0.214E-02
DAV:   3    -0.331035768107E+04    0.42007E-05   -0.84998E-06  4128   0.378E-03    0.163E-02
DAV:   4    -0.331035767984E+04    0.12359E-05   -0.16153E-05  3776   0.477E-03    0.403E-03
DAV:   5    -0.331035767998E+04   -0.14098E-06   -0.35130E-06  3104   0.213E-03
  80 F= -.33244408E+04 E0= -.33244408E+04  d E =-.119724E-03
 BRION: g(F)=  0.271E-03 g(S)=  0.000E+00 retain N=  2 mean eig= 0.22
 eig:   0.133  0.297
 bond charge predicted
       N       E                     dE             d eps       ncg     rms          rms(c)
DAV:   1    -0.331035772079E+04   -0.40952E-04   -0.18170E-03  3744   0.506E-02    0.777E-03
DAV:   2    -0.331035772373E+04   -0.29365E-05   -0.40939E-05  4256   0.687E-03    0.792E-03
DAV:   3    -0.331035772344E+04    0.28568E-06   -0.10371E-06  2464   0.126E-03
  81 F= -.33244409E+04 E0= -.33244409E+04  d E =-.425676E-04
 BRION: g(F)=  0.151E-03 g(S)=  0.000E+00 retain N=  1 mean eig= 0.19
 eig:   0.191
 bond charge predicted
       N       E                     dE             d eps       ncg     rms          rms(c)
DAV:   1    -0.331035782982E+04   -0.10609E-03   -0.15590E-02  3712   0.142E-01    0.217E-02
DAV:   2    -0.331035784723E+04   -0.17410E-04   -0.25281E-04  4160   0.164E-02    0.209E-02
DAV:   3    -0.331035784322E+04    0.40026E-05   -0.80548E-06  4064   0.367E-03    0.161E-02
DAV:   4    -0.331035784195E+04    0.12773E-05   -0.15615E-05  3808   0.470E-03    0.392E-03
DAV:   5    -0.331035784208E+04   -0.13784E-06   -0.33746E-06  3008   0.208E-03
  82 F= -.33244410E+04 E0= -.33244410E+04  d E =-.114926E-03
 BRION: g(F)=  0.263E-03 g(S)=  0.000E+00 retain N=  2 mean eig= 0.22
 eig:   0.136  0.311
 bond charge predicted
       N       E                     dE             d eps       ncg     rms          rms(c)
DAV:   1    -0.331035788185E+04   -0.39902E-04   -0.17561E-03  3744   0.497E-02    0.771E-03
DAV:   2    -0.331035788469E+04   -0.28427E-05   -0.39831E-05  4192   0.676E-03    0.784E-03
DAV:   3    -0.331035788440E+04    0.29255E-06   -0.10554E-06  2528   0.125E-03
  83 F= -.33244410E+04 E0= -.33244410E+04  d E =-.410355E-04
 BRION: g(F)=  0.147E-03 g(S)=  0.000E+00 retain N=  1 mean eig= 0.19
 eig:   0.188
 bond charge predicted
       N       E                     dE             d eps       ncg     rms          rms(c)
DAV:   1    -0.331035798807E+04   -0.10338E-03   -0.15126E-02  3712   0.139E-01    0.215E-02
DAV:   2    -0.331035800488E+04   -0.16805E-04   -0.24568E-04  4160   0.162E-02    0.207E-02
DAV:   3    -0.331035800090E+04    0.39821E-05   -0.79215E-06  4064   0.365E-03    0.159E-02
DAV:   4    -0.331035799963E+04    0.12664E-05   -0.15619E-05  3840   0.470E-03    0.387E-03
DAV:   5    -0.331035799976E+04   -0.12433E-06   -0.33753E-06  3008   0.209E-03
  84 F= -.33244411E+04 E0= -.33244411E+04  d E =-.110490E-03
 BRION: g(F)=  0.249E-03 g(S)=  0.000E+00 retain N=  2 mean eig= 0.22
 eig:   0.127  0.311
 bond charge predicted
       N       E                     dE             d eps       ncg     rms          rms(c)
DAV:   1    -0.331035803844E+04   -0.38812E-04   -0.17840E-03  3744   0.500E-02    0.783E-03
DAV:   2    -0.331035804126E+04   -0.28146E-05   -0.40033E-05  4256   0.679E-03    0.793E-03
DAV:   3    -0.331035804093E+04    0.32969E-06   -0.10312E-06  2464   0.126E-03
  85 F= -.33244412E+04 E0= -.33244412E+04  d E =-.405512E-04
 BRION: g(F)=  0.142E-03 g(S)=  0.000E+00 retain N=  1 mean eig= 0.20
 eig:   0.196
 bond charge predicted
       N       E                     dE             d eps       ncg     rms          rms(c)
DAV:   1    -0.331035813831E+04   -0.97049E-04   -0.14591E-02  3712   0.137E-01    0.210E-02
DAV:   2    -0.331035815460E+04   -0.16290E-04   -0.23721E-04  4192   0.159E-02    0.203E-02
DAV:   3    -0.331035815081E+04    0.37840E-05   -0.75135E-06  4032   0.354E-03    0.156E-02
DAV:   4    -0.331035814948E+04    0.13295E-05   -0.15012E-05  3776   0.462E-03    0.378E-03
DAV:   5    -0.331035814962E+04   -0.13749E-06   -0.32242E-06  2944   0.203E-03
  86 F= -.33244413E+04 E0= -.33244413E+04  d E =-.105577E-03
 BRION: g(F)=  0.246E-03 g(S)=  0.000E+00 retain N=  2 mean eig= 0.23
 eig:   0.134  0.323
 bond charge predicted
       N       E                     dE             d eps       ncg     rms          rms(c)
DAV:   1    -0.331035818845E+04   -0.38970E-04   -0.17562E-03  3744   0.495E-02    0.786E-03
DAV:   2    -0.331035819122E+04   -0.27631E-05   -0.39739E-05  4160   0.675E-03    0.795E-03
DAV:   3    -0.331035819086E+04    0.35646E-06   -0.10733E-06  2528   0.127E-03
  87 F= -.33244413E+04 E0= -.33244413E+04  d E =-.396811E-04
 BRION: g(F)=  0.138E-03 g(S)=  0.000E+00 retain N=  1 mean eig= 0.20
 eig:   0.197
 bond charge predicted
       N       E                     dE             d eps       ncg     rms          rms(c)
DAV:   1    -0.331035828674E+04   -0.95525E-04   -0.14304E-02  3712   0.136E-01    0.209E-02
DAV:   2    -0.331035830274E+04   -0.15998E-04   -0.23376E-04  4288   0.158E-02    0.202E-02
DAV:   3    -0.331035829884E+04    0.38996E-05   -0.68313E-06  4064   0.348E-03    0.155E-02
DAV:   4    -0.331035829747E+04    0.13718E-05   -0.15275E-05  3776   0.466E-03    0.372E-03
DAV:   5    -0.331035829758E+04   -0.11653E-06   -0.33004E-06  2944   0.206E-03
  88 F= -.33244414E+04 E0= -.33244414E+04  d E =-.101780E-03
 BRION: g(F)=  0.236E-03 g(S)=  0.000E+00 retain N=  2 mean eig= 0.22
 eig:   0.121  0.326
 bond charge predicted
       N       E                     dE             d eps       ncg     rms          rms(c)
DAV:   1    -0.331035833540E+04   -0.37937E-04   -0.18286E-03  3776   0.504E-02    0.816E-03
DAV:   2    -0.331035833818E+04   -0.27729E-05   -0.40967E-05  4160   0.685E-03    0.819E-03
DAV:   3    -0.331035833772E+04    0.45286E-06   -0.10966E-06  2560   0.131E-03
  89 F= -.33244414E+04 E0= -.33244414E+04  d E =-.398634E-04
 BRION: g(F)=  0.133E-03 g(S)=  0.000E+00 retain N=  1 mean eig= 0.21
 eig:   0.207
 reached required accuracy - stopping structural energy minimisation
 PROFILE, used timers:     336
