Ge Se
 1.0000000000000000
     4.0000000000000000    0.0000000000000000    0.0000000000000000
     0.0000000000000000    3.7500000000000000    0.0000000000000000
     0.0000000000000000    0.0000000000000000   11.1422209999999993
 Ge  Se 
   4   4
Selective dynamics
Cartesian
  0.3667956498704642  0.9375000000000000  1.3455427863703828   T   T   T
  2.3667956498704643  2.8125000000000000  4.2255677136296148   T   T   T
  3.6332043501295357  2.8125000000000000  9.7966782136296207   T   T   T
  1.6332043501295357  0.9375000000000000  6.9166532863703836   T   T   T
  0.1113167713747252  0.9375000000000000  3.9568457001077761   T   T   T
  2.1113167713747245  2.8125000000000000  1.6142647998922230   T   T   T
  3.8886832286252750  2.8125000000000000  7.1853752998922218   T   T   T
  1.8886832286252746  0.9375000000000000  9.5279562001077771   T   T   T
