Ge Se 
 1.0000000000000000
    12.4423483530117167    0.0000012419470145   -0.0000018228203717
     0.0000012480644109   12.5036346133195391   -0.0000009526345774
    -0.0000020865517424   -0.0000010851198165   11.0641473448372913
 Ge  Se 
  36  36
Cartesian
  0.8042284245251518  0.7490412347052902  1.3717682323105616
  3.1426206610863652 11.1846253668535116  4.1496380413130636
  7.1636976753961168  2.7231102281932698  4.2159575414633235
  6.9924934063322111  6.6623363166012384  3.9751632451027135
  7.0968649731659763 11.0108203706091601  3.9722840037104863
 11.4239685474238879  2.6384048411206962  4.0657512302395178
 10.9316892318668284  6.8230087596683591  3.9568942052784464
 11.0544996540199012 10.9935757644366028  4.1098174804905607
  0.6244551373400432  1.8498753989107151  6.8769813834934128
  0.6248064541072584  6.1708148370831628  6.9512651049746896
  0.7475275768451000 10.2879046916567294  6.9767743104998790
  4.9114178616039146  2.0076291796523749  7.0470867119109712
  5.2483973329745934  6.0915821480658847  7.1182012106505486
  4.9809267585578887 10.2762852615569464  6.9295578379768061
  9.1266979625667553  1.9235583296539924  7.0245454552855238
  9.3261049679775176  6.0022399588197413  6.9610980015636761
  2.9212706154380839  6.8316068407092327  4.0842778558486321
  3.1423444046029001  2.4277734991322033  3.8352559922814420
  8.8386943397709352 10.4406723248799338  7.0532559598307145
 11.1199823540474636  8.1754760629843801  9.5224223628247788
 11.2122018186683157 12.3471049593844384  9.6208566213173121
  0.7505021881810262  4.5289066137019276  1.5487850068205153
  0.7476965772500626  8.7940986868416928  1.6304854291299398
  5.1015997803957154  0.8284548490938763  1.2168644819000292
  5.0405049576747576  4.7498767234708401  1.4927657615267560
  9.1713433517054099  0.2199021519938748  1.4553058864083959
  9.1966191513490827  4.8534285534625905  1.1620111466348571
  4.6727429640226887  8.6828285977633808  1.5805367224130855
  2.6883941882525608  4.1658233819565638  9.6283569075955828
  2.7836501003468697  7.9458918931417619  9.6572054333830479
  2.8886485875051040 12.2528327122040324  9.7484666534649875
  7.2660786060876035  3.8677914679954086  9.8500455768354520
  7.0513632831344477  8.1560978558299109  9.5795767339444158
  6.9193235619499918 12.5064049685298340  9.5292801320694718
 11.2560062367854474  3.8893631747000650  9.6684803609267540
  9.1356715993335875  9.0544366381797072  1.3661274536360959
 11.2200982831096479  0.1282573118094116  6.9780374069254014
  3.0422958947951710  4.4701174029078228  7.1367371126927619
  2.8018003228025492  8.5313779053755443  7.1609318965793323
  7.2546629081957477  0.0862341393594505  6.9907647206858501
  7.2408033785163495  4.2458135363165983  7.3184806335820936
  7.1078326373915726  8.6147135998679278  7.1060309657483618
 11.3304393784090092  4.2524345126365732  7.0401677788338306
  9.0205199351876146  0.1388012433975468  3.9638911244849542
  0.9785291420788788  0.2359446315666526  3.9920160235556321
  1.0085038601094871  4.2876824298437457  4.0624685504023574
  0.8725102915715720  8.2979757205324827  4.0572803062362892
  5.1879363584083071  0.2591316452711337  3.7546675674913286
  5.0666360791331364  4.4777763962023611  3.9945868497880812
  5.0662941237561911  8.6483999958559252  4.1783012639981632
  2.9759772183987687  0.3518685190016230  7.2954649746701596
 11.3570300987649233  8.7353804362164489  7.1006904463342870
 11.3298004104818997 10.6461668717696121  1.5036496241559993
  2.9278182817174909  2.4196885604330891  1.3016720403554112
 11.2668843039754023  2.3992565298439583  1.5775057591233714
  9.1531905800843667  4.4371292946381802  3.9167194085747692
  0.8483388872667359  2.3880048284322326  9.4752074919623173
  0.8731526918630572  6.3797970573100402  9.4967375131483323
  0.8501630454857573 10.5631715354511684  9.5975032774586904
  5.2364705059628589  2.2464832243337294  9.5001073346652198
  5.1304281211095164  6.4275664135392310  9.6093626285475029
  5.0445737977250653 10.7119205778007345  9.5043571651463061
  9.3387447380259960  2.1905925577438197  9.6222411986592480
  9.2373715667920138  6.3636982866066329  9.4205282927242688
  9.1460652183141491 10.7441052894169857  9.5061439569617434
  2.9966092425586965  6.3879472409134044  1.4650680269743597
  2.7902662729625178 10.5290541790551906  1.6706312114240711
  7.1374181265683330  2.2509783147888731  1.5624248130198741
  6.9643249495953947  6.5353414416315418  1.4215302658975091
  7.1604483020563432 10.6686247108278671  1.4935689233615979
 11.0958506334729687  6.4100408515905416  1.3492246367256888
  9.0339716871035556  8.6321978479000645  3.9238097829838021
