Ge Se
 1.0000000000000000
     3.8499999999999996    0.0000000000000000    0.0000000000000000
     0.0000000000000000    4.7999999999999989    0.0000000000000000
     0.0000000000000000    0.0000000000000000   11.1422209999999993
 Ge  Se 
   4   4
Selective dynamics
Cartesian
  0.9624999999999998  0.5760995334730751  1.3849739443176481   T   T   T
  2.8874999999999997  2.9760995334730738  4.1861365556823520   T   T   T
  2.8874999999999997  4.2239004665269224  9.7572470556823490   T   T   T
  0.9624999999999998  1.8239004665269245  6.9560844443176473   T   T   T
  0.9624999999999998 -0.1087202175994866  3.8941345737523987   T   T   T
  2.8874999999999997  2.2912797824005140  1.6769759262476003   T   T   T
  2.8874999999999997  4.9087202175994875  7.2480864262476006   T   T   T
  0.9624999999999998  2.5087202175994849  9.4652450737524010   T   T   T
