Ge Se                                   
    1.000000000000000     
    12.4381382703759034   -0.0000023821545793    0.0000009839502591
    -0.0000023960828830   12.5108633405098377   -0.0000002814907178
     0.0000011271248951   -0.0000003205760544   11.0683942773724731
   Ge   Se
    36    36
Direct
  0.0805314066981992  0.0113382852050421  0.1302349853968678
  0.2698288693240940  0.8559205568724337  0.3713842726773819
  0.5629163713304095  0.2434427234763348  0.3670916075296802
  0.6034056519517392  0.5382259833168987  0.3854097199234516
  0.5747854210696630  0.8804182951811939  0.3807694950353451
  0.9346795209153527  0.2000096463234655  0.3786162879876755
  0.9167588117638417  0.5328183603473846  0.3589840038256114
  0.9113537320010181  0.8797310829914977  0.3728135072713528
  0.0499107733496373  0.1391125970067790  0.6450451900835859
  0.0762787923878747  0.4903199522719746  0.6235947450942874
  0.0860692972085317  0.8526008664312883  0.6435450528120725
  0.4236160505241884  0.1815694599479798  0.6328063430030468
  0.3915210826821749  0.4726778893519707  0.6054188434997840
  0.4020670571819451  0.8195563100636747  0.6277745221301032
  0.7404767907985601  0.1561686513650926  0.6282794530347218
  0.7596484836312456  0.5230211752215297  0.6313580622448995
  0.2291981882160954  0.5493724769975046  0.3855550768826603
  0.2524498762721237  0.1921084971349529  0.3594777669660445
  0.7123277843733362  0.8096902320557504  0.6342981535017032
  0.9240477351951313  0.6512986265798233  0.8692953414814539
  0.8789020896172630  0.9727995539234087  0.8797982958046120
  0.0622634328655494  0.3707658172470332  0.1138425230595601
  0.0730296383243143  0.7088413533783324  0.1204513986698075
  0.4081204212989817  0.0352718797709315  0.1284939194786432
  0.3946406696120448  0.3782806429291767  0.0999939865563846
  0.7311308641828020  0.0430850232372748  0.1397457369395738
  0.7451167416227165  0.3543465341497551  0.1346856375957017
  0.4182327070731517  0.6840795548348595  0.1259637296874274
  0.2432266912891450  0.3131162872890556  0.8807387296316733
  0.2282087297065374  0.6626782007972807  0.8455453886456397
  0.2612510170465328  0.9916478205423402  0.8630854624720499
  0.5816645594887788  0.3449643611335986  0.8572907052721206
  0.5442543835000322  0.6309031711710773  0.8699112131332356
  0.5628164812276992  0.9813057200334399  0.8787362589578365
  0.9200183487383242  0.3024499947183443  0.8743045991200376
  0.7393317474883858  0.7015409975618283  0.1218999577132109
  0.8831031649795165  0.9937720148171820  0.6552241956876017
  0.2238335661038704  0.3383122983116280  0.6480443191194425
  0.2364853635935731  0.7007429515002030  0.6229168872020452
  0.5776426727650232  0.0310742153859138  0.6514586084555702
  0.5564144421984452  0.3292042693742374  0.6253339383840029
  0.5547360968284991  0.6719579800857716  0.6542898889199193
  0.9092057059778398  0.3639771790981783  0.6377011769943408
  0.7364567875479935  0.9982414634715511  0.3752110877547565
  0.0609048502093117  0.0189811062690950  0.3692391438222060
  0.0832468157354000  0.3323146124902507  0.3323073139901851
  0.0612806559956951  0.6988794655073889  0.3617561290363298
  0.4104984879262119  0.0146636041212460  0.3576103827245518
  0.3874413054178660  0.3472064599235551  0.3359573561936458
  0.3912562721237833  0.6760483331037790  0.3498628224312057
  0.2245273773708263  0.0025938566450847  0.6438110346577020
  0.8929250746979207  0.6772561458486663  0.6414153557788893
  0.8862044495591093  0.8422616987408986  0.1408306515518944
  0.2394242696825657  0.1620904248200432  0.1297666850001136
  0.8833679093858464  0.1811245394368939  0.1507103072602902
  0.7323470018048326  0.3643937552537722  0.3667903217299084
  0.0530203853521911  0.1555580392639158  0.8605236554104039
  0.0814302181074993  0.5246586687120072  0.8569700104951892
  0.0556351978224967  0.8285214724882337  0.8743385926850493
  0.4048914238274079  0.1753919254426037  0.8715262294238713
  0.3828610059774817  0.5063226451707905  0.8428566331391423
  0.4149197068973436  0.8552240399541944  0.8615609908395072
  0.7434034673477043  0.1931979130534316  0.8593503217173222
  0.7181335378232703  0.5036931267690434  0.8515958127877568
  0.7225799101080312  0.8432900750411463  0.8554071532995593
  0.2162618502683173  0.5033684141452852  0.1565420416796641
  0.2237596269222024  0.8578662839710205  0.1494887458867780
  0.5682738635961258  0.1749967366565599  0.1362485247110214
  0.5551512103410801  0.5188976612726961  0.1407122925611972
  0.5642492254715918  0.8299162297941507  0.1545441492974433
  0.8998738613992572  0.5045374667922147  0.1347449102794300
  0.7454308562682641  0.6786802596559909  0.3735456933840595
 
  0.00000000E+00  0.00000000E+00  0.00000000E+00
  0.00000000E+00  0.00000000E+00  0.00000000E+00
  0.00000000E+00  0.00000000E+00  0.00000000E+00
  0.00000000E+00  0.00000000E+00  0.00000000E+00
  0.00000000E+00  0.00000000E+00  0.00000000E+00
  0.00000000E+00  0.00000000E+00  0.00000000E+00
  0.00000000E+00  0.00000000E+00  0.00000000E+00
  0.00000000E+00  0.00000000E+00  0.00000000E+00
  0.00000000E+00  0.00000000E+00  0.00000000E+00
  0.00000000E+00  0.00000000E+00  0.00000000E+00
  0.00000000E+00  0.00000000E+00  0.00000000E+00
  0.00000000E+00  0.00000000E+00  0.00000000E+00
  0.00000000E+00  0.00000000E+00  0.00000000E+00
  0.00000000E+00  0.00000000E+00  0.00000000E+00
  0.00000000E+00  0.00000000E+00  0.00000000E+00
  0.00000000E+00  0.00000000E+00  0.00000000E+00
  0.00000000E+00  0.00000000E+00  0.00000000E+00
  0.00000000E+00  0.00000000E+00  0.00000000E+00
  0.00000000E+00  0.00000000E+00  0.00000000E+00
  0.00000000E+00  0.00000000E+00  0.00000000E+00
  0.00000000E+00  0.00000000E+00  0.00000000E+00
  0.00000000E+00  0.00000000E+00  0.00000000E+00
  0.00000000E+00  0.00000000E+00  0.00000000E+00
  0.00000000E+00  0.00000000E+00  0.00000000E+00
  0.00000000E+00  0.00000000E+00  0.00000000E+00
  0.00000000E+00  0.00000000E+00  0.00000000E+00
  0.00000000E+00  0.00000000E+00  0.00000000E+00
  0.00000000E+00  0.00000000E+00  0.00000000E+00
  0.00000000E+00  0.00000000E+00  0.00000000E+00
  0.00000000E+00  0.00000000E+00  0.00000000E+00
  0.00000000E+00  0.00000000E+00  0.00000000E+00
  0.00000000E+00  0.00000000E+00  0.00000000E+00
  0.00000000E+00  0.00000000E+00  0.00000000E+00
  0.00000000E+00  0.00000000E+00  0.00000000E+00
  0.00000000E+00  0.00000000E+00  0.00000000E+00
  0.00000000E+00  0.00000000E+00  0.00000000E+00
  0.00000000E+00  0.00000000E+00  0.00000000E+00
  0.00000000E+00  0.00000000E+00  0.00000000E+00
  0.00000000E+00  0.00000000E+00  0.00000000E+00
  0.00000000E+00  0.00000000E+00  0.00000000E+00
  0.00000000E+00  0.00000000E+00  0.00000000E+00
  0.00000000E+00  0.00000000E+00  0.00000000E+00
  0.00000000E+00  0.00000000E+00  0.00000000E+00
  0.00000000E+00  0.00000000E+00  0.00000000E+00
  0.00000000E+00  0.00000000E+00  0.00000000E+00
  0.00000000E+00  0.00000000E+00  0.00000000E+00
  0.00000000E+00  0.00000000E+00  0.00000000E+00
  0.00000000E+00  0.00000000E+00  0.00000000E+00
  0.00000000E+00  0.00000000E+00  0.00000000E+00
  0.00000000E+00  0.00000000E+00  0.00000000E+00
  0.00000000E+00  0.00000000E+00  0.00000000E+00
  0.00000000E+00  0.00000000E+00  0.00000000E+00
  0.00000000E+00  0.00000000E+00  0.00000000E+00
  0.00000000E+00  0.00000000E+00  0.00000000E+00
  0.00000000E+00  0.00000000E+00  0.00000000E+00
  0.00000000E+00  0.00000000E+00  0.00000000E+00
  0.00000000E+00  0.00000000E+00  0.00000000E+00
  0.00000000E+00  0.00000000E+00  0.00000000E+00
  0.00000000E+00  0.00000000E+00  0.00000000E+00
  0.00000000E+00  0.00000000E+00  0.00000000E+00
  0.00000000E+00  0.00000000E+00  0.00000000E+00
  0.00000000E+00  0.00000000E+00  0.00000000E+00
  0.00000000E+00  0.00000000E+00  0.00000000E+00
  0.00000000E+00  0.00000000E+00  0.00000000E+00
  0.00000000E+00  0.00000000E+00  0.00000000E+00
  0.00000000E+00  0.00000000E+00  0.00000000E+00
  0.00000000E+00  0.00000000E+00  0.00000000E+00
  0.00000000E+00  0.00000000E+00  0.00000000E+00
  0.00000000E+00  0.00000000E+00  0.00000000E+00
  0.00000000E+00  0.00000000E+00  0.00000000E+00
  0.00000000E+00  0.00000000E+00  0.00000000E+00
  0.00000000E+00  0.00000000E+00  0.00000000E+00
