Ge Se 
 1.0000000000000000
    12.4646561875691617   -0.0000048105802478    0.0000014523297518
    -0.0000048206697852   12.4907977450699974   -0.0000017507017680
     0.0000016587385770   -0.0000019953310531   11.0591896662873115
 Ge  Se 
  36  36
Cartesian
  0.8790556957620008  0.5668257960128854  1.4473189430570823
  2.5848697685654551 10.5999360958564459  3.9920037094113359
  6.7135343852504548  2.2933230245577305  4.2800850051175283
  7.0339407927907471  6.5232127942681490  4.1896024438592496
  7.0518205032536789 10.7979692537231138  4.0554100042545036
 10.9918386515705198  2.4145974430024499  4.2751037861381489
 10.9345514507711119  6.4054929712560149  3.8494050689785686
 11.2490370436249361 10.7856713642948510  4.1521570981961702
  0.4326400355473134  2.2679185682647938  7.0261610644357999
  0.5944706459835322  6.2364979100304945  6.6811492123050424
  0.8556589580932340 10.2060481104900553  7.2744949823877585
  4.8252534661055222  2.0968516724801241  7.1062214159465817
  5.0465421986137011  6.0505865833287800  7.0837992310492108
  4.8432342067671659 10.5624052672199120  6.9416211990654775
  9.2676017367391061  2.0725238050796388  6.8470580355170245
  8.9713658439178712  6.2348936889151370  7.0397596891551677
  2.8293764971012094  6.5360520860492901  4.2187752531921694
  2.9911084398003918  2.4567554348305314  4.1117029612192253
  8.9900468230770869 10.4339990509323197  6.7914421632717970
 11.2476957286329409  8.1502630592056082  9.5512275611250743
 11.3773194803472837 12.3387439327004031  9.7417477110782915
  0.6990788724504425  4.3217258301163648  1.3124889013476733
  0.7178618194624927  8.4880011580418806  1.3882887298035369
  4.7722710195836120  0.0803417018825740  1.3077888958110320
  4.9321430337613101  4.6686959171931068  1.1429188953986351
  9.0042106131816233  0.2652471160949056  1.3726177227720016
  8.8317928859695431  4.3252443596704140  1.3442151436854799
  4.9778945500387337  8.6411720209694902  1.6006383372164759
  2.7634109670063056  4.0987397349695662  9.8273351607949397
  2.9667919781353786  8.0487049572480789  9.6626369022644667
  2.5672650244021220 12.6076572205218298  9.5255709240492425
  7.0498635344728715  3.6888824936277849  9.6309092031843289
  6.9844961729810331  8.3942432569434384  9.6269142807763455
  7.2275366305287925 12.2469745960911371  9.6034189746073970
 10.9652382614075208  4.4176011613824748  9.5650640700238458
  8.9025063233418287  8.7350504664799189  1.2950884544534744
 11.3051060285344658  0.3713858220084933  7.2923599548705385
  3.2684415389041379  4.2348699522534794  7.3629364509735193
  3.0147125977951017  8.5682252233326821  7.1419683726602674
  7.3296703540867743  0.0729357954738891  7.1594231711371519
  7.2646974939849569  4.3056379037754011  7.1786901149418867
  7.1911612850115425  8.6188184319868277  7.0585557109061972
 11.0713180575253247  4.4550899653351959  7.0578757735663444
  9.5452311493860815  0.3208242067477938  3.8272852742824859
  0.7630255006506034 -0.0971241075273407  3.8558360153130979
  1.2387770144960368  4.2964770482506980  3.9058987015433635
  1.1054807283065282  8.3761344494606806  3.9061312698789146
  5.0341820883413426  0.0925988163955589  3.8445148921970289
  5.0646434883028402  4.0546675069252673  3.8910198835167105
  5.2188653466462229  8.6526196093130743  4.0065909544240474
  2.9620411230500396  0.1480671171245457  7.0665137267728415
 11.4201797867819934  8.1261676970464141  7.0262904412136304
 11.1814591529122431 10.1088400400650862  1.5757506560984123
  2.9172628666640130  2.0367531456169643  1.5416385924435434
 11.4051163210052984  2.3216078416164190  1.8156839169939476
  9.2446141657664427  4.3832028378461247  3.8545247739889668
  0.7660313230092272  2.2963814983444668  9.4850260560073583
  1.1168873920564668  6.2190606112100442  9.3439091344260561
  0.9954726429735870 10.5737200003041192  9.7394444892617233
  5.3043291277377334  2.0503892921134970  9.5414581389705724
  5.0903907902649159  6.4511499282819962  9.4758906907061728
  5.2089868772761445 10.4514995629281611  9.4163962688563725
  9.3626255516455270  2.2146881766287958  9.4464714409881587
  9.1532395473910206  6.5277047326511175  9.4981369068973276
  9.5698943190091850 10.4096723726110127  9.3970444108057940
  3.2349883660083960  6.4433733532560007  1.6217748178778839
  3.1572189692856663 10.4496255953227504  1.6032036427944321
  7.2407450455870457  2.2538433747595836  1.5509991273848140
  7.0176605846203204  6.2910163945820399  1.6895789225893625
  7.4163516766042212 10.7217788166341634  1.5990180742119280
 11.3703045303086672  6.3425002984620376  1.3859401771298610
  9.0900954772132696  8.2153675698219146  3.8660166394814293
