Ge Se                                   
    1.000000000000000     
    23.3038576169270186    0.0000000000000000    0.0000000000000000
     0.0000000000000000   27.3416086400291292    0.0000000000000000
     0.0000000000000000    0.0000000000000000   22.3190494962531787
   Ge   Se
   288   288
Direct
  0.0416666666860053  0.0195961463130629  0.0626884197645055
  0.2083333333526696  0.0195961463130629  0.0626884197645055
  0.3750000000193410  0.0195961463130629  0.0626884197645055
  0.5416666666860053  0.0195961463130629  0.0626884197645055
  0.7083333333526696  0.0195961463130629  0.0626884197645055
  0.8750000000193410  0.0195961463130629  0.0626884197645055
  0.0416666666860053  0.1862628129797272  0.0626884197645055
  0.2083333333526696  0.1862628129797272  0.0626884197645055
  0.3750000000193410  0.1862628129797272  0.0626884197645055
  0.5416666666860053  0.1862628129797272  0.0626884197645055
  0.7083333333526696  0.1862628129797272  0.0626884197645055
  0.8750000000193410  0.1862628129797272  0.0626884197645055
  0.0416666666860053  0.3529294796463986  0.0626884197645055
  0.2083333333526696  0.3529294796463986  0.0626884197645055
  0.3750000000193410  0.3529294796463986  0.0626884197645055
  0.5416666666860053  0.3529294796463986  0.0626884197645055
  0.7083333333526696  0.3529294796463986  0.0626884197645055
  0.8750000000193410  0.3529294796463986  0.0626884197645055
  0.0416666666860053  0.5195961463130629  0.0626884197645055
  0.2083333333526696  0.5195961463130629  0.0626884197645055
  0.3750000000193410  0.5195961463130629  0.0626884197645055
  0.5416666666860053  0.5195961463130629  0.0626884197645055
  0.7083333333526696  0.5195961463130629  0.0626884197645055
  0.8750000000193410  0.5195961463130629  0.0626884197645055
  0.0416666666860053  0.6862628129797272  0.0626884197645055
  0.2083333333526696  0.6862628129797272  0.0626884197645055
  0.3750000000193410  0.6862628129797272  0.0626884197645055
  0.5416666666860053  0.6862628129797272  0.0626884197645055
  0.7083333333526696  0.6862628129797272  0.0626884197645055
  0.8750000000193410  0.6862628129797272  0.0626884197645055
  0.0416666666860053  0.8529294796463986  0.0626884197645055
  0.2083333333526696  0.8529294796463986  0.0626884197645055
  0.3750000000193410  0.8529294796463986  0.0626884197645055
  0.5416666666860053  0.8529294796463986  0.0626884197645055
  0.7083333333526696  0.8529294796463986  0.0626884197645055
  0.8750000000193410  0.8529294796463986  0.0626884197645055
  0.0416666666860053  0.0195961463130629  0.5626884197645055
  0.2083333333526696  0.0195961463130629  0.5626884197645055
  0.3750000000193410  0.0195961463130629  0.5626884197645055
  0.5416666666860053  0.0195961463130629  0.5626884197645055
  0.7083333333526696  0.0195961463130629  0.5626884197645055
  0.8750000000193410  0.0195961463130629  0.5626884197645055
  0.0416666666860053  0.1862628129797272  0.5626884197645055
  0.2083333333526696  0.1862628129797272  0.5626884197645055
  0.3750000000193410  0.1862628129797272  0.5626884197645055
  0.5416666666860053  0.1862628129797272  0.5626884197645055
  0.7083333333526696  0.1862628129797272  0.5626884197645055
  0.8750000000193410  0.1862628129797272  0.5626884197645055
  0.0416666666860053  0.3529294796463986  0.5626884197645055
  0.2083333333526696  0.3529294796463986  0.5626884197645055
  0.3750000000193410  0.3529294796463986  0.5626884197645055
  0.5416666666860053  0.3529294796463986  0.5626884197645055
  0.7083333333526696  0.3529294796463986  0.5626884197645055
  0.8750000000193410  0.3529294796463986  0.5626884197645055
  0.0416666666860053  0.5195961463130629  0.5626884197645055
  0.2083333333526696  0.5195961463130629  0.5626884197645055
  0.3750000000193410  0.5195961463130629  0.5626884197645055
  0.5416666666860053  0.5195961463130629  0.5626884197645055
  0.7083333333526696  0.5195961463130629  0.5626884197645055
  0.8750000000193410  0.5195961463130629  0.5626884197645055
  0.0416666666860053  0.6862628129797272  0.5626884197645055
  0.2083333333526696  0.6862628129797272  0.5626884197645055
  0.3750000000193410  0.6862628129797272  0.5626884197645055
  0.5416666666860053  0.6862628129797272  0.5626884197645055
  0.7083333333526696  0.6862628129797272  0.5626884197645055
  0.8750000000193410  0.6862628129797272  0.5626884197645055
  0.0416666666860053  0.8529294796463986  0.5626884197645055
  0.2083333333526696  0.8529294796463986  0.5626884197645055
  0.3750000000193410  0.8529294796463986  0.5626884197645055
  0.5416666666860053  0.8529294796463986  0.5626884197645055
  0.7083333333526696  0.8529294796463986  0.5626884197645055
  0.8750000000193410  0.8529294796463986  0.5626884197645055
  0.1250000000150422  0.1470705241082868  0.4373115727953305
  0.2916666666817065  0.1470705241082868  0.4373115727953305
  0.4583333333483779  0.1470705241082868  0.4373115727953305
  0.6250000000150422  0.1470705241082868  0.4373115727953305
  0.7916666666817065  0.1470705241082868  0.4373115727953305
  0.9583333333483779  0.1470705241082868  0.4373115727953305
  0.1250000000150422  0.3137371907749582  0.4373115727953305
  0.2916666666817065  0.3137371907749582  0.4373115727953305
  0.4583333333483779  0.3137371907749582  0.4373115727953305
  0.6250000000150422  0.3137371907749582  0.4373115727953305
  0.7916666666817065  0.3137371907749582  0.4373115727953305
  0.9583333333483779  0.3137371907749582  0.4373115727953305
  0.1250000000150422  0.4804038574416225  0.4373115727953305
  0.2916666666817065  0.4804038574416225  0.4373115727953305
  0.4583333333483779  0.4804038574416225  0.4373115727953305
  0.6250000000150422  0.4804038574416225  0.4373115727953305
  0.7916666666817065  0.4804038574416225  0.4373115727953305
  0.9583333333483779  0.4804038574416225  0.4373115727953305
  0.1250000000150422  0.6470705241082868  0.4373115727953305
  0.2916666666817065  0.6470705241082868  0.4373115727953305
  0.4583333333483779  0.6470705241082868  0.4373115727953305
  0.6250000000150422  0.6470705241082868  0.4373115727953305
  0.7916666666817065  0.6470705241082868  0.4373115727953305
  0.9583333333483779  0.6470705241082868  0.4373115727953305
  0.1250000000150422  0.8137371907749582  0.4373115727953305
  0.2916666666817065  0.8137371907749582  0.4373115727953305
  0.4583333333483779  0.8137371907749582  0.4373115727953305
  0.6250000000150422  0.8137371907749582  0.4373115727953305
  0.7916666666817065  0.8137371907749582  0.4373115727953305
  0.9583333333483779  0.8137371907749582  0.4373115727953305
  0.1250000000150422  0.9804038574416225  0.4373115727953305
  0.2916666666817065  0.9804038574416225  0.4373115727953305
  0.4583333333483779  0.9804038574416225  0.4373115727953305
  0.6250000000150422  0.9804038574416225  0.4373115727953305
  0.7916666666817065  0.9804038574416225  0.4373115727953305
  0.9583333333483779  0.9804038574416225  0.4373115727953305
  0.1250000000150422  0.1470705241082868  0.9373115727953305
  0.2916666666817065  0.1470705241082868  0.9373115727953305
  0.4583333333483779  0.1470705241082868  0.9373115727953305
  0.6250000000150422  0.1470705241082868  0.9373115727953305
  0.7916666666817065  0.1470705241082868  0.9373115727953305
  0.9583333333483779  0.1470705241082868  0.9373115727953305
  0.1250000000150422  0.3137371907749582  0.9373115727953305
  0.2916666666817065  0.3137371907749582  0.9373115727953305
  0.4583333333483779  0.3137371907749582  0.9373115727953305
  0.6250000000150422  0.3137371907749582  0.9373115727953305
  0.7916666666817065  0.3137371907749582  0.9373115727953305
  0.9583333333483779  0.3137371907749582  0.9373115727953305
  0.1250000000150422  0.4804038574416225  0.9373115727953305
  0.2916666666817065  0.4804038574416225  0.9373115727953305
  0.4583333333483779  0.4804038574416225  0.9373115727953305
  0.6250000000150422  0.4804038574416225  0.9373115727953305
  0.7916666666817065  0.4804038574416225  0.9373115727953305
  0.9583333333483779  0.4804038574416225  0.9373115727953305
  0.1250000000150422  0.6470705241082868  0.9373115727953305
  0.2916666666817065  0.6470705241082868  0.9373115727953305
  0.4583333333483779  0.6470705241082868  0.9373115727953305
  0.6250000000150422  0.6470705241082868  0.9373115727953305
  0.7916666666817065  0.6470705241082868  0.9373115727953305
  0.9583333333483779  0.6470705241082868  0.9373115727953305
  0.1250000000150422  0.8137371907749582  0.9373115727953305
  0.2916666666817065  0.8137371907749582  0.9373115727953305
  0.4583333333483779  0.8137371907749582  0.9373115727953305
  0.6250000000150422  0.8137371907749582  0.9373115727953305
  0.7916666666817065  0.8137371907749582  0.9373115727953305
  0.9583333333483779  0.8137371907749582  0.9373115727953305
  0.1250000000150422  0.9804038574416225  0.9373115727953305
  0.2916666666817065  0.9804038574416225  0.9373115727953305
  0.4583333333483779  0.9804038574416225  0.9373115727953305
  0.6250000000150422  0.9804038574416225  0.9373115727953305
  0.7916666666817065  0.9804038574416225  0.9373115727953305
  0.9583333333483779  0.9804038574416225  0.9373115727953305
  0.1250000000150422  0.1029294759008650  0.1873115728132788
  0.2916666666817065  0.1029294759008650  0.1873115728132788
  0.4583333333483779  0.1029294759008650  0.1873115728132788
  0.6250000000150422  0.1029294759008650  0.1873115728132788
  0.7916666666817065  0.1029294759008650  0.1873115728132788
  0.9583333333483779  0.1029294759008650  0.1873115728132788
  0.1250000000150422  0.2695961425675364  0.1873115728132788
  0.2916666666817065  0.2695961425675364  0.1873115728132788
  0.4583333333483779  0.2695961425675364  0.1873115728132788
  0.6250000000150422  0.2695961425675364  0.1873115728132788
  0.7916666666817065  0.2695961425675364  0.1873115728132788
  0.9583333333483779  0.2695961425675364  0.1873115728132788
  0.1250000000150422  0.4362628092342007  0.1873115728132788
  0.2916666666817065  0.4362628092342007  0.1873115728132788
  0.4583333333483779  0.4362628092342007  0.1873115728132788
  0.6250000000150422  0.4362628092342007  0.1873115728132788
  0.7916666666817065  0.4362628092342007  0.1873115728132788
  0.9583333333483779  0.4362628092342007  0.1873115728132788
  0.1250000000150422  0.6029294759008650  0.1873115728132788
  0.2916666666817065  0.6029294759008650  0.1873115728132788
  0.4583333333483779  0.6029294759008650  0.1873115728132788
  0.6250000000150422  0.6029294759008650  0.1873115728132788
  0.7916666666817065  0.6029294759008650  0.1873115728132788
  0.9583333333483779  0.6029294759008650  0.1873115728132788
  0.1250000000150422  0.7695961425675364  0.1873115728132788
  0.2916666666817065  0.7695961425675364  0.1873115728132788
  0.4583333333483779  0.7695961425675364  0.1873115728132788
  0.6250000000150422  0.7695961425675364  0.1873115728132788
  0.7916666666817065  0.7695961425675364  0.1873115728132788
  0.9583333333483779  0.7695961425675364  0.1873115728132788
  0.1250000000150422  0.9362628092342007  0.1873115728132788
  0.2916666666817065  0.9362628092342007  0.1873115728132788
  0.4583333333483779  0.9362628092342007  0.1873115728132788
  0.6250000000150422  0.9362628092342007  0.1873115728132788
  0.7916666666817065  0.9362628092342007  0.1873115728132788
  0.9583333333483779  0.9362628092342007  0.1873115728132788
  0.1250000000150422  0.1029294759008650  0.6873115728132788
  0.2916666666817065  0.1029294759008650  0.6873115728132788
  0.4583333333483779  0.1029294759008650  0.6873115728132788
  0.6250000000150422  0.1029294759008650  0.6873115728132788
  0.7916666666817065  0.1029294759008650  0.6873115728132788
  0.9583333333483779  0.1029294759008650  0.6873115728132788
  0.1250000000150422  0.2695961425675364  0.6873115728132788
  0.2916666666817065  0.2695961425675364  0.6873115728132788
  0.4583333333483779  0.2695961425675364  0.6873115728132788
  0.6250000000150422  0.2695961425675364  0.6873115728132788
  0.7916666666817065  0.2695961425675364  0.6873115728132788
  0.9583333333483779  0.2695961425675364  0.6873115728132788
  0.1250000000150422  0.4362628092342007  0.6873115728132788
  0.2916666666817065  0.4362628092342007  0.6873115728132788
  0.4583333333483779  0.4362628092342007  0.6873115728132788
  0.6250000000150422  0.4362628092342007  0.6873115728132788
  0.7916666666817065  0.4362628092342007  0.6873115728132788
  0.9583333333483779  0.4362628092342007  0.6873115728132788
  0.1250000000150422  0.6029294759008650  0.6873115728132788
  0.2916666666817065  0.6029294759008650  0.6873115728132788
  0.4583333333483779  0.6029294759008650  0.6873115728132788
  0.6250000000150422  0.6029294759008650  0.6873115728132788
  0.7916666666817065  0.6029294759008650  0.6873115728132788
  0.9583333333483779  0.6029294759008650  0.6873115728132788
  0.1250000000150422  0.7695961425675364  0.6873115728132788
  0.2916666666817065  0.7695961425675364  0.6873115728132788
  0.4583333333483779  0.7695961425675364  0.6873115728132788
  0.6250000000150422  0.7695961425675364  0.6873115728132788
  0.7916666666817065  0.7695961425675364  0.6873115728132788
  0.9583333333483779  0.7695961425675364  0.6873115728132788
  0.1250000000150422  0.9362628092342007  0.6873115728132788
  0.2916666666817065  0.9362628092342007  0.6873115728132788
  0.4583333333483779  0.9362628092342007  0.6873115728132788
  0.6250000000150422  0.9362628092342007  0.6873115728132788
  0.7916666666817065  0.9362628092342007  0.6873115728132788
  0.9583333333483779  0.9362628092342007  0.6873115728132788
  0.0416666666860053  0.0637371858022888  0.3126884271956953
  0.2083333333526696  0.0637371858022888  0.3126884271956953
  0.3750000000193410  0.0637371858022888  0.3126884271956953
  0.5416666666860053  0.0637371858022888  0.3126884271956953
  0.7083333333526696  0.0637371858022888  0.3126884271956953
  0.8750000000193410  0.0637371858022888  0.3126884271956953
  0.0416666666860053  0.2304038524689531  0.3126884271956953
  0.2083333333526696  0.2304038524689531  0.3126884271956953
  0.3750000000193410  0.2304038524689531  0.3126884271956953
  0.5416666666860053  0.2304038524689531  0.3126884271956953
  0.7083333333526696  0.2304038524689531  0.3126884271956953
  0.8750000000193410  0.2304038524689531  0.3126884271956953
  0.0416666666860053  0.3970705191356174  0.3126884271956953
  0.2083333333526696  0.3970705191356174  0.3126884271956953
  0.3750000000193410  0.3970705191356174  0.3126884271956953
  0.5416666666860053  0.3970705191356174  0.3126884271956953
  0.7083333333526696  0.3970705191356174  0.3126884271956953
  0.8750000000193410  0.3970705191356174  0.3126884271956953
  0.0416666666860053  0.5637371858022888  0.3126884271956953
  0.2083333333526696  0.5637371858022888  0.3126884271956953
  0.3750000000193410  0.5637371858022888  0.3126884271956953
  0.5416666666860053  0.5637371858022888  0.3126884271956953
  0.7083333333526696  0.5637371858022888  0.3126884271956953
  0.8750000000193410  0.5637371858022888  0.3126884271956953
  0.0416666666860053  0.7304038524689531  0.3126884271956953
  0.2083333333526696  0.7304038524689531  0.3126884271956953
  0.3750000000193410  0.7304038524689531  0.3126884271956953
  0.5416666666860053  0.7304038524689531  0.3126884271956953
  0.7083333333526696  0.7304038524689531  0.3126884271956953
  0.8750000000193410  0.7304038524689531  0.3126884271956953
  0.0416666666860053  0.8970705191356174  0.3126884271956953
  0.2083333333526696  0.8970705191356174  0.3126884271956953
  0.3750000000193410  0.8970705191356174  0.3126884271956953
  0.5416666666860053  0.8970705191356174  0.3126884271956953
  0.7083333333526696  0.8970705191356174  0.3126884271956953
  0.8750000000193410  0.8970705191356174  0.3126884271956953
  0.0416666666860053  0.0637371858022888  0.8126884271956953
  0.2083333333526696  0.0637371858022888  0.8126884271956953
  0.3750000000193410  0.0637371858022888  0.8126884271956953
  0.5416666666860053  0.0637371858022888  0.8126884271956953
  0.7083333333526696  0.0637371858022888  0.8126884271956953
  0.8750000000193410  0.0637371858022888  0.8126884271956953
  0.0416666666860053  0.2304038524689531  0.8126884271956953
  0.2083333333526696  0.2304038524689531  0.8126884271956953
  0.3750000000193410  0.2304038524689531  0.8126884271956953
  0.5416666666860053  0.2304038524689531  0.8126884271956953
  0.7083333333526696  0.2304038524689531  0.8126884271956953
  0.8750000000193410  0.2304038524689531  0.8126884271956953
  0.0416666666860053  0.3970705191356174  0.8126884271956953
  0.2083333333526696  0.3970705191356174  0.8126884271956953
  0.3750000000193410  0.3970705191356174  0.8126884271956953
  0.5416666666860053  0.3970705191356174  0.8126884271956953
  0.7083333333526696  0.3970705191356174  0.8126884271956953
  0.8750000000193410  0.3970705191356174  0.8126884271956953
  0.0416666666860053  0.5637371858022888  0.8126884271956953
  0.2083333333526696  0.5637371858022888  0.8126884271956953
  0.3750000000193410  0.5637371858022888  0.8126884271956953
  0.5416666666860053  0.5637371858022888  0.8126884271956953
  0.7083333333526696  0.5637371858022888  0.8126884271956953
  0.8750000000193410  0.5637371858022888  0.8126884271956953
  0.0416666666860053  0.7304038524689531  0.8126884271956953
  0.2083333333526696  0.7304038524689531  0.8126884271956953
  0.3750000000193410  0.7304038524689531  0.8126884271956953
  0.5416666666860053  0.7304038524689531  0.8126884271956953
  0.7083333333526696  0.7304038524689531  0.8126884271956953
  0.8750000000193410  0.7304038524689531  0.8126884271956953
  0.0416666666860053  0.8970705191356174  0.8126884271956953
  0.2083333333526696  0.8970705191356174  0.8126884271956953
  0.3750000000193410  0.8970705191356174  0.8126884271956953
  0.5416666666860053  0.8970705191356174  0.8126884271956953
  0.7083333333526696  0.8970705191356174  0.8126884271956953
  0.8750000000193410  0.8970705191356174  0.8126884271956953
  0.0413883119854219  0.0837502429999617  0.4261386687993181
  0.2083333333526696  0.0840285977005522  0.4261386687993181
  0.3750000000193410  0.0840285977005522  0.4261386687993181
  0.5416666666860053  0.0840285977005522  0.4261386687993181
  0.7083333333526696  0.0840285977005522  0.4261386687993181
  0.8750000000193410  0.0840285977005522  0.4261386687993181
  0.0416666666860053  0.2506952643672165  0.4261386687993181
  0.2083333333526696  0.2506952643672165  0.4261386687993181
  0.3750000000193410  0.2506952643672165  0.4261386687993181
  0.5416666666860053  0.2506952643672165  0.4261386687993181
  0.7083333333526696  0.2506952643672165  0.4261386687993181
  0.8750000000193410  0.2506952643672165  0.4261386687993181
  0.0416666666860053  0.4173619310338879  0.4261386687993181
  0.2083333333526696  0.4173619310338879  0.4261386687993181
  0.3750000000193410  0.4173619310338879  0.4261386687993181
  0.5416666666860053  0.4173619310338879  0.4261386687993181
  0.7083333333526696  0.4173619310338879  0.4261386687993181
  0.8750000000193410  0.4173619310338879  0.4261386687993181
  0.0416666666860053  0.5840285977005522  0.4261386687993181
  0.2083333333526696  0.5840285977005522  0.4261386687993181
  0.3750000000193410  0.5840285977005522  0.4261386687993181
  0.5416666666860053  0.5840285977005522  0.4261386687993181
  0.7083333333526696  0.5840285977005522  0.4261386687993181
  0.8750000000193410  0.5840285977005522  0.4261386687993181
  0.0416666666860053  0.7506952643672165  0.4261386687993181
  0.2083333333526696  0.7506952643672165  0.4261386687993181
  0.3750000000193410  0.7506952643672165  0.4261386687993181
  0.5416666666860053  0.7506952643672165  0.4261386687993181
  0.7083333333526696  0.7506952643672165  0.4261386687993181
  0.8750000000193410  0.7506952643672165  0.4261386687993181
  0.0416666666860053  0.9173619310338879  0.4261386687993181
  0.2083333333526696  0.9173619310338879  0.4261386687993181
  0.3750000000193410  0.9173619310338879  0.4261386687993181
  0.5416666666860053  0.9173619310338879  0.4261386687993181
  0.7083333333526696  0.9173619310338879  0.4261386687993181
  0.8750000000193410  0.9173619310338879  0.4261386687993181
  0.0416666666860053  0.0840285977005522  0.9261386687993181
  0.2083333333526696  0.0840285977005522  0.9261386687993181
  0.3750000000193410  0.0840285977005522  0.9261386687993181
  0.5416666666860053  0.0840285977005522  0.9261386687993181
  0.7083333333526696  0.0840285977005522  0.9261386687993181
  0.8750000000193410  0.0840285977005522  0.9261386687993181
  0.0416666666860053  0.2506952643672165  0.9261386687993181
  0.2083333333526696  0.2506952643672165  0.9261386687993181
  0.3750000000193410  0.2506952643672165  0.9261386687993181
  0.5416666666860053  0.2506952643672165  0.9261386687993181
  0.7083333333526696  0.2506952643672165  0.9261386687993181
  0.8750000000193410  0.2506952643672165  0.9261386687993181
  0.0416666666860053  0.4173619310338879  0.9261386687993181
  0.2083333333526696  0.4173619310338879  0.9261386687993181
  0.3750000000193410  0.4173619310338879  0.9261386687993181
  0.5416666666860053  0.4173619310338879  0.9261386687993181
  0.7083333333526696  0.4173619310338879  0.9261386687993181
  0.8750000000193410  0.4173619310338879  0.9261386687993181
  0.0416666666860053  0.5840285977005522  0.9261386687993181
  0.2083333333526696  0.5840285977005522  0.9261386687993181
  0.3750000000193410  0.5840285977005522  0.9261386687993181
  0.5416666666860053  0.5840285977005522  0.9261386687993181
  0.7083333333526696  0.5840285977005522  0.9261386687993181
  0.8750000000193410  0.5840285977005522  0.9261386687993181
  0.0416666666860053  0.7506952643672165  0.9261386687993181
  0.2083333333526696  0.7506952643672165  0.9261386687993181
  0.3750000000193410  0.7506952643672165  0.9261386687993181
  0.5416666666860053  0.7506952643672165  0.9261386687993181
  0.7083333333526696  0.7506952643672165  0.9261386687993181
  0.8750000000193410  0.7506952643672165  0.9261386687993181
  0.0416666666860053  0.9173619310338879  0.9261386687993181
  0.2083333333526696  0.9173619310338879  0.9261386687993181
  0.3750000000193410  0.9173619310338879  0.9261386687993181
  0.5416666666860053  0.9173619310338879  0.9261386687993181
  0.7083333333526696  0.9173619310338879  0.9261386687993181
  0.8750000000193410  0.9173619310338879  0.9261386687993181
  0.1250000000150422  0.0826380640026017  0.0738613162664947
  0.2916666666817065  0.0826380640026017  0.0738613162664947
  0.4583333333483779  0.0826380640026017  0.0738613162664947
  0.6250000000150422  0.0826380640026017  0.0738613162664947
  0.7916666666817065  0.0826380640026017  0.0738613162664947
  0.9583333333483779  0.0826380640026017  0.0738613162664947
  0.1250000000150422  0.2493047306692660  0.0738613162664947
  0.2916666666817065  0.2493047306692660  0.0738613162664947
  0.4583333333483779  0.2493047306692660  0.0738613162664947
  0.6250000000150422  0.2493047306692660  0.0738613162664947
  0.7916666666817065  0.2493047306692660  0.0738613162664947
  0.9583333333483779  0.2493047306692660  0.0738613162664947
  0.1250000000150422  0.4159713973359374  0.0738613162664947
  0.2916666666817065  0.4159713973359374  0.0738613162664947
  0.4583333333483779  0.4159713973359374  0.0738613162664947
  0.6250000000150422  0.4159713973359374  0.0738613162664947
  0.7916666666817065  0.4159713973359374  0.0738613162664947
  0.9583333333483779  0.4159713973359374  0.0738613162664947
  0.1250000000150422  0.5826380640026017  0.0738613162664947
  0.2916666666817065  0.5826380640026017  0.0738613162664947
  0.4583333333483779  0.5826380640026017  0.0738613162664947
  0.6250000000150422  0.5826380640026017  0.0738613162664947
  0.7916666666817065  0.5826380640026017  0.0738613162664947
  0.9583333333483779  0.5826380640026017  0.0738613162664947
  0.1250000000150422  0.7493047306692660  0.0738613162664947
  0.2916666666817065  0.7493047306692660  0.0738613162664947
  0.4583333333483779  0.7493047306692660  0.0738613162664947
  0.6250000000150422  0.7493047306692660  0.0738613162664947
  0.7916666666817065  0.7493047306692660  0.0738613162664947
  0.9583333333483779  0.7493047306692660  0.0738613162664947
  0.1250000000150422  0.9159713973359374  0.0738613162664947
  0.2916666666817065  0.9159713973359374  0.0738613162664947
  0.4583333333483779  0.9159713973359374  0.0738613162664947
  0.6250000000150422  0.9159713973359374  0.0738613162664947
  0.7916666666817065  0.9159713973359374  0.0738613162664947
  0.9583333333483779  0.9159713973359374  0.0738613162664947
  0.1250000000150422  0.0826380640026017  0.5738613162664947
  0.2916666666817065  0.0826380640026017  0.5738613162664947
  0.4583333333483779  0.0826380640026017  0.5738613162664947
  0.6250000000150422  0.0826380640026017  0.5738613162664947
  0.7916666666817065  0.0826380640026017  0.5738613162664947
  0.9583333333483779  0.0826380640026017  0.5738613162664947
  0.1250000000150422  0.2493047306692660  0.5738613162664947
  0.2916666666817065  0.2493047306692660  0.5738613162664947
  0.4583333333483779  0.2493047306692660  0.5738613162664947
  0.6250000000150422  0.2493047306692660  0.5738613162664947
  0.7916666666817065  0.2493047306692660  0.5738613162664947
  0.9583333333483779  0.2493047306692660  0.5738613162664947
  0.1250000000150422  0.4159713973359374  0.5738613162664947
  0.2916666666817065  0.4159713973359374  0.5738613162664947
  0.4583333333483779  0.4159713973359374  0.5738613162664947
  0.6250000000150422  0.4159713973359374  0.5738613162664947
  0.7916666666817065  0.4159713973359374  0.5738613162664947
  0.9583333333483779  0.4159713973359374  0.5738613162664947
  0.1250000000150422  0.5826380640026017  0.5738613162664947
  0.2916666666817065  0.5826380640026017  0.5738613162664947
  0.4583333333483779  0.5826380640026017  0.5738613162664947
  0.6250000000150422  0.5826380640026017  0.5738613162664947
  0.7916666666817065  0.5826380640026017  0.5738613162664947
  0.9583333333483779  0.5826380640026017  0.5738613162664947
  0.1250000000150422  0.7493047306692660  0.5738613162664947
  0.2916666666817065  0.7493047306692660  0.5738613162664947
  0.4583333333483779  0.7493047306692660  0.5738613162664947
  0.6250000000150422  0.7493047306692660  0.5738613162664947
  0.7916666666817065  0.7493047306692660  0.5738613162664947
  0.9583333333483779  0.7493047306692660  0.5738613162664947
  0.1250000000150422  0.9159713973359374  0.5738613162664947
  0.2916666666817065  0.9159713973359374  0.5738613162664947
  0.4583333333483779  0.9159713973359374  0.5738613162664947
  0.6250000000150422  0.9159713973359374  0.5738613162664947
  0.7916666666817065  0.9159713973359374  0.5738613162664947
  0.9583333333483779  0.9159713973359374  0.5738613162664947
  0.1250000000150422  0.0006952677830654  0.3238613311917078
  0.2916666666817065  0.0006952677830654  0.3238613311917078
  0.4583333333483779  0.0006952677830654  0.3238613311917078
  0.6250000000150422  0.0006952677830654  0.3238613311917078
  0.7916666666817065  0.0006952677830654  0.3238613311917078
  0.9583333333483779  0.0006952677830654  0.3238613311917078
  0.1250000000150422  0.1673619344497368  0.3238613311917078
  0.2916666666817065  0.1673619344497368  0.3238613311917078
  0.4583333333483779  0.1673619344497368  0.3238613311917078
  0.6250000000150422  0.1673619344497368  0.3238613311917078
  0.7916666666817065  0.1673619344497368  0.3238613311917078
  0.9583333333483779  0.1673619344497368  0.3238613311917078
  0.1250000000150422  0.3340286011164011  0.3238613311917078
  0.2916666666817065  0.3340286011164011  0.3238613311917078
  0.4583333333483779  0.3340286011164011  0.3238613311917078
  0.6250000000150422  0.3340286011164011  0.3238613311917078
  0.7916666666817065  0.3340286011164011  0.3238613311917078
  0.9583333333483779  0.3340286011164011  0.3238613311917078
  0.1250000000150422  0.5006952677830654  0.3238613311917078
  0.2916666666817065  0.5006952677830654  0.3238613311917078
  0.4583333333483779  0.5006952677830654  0.3238613311917078
  0.6250000000150422  0.5006952677830654  0.3238613311917078
  0.7916666666817065  0.5006952677830654  0.3238613311917078
  0.9583333333483779  0.5006952677830654  0.3238613311917078
  0.1250000000150422  0.6673619344497368  0.3238613311917078
  0.2916666666817065  0.6673619344497368  0.3238613311917078
  0.4583333333483779  0.6673619344497368  0.3238613311917078
  0.6250000000150422  0.6673619344497368  0.3238613311917078
  0.7916666666817065  0.6673619344497368  0.3238613311917078
  0.9583333333483779  0.6673619344497368  0.3238613311917078
  0.1250000000150422  0.8340286011164011  0.3238613311917078
  0.2916666666817065  0.8340286011164011  0.3238613311917078
  0.4583333333483779  0.8340286011164011  0.3238613311917078
  0.6250000000150422  0.8340286011164011  0.3238613311917078
  0.7916666666817065  0.8340286011164011  0.3238613311917078
  0.9583333333483779  0.8340286011164011  0.3238613311917078
  0.1250000000150422  0.0006952677830654  0.8238613311917078
  0.2916666666817065  0.0006952677830654  0.8238613311917078
  0.4583333333483779  0.0006952677830654  0.8238613311917078
  0.6250000000150422  0.0006952677830654  0.8238613311917078
  0.7916666666817065  0.0006952677830654  0.8238613311917078
  0.9583333333483779  0.0006952677830654  0.8238613311917078
  0.1250000000150422  0.1673619344497368  0.8238613311917078
  0.2916666666817065  0.1673619344497368  0.8238613311917078
  0.4583333333483779  0.1673619344497368  0.8238613311917078
  0.6250000000150422  0.1673619344497368  0.8238613311917078
  0.7916666666817065  0.1673619344497368  0.8238613311917078
  0.9583333333483779  0.1673619344497368  0.8238613311917078
  0.1250000000150422  0.3340286011164011  0.8238613311917078
  0.2916666666817065  0.3340286011164011  0.8238613311917078
  0.4583333333483779  0.3340286011164011  0.8238613311917078
  0.6250000000150422  0.3340286011164011  0.8238613311917078
  0.7916666666817065  0.3340286011164011  0.8238613311917078
  0.9583333333483779  0.3340286011164011  0.8238613311917078