
     Program PWSCF v.7.2 starts on  3Jul2025 at 11:22:26 

     This program is part of the open-source Quantum ESPRESSO suite
     for quantum simulation of materials; please cite
         "P. Giannozzi et al., J. Phys.:Condens. Matter 21 395502 (2009);
         "P. Giannozzi et al., J. Phys.:Condens. Matter 29 465901 (2017);
         "P. Giannozzi et al., J. Chem. Phys. 152 154105 (2020);
          URL http://www.quantum-espresso.org", 
     in publications or presentations arising from this work. More details at
     http://www.quantum-espresso.org/quote

     Parallel version (MPI & OpenMP), running on    6144 processor cores
     Number of MPI processes:              1536
     Threads/MPI process:                     4

     MPI processes distributed on    24 nodes
     479190 MiB available memory on the printing compute node when the environment starts

     Reading input from espresso.pwi
Warning: card &IONS ignored
Warning: card / ignored
Warning: card &CELL ignored
Warning: card / ignored

     Current dimensions of program PWSCF are:
     Max number of different atomic species (ntypx) = 10
     Max number of k-points (npk) =  40000
     Max angular momentum in pseudopotentials (lmaxx) =  4

     Atomic positions and unit cell read from directory:
     ./CNT_PBE.save/
     Atomic positions from file used, from input discarded


     K-points division:     npool     =       4
     R & G space division:  proc/nbgrp/npool/nimage =     384
     Subspace diagonalization in iterative solution of the eigenvalue problem:
     one sub-group per band group will be used
     custom distributed-memory algorithm (size of sub-group:  8*  8 procs)


     Parallelization info
     --------------------
     sticks:   dense  smooth     PW     G-vecs:    dense   smooth      PW
     Min         114     114     29                28776    28776    3693
     Max         115     115     30                28795    28795    3705
     Sum       43977   43977  11205             11053081 11053081 1420575

     Using Slab Decomposition



     bravais-lattice index     =            0
     lattice parameter (alat)  =      61.1748  a.u.
     unit-cell volume          =  176044.1909 (a.u.)^3
     number of atoms/cell      =          365
     number of atomic types    =            2
     number of electrons       =      1462.00
     number of Kohn-Sham states=          800
     kinetic-energy cutoff     =      60.0000  Ry
     charge density cutoff     =     240.0000  Ry
     Exchange-correlation= PBE
                           (   1   4   3   4   0   0   0)

     celldm(1)=  61.174780  celldm(2)=   0.000000  celldm(3)=   0.000000
     celldm(4)=   0.000000  celldm(5)=   0.000000  celldm(6)=   0.000000

     crystal axes: (cart. coord. in units of alat)
               a(1) = (   1.000000   0.000000   0.000000 )  
               a(2) = (   0.000000   0.615409   0.000000 )  
               a(3) = (   0.000000   0.000000   1.249513 )  

     reciprocal axes: (cart. coord. in units 2 pi/alat)
               b(1) = (  1.000000  0.000000  0.000000 )  
               b(2) = (  0.000000  1.624937  0.000000 )  
               b(3) = (  0.000000  0.000000  0.800312 )  


     PseudoPot. # 1 for C  read from file:
     ./C_ONCV_PBE-1.2.upf
     MD5 check sum: 1a5f83a7b1f58d24996abe00ed223ac6
     Pseudo is Norm-conserving, Zval =  4.0
     Generated using ONCVPSP code by D. R. Hamann
     Using radial grid of  602 points,  4 beta functions with: 
                l(1) =   0
                l(2) =   0
                l(3) =   1
                l(4) =   1

     PseudoPot. # 2 for Se read from file:
     ./Se_ONCV_PBE-1.2.upf
     MD5 check sum: e78e48a4f5d8ce1f8dc76ec1271f249c
     Pseudo is Norm-conserving, Zval =  6.0
     Generated using ONCVPSP code by D. R. Hamann
     Using radial grid of  602 points,  6 beta functions with: 
                l(1) =   0
                l(2) =   0
                l(3) =   1
                l(4) =   1
                l(5) =   2
                l(6) =   2

     atomic species   valence    mass     pseudopotential
        C              4.00    12.01100     C ( 1.00)
        Se             6.00    78.96000     Se( 1.00)

     No symmetry found


                                    s                        frac. trans.

      isym =  1     identity                                     

 cryst.   s( 1) = (     1          0          0      )
                  (     0          1          0      )
                  (     0          0          1      )

 cart.    s( 1) = (  1.0000000  0.0000000  0.0000000 )
                  (  0.0000000  1.0000000  0.0000000 )
                  (  0.0000000  0.0000000  1.0000000 )


   Cartesian axes

     site n.     atom                  positions (alat units)
         1           C   tau(   1) = (   0.3709523   0.3312801   0.0030741  )
         2           C   tau(   2) = (   0.3687838   0.3346697   0.0785826  )
         3           C   tau(   3) = (   0.3380579   0.3661670   0.0763370  )
         4           C   tau(   4) = (   0.3204920   0.3762715   0.0374121  )
         5           C   tau(   5) = (   0.2778096   0.3869622   0.0351483  )
         6           C   tau(   6) = (   0.3664899   0.3379787   0.1540878  )
         7           C   tau(   7) = (   0.3346992   0.3684085   0.1518475  )
         8           C   tau(   8) = (   0.3167985   0.3778983   0.1129272  )
         9           C   tau(   9) = (   0.2737695   0.3871058   0.1106582  )
        10           C   tau(  10) = (   0.2535530   0.3857814   0.0717338  )
        11           C   tau(  11) = (   0.2121011   0.3710300   0.0694718  )
        12           C   tau(  12) = (   0.1955883   0.3592947   0.0305405  )
        13           C   tau(  13) = (   0.1680310   0.3249898   0.0282736  )
        14           C   tau(  14) = (   0.3640472   0.3411963   0.2295953  )
        15           C   tau(  15) = (   0.3312466   0.3705345   0.2273627  )
        16           C   tau(  16) = (   0.3130406   0.3793996   0.1884370  )
        17           C   tau(  17) = (   0.2697274   0.3871232   0.1861688  )
        18           C   tau(  18) = (   0.2495713   0.3850977   0.1472441  )
        19           C   tau(  19) = (   0.2086532   0.3689157   0.1449866  )
        20           C   tau(  20) = (   0.1925566   0.3566176   0.1060578  )
        21           C   tau(  21) = (   0.1662006   0.3213827   0.1037852  )
        22           C   tau(  22) = (   0.1589421   0.3024718   0.0648562  )
        23           C   tau(  23) = (   0.1549811   0.2586509   0.0625801  )
        24           C   tau(  24) = (   0.1587343   0.2387390   0.0236517  )
        25           C   tau(  25) = (   0.1783597   0.1993578   0.0213869  )
        26           C   tau(  26) = (   0.3614855   0.3443298   0.3050816  )
        27           C   tau(  27) = (   0.3277368   0.3725418   0.3028697  )
        28           C   tau(  28) = (   0.3092366   0.3807946   0.2639507  )
        29           C   tau(  29) = (   0.2656727   0.3870259   0.2616855  )
        30           C   tau(  30) = (   0.2456072   0.3842948   0.2227632  )
        31           C   tau(  31) = (   0.2052705   0.3666951   0.2205048  )
        32           C   tau(  32) = (   0.1896147   0.3538404   0.1815739  )
        33           C   tau(  33) = (   0.1644937   0.3177161   0.1792959  )
        34           C   tau(  34) = (   0.1578951   0.2985636   0.1403675  )
        35           C   tau(  35) = (   0.1554447   0.2546298   0.1380979  )
        36           C   tau(  36) = (   0.1598819   0.2348644   0.0991626  )
        37           C   tau(  37) = (   0.1808465   0.1961829   0.0968909  )
        38           C   tau(  38) = (   0.1949995   0.1816799   0.0579669  )
        39           C   tau(  39) = (   0.2331472   0.1597544   0.0556858  )
        40           C   tau(  40) = (   0.2528140   0.1548387   0.0167669  )
        41           C   tau(  41) = (   0.2967934   0.1562052   0.0145111  )
        42           C   tau(  42) = (   0.3710249   0.3311000   0.4194176  )
        43           C   tau(  43) = (   0.3589598   0.3474448   0.3805698  )
        44           C   tau(  44) = (   0.3242051   0.3744837   0.3783789  )
        45           C   tau(  45) = (   0.3054140   0.3820649   0.3395017  )
        46           C   tau(  46) = (   0.2616294   0.3867633   0.3372291  )
        47           C   tau(  47) = (   0.2416732   0.3833401   0.2982901  )
        48           C   tau(  48) = (   0.2019756   0.3643621   0.2960218  )
        49           C   tau(  49) = (   0.1867734   0.3509701   0.2570879  )
        50           C   tau(  50) = (   0.1629269   0.3139888   0.2548072  )
        51           C   tau(  51) = (   0.1569963   0.2946179   0.2158813  )
        52           C   tau(  52) = (   0.1560686   0.2506251   0.2136186  )
        53           C   tau(  53) = (   0.1611641   0.2310257   0.1746784  )
        54           C   tau(  54) = (   0.1834446   0.1930857   0.1723985  )
        55           C   tau(  55) = (   0.1980880   0.1790866   0.1334733  )
        56           C   tau(  56) = (   0.2369689   0.1584915   0.1311925  )
        57           C   tau(  57) = (   0.2567941   0.1542643   0.0922683  )
        58           C   tau(  58) = (   0.3006969   0.1571519   0.0900089  )
        59           C   tau(  59) = (   0.3197968   0.1639515   0.0510935  )
        60           C   tau(  60) = (   0.3556595   0.1894469   0.0488227  )
        61           C   tau(  61) = (   0.3683577   0.2052506   0.0099085  )
        62           C   tau(  62) = (   0.3855299   0.2457633   0.0076621  )
        63           C   tau(  63) = (   0.3695775   0.3347835   0.4948241  )
        64           C   tau(  64) = (   0.3565926   0.3505008   0.4562106  )
        65           C   tau(  65) = (   0.3205960   0.3760650   0.4539649  )
        66           C   tau(  66) = (   0.3015478   0.3830313   0.4150669  )
        67           C   tau(  67) = (   0.2576534   0.3862147   0.4127773  )
        68           C   tau(  68) = (   0.2377999   0.3822065   0.3738140  )
        69           C   tau(  69) = (   0.1987538   0.3619077   0.3715348  )
        70           C   tau(  70) = (   0.1840217   0.3480147   0.3326059  )
        71           C   tau(  71) = (   0.1614731   0.3102179   0.3303229  )
        72           C   tau(  72) = (   0.1562354   0.2906479   0.2913924  )
        73           C   tau(  73) = (   0.1568451   0.2466533   0.2891337  )
        74           C   tau(  74) = (   0.1626076   0.2272383   0.2502013  )
        75           C   tau(  75) = (   0.1861778   0.1900803   0.2479197  )
        76           C   tau(  76) = (   0.2012756   0.1765946   0.2089818  )
        77           C   tau(  77) = (   0.2408300   0.1573415   0.2067032  )
        78           C   tau(  78) = (   0.2607845   0.1538025   0.1677727  )
        79           C   tau(  79) = (   0.3045625   0.1581992   0.1655049  )
        80           C   tau(  80) = (   0.3234209   0.1656671   0.1265958  )
        81           C   tau(  81) = (   0.3583837   0.1923821   0.1243248  )
        82           C   tau(  82) = (   0.3705308   0.2086253   0.0854113  )
        83           C   tau(  83) = (   0.3862994   0.2497014   0.0831687  )
        84           C   tau(  84) = (   0.3881347   0.2698946   0.0442520  )
        85           C   tau(  85) = (   0.3799902   0.3131365   0.0419906  )
        86           C   tau(  86) = (   0.3676804   0.3381789   0.5705842  )
        87           C   tau(  87) = (   0.3536654   0.3527116   0.5318454  )
        88           C   tau(  88) = (   0.3167744   0.3766927   0.5295029  )
        89           C   tau(  89) = (   0.2975937   0.3834696   0.4905465  )
        90           C   tau(  90) = (   0.2536352   0.3854632   0.4882733  )
        91           C   tau(  91) = (   0.2339327   0.3809166   0.4493395  )
        92           C   tau(  92) = (   0.1955391   0.3593504   0.4470495  )
        93           C   tau(  93) = (   0.1813486   0.3449405   0.4081102  )
        94           C   tau(  94) = (   0.1601364   0.3063949   0.4058289  )
        95           C   tau(  95) = (   0.1555924   0.2866572   0.3668980  )
        96           C   tau(  96) = (   0.1577446   0.2427045   0.3646445  )
        97           C   tau(  97) = (   0.1641960   0.2235026   0.3257185  )
        98           C   tau(  98) = (   0.1890317   0.1871819   0.3234408  )
        99           C   tau(  99) = (   0.2045704   0.1742062   0.2844940  )
       100           C   tau( 100) = (   0.2447503   0.1562908   0.2822207  )
       101           C   tau( 101) = (   0.2647999   0.1534444   0.2432888  )
       102           C   tau( 102) = (   0.3084012   0.1593410   0.2410111  )
       103           C   tau( 103) = (   0.3269777   0.1674856   0.2020926  )
       104           C   tau( 104) = (   0.3609868   0.1953947   0.1998208  )
       105           C   tau( 105) = (   0.3725789   0.2120552   0.1609120  )
       106           C   tau( 106) = (   0.3869131   0.2536574   0.1586667  )
       107           C   tau( 107) = (   0.3880632   0.2739082   0.1197612  )
       108           C   tau( 108) = (   0.3784399   0.3168469   0.1175001  )
       109           C   tau( 109) = (   0.3641102   0.3396797   0.6463761  )
       110           C   tau( 110) = (   0.3505424   0.3546121   0.6068489  )
       111           C   tau( 111) = (   0.3130169   0.3777970   0.6047942  )
       112           C   tau( 112) = (   0.2936268   0.3838483   0.5660089  )
       113           C   tau( 113) = (   0.2495394   0.3847236   0.5637565  )
       114           C   tau( 114) = (   0.2300452   0.3794501   0.5248340  )
       115           C   tau( 115) = (   0.1924180   0.3566688   0.5225489  )
       116           C   tau( 116) = (   0.1787184   0.3417985   0.4836007  )
       117           C   tau( 117) = (   0.1588549   0.3025268   0.4813381  )
       118           C   tau( 118) = (   0.1550429   0.2826438   0.4424111  )
       119           C   tau( 119) = (   0.1587284   0.2387913   0.4401581  )
       120           C   tau( 120) = (   0.1658825   0.2198268   0.4012262  )
       121           C   tau( 121) = (   0.1919506   0.1843861   0.3989528  )
       122           C   tau( 122) = (   0.2079366   0.1719389   0.3600247  )
       123           C   tau( 123) = (   0.2487152   0.1553876   0.3577707  )
       124           C   tau( 124) = (   0.2688483   0.1532264   0.3188155  )
       125           C   tau( 125) = (   0.3122050   0.1606088   0.3165237  )
       126           C   tau( 126) = (   0.3304884   0.1693755   0.2775954  )
       127           C   tau( 127) = (   0.3635040   0.1984675   0.2753161  )
       128           C   tau( 128) = (   0.3744914   0.2155393   0.2364158  )
       129           C   tau( 129) = (   0.3873620   0.2576189   0.2341583  )
       130           C   tau( 130) = (   0.3878137   0.2779071   0.1952570  )
       131           C   tau( 131) = (   0.3767191   0.3204831   0.1930039  )
       132           C   tau( 132) = (   0.3616224   0.3440491   0.7217921  )
       133           C   tau( 133) = (   0.3473768   0.3579251   0.6827897  )
       134           C   tau( 134) = (   0.3093359   0.3798904   0.6804155  )
       135           C   tau( 135) = (   0.2896857   0.3844478   0.6413850  )
       136           C   tau( 136) = (   0.2457731   0.3837342   0.6391959  )
       137           C   tau( 137) = (   0.2263069   0.3779188   0.6002790  )
       138           C   tau( 138) = (   0.1893863   0.3539034   0.5980407  )
       139           C   tau( 139) = (   0.1761819   0.3385868   0.5591286  )
       140           C   tau( 140) = (   0.1577066   0.2986223   0.5568778  )
       141           C   tau( 141) = (   0.1546066   0.2786111   0.5179271  )
       142           C   tau( 142) = (   0.1598005   0.2349295   0.5156686  )
       143           C   tau( 143) = (   0.1675938   0.2162080   0.4767437  )
       144           C   tau( 144) = (   0.1948766   0.1816670   0.4744815  )
       145           C   tau( 145) = (   0.2113601   0.1698162   0.4355604  )
       146           C   tau( 146) = (   0.2526878   0.1547225   0.4333260  )
       147           C   tau( 147) = (   0.2728946   0.1531830   0.3943555  )
       148           C   tau( 148) = (   0.3159845   0.1620429   0.3920603  )
       149           C   tau( 149) = (   0.3339484   0.1713965   0.3531324  )
       150           C   tau( 150) = (   0.3659194   0.2016338   0.3508282  )
       151           C   tau( 151) = (   0.3762759   0.2190878   0.3119043  )
       152           C   tau( 152) = (   0.3876456   0.2615809   0.3096156  )
       153           C   tau( 153) = (   0.3874167   0.2818783   0.2707332  )
       154           C   tau( 154) = (   0.3748650   0.3240601   0.2684966  )
       155           C   tau( 155) = (   0.3589999   0.3473889   0.7972796  )
       156           C   tau( 156) = (   0.3443491   0.3613108   0.7583436  )
       157           C   tau( 157) = (   0.3055401   0.3818776   0.7559684  )
       158           C   tau( 158) = (   0.2857734   0.3859230   0.7169382  )
       159           C   tau( 159) = (   0.2418260   0.3832106   0.7147191  )
       160           C   tau( 160) = (   0.2226930   0.3763700   0.6758348  )
       161           C   tau( 161) = (   0.1867349   0.3510360   0.6735837  )
       162           C   tau( 162) = (   0.1739596   0.3352407   0.6346464  )
       163           C   tau( 163) = (   0.1568413   0.2947125   0.6324037  )
       164           C   tau( 164) = (   0.1543154   0.2746173   0.5934652  )
       165           C   tau( 165) = (   0.1609887   0.2310745   0.5912129  )
       166           C   tau( 166) = (   0.1694244   0.2126576   0.5522795  )
       167           C   tau( 167) = (   0.1978546   0.1790798   0.5500282  )
       168           C   tau( 168) = (   0.2147450   0.1677973   0.5110822  )
       169           C   tau( 169) = (   0.2566033   0.1542822   0.5088441  )
       170           C   tau( 170) = (   0.2768952   0.1534409   0.4699489  )
       171           C   tau( 171) = (   0.3196538   0.1639554   0.4677000  )
       172           C   tau( 172) = (   0.3372983   0.1737472   0.4286692  )
       173           C   tau( 173) = (   0.3681712   0.2049921   0.4263069  )
       174           C   tau( 174) = (   0.3779818   0.2226977   0.3873809  )
       175           C   tau( 175) = (   0.3878319   0.2655942   0.3850281  )
       176           C   tau( 176) = (   0.3868701   0.2858519   0.3461862  )
       177           C   tau( 177) = (   0.3729121   0.3275841   0.3439874  )
       178           C   tau( 178) = (   0.3562667   0.3503911   0.8727542  )
       179           C   tau( 179) = (   0.3411770   0.3639118   0.8338214  )
       180           C   tau( 180) = (   0.3016313   0.3832073   0.8315077  )
       181           C   tau( 181) = (   0.2817009   0.3867171   0.7925710  )
       182           C   tau( 182) = (   0.2379312   0.3823086   0.7902994  )
       183           C   tau( 183) = (   0.2190984   0.3748039   0.7513394  )
       184           C   tau( 184) = (   0.1841151   0.3481177   0.7490965  )
       185           C   tau( 185) = (   0.1718991   0.3318883   0.7101832  )
       186           C   tau( 186) = (   0.1561526   0.2907877   0.7079428  )
       187           C   tau( 187) = (   0.1543108   0.2705877   0.6690165  )
       188           C   tau( 188) = (   0.1624399   0.2273564   0.6667497  )
       189           C   tau( 189) = (   0.1713928   0.2091871   0.6278047  )
       190           C   tau( 190) = (   0.2009674   0.1765667   0.6255597  )
       191           C   tau( 191) = (   0.2181382   0.1658699   0.5866417  )
       192           C   tau( 192) = (   0.2605291   0.1539191   0.5844172  )
       193           C   tau( 193) = (   0.2808335   0.1541281   0.5454904  )
       194           C   tau( 194) = (   0.3229651   0.1665305   0.5432770  )
       195           C   tau( 195) = (   0.3403410   0.1767393   0.5042304  )
       196           C   tau( 196) = (   0.3700631   0.2090820   0.5018686  )
       197           C   tau( 197) = (   0.3794878   0.2266060   0.4628694  )
       198           C   tau( 198) = (   0.3879570   0.2696861   0.4603893  )
       199           C   tau( 199) = (   0.3862303   0.2898830   0.4215225  )
       200           C   tau( 200) = (   0.3534835   0.3533112   0.9482429  )
       201           C   tau( 201) = (   0.3379071   0.3662858   0.9093337  )
       202           C   tau( 202) = (   0.2977095   0.3841857   0.9070544  )
       203           C   tau( 203) = (   0.2776492   0.3870453   0.8681149  )
       204           C   tau( 204) = (   0.2340680   0.3811288   0.8658347  )
       205           C   tau( 205) = (   0.2155021   0.3730293   0.8268873  )
       206           C   tau( 206) = (   0.1814984   0.3450908   0.8246321  )
       207           C   tau( 207) = (   0.1699309   0.3284403   0.7857080  )
       208           C   tau( 208) = (   0.1556064   0.2868441   0.7834623  )
       209           C   tau( 209) = (   0.1544449   0.2665986   0.7445322  )
       210           C   tau( 210) = (   0.1640552   0.2236552   0.7422646  )
       211           C   tau( 211) = (   0.1736461   0.2058186   0.7033429  )
       212           C   tau( 212) = (   0.2043438   0.1742798   0.7010978  )
       213           C   tau( 213) = (   0.2218587   0.1641672   0.6621459  )
       214           C   tau( 214) = (   0.2645627   0.1536295   0.6598694  )
       215           C   tau( 215) = (   0.2847394   0.1543682   0.6209424  )
       216           C   tau( 216) = (   0.3265615   0.1683340   0.6186753  )
       217           C   tau( 217) = (   0.3432572   0.1798577   0.5798680  )
       218           C   tau( 218) = (   0.3721476   0.2131899   0.5778238  )
       219           C   tau( 219) = (   0.3805853   0.2314900   0.5382857  )
       220           C   tau( 220) = (   0.3892760   0.2738807   0.5353925  )
       221           C   tau( 221) = (   0.3863111   0.2939262   0.4968058  )
       222           C   tau( 222) = (   0.3505911   0.3561030   1.0237490  )
       223           C   tau( 223) = (   0.3345642   0.3685240   0.9848314  )
       224           C   tau( 224) = (   0.2937724   0.3850000   0.9825700  )
       225           C   tau( 225) = (   0.2736207   0.3871864   0.9436399  )
       226           C   tau( 226) = (   0.2302504   0.3797667   0.9413617  )
       227           C   tau( 227) = (   0.2119762   0.3710378   0.9024354  )
       228           C   tau( 228) = (   0.1789698   0.3419488   0.9001694  )
       229           C   tau( 229) = (   0.1679992   0.3249206   0.8612242  )
       230           C   tau( 230) = (   0.1551140   0.2828510   0.8589700  )
       231           C   tau( 231) = (   0.1546801   0.2625897   0.8200477  )
       232           C   tau( 232) = (   0.1657781   0.2200087   0.8177772  )
       233           C   tau( 233) = (   0.1760173   0.2025243   0.7788508  )
       234           C   tau( 234) = (   0.2077882   0.1720861   0.7765921  )
       235           C   tau( 235) = (   0.2256400   0.1625687   0.7376543  )
       236           C   tau( 236) = (   0.2687178   0.1534416   0.7353614  )
       237           C   tau( 237) = (   0.2888770   0.1549479   0.6964307  )
       238           C   tau( 238) = (   0.3302435   0.1699488   0.6941547  )
       239           C   tau( 239) = (   0.3465286   0.1820938   0.6551765  )
       240           C   tau( 240) = (   0.3746047   0.2159710   0.6528374  )
       241           C   tau( 241) = (   0.3836242   0.2340017   0.6140817  )
       242           C   tau( 242) = (   0.3957036   0.2778652   0.6124121  )
       243           C   tau( 243) = (   0.3922930   0.2999178   0.5722227  )
       244           C   tau( 244) = (   0.3476061   0.3587914   1.0992572  )
       245           C   tau( 245) = (   0.3311664   0.3706537   1.0603354  )
       246           C   tau( 246) = (   0.2898172   0.3856978   1.0580808  )
       247           C   tau( 247) = (   0.2695984   0.3871705   1.0191621  )
       248           C   tau( 248) = (   0.2265118   0.3782532   1.0168829  )
       249           C   tau( 249) = (   0.2085366   0.3688979   0.9779554  )
       250           C   tau( 250) = (   0.1765397   0.3387029   0.9756911  )
       251           C   tau( 251) = (   0.1661561   0.3213182   0.9367520  )
       252           C   tau( 252) = (   0.1547308   0.2788247   0.9344854  )
       253           C   tau( 253) = (   0.1550145   0.2585689   0.8955588  )
       254           C   tau( 254) = (   0.1675782   0.2164028   0.8932871  )
       255           C   tau( 255) = (   0.1784356   0.1992936   0.8543567  )
       256           C   tau( 256) = (   0.2112534   0.1699699   0.8520968  )
       257           C   tau( 257) = (   0.2294654   0.1611042   0.8131728  )
       258           C   tau( 258) = (   0.2727883   0.1533843   0.8108815  )
       259           C   tau( 259) = (   0.2929359   0.1554731   0.7719260  )
       260           C   tau( 260) = (   0.3338847   0.1715963   0.7696434  )
       261           C   tau( 261) = (   0.3500044   0.1838889   0.7307331  )
       262           C   tau( 262) = (   0.3767752   0.2189991   0.7284819  )
       263           C   tau( 263) = (   0.3844869   0.2378405   0.6898531  )
       264           C   tau( 264) = (   0.3882854   0.2818343   0.6878560  )
       265           C   tau( 265) = (   0.3851006   0.3018316   0.6492528  )
       266           C   tau( 266) = (   0.3445178   0.3613658   1.1747701  )
       267           C   tau( 267) = (   0.3276790   0.3726542   1.1358481  )
       268           C   tau( 268) = (   0.2858351   0.3862604   1.1335928  )
       269           C   tau( 269) = (   0.2655783   0.3870258   1.0946713  )
       270           C   tau( 270) = (   0.2228301   0.3766239   1.0923931  )
       271           C   tau( 271) = (   0.2051841   0.3666559   1.0534679  )
       272           C   tau( 272) = (   0.1742342   0.3353790   1.0512076  )
       273           C   tau( 273) = (   0.1644421   0.3176424   1.0122795  )
       274           C   tau( 274) = (   0.1544905   0.2747838   1.0100016  )
       275           C   tau( 275) = (   0.1554687   0.2545507   0.9710689  )
       276           C   tau( 276) = (   0.1694825   0.2128397   0.9688038  )
       277           C   tau( 277) = (   0.1809314   0.1961236   0.9298736  )
       278           C   tau( 278) = (   0.2147367   0.1679536   0.9276130  )
       279           C   tau( 279) = (   0.2332607   0.1597247   0.8886844  )
       280           C   tau( 280) = (   0.2768125   0.1534735   0.8864004  )
       281           C   tau( 281) = (   0.2968917   0.1561575   0.8474692  )
       282           C   tau( 282) = (   0.3372789   0.1737067   0.8452139  )
       283           C   tau( 283) = (   0.3529682   0.1865206   0.8063325  )
       284           C   tau( 284) = (   0.3781056   0.2226752   0.8041274  )
       285           C   tau( 285) = (   0.3847773   0.2418418   0.7652719  )
       286           C   tau( 286) = (   0.3869862   0.2857218   0.7631580  )
       287           C   tau( 287) = (   0.3826095   0.3054821   0.7242680  )
       288           C   tau( 288) = (   0.3413334   0.3638216   0.0008231  )
       289           C   tau( 289) = (   0.3241217   0.3745282   1.2113618  )
       290           C   tau( 290) = (   0.2818350   0.3866844   1.2091024  )
       291           C   tau( 291) = (   0.2615656   0.3867573   1.1701803  )
       292           C   tau( 292) = (   0.2191974   0.3748850   1.1679057  )
       293           C   tau( 293) = (   0.2019091   0.3643086   1.1289813  )
       294           C   tau( 294) = (   0.1720589   0.3319820   1.1267219  )
       295           C   tau( 295) = (   0.1628835   0.3139160   1.0877953  )
       296           C   tau( 296) = (   0.1544088   0.2707433   1.0855134  )
       297           C   tau( 297) = (   0.1560700   0.2505505   1.0465855  )
       298           C   tau( 298) = (   0.1715163   0.2093500   1.0443243  )
       299           C   tau( 299) = (   0.1835319   0.1930376   1.0053926  )
       300           C   tau( 300) = (   0.2182975   0.1660663   1.0031275  )
       301           C   tau( 301) = (   0.2370796   0.1584740   0.9642002  )
       302           C   tau( 302) = (   0.2808338   0.1537446   0.9619300  )
       303           C   tau( 303) = (   0.3008051   0.1571334   0.9230095  )
       304           C   tau( 304) = (   0.3405177   0.1760956   0.9207670  )
       305           C   tau( 305) = (   0.3557312   0.1894714   0.8818489  )
       306           C   tau( 306) = (   0.3795355   0.2264603   0.8796169  )
       307           C   tau( 307) = (   0.3854765   0.2458201   0.8407076  )
       308           C   tau( 308) = (   0.3863430   0.2898174   0.8385056  )
       309           C   tau( 309) = (   0.3812323   0.3094036   0.7996435  )
       310           C   tau( 310) = (   0.2575584   0.3863398   1.2456903  )
       311           C   tau( 311) = (   0.2156238   0.3730158   1.2434221  )
       312           C   tau( 312) = (   0.1987137   0.3618530   1.2044924  )
       313           C   tau( 313) = (   0.1699931   0.3285195   1.2022304  )
       314           C   tau( 314) = (   0.1614465   0.3101468   1.1633062  )
       315           C   tau( 315) = (   0.1544682   0.2667051   1.1610245  )
       316           C   tau( 316) = (   0.1568305   0.2465828   1.1220991  )
       317           C   tau( 317) = (   0.1736894   0.2059431   1.1198400  )
       318           C   tau( 318) = (   0.1862551   0.1900548   1.0809090  )
       319           C   tau( 319) = (   0.2219333   0.1643018   1.0786380  )
       320           C   tau( 320) = (   0.2409694   0.1573733   1.0397153  )
       321           C   tau( 321) = (   0.2848541   0.1541702   1.0374543  )
       322           C   tau( 322) = (   0.3046925   0.1582602   0.9985256  )
       323           C   tau( 323) = (   0.3437149   0.1785791   0.9962773  )
       324           C   tau( 324) = (   0.3584502   0.1924692   0.9573541  )
       325           C   tau( 325) = (   0.3809977   0.2302597   0.9551006  )
       326           C   tau( 326) = (   0.3862332   0.2498206   0.9161974  )
       327           C   tau( 327) = (   0.3856294   0.2938253   0.9139657  )
       328           C   tau( 328) = (   0.3798096   0.3132350   0.8750677  )
       329           C   tau( 329) = (   0.1601340   0.3063306   1.2388137  )
       330           C   tau( 330) = (   0.1546603   0.2626732   1.2365333  )
       331           C   tau( 331) = (   0.1577206   0.2426417   1.1976070  )
       332           C   tau( 332) = (   0.1759710   0.2026068   1.1953473  )
       333           C   tau( 333) = (   0.1890809   0.1871595   1.1564216  )
       334           C   tau( 334) = (   0.2256279   0.1626546   1.1541453  )
       335           C   tau( 335) = (   0.2448952   0.1563939   1.1152224  )
       336           C   tau( 336) = (   0.2888617   0.1547187   1.1129651  )
       337           C   tau( 337) = (   0.3085464   0.1594931   1.0740376  )
       338           C   tau( 338) = (   0.3468534   0.1811481   1.0717805  )
       339           C   tau( 339) = (   0.3610939   0.1955509   1.0328625  )
       340           C   tau( 340) = (   0.3823378   0.2340874   1.0306033  )
       341           C   tau( 341) = (   0.3868954   0.2538268   0.9916846  )
       342           C   tau( 342) = (   0.3847860   0.2977747   0.9894417  )
       343           C   tau( 343) = (   0.3783250   0.3169881   0.9505308  )
       344           C   tau( 344) = (   0.1920026   0.1843722   1.2319292  )
       345           C   tau( 345) = (   0.2293705   0.1611436   1.2296491  )
       346           C   tau( 346) = (   0.2488445   0.1555448   1.1907272  )
       347           C   tau( 347) = (   0.2928468   0.1553918   1.1884735  )
       348           C   tau( 348) = (   0.3123557   0.1608576   1.1495506  )
       349           C   tau( 349) = (   0.3498890   0.1838231   1.1472859  )
       350           C   tau( 350) = (   0.3636296   0.1987104   1.1083652  )
       351           C   tau( 351) = (   0.3835336   0.2379499   1.1061073  )
       352           C   tau( 352) = (   0.3874230   0.2578354   1.0671837  )
       353           C   tau( 353) = (   0.3837946   0.3016898   1.0649352  )
       354           C   tau( 354) = (   0.3766756   0.3206639   1.0260233  )
       355           C   tau( 355) = (   0.3161162   0.1623357   1.2250568  )
       356           C   tau( 356) = (   0.3528333   0.1865842   1.2227876  )
       357           C   tau( 357) = (   0.3660547   0.2019414   1.1838684  )
       358           C   tau( 358) = (   0.3846063   0.2418413   1.1816158  )
       359           C   tau( 359) = (   0.3878060   0.2618542   1.1426939  )
       360           C   tau( 360) = (   0.3826724   0.3055571   1.1404398  )
       361           C   tau( 361) = (   0.3748986   0.3242791   1.1015232  )
       362           C   tau( 362) = (   0.3880461   0.2658756   1.2182044  )
       363           C   tau( 363) = (   0.3814019   0.3093717   1.2159459  )
       364           C   tau( 364) = (   0.3729955   0.3278185   1.1770285  )
       365           Se  tau( 365) = (   0.4535840   0.2979624   0.5922331  )

   Crystallographic axes

     site n.     atom                  positions (cryst. coord.)
         1           C   tau(   1) = (  0.3709523  0.5383092  0.0024602  )
         2           C   tau(   2) = (  0.3687838  0.5438171  0.0628906  )
         3           C   tau(   3) = (  0.3380579  0.5949982  0.0610934  )
         4           C   tau(   4) = (  0.3204920  0.6114174  0.0299413  )
         5           C   tau(   5) = (  0.2778096  0.6287891  0.0281296  )
         6           C   tau(   6) = (  0.3664899  0.5491941  0.1233182  )
         7           C   tau(   7) = (  0.3346992  0.5986405  0.1215253  )
         8           C   tau(   8) = (  0.3167985  0.6140608  0.0903769  )
         9           C   tau(   9) = (  0.2737695  0.6290225  0.0885611  )
        10           C   tau(  10) = (  0.2535530  0.6268704  0.0574093  )
        11           C   tau(  11) = (  0.2121011  0.6029003  0.0555991  )
        12           C   tau(  12) = (  0.1955883  0.5838312  0.0244419  )
        13           C   tau(  13) = (  0.1680310  0.5280878  0.0226277  )
        14           C   tau(  14) = (  0.3640472  0.5544225  0.1837477  )
        15           C   tau(  15) = (  0.3312466  0.6020952  0.1819610  )
        16           C   tau(  16) = (  0.3130406  0.6165003  0.1508083  )
        17           C   tau(  17) = (  0.2697274  0.6290508  0.1489930  )
        18           C   tau(  18) = (  0.2495713  0.6257594  0.1178412  )
        19           C   tau(  19) = (  0.2086532  0.5994647  0.1160344  )
        20           C   tau(  20) = (  0.1925566  0.5794811  0.0848793  )
        21           C   tau(  21) = (  0.1662006  0.5222266  0.0830605  )
        22           C   tau(  22) = (  0.1589421  0.4914976  0.0519051  )
        23           C   tau(  23) = (  0.1549811  0.4202913  0.0500836  )
        24           C   tau(  24) = (  0.1587343  0.3879357  0.0189288  )
        25           C   tau(  25) = (  0.1783597  0.3239439  0.0171162  )
        26           C   tau(  26) = (  0.3614855  0.5595142  0.2441603  )
        27           C   tau(  27) = (  0.3277368  0.6053569  0.2423901  )
        28           C   tau(  28) = (  0.3092366  0.6187672  0.2112428  )
        29           C   tau(  29) = (  0.2656727  0.6288926  0.2094299  )
        30           C   tau(  30) = (  0.2456072  0.6244548  0.1782799  )
        31           C   tau(  31) = (  0.2052705  0.5958564  0.1764725  )
        32           C   tau(  32) = (  0.1896147  0.5749683  0.1453157  )
        33           C   tau(  33) = (  0.1644937  0.5162686  0.1434926  )
        34           C   tau(  34) = (  0.1578951  0.4851469  0.1123377  )
        35           C   tau(  35) = (  0.1554447  0.4137574  0.1105213  )
        36           C   tau(  36) = (  0.1598819  0.3816398  0.0793610  )
        37           C   tau(  37) = (  0.1808465  0.3187848  0.0775429  )
        38           C   tau(  38) = (  0.1949995  0.2952183  0.0463916  )
        39           C   tau(  39) = (  0.2331472  0.2595908  0.0445660  )
        40           C   tau(  40) = (  0.2528140  0.2516030  0.0134187  )
        41           C   tau(  41) = (  0.2967934  0.2538236  0.0116134  )
        42           C   tau(  42) = (  0.3710249  0.5380166  0.3356648  )
        43           C   tau(  43) = (  0.3589598  0.5645758  0.3045744  )
        44           C   tau(  44) = (  0.3242051  0.6085123  0.3028210  )
        45           C   tau(  45) = (  0.3054140  0.6208313  0.2717071  )
        46           C   tau(  46) = (  0.2616294  0.6284660  0.2698883  )
        47           C   tau(  47) = (  0.2416732  0.6229035  0.2387250  )
        48           C   tau(  48) = (  0.2019756  0.5920654  0.2369097  )
        49           C   tau(  49) = (  0.1867734  0.5703042  0.2057504  )
        50           C   tau(  50) = (  0.1629269  0.5102120  0.2039251  )
        51           C   tau(  51) = (  0.1569963  0.4787354  0.1727723  )
        52           C   tau(  52) = (  0.1560686  0.4072500  0.1709614  )
        53           C   tau(  53) = (  0.1611641  0.3754021  0.1397971  )
        54           C   tau(  54) = (  0.1834446  0.3137520  0.1379725  )
        55           C   tau(  55) = (  0.1980880  0.2910045  0.1068202  )
        56           C   tau(  56) = (  0.2369689  0.2575387  0.1049949  )
        57           C   tau(  57) = (  0.2567941  0.2506698  0.0738434  )
        58           C   tau(  58) = (  0.3006969  0.2553619  0.0720352  )
        59           C   tau(  59) = (  0.3197968  0.2664109  0.0408907  )
        60           C   tau(  60) = (  0.3556595  0.3078392  0.0390734  )
        61           C   tau(  61) = (  0.3683577  0.3335193  0.0079299  )
        62           C   tau(  62) = (  0.3855299  0.3993498  0.0061320  )
        63           C   tau(  63) = (  0.3695775  0.5440020  0.3960134  )
        64           C   tau(  64) = (  0.3565926  0.5695416  0.3651106  )
        65           C   tau(  65) = (  0.3205960  0.6110818  0.3633133  )
        66           C   tau(  66) = (  0.3015478  0.6224017  0.3321828  )
        67           C   tau(  67) = (  0.2576534  0.6275745  0.3303504  )
        68           C   tau(  68) = (  0.2377999  0.6210614  0.2991677  )
        69           C   tau(  69) = (  0.1987538  0.5880771  0.2973436  )
        70           C   tau(  70) = (  0.1840217  0.5655018  0.2661884  )
        71           C   tau(  71) = (  0.1614731  0.5040845  0.2643612  )
        72           C   tau(  72) = (  0.1562354  0.4722844  0.2332047  )
        73           C   tau(  73) = (  0.1568451  0.4007960  0.2313970  )
        74           C   tau(  74) = (  0.1626076  0.3692478  0.2002390  )
        75           C   tau(  75) = (  0.1861778  0.3088685  0.1984130  )
        76           C   tau(  76) = (  0.2012756  0.2869551  0.1672506  )
        77           C   tau(  77) = (  0.2408300  0.2556700  0.1654269  )
        78           C   tau(  78) = (  0.2607845  0.2499193  0.1342704  )
        79           C   tau(  79) = (  0.3045625  0.2570637  0.1324555  )
        80           C   tau(  80) = (  0.3234209  0.2691985  0.1013161  )
        81           C   tau(  81) = (  0.3583837  0.3126088  0.0994985  )
        82           C   tau(  82) = (  0.3705308  0.3390029  0.0683557  )
        83           C   tau(  83) = (  0.3862994  0.4057489  0.0665609  )
        84           C   tau(  84) = (  0.3881347  0.4385617  0.0354154  )
        85           C   tau(  85) = (  0.3799902  0.5088271  0.0336055  )
        86           C   tau(  86) = (  0.3676804  0.5495194  0.4566451  )
        87           C   tau(  87) = (  0.3536654  0.5731340  0.4256420  )
        88           C   tau(  88) = (  0.3167744  0.6121018  0.4237672  )
        89           C   tau(  89) = (  0.2975937  0.6231139  0.3925900  )
        90           C   tau(  90) = (  0.2536352  0.6263534  0.3907708  )
        91           C   tau(  91) = (  0.2339327  0.6189654  0.3596116  )
        92           C   tau(  92) = (  0.1955391  0.5839217  0.3577788  )
        93           C   tau(  93) = (  0.1813486  0.5605065  0.3266153  )
        94           C   tau(  94) = (  0.1601364  0.4978723  0.3247895  )
        95           C   tau(  95) = (  0.1555924  0.4657998  0.2936327  )
        96           C   tau(  96) = (  0.1577446  0.3943794  0.2918292  )
        97           C   tau(  97) = (  0.1641960  0.3631776  0.2606763  )
        98           C   tau(  98) = (  0.1890317  0.3041588  0.2588534  )
        99           C   tau(  99) = (  0.2045704  0.2830740  0.2276839  )
       100           C   tau( 100) = (  0.2447503  0.2539628  0.2258645  )
       101           C   tau( 101) = (  0.2647999  0.2493375  0.1947068  )
       102           C   tau( 102) = (  0.3084012  0.2589191  0.1928839  )
       103           C   tau( 103) = (  0.3269777  0.2721536  0.1617371  )
       104           C   tau( 104) = (  0.3609868  0.3175041  0.1599189  )
       105           C   tau( 105) = (  0.3725789  0.3445763  0.1287797  )
       106           C   tau( 106) = (  0.3869131  0.4121772  0.1269828  )
       107           C   tau( 107) = (  0.3880632  0.4450834  0.0958463  )
       108           C   tau( 108) = (  0.3784399  0.5148561  0.0940367  )
       109           C   tau( 109) = (  0.3641102  0.5519580  0.5173023  )
       110           C   tau( 110) = (  0.3505424  0.5762222  0.4856682  )
       111           C   tau( 111) = (  0.3130169  0.6138962  0.4840238  )
       112           C   tau( 112) = (  0.2936268  0.6237292  0.4529835  )
       113           C   tau( 113) = (  0.2495394  0.6251515  0.4511808  )
       114           C   tau( 114) = (  0.2300452  0.6165824  0.4200307  )
       115           C   tau( 115) = (  0.1924180  0.5795643  0.4182019  )
       116           C   tau( 116) = (  0.1787184  0.5554010  0.3870312  )
       117           C   tau( 117) = (  0.1588549  0.4915869  0.3852205  )
       118           C   tau( 118) = (  0.1550429  0.4592783  0.3540667  )
       119           C   tau( 119) = (  0.1587284  0.3880208  0.3522636  )
       120           C   tau( 120) = (  0.1658825  0.3572047  0.3211060  )
       121           C   tau( 121) = (  0.1919506  0.2996158  0.3192865  )
       122           C   tau( 122) = (  0.2079366  0.2793899  0.2881319  )
       123           C   tau( 123) = (  0.2487152  0.2524950  0.2863280  )
       124           C   tau( 124) = (  0.2688483  0.2489832  0.2551517  )
       125           C   tau( 125) = (  0.3122050  0.2609791  0.2533176  )
       126           C   tau( 126) = (  0.3304884  0.2752245  0.2221628  )
       127           C   tau( 127) = (  0.3635040  0.3224971  0.2203386  )
       128           C   tau( 128) = (  0.3744914  0.3502378  0.1892063  )
       129           C   tau( 129) = (  0.3873620  0.4186145  0.1873996  )
       130           C   tau( 130) = (  0.3878137  0.4515816  0.1562664  )
       131           C   tau( 131) = (  0.3767191  0.5207647  0.1544632  )
       132           C   tau( 132) = (  0.3616224  0.5590581  0.5776585  )
       133           C   tau( 133) = (  0.3473768  0.5816057  0.5464445  )
       134           C   tau( 134) = (  0.3093359  0.6172979  0.5445443  )
       135           C   tau( 135) = (  0.2896857  0.6247033  0.5133078  )
       136           C   tau( 136) = (  0.2457731  0.6235438  0.5115558  )
       137           C   tau( 137) = (  0.2263069  0.6140942  0.4804102  )
       138           C   tau( 138) = (  0.1893863  0.5750707  0.4786189  )
       139           C   tau( 139) = (  0.1761819  0.5501822  0.4474770  )
       140           C   tau( 140) = (  0.1577066  0.4852424  0.4456757  )
       141           C   tau( 141) = (  0.1546066  0.4527255  0.4145030  )
       142           C   tau( 142) = (  0.1598005  0.3817455  0.4126955  )
       143           C   tau( 143) = (  0.1675938  0.3513244  0.3815435  )
       144           C   tau( 144) = (  0.1948766  0.2951974  0.3797330  )
       145           C   tau( 145) = (  0.2113601  0.2759407  0.3485840  )
       146           C   tau( 146) = (  0.2526878  0.2514143  0.3467958  )
       147           C   tau( 147) = (  0.2728946  0.2489127  0.3156073  )
       148           C   tau( 148) = (  0.3159845  0.2633095  0.3137704  )
       149           C   tau( 149) = (  0.3339484  0.2785084  0.2826159  )
       150           C   tau( 150) = (  0.3659194  0.3276423  0.2807719  )
       151           C   tau( 151) = (  0.3762759  0.3560039  0.2496206  )
       152           C   tau( 152) = (  0.3876456  0.4250525  0.2477889  )
       153           C   tau( 153) = (  0.3874167  0.4580344  0.2166709  )
       154           C   tau( 154) = (  0.3748650  0.5265772  0.2148809  )
       155           C   tau( 155) = (  0.3589999  0.5644850  0.6380720  )
       156           C   tau( 156) = (  0.3443491  0.5871073  0.6069111  )
       157           C   tau( 157) = (  0.3055401  0.6205269  0.6050102  )
       158           C   tau( 158) = (  0.2857734  0.6271004  0.5737739  )
       159           C   tau( 159) = (  0.2418260  0.6226929  0.5719979  )
       160           C   tau( 160) = (  0.2226930  0.6115774  0.5408784  )
       161           C   tau( 161) = (  0.1867349  0.5704113  0.5390768  )
       162           C   tau( 162) = (  0.1739596  0.5447449  0.5079148  )
       163           C   tau( 163) = (  0.1568413  0.4788892  0.5061200  )
       164           C   tau( 164) = (  0.1543154  0.4462358  0.4749571  )
       165           C   tau( 165) = (  0.1609887  0.3754814  0.4731545  )
       166           C   tau( 166) = (  0.1694244  0.3455552  0.4419957  )
       167           C   tau( 167) = (  0.1978546  0.2909933  0.4401939  )
       168           C   tau( 168) = (  0.2147450  0.2726600  0.4090250  )
       169           C   tau( 169) = (  0.2566033  0.2506988  0.4072338  )
       170           C   tau( 170) = (  0.2768952  0.2493318  0.3761055  )
       171           C   tau( 171) = (  0.3196538  0.2664171  0.3743057  )
       172           C   tau( 172) = (  0.3372983  0.2823282  0.3430689  )
       173           C   tau( 173) = (  0.3681712  0.3330992  0.3411783  )
       174           C   tau( 174) = (  0.3779818  0.3618697  0.3100254  )
       175           C   tau( 175) = (  0.3878319  0.4315738  0.3081425  )
       176           C   tau( 176) = (  0.3868701  0.4644913  0.2770568  )
       177           C   tau( 177) = (  0.3729121  0.5323034  0.2752971  )
       178           C   tau( 178) = (  0.3562667  0.5693634  0.6984752  )
       179           C   tau( 179) = (  0.3411770  0.5913337  0.6673168  )
       180           C   tau( 180) = (  0.3016313  0.6226876  0.6654652  )
       181           C   tau( 181) = (  0.2817009  0.6283909  0.6343037  )
       182           C   tau( 182) = (  0.2379312  0.6212274  0.6324857  )
       183           C   tau( 183) = (  0.2190984  0.6090326  0.6013056  )
       184           C   tau( 184) = (  0.1841151  0.5656692  0.5995106  )
       185           C   tau( 185) = (  0.1718991  0.5392975  0.5683678  )
       186           C   tau( 186) = (  0.1561526  0.4725116  0.5665747  )
       187           C   tau( 187) = (  0.1543108  0.4396879  0.5354216  )
       188           C   tau( 188) = (  0.1624399  0.3694398  0.5336074  )
       189           C   tau( 189) = (  0.1713928  0.3399159  0.5024393  )
       190           C   tau( 190) = (  0.2009674  0.2869097  0.5006426  )
       191           C   tau( 191) = (  0.2181382  0.2695281  0.4694961  )
       192           C   tau( 192) = (  0.2605291  0.2501089  0.4677158  )
       193           C   tau( 193) = (  0.2808335  0.2504484  0.4365622  )
       194           C   tau( 194) = (  0.3229651  0.2706015  0.4347908  )
       195           C   tau( 195) = (  0.3403410  0.2871902  0.4035414  )
       196           C   tau( 196) = (  0.3700631  0.3397451  0.4016512  )
       197           C   tau( 197) = (  0.3794878  0.3682204  0.3704397  )
       198           C   tau( 198) = (  0.3879570  0.4382229  0.3684549  )
       199           C   tau( 199) = (  0.3862303  0.4710416  0.3373493  )
       200           C   tau( 200) = (  0.3534835  0.5741083  0.7588897  )
       201           C   tau( 201) = (  0.3379071  0.5951912  0.7277503  )
       202           C   tau( 202) = (  0.2977095  0.6242775  0.7259261  )
       203           C   tau( 203) = (  0.2776492  0.6289241  0.6947623  )
       204           C   tau( 204) = (  0.2340680  0.6193103  0.6929374  )
       205           C   tau( 205) = (  0.2155021  0.6061491  0.6617674  )
       206           C   tau( 206) = (  0.1814984  0.5607508  0.6599626  )
       207           C   tau( 207) = (  0.1699309  0.5336948  0.6288112  )
       208           C   tau( 208) = (  0.1556064  0.4661036  0.6270139  )
       209           C   tau( 209) = (  0.1544449  0.4332060  0.5958577  )
       210           C   tau( 210) = (  0.1640552  0.3634255  0.5940429  )
       211           C   tau( 211) = (  0.1736461  0.3344423  0.5628935  )
       212           C   tau( 212) = (  0.2043438  0.2831937  0.5610966  )
       213           C   tau( 213) = (  0.2218587  0.2667613  0.5299230  )
       214           C   tau( 214) = (  0.2645627  0.2496382  0.5281011  )
       215           C   tau( 215) = (  0.2847394  0.2508386  0.4969474  )
       216           C   tau( 216) = (  0.3265615  0.2735321  0.4951330  )
       217           C   tau( 217) = (  0.3432572  0.2922575  0.4640750  )
       218           C   tau( 218) = (  0.3721476  0.3464201  0.4624391  )
       219           C   tau( 219) = (  0.3805853  0.3761567  0.4307962  )
       220           C   tau( 220) = (  0.3892760  0.4450389  0.4284808  )
       221           C   tau( 221) = (  0.3863111  0.4776115  0.3975994  )
       222           C   tau( 222) = (  0.3505911  0.5786448  0.8193181  )
       223           C   tau( 223) = (  0.3345642  0.5988282  0.7881719  )
       224           C   tau( 224) = (  0.2937724  0.6256006  0.7863621  )
       225           C   tau( 225) = (  0.2736207  0.6291534  0.7552058  )
       226           C   tau( 226) = (  0.2302504  0.6170969  0.7533826  )
       227           C   tau( 227) = (  0.2119762  0.6029130  0.7222295  )
       228           C   tau( 228) = (  0.1789698  0.5556452  0.7204159  )
       229           C   tau( 229) = (  0.1679992  0.5279754  0.6892476  )
       230           C   tau( 230) = (  0.1551140  0.4596149  0.6874436  )
       231           C   tau( 231) = (  0.1546801  0.4266917  0.6562936  )
       232           C   tau( 232) = (  0.1657781  0.3575003  0.6544765  )
       233           C   tau( 233) = (  0.1760173  0.3290892  0.6233232  )
       234           C   tau( 234) = (  0.2077882  0.2796290  0.6215156  )
       235           C   tau( 235) = (  0.2256400  0.2641638  0.5903533  )
       236           C   tau( 236) = (  0.2687178  0.2493330  0.5885182  )
       237           C   tau( 237) = (  0.2888770  0.2517805  0.5573615  )
       238           C   tau( 238) = (  0.3302435  0.2761560  0.5555400  )
       239           C   tau( 239) = (  0.3465286  0.2958909  0.5243453  )
       240           C   tau( 240) = (  0.3746047  0.3509392  0.5224733  )
       241           C   tau( 241) = (  0.3836242  0.3802379  0.4914566  )
       242           C   tau( 242) = (  0.3957036  0.4515133  0.4901204  )
       243           C   tau( 243) = (  0.3922930  0.4873475  0.4579564  )
       244           C   tau( 244) = (  0.3476061  0.5830134  0.8797482  )
       245           C   tau( 245) = (  0.3311664  0.6022889  0.8485986  )
       246           C   tau( 246) = (  0.2898172  0.6267345  0.8467942  )
       247           C   tau( 247) = (  0.2695984  0.6291277  0.8156472  )
       248           C   tau( 248) = (  0.2265118  0.6146375  0.8138231  )
       249           C   tau( 249) = (  0.2085366  0.5994358  0.7826690  )
       250           C   tau( 250) = (  0.1765397  0.5503708  0.7808568  )
       251           C   tau( 251) = (  0.1661561  0.5221217  0.7496934  )
       252           C   tau( 252) = (  0.1547308  0.4530725  0.7478794  )
       253           C   tau( 253) = (  0.1550145  0.4201580  0.7167260  )
       254           C   tau( 254) = (  0.1675782  0.3516409  0.7149080  )
       255           C   tau( 255) = (  0.1784356  0.3238395  0.6837515  )
       256           C   tau( 256) = (  0.2112534  0.2761904  0.6819429  )
       257           C   tau( 257) = (  0.2294654  0.2617841  0.6507916  )
       258           C   tau( 258) = (  0.2727883  0.2492398  0.6489578  )
       259           C   tau( 259) = (  0.2929359  0.2526340  0.6177813  )
       260           C   tau( 260) = (  0.3338847  0.2788331  0.6159545  )
       261           C   tau( 261) = (  0.3500044  0.2988079  0.5848141  )
       262           C   tau( 262) = (  0.3767752  0.3558597  0.5830125  )
       263           C   tau( 263) = (  0.3844869  0.3864759  0.5520974  )
       264           C   tau( 264) = (  0.3882854  0.4579629  0.5504991  )
       265           C   tau( 265) = (  0.3851006  0.4904573  0.5196045  )
       266           C   tau( 266) = (  0.3445178  0.5871967  0.9401821  )
       267           C   tau( 267) = (  0.3276790  0.6055395  0.9090323  )
       268           C   tau( 268) = (  0.2858351  0.6276488  0.9072273  )
       269           C   tau( 269) = (  0.2655783  0.6288925  0.8760780  )
       270           C   tau( 270) = (  0.2228301  0.6119900  0.8742548  )
       271           C   tau( 271) = (  0.2051841  0.5957927  0.8431025  )
       272           C   tau( 272) = (  0.1742342  0.5449697  0.8412935  )
       273           C   tau( 273) = (  0.1644421  0.5161488  0.8101390  )
       274           C   tau( 274) = (  0.1544905  0.4465062  0.8083159  )
       275           C   tau( 275) = (  0.1554687  0.4136288  0.7771576  )
       276           C   tau( 276) = (  0.1694825  0.3458510  0.7753449  )
       277           C   tau( 277) = (  0.1809314  0.3186884  0.7441885  )
       278           C   tau( 278) = (  0.2147367  0.2729139  0.7423794  )
       279           C   tau( 279) = (  0.2332607  0.2595425  0.7112244  )
       280           C   tau( 280) = (  0.2768125  0.2493848  0.7093964  )
       281           C   tau( 281) = (  0.2968917  0.2537460  0.6782393  )
       282           C   tau( 282) = (  0.3372789  0.2822624  0.6764345  )
       283           C   tau( 283) = (  0.3529682  0.3030842  0.6453172  )
       284           C   tau( 284) = (  0.3781056  0.3618332  0.6435524  )
       285           C   tau( 285) = (  0.3847773  0.3929777  0.6124559  )
       286           C   tau( 286) = (  0.3869862  0.4642798  0.6107641  )
       287           C   tau( 287) = (  0.3826095  0.4963892  0.5796400  )
       288           C   tau( 288) = (  0.3413334  0.5911871  0.0006588  )
       289           C   tau( 289) = (  0.3241217  0.6085846  0.9694668  )
       290           C   tau( 290) = (  0.2818350  0.6283376  0.9676586  )
       291           C   tau( 291) = (  0.2615656  0.6284562  0.9365088  )
       292           C   tau( 292) = (  0.2191974  0.6091644  0.9346884  )
       293           C   tau( 293) = (  0.2019091  0.5919784  0.9035367  )
       294           C   tau( 294) = (  0.1720589  0.5394498  0.9017285  )
       295           C   tau( 295) = (  0.1628835  0.5100937  0.8705751  )
       296           C   tau( 296) = (  0.1544088  0.4399407  0.8687489  )
       297           C   tau( 297) = (  0.1560700  0.4071287  0.8375944  )
       298           C   tau( 298) = (  0.1715163  0.3401805  0.8357848  )
       299           C   tau( 299) = (  0.1835319  0.3136738  0.8046273  )
       300           C   tau( 300) = (  0.2182975  0.2698472  0.8028145  )
       301           C   tau( 301) = (  0.2370796  0.2575103  0.7716605  )
       302           C   tau( 302) = (  0.2808338  0.2498253  0.7698436  )
       303           C   tau( 303) = (  0.3008051  0.2553318  0.7386952  )
       304           C   tau( 304) = (  0.3405177  0.2861442  0.7369004  )
       305           C   tau( 305) = (  0.3557312  0.3078790  0.7057538  )
       306           C   tau( 306) = (  0.3795355  0.3679837  0.7039676  )
       307           C   tau( 307) = (  0.3854765  0.3994422  0.6728280  )
       308           C   tau( 308) = (  0.3863430  0.4709350  0.6710657  )
       309           C   tau( 309) = (  0.3812323  0.5027613  0.6399639  )
       310           C   tau( 310) = (  0.2575584  0.6277778  0.9969403  )
       311           C   tau( 311) = (  0.2156238  0.6061271  0.9951250  )
       312           C   tau( 312) = (  0.1987137  0.5879882  0.9639692  )
       313           C   tau( 313) = (  0.1699931  0.5338234  0.9621589  )
       314           C   tau( 314) = (  0.1614465  0.5039689  0.9310074  )
       315           C   tau( 315) = (  0.1544682  0.4333789  0.9291813  )
       316           C   tau( 316) = (  0.1568305  0.4006815  0.8980289  )
       317           C   tau( 317) = (  0.1736894  0.3346445  0.8962208  )
       318           C   tau( 318) = (  0.1862551  0.3088270  0.8650639  )
       319           C   tau( 319) = (  0.2219333  0.2669800  0.8632464  )
       320           C   tau( 320) = (  0.2409694  0.2557216  0.8320961  )
       321           C   tau( 321) = (  0.2848541  0.2505168  0.8302866  )
       322           C   tau( 322) = (  0.3046925  0.2571628  0.7991315  )
       323           C   tau( 323) = (  0.3437149  0.2901797  0.7973322  )
       324           C   tau( 324) = (  0.3584502  0.3127503  0.7661815  )
       325           C   tau( 325) = (  0.3809977  0.3741575  0.7643780  )
       326           C   tau( 326) = (  0.3862332  0.4059426  0.7332433  )
       327           C   tau( 327) = (  0.3856294  0.4774475  0.7314573  )
       328           C   tau( 328) = (  0.3798096  0.5089870  0.7003268  )
       329           C   tau( 329) = (  0.1601340  0.4977679  0.9914369  )
       330           C   tau( 330) = (  0.1546603  0.4268274  0.9896118  )
       331           C   tau( 331) = (  0.1577206  0.3942774  0.9584586  )
       332           C   tau( 332) = (  0.1759710  0.3292232  0.9566502  )
       333           C   tau( 333) = (  0.1890809  0.3041224  0.9254975  )
       334           C   tau( 334) = (  0.2256279  0.2643034  0.9236758  )
       335           C   tau( 335) = (  0.2448952  0.2541302  0.8925253  )
       336           C   tau( 336) = (  0.2888617  0.2514082  0.8907188  )
       337           C   tau( 337) = (  0.3085464  0.2591663  0.8595647  )
       338           C   tau( 338) = (  0.3468534  0.2943542  0.8577582  )
       339           C   tau( 339) = (  0.3610939  0.3177579  0.8266117  )
       340           C   tau( 340) = (  0.3823378  0.3803772  0.8248037  )
       341           C   tau( 341) = (  0.3868954  0.4124525  0.7936566  )
       342           C   tau( 342) = (  0.3847860  0.4838651  0.7918616  )
       343           C   tau( 343) = (  0.3783250  0.5150856  0.7607207  )
       344           C   tau( 344) = (  0.1920026  0.2995932  0.9859271  )
       345           C   tau( 345) = (  0.2293705  0.2618482  0.9841024  )
       346           C   tau( 346) = (  0.2488445  0.2527505  0.9529527  )
       347           C   tau( 347) = (  0.2928468  0.2525018  0.9511490  )
       348           C   tau( 348) = (  0.3123557  0.2613835  0.9199986  )
       349           C   tau( 349) = (  0.3498890  0.2987010  0.9181861  )
       350           C   tau( 350) = (  0.3636296  0.3228918  0.8870374  )
       351           C   tau( 351) = (  0.3835336  0.3866535  0.8852304  )
       352           C   tau( 352) = (  0.3874230  0.4189663  0.8540794  )
       353           C   tau( 353) = (  0.3837946  0.4902268  0.8522799  )
       354           C   tau( 354) = (  0.3766756  0.5210585  0.8211383  )
       355           C   tau( 355) = (  0.3161162  0.2637853  0.9804270  )
       356           C   tau( 356) = (  0.3528333  0.3031876  0.9786110  )
       357           C   tau( 357) = (  0.3660547  0.3281420  0.9474635  )
       358           C   tau( 358) = (  0.3846063  0.3929768  0.9456608  )
       359           C   tau( 359) = (  0.3878060  0.4254966  0.9145111  )
       360           C   tau( 360) = (  0.3826724  0.4965110  0.9127071  )
       361           C   tau( 361) = (  0.3748986  0.5269331  0.8815617  )
       362           C   tau( 362) = (  0.3880461  0.4320311  0.9749430  )
       363           C   tau( 363) = (  0.3814019  0.5027095  0.9731355  )
       364           C   tau( 364) = (  0.3729955  0.5326844  0.9419894  )
       365           Se  tau( 365) = (  0.4535840  0.4841700  0.4739710  )

     number of k points=     8
                       cart. coord. in units 2pi/alat
        k(    1) = (   0.0000000   0.0000000   0.0000000), wk =   0.2500000
        k(    2) = (   0.0000000   0.0000000   0.1000389), wk =   0.2500000
        k(    3) = (   0.0000000   0.0000000   0.2000779), wk =   0.2500000
        k(    4) = (   0.0000000   0.0000000   0.3001168), wk =   0.2500000
        k(    5) = (   0.0000000   0.0000000   0.4001558), wk =   0.2500000
        k(    6) = (   0.0000000   0.0000000   0.5001947), wk =   0.2500000
        k(    7) = (   0.0000000   0.0000000   0.6002336), wk =   0.2500000
        k(    8) = (   0.0000000   0.0000000   0.7002726), wk =   0.2500000

                       cryst. coord.
        k(    1) = (   0.0000000   0.0000000   0.0000000), wk =   0.2500000
        k(    2) = (   0.0000000   0.0000000   0.1250000), wk =   0.2500000
        k(    3) = (   0.0000000   0.0000000   0.2500000), wk =   0.2500000
        k(    4) = (   0.0000000   0.0000000   0.3750000), wk =   0.2500000
        k(    5) = (   0.0000000   0.0000000   0.5000000), wk =   0.2500000
        k(    6) = (   0.0000000   0.0000000   0.6250000), wk =   0.2500000
        k(    7) = (   0.0000000   0.0000000   0.7500000), wk =   0.2500000
        k(    8) = (   0.0000000   0.0000000   0.8750000), wk =   0.2500000

     Dense  grid: 11053081 G-vectors     FFT dimensions: ( 320, 192, 384)

     Dynamical RAM for                 wfc:      43.92 MB

     Dynamical RAM for     wfc (w. buffer):      43.92 MB

     Dynamical RAM for           str. fact:       0.88 MB

     Dynamical RAM for           local pot:       0.00 MB

     Dynamical RAM for          nlocal pot:     160.86 MB

     Dynamical RAM for                qrad:       2.49 MB

     Dynamical RAM for          rho,v,vnew:       2.72 MB

     Dynamical RAM for           G-vectors:       1.87 MB

     Dynamical RAM for          h,s,v(r/c):       1.83 MB

     Dynamical RAM for          <psi|beta>:      35.77 MB

     Dynamical RAM for                 psi:      87.84 MB

     Dynamical RAM for                hpsi:      87.84 MB

     Dynamical RAM for      wfcinit/wfcrot:     102.50 MB

     Estimated static dynamical RAM per process >     216.40 MB

     Estimated max dynamical RAM per process >     429.68 MB

     Estimated total dynamical RAM >     644.52 GB

     The potential is recalculated from file :
     ./CNT_PBE.save/charge-density

     Starting wfcs are random

     Band Structure Calculation
     Davidson diagonalization with overlap

     Computing kpt #:     1  of     2 on this pool
     c_bands:  2 eigenvalues not converged
     total cpu time spent up to now is     4260.8 secs

     Computing kpt #:     2  of     2 on this pool
     c_bands:  1 eigenvalues not converged
     total cpu time spent up to now is     8363.2 secs

     ethr =  5.03E-12,  avg # of iterations =120.0

     total cpu time spent up to now is     8363.2 secs

     End of band structure calculation

          k = 0.0000 0.0000 0.0000 (****** PWs)   bands (ev):

   -22.6870 -22.6238 -22.6162 -22.4816 -22.4691 -22.4293 -22.4187 -22.4122
   -22.4048 -22.4037 -22.4027 -22.2204 -22.2086 -22.2067 -22.2051 -22.0953
   -22.0901 -21.8982 -21.8812 -21.8785 -21.8773 -21.8513 -21.8402 -21.7920
   -21.7769 -21.7756 -21.7743 -21.6383 -21.6314 -21.5962 -21.5828 -21.5798
   -21.5792 -21.4345 -21.4241 -21.4212 -21.4201 -21.2725 -21.2588 -21.2551
   -21.2543 -21.0533 -21.0448 -20.8773 -20.8403 -20.8373 -20.8364 -20.8334
   -20.8251 -20.8126 -20.8064 -20.8026 -20.8013 -20.7750 -20.7619 -20.7613
   -20.7606 -20.5895 -20.5709 -20.5692 -20.5685 -20.3469 -20.3350 -20.2799
   -20.2525 -20.2508 -20.2494 -20.2351 -20.2292 -20.2251 -20.2232 -20.1433
   -20.1330 -20.1293 -20.1289 -19.8331 -19.8089 -19.8067 -19.8059 -19.5710
   -19.5319 -19.5271 -19.5257 -19.5130 -19.5079 -19.4876 -19.4666 -19.4303
   -19.4053 -19.4046 -19.4040 -19.3258 -19.3095 -19.3068 -19.3058 -19.2676
   -19.2446 -19.2409 -19.2403 -19.2302 -19.2190 -19.2189 -19.2176 -18.9425
   -18.9112 -18.9108 -18.9089 -18.7431 -18.7238 -18.7179 -18.7168 -18.6059
   -18.5743 -18.5710 -18.5667 -18.5625 -18.5617 -18.5075 -18.4845 -18.4829
   -18.4803 -18.3944 -18.3825 -18.3800 -18.3780 -18.0471 -17.9453 -17.9428
   -17.9408 -17.9115 -17.8768 -17.8578 -17.8382 -17.8348 -17.8277 -17.8249
   -17.8215 -17.8176 -17.8127 -17.8061 -17.8037 -17.8013 -17.8007 -17.6822
   -17.6537 -17.6418 -17.6319 -17.5584 -17.5508 -17.4330 -17.3962 -17.3935
   -17.3771 -17.3737 -17.3716 -17.3526 -17.3369 -17.3323 -17.3272 -17.3138
   -17.3135 -17.2571 -17.2182 -17.2175 -17.0751 -17.0481 -17.0048 -16.9811
   -16.9487 -16.9344 -16.7840 -16.7820 -16.5654 -16.4987 -16.4974 -16.4880
   -16.4755 -16.4616 -16.4406 -16.4318 -16.2586 -16.2532 -16.2211 -16.0345
   -16.0287 -15.9985 -15.9654 -15.8922 -15.7907 -15.7234 -15.6184 -15.6111
   -15.6076 -15.5952 -15.5774 -15.5596 -15.5289 -15.5236 -15.5233 -15.4981
   -15.4628 -15.4554 -15.4293 -15.4273 -15.4268 -15.4202 -15.4119 -15.3938
   -15.3870 -15.3789 -15.3700 -15.3687 -15.3666 -15.3473 -15.3299 -15.2120
   -15.1486 -15.1375 -15.1213 -15.1042 -15.0731 -15.0475 -15.0467 -15.0241
   -14.9947 -14.9529 -14.8815 -14.8651 -14.8540 -14.8223 -14.8110 -14.7638
   -14.6103 -14.6047 -14.5509 -14.5487 -14.5447 -14.5293 -14.4778 -14.4583
   -14.4218 -14.4105 -14.3478 -14.3434 -14.2873 -14.2773 -14.2731 -14.2460
   -14.0123 -14.0037 -13.8746 -13.8642 -13.5377 -13.5330 -13.5181 -13.5144
   -13.4796 -13.4718 -13.4433 -13.4395 -13.4201 -13.4175 -13.4158 -13.4132
   -13.4098 -13.4025 -13.4016 -13.3938 -13.3853 -13.3764 -13.3693 -13.3626
   -13.3616 -13.3527 -13.3455 -13.3403 -13.3342 -13.3288 -13.1491 -13.1395
   -13.0853 -13.0843 -13.0778 -13.0746 -13.0615 -13.0587 -13.0525 -13.0512
   -13.0273 -13.0273 -13.0027 -12.9962 -12.8763 -12.8743 -12.5777 -12.5772
   -12.3916 -12.3901 -12.3729 -12.3709 -12.2635 -12.2579 -12.2536 -12.2531
   -12.1990 -12.1940 -12.1573 -12.1546 -12.1419 -12.1379 -12.0723 -12.0704
   -12.0272 -12.0240 -12.0073 -12.0062 -11.9826 -11.9808 -11.9107 -11.9102
   -11.8890 -11.8863 -11.7035 -11.7004 -11.6578 -11.6546 -11.5929 -11.5889
   -11.5572 -11.5561 -11.5090 -11.4969 -11.4784 -11.4761 -11.4011 -11.3911
   -11.3798 -11.3625 -11.3567 -11.3506 -11.3264 -11.3209 -11.2921 -11.2870
   -11.2272 -11.2232 -11.1957 -11.1948 -11.1318 -11.1231 -11.1119 -11.1104
   -11.0586 -11.0581 -11.0385 -11.0338 -11.0259 -11.0238 -11.0212 -11.0168
   -10.9522 -10.9501 -10.9450 -10.9430 -10.8947 -10.8945 -10.8135 -10.8110
   -10.8095 -10.7409 -10.7364 -10.7363 -10.7277 -10.6448 -10.6431 -10.5730
   -10.5675 -10.5119 -10.5118 -10.5065 -10.5055 -10.5007 -10.4993 -10.4976
   -10.4803 -10.4773 -10.4679 -10.4374 -10.4292 -10.4228 -10.4173 -10.3146
   -10.3081 -10.3015 -10.2994 -10.2868 -10.2812 -10.2725 -10.2717 -10.2575
   -10.2525 -10.2124 -10.2013 -10.1380 -10.1309 -10.1064 -10.0859 -10.0747
   -10.0702 -10.0651 -10.0511 -10.0486 -10.0456 -10.0381 -10.0259 -10.0218
   -10.0162 -10.0033  -9.9849  -9.9840  -9.9791  -9.9788  -9.9778  -9.9725
    -9.9689  -9.9474  -9.9471  -9.9444  -9.9416  -9.9394  -9.9300  -9.9133
    -9.9018  -9.8846  -9.8840  -9.8817  -9.8808  -9.8705  -9.8702  -9.8641
    -9.8623  -9.8371  -9.8245  -9.8157  -9.8133  -9.7951  -9.7917  -9.7909
    -9.7854  -9.6984  -9.6855  -9.6773  -9.6743  -9.6508  -9.6447  -9.5814
    -9.5732  -9.5599  -9.5444  -9.5236  -9.5185  -9.5139  -9.5107  -9.4951
    -9.4137  -9.4039  -9.3918  -9.3885  -9.3776  -9.3642  -9.3626  -9.3541
    -9.3476  -9.3434  -9.3330  -9.3262  -9.2628  -9.2411  -9.2318  -9.2184
    -9.2130  -9.2054  -9.1952  -9.1935  -9.1828  -9.1553  -9.1473  -9.1374
    -9.1193  -9.1156  -9.0978  -9.0957  -9.0522  -9.0420  -9.0340  -9.0312
    -9.0191  -9.0158  -9.0043  -9.0011  -8.9980  -8.9949  -8.9919  -8.9847
    -8.9460  -8.9424  -8.9338  -8.9304  -8.8968  -8.8873  -8.7853  -8.7851
    -8.6905  -8.6659  -8.6092  -8.6000  -8.5961  -8.5936  -8.5820  -8.5637
    -8.5444  -8.5383  -8.5356  -8.5234  -8.5188  -8.5169  -8.4812  -8.4798
    -8.3686  -8.3680  -8.3401  -8.3289  -8.3072  -8.3030  -8.2383  -8.2268
    -8.2240  -8.2176  -8.2173  -8.2158  -8.1759  -8.1742  -8.1706  -8.1640
    -8.1476  -8.1382  -8.0967  -8.0933  -8.0388  -8.0342  -8.0255  -8.0243
    -8.0168  -8.0154  -8.0025  -8.0021  -7.9729  -7.9718  -7.9654  -7.9594
    -7.9373  -7.9349  -7.9228  -7.9171  -7.8464  -7.8432  -7.8345  -7.8326
    -7.7558  -7.7365  -7.7077  -7.7037  -7.6914  -7.6908  -7.6808  -7.6794
    -7.6759  -7.6722  -7.6654  -7.6646  -7.6267  -7.6231  -7.5955  -7.5939
    -7.5310  -7.5267  -7.4381  -7.4365  -7.3963  -7.3898  -7.3448  -7.3338
    -7.2645  -7.2493  -7.2419  -7.2396  -7.2301  -7.2201  -7.2092  -7.2073
    -7.1166  -7.0975  -7.0843  -7.0680  -7.0529  -7.0513  -7.0413  -7.0382
    -7.0220  -7.0132  -6.9860  -6.9814  -6.9595  -6.9333  -6.9314  -6.9275
    -6.9253  -6.9242  -6.8935  -6.8809  -6.8539  -6.8517  -6.8364  -6.8341
    -6.7843  -6.7756  -6.7610  -6.7600  -6.6737  -6.6699  -6.6643  -6.6628
    -6.6460  -6.6290  -6.5843  -6.5693  -6.5609  -6.5553  -6.5525  -6.5513
    -6.5449  -6.5404  -6.3595  -6.3567  -6.3393  -6.3114  -6.2991  -6.2937
    -6.2499  -6.2493  -6.2295  -6.2249  -6.2186  -6.2137  -6.2051  -6.2042
    -6.1771  -6.1239  -6.0868  -6.0458  -6.0399  -6.0247  -5.9903  -5.9537
    -5.9515  -5.9360  -5.8969  -5.8955  -5.8054  -5.7880  -5.7724  -5.7586
    -5.6318  -5.5760  -5.5335  -5.4928  -5.4759  -5.4750  -5.4539  -5.4142
    -5.3828  -5.3316  -5.3096  -5.3063  -5.2916  -5.2829  -5.2723  -5.2438
    -5.2218  -5.2204  -5.2117  -5.1947  -5.1771  -5.1167  -5.1149  -5.0844
    -5.0697  -5.0393  -5.0388  -5.0034  -4.9775  -4.9528  -4.9428  -4.9250
    -4.9248  -4.9141  -4.9092  -4.8074  -4.7800  -4.7429  -4.7121  -4.6278
    -4.6184  -4.6110  -4.5591  -4.3634  -4.3259  -4.2259  -4.1979  -4.1829
    -4.1031  -4.0719  -4.0222  -3.9914  -3.8569  -3.8555  -3.7818  -3.7391
    -3.6210  -3.3517  -3.2573  -2.6416  -2.4216  -2.2391  -2.0189  -1.9940
    -1.9566  -1.9426  -1.8454  -1.8281  -1.7862  -1.7814  -1.6875  -1.6814
    -1.6675  -1.5801  -1.5775  -1.5665  -1.5307  -1.5084  -1.5032  -1.4591
    -1.4411  -1.3691  -1.3547  -1.3366  -1.3253  -1.3083  -1.2966  -1.2917
    -1.2847  -1.2757  -1.2576  -1.2452  -1.2109  -1.1987  -1.1886  -1.1742
    -1.1359  -1.1091  -1.1019  -1.0872  -1.0542  -1.0360  -1.0358  -1.0230
    -1.0147  -1.0078  -1.0043  -0.9872  -0.9811  -0.9617  -0.9171  -0.9074
    -0.7750  -0.6792  -0.6752  -0.6616  -0.6229  -0.5859  -0.5458  -0.5026
    -0.4636  -0.4439  -0.4189  -0.4161  -0.2821  -0.2482  -0.2217  -0.1769

          k = 0.0000 0.0000 0.1000 (****** PWs)   bands (ev):

   -22.6860 -22.6357 -22.6022 -22.4812 -22.4681 -22.4536 -22.4269 -22.4187
   -22.3943 -22.3859 -22.3853 -22.2465 -22.2377 -22.1805 -22.1720 -22.1406
   -22.0426 -21.9365 -21.9260 -21.8586 -21.8392 -21.8333 -21.8278 -21.8003
   -21.7903 -21.7659 -21.7576 -21.6985 -21.6223 -21.6111 -21.5693 -21.5546
   -21.5460 -21.4926 -21.4849 -21.3637 -21.3547 -21.3130 -21.3023 -21.2160
   -21.2051 -21.1287 -20.9685 -20.9297 -20.9167 -20.8804 -20.8656 -20.8407
   -20.8241 -20.7908 -20.7761 -20.7655 -20.7553 -20.7506 -20.7440 -20.7409
   -20.7365 -20.6117 -20.6000 -20.5462 -20.5361 -20.4349 -20.3254 -20.3038
   -20.3017 -20.2969 -20.2456 -20.2311 -20.2249 -20.2113 -20.2013 -20.1532
   -20.1437 -20.0415 -20.0335 -19.8832 -19.8685 -19.7574 -19.7423 -19.6398
   -19.6209 -19.6182 -19.5106 -19.4657 -19.4488 -19.4325 -19.4295 -19.4195
   -19.4180 -19.4159 -19.4006 -19.3948 -19.3880 -19.3286 -19.3183 -19.2641
   -19.2485 -19.2111 -19.1966 -19.1933 -19.1865 -19.1681 -19.1623 -18.9734
   -18.9552 -18.8794 -18.8632 -18.8350 -18.8250 -18.7035 -18.6687 -18.6542
   -18.6228 -18.6107 -18.5614 -18.5421 -18.5097 -18.5010 -18.4843 -18.4713
   -18.4524 -18.4320 -18.4203 -18.2681 -18.2580 -18.0708 -18.0156 -17.9775
   -17.9451 -17.9320 -17.8990 -17.8958 -17.8758 -17.8702 -17.8677 -17.8462
   -17.8313 -17.8135 -17.8006 -17.7355 -17.7216 -17.7097 -17.7056 -17.6925
   -17.6833 -17.6671 -17.6325 -17.6077 -17.5225 -17.5062 -17.4443 -17.4201
   -17.4083 -17.3970 -17.3855 -17.3403 -17.3049 -17.2793 -17.2719 -17.2579
   -17.2467 -17.2389 -17.2325 -17.2287 -17.1194 -17.0525 -17.0224 -16.9974
   -16.9349 -16.8866 -16.8124 -16.7810 -16.6340 -16.5863 -16.5416 -16.5234
   -16.4448 -16.4139 -16.3759 -16.3647 -16.2454 -16.2416 -16.1961 -16.0414
   -16.0306 -15.9984 -15.9452 -15.8998 -15.7943 -15.7308 -15.7252 -15.6721
   -15.5794 -15.5711 -15.5541 -15.5511 -15.5379 -15.5291 -15.5135 -15.5108
   -15.5004 -15.4915 -15.4886 -15.4830 -15.4446 -15.4126 -15.3941 -15.3919
   -15.3590 -15.3445 -15.3270 -15.3005 -15.2948 -15.2782 -15.2693 -15.2119
   -15.1746 -15.1543 -15.1430 -15.1290 -15.0968 -15.0650 -15.0100 -14.9995
   -14.9913 -14.9576 -14.9526 -14.8890 -14.8395 -14.7694 -14.7513 -14.7269
   -14.6873 -14.6685 -14.6170 -14.6089 -14.5888 -14.5424 -14.4831 -14.4195
   -14.4061 -14.4001 -14.3776 -14.3370 -14.2871 -14.2094 -14.1712 -14.1238
   -14.1128 -13.9769 -13.8946 -13.7714 -13.5484 -13.5460 -13.5363 -13.5307
   -13.5230 -13.5176 -13.5085 -13.4984 -13.4892 -13.4809 -13.4609 -13.4568
   -13.4490 -13.4332 -13.4305 -13.4251 -13.4042 -13.3936 -13.3585 -13.3144
   -13.2666 -13.2652 -13.2615 -13.2520 -13.2233 -13.2139 -13.2029 -13.1789
   -13.1762 -13.1678 -13.1183 -13.0957 -13.0884 -13.0212 -13.0080 -12.9998
   -12.9801 -12.9553 -12.9552 -12.9305 -12.9261 -12.7819 -12.6534 -12.5190
   -12.4986 -12.4621 -12.4030 -12.3949 -12.3424 -12.2943 -12.2796 -12.2612
   -12.2118 -12.1602 -12.1430 -12.1397 -12.1360 -12.1239 -12.1072 -12.0513
   -12.0472 -12.0228 -11.9872 -11.9798 -11.9378 -11.9293 -11.9234 -11.8708
   -11.7941 -11.7720 -11.7617 -11.7008 -11.6931 -11.6908 -11.6175 -11.5425
   -11.5360 -11.5242 -11.4956 -11.4860 -11.4771 -11.4614 -11.4499 -11.4274
   -11.4032 -11.3879 -11.3605 -11.3472 -11.3282 -11.3059 -11.2978 -11.2789
   -11.2151 -11.2089 -11.2048 -11.1880 -11.1836 -11.1754 -11.1323 -11.1254
   -11.1138 -11.0944 -11.0898 -11.0853 -11.0806 -11.0352 -11.0103 -10.9626
   -10.9488 -10.9444 -10.9081 -10.8947 -10.8465 -10.8152 -10.8100 -10.8081
   -10.7755 -10.7539 -10.7512 -10.7126 -10.6821 -10.6289 -10.5747 -10.5717
   -10.5668 -10.5427 -10.5178 -10.5160 -10.5105 -10.4982 -10.4854 -10.4779
   -10.4742 -10.4689 -10.4549 -10.4546 -10.4429 -10.4022 -10.3971 -10.3868
   -10.3480 -10.3455 -10.3335 -10.3156 -10.3007 -10.2821 -10.2451 -10.2282
   -10.2009 -10.1882 -10.1596 -10.1431 -10.1305 -10.1091 -10.0980 -10.0810
   -10.0765 -10.0621 -10.0594 -10.0558 -10.0493 -10.0480 -10.0410 -10.0355
   -10.0291 -10.0262 -10.0179 -10.0083  -9.9967  -9.9882  -9.9807  -9.9783
    -9.9683  -9.9606  -9.9546  -9.9488  -9.9428  -9.9309  -9.9271  -9.9235
    -9.9147  -9.9050  -9.9015  -9.8785  -9.8738  -9.8587  -9.8577  -9.8525
    -9.8482  -9.8368  -9.8129  -9.7920  -9.7871  -9.7814  -9.7643  -9.7604
    -9.7184  -9.7158  -9.7058  -9.6928  -9.6687  -9.6134  -9.6059  -9.5943
    -9.5731  -9.5711  -9.5600  -9.5483  -9.5367  -9.5005  -9.4940  -9.4630
    -9.4435  -9.4347  -9.4286  -9.3945  -9.3933  -9.3610  -9.3523  -9.3460
    -9.3318  -9.3224  -9.2934  -9.2801  -9.2661  -9.2462  -9.2405  -9.2302
    -9.2254  -9.1967  -9.1917  -9.1880  -9.1702  -9.1597  -9.1508  -9.1308
    -9.1235  -9.1147  -9.1053  -9.1018  -9.0969  -9.0957  -9.0899  -9.0418
    -9.0338  -9.0306  -9.0184  -8.9945  -8.9735  -8.9688  -8.9587  -8.9500
    -8.9298  -8.9228  -8.9125  -8.8997  -8.8871  -8.8808  -8.8479  -8.7308
    -8.7266  -8.7036  -8.6784  -8.6699  -8.6534  -8.5889  -8.5631  -8.5411
    -8.5321  -8.5278  -8.5175  -8.5146  -8.4780  -8.4635  -8.4578  -8.4185
    -8.4119  -8.3452  -8.3294  -8.3262  -8.3049  -8.2990  -8.2392  -8.2278
    -8.2198  -8.2109  -8.2085  -8.2031  -8.1882  -8.1812  -8.1660  -8.1597
    -8.1550  -8.1053  -8.0957  -8.0928  -8.0812  -8.0700  -8.0592  -8.0526
    -8.0450  -8.0400  -8.0264  -8.0054  -7.9962  -7.9920  -7.9834  -7.9310
    -7.9276  -7.9112  -7.8900  -7.8688  -7.8457  -7.8256  -7.7984  -7.7922
    -7.7791  -7.7758  -7.7599  -7.7419  -7.7367  -7.7254  -7.7223  -7.6955
    -7.6610  -7.6283  -7.6201  -7.6085  -7.6051  -7.5966  -7.5882  -7.5269
    -7.5025  -7.4949  -7.4716  -7.4453  -7.3969  -7.3875  -7.3415  -7.3183
    -7.3101  -7.2818  -7.2788  -7.2501  -7.2387  -7.2113  -7.1712  -7.1588
    -7.1509  -7.1306  -7.1173  -7.1055  -7.0918  -7.0491  -7.0447  -7.0394
    -7.0199  -6.9997  -6.9951  -6.9716  -6.9659  -6.9425  -6.9408  -6.9328
    -6.9239  -6.9213  -6.8890  -6.8498  -6.8394  -6.8234  -6.7964  -6.7924
    -6.7683  -6.7531  -6.7464  -6.7361  -6.7338  -6.7196  -6.7120  -6.6253
    -6.6108  -6.6031  -6.6006  -6.5893  -6.5768  -6.5633  -6.5284  -6.5256
    -6.5096  -6.4997  -6.4120  -6.3597  -6.3434  -6.3425  -6.3351  -6.2942
    -6.2852  -6.2772  -6.2632  -6.2423  -6.2080  -6.1824  -6.1717  -6.1597
    -6.1509  -6.1439  -6.1225  -6.0951  -6.0568  -6.0174  -5.9984  -5.9521
    -5.9446  -5.9234  -5.8576  -5.8484  -5.8234  -5.7792  -5.7244  -5.7145
    -5.6650  -5.5943  -5.5482  -5.5430  -5.4836  -5.4559  -5.4087  -5.3976
    -5.3746  -5.3395  -5.3277  -5.3105  -5.2964  -5.2805  -5.2518  -5.2475
    -5.2360  -5.2284  -5.2019  -5.1848  -5.1690  -5.1606  -5.1535  -5.1306
    -5.0772  -5.0465  -5.0217  -5.0018  -4.9924  -4.9569  -4.9426  -4.9199
    -4.9078  -4.8930  -4.8370  -4.8128  -4.7814  -4.7327  -4.6884  -4.6710
    -4.6183  -4.5705  -4.5591  -4.3975  -4.3098  -4.2510  -4.2207  -4.1633
    -4.1352  -4.0988  -4.0025  -3.9407  -3.8773  -3.8325  -3.7952  -3.7388
    -3.5985  -3.3665  -3.2662  -2.6339  -2.4100  -2.2422  -2.0649  -1.9778
    -1.9538  -1.9200  -1.9048  -1.8402  -1.7455  -1.7192  -1.6829  -1.6738
    -1.6607  -1.6258  -1.6003  -1.5422  -1.5175  -1.5034  -1.4834  -1.4672
    -1.4297  -1.4266  -1.3961  -1.3751  -1.3384  -1.3277  -1.2788  -1.2692
    -1.2539  -1.2439  -1.2426  -1.2267  -1.2220  -1.2016  -1.1965  -1.1716
    -1.1278  -1.1123  -1.0975  -1.0919  -1.0721  -1.0462  -1.0372  -1.0282
    -1.0082  -1.0021  -0.9903  -0.9864  -0.9769  -0.9401  -0.9121  -0.8606
    -0.7793  -0.7620  -0.7111  -0.6547  -0.6024  -0.5886  -0.5646  -0.5263
    -0.4988  -0.4260  -0.3577  -0.3431  -0.3084  -0.3065  -0.1937  -0.1434

          k = 0.0000 0.0000 0.2001 (****** PWs)   bands (ev):

   -22.6831 -22.6487 -22.5830 -22.4873 -22.4742 -22.4650 -22.4391 -22.4321
   -22.3749 -22.3662 -22.3509 -22.2757 -22.2675 -22.1873 -22.1445 -22.1361
   -21.9920 -21.9800 -21.9721 -21.8543 -21.8361 -21.8137 -21.8035 -21.7837
   -21.7757 -21.7605 -21.7465 -21.7382 -21.6509 -21.6406 -21.5558 -21.5471
   -21.5211 -21.5104 -21.4983 -21.3593 -21.3480 -21.2951 -21.2866 -21.2069
   -21.1645 -21.1535 -21.0058 -20.9946 -20.9398 -20.9272 -20.8838 -20.8406
   -20.8211 -20.7986 -20.7891 -20.7377 -20.7250 -20.6872 -20.6725 -20.6712
   -20.6685 -20.6383 -20.6290 -20.5287 -20.5115 -20.5011 -20.3944 -20.3806
   -20.3527 -20.3417 -20.3236 -20.3181 -20.1665 -20.1509 -20.1411 -20.0721
   -20.0612 -19.9501 -19.9362 -19.9350 -19.9284 -19.7381 -19.7208 -19.7120
   -19.6891 -19.6761 -19.5413 -19.5233 -19.4955 -19.4628 -19.4441 -19.4317
   -19.4050 -19.3939 -19.3801 -19.3696 -19.3432 -19.3345 -19.2918 -19.2842
   -19.2765 -19.1698 -19.1528 -19.1012 -19.0848 -19.0837 -19.0810 -19.0134
   -18.9985 -18.9403 -18.9299 -18.8337 -18.8187 -18.8136 -18.7540 -18.7427
   -18.6360 -18.6206 -18.6103 -18.5999 -18.5144 -18.5015 -18.4028 -18.3788
   -18.3670 -18.3571 -18.3274 -18.1581 -18.1354 -18.1152 -18.0869 -18.0652
   -18.0551 -18.0130 -17.9960 -17.9383 -17.8731 -17.8569 -17.8436 -17.8186
   -17.8094 -17.7921 -17.7917 -17.7818 -17.7199 -17.6957 -17.6495 -17.6367
   -17.6245 -17.6175 -17.6112 -17.6035 -17.5980 -17.5750 -17.4963 -17.4783
   -17.4603 -17.4288 -17.3234 -17.2959 -17.2873 -17.2854 -17.2709 -17.2551
   -17.2030 -17.1849 -17.1621 -17.1521 -17.1231 -17.0994 -17.0540 -17.0134
   -16.8823 -16.8614 -16.8298 -16.8110 -16.7601 -16.6535 -16.6277 -16.5902
   -16.4009 -16.3547 -16.3175 -16.2564 -16.2105 -16.1977 -16.1379 -16.0898
   -16.0073 -15.9567 -15.9322 -15.9154 -15.8444 -15.8394 -15.7614 -15.6760
   -15.6681 -15.6202 -15.5989 -15.5895 -15.5740 -15.5591 -15.5483 -15.5208
   -15.4972 -15.4878 -15.4690 -15.4189 -15.4169 -15.3865 -15.3604 -15.3554
   -15.3347 -15.3165 -15.2907 -15.2379 -15.2265 -15.2046 -15.1963 -15.1913
   -15.1728 -15.1642 -15.1550 -15.1496 -15.1048 -15.0672 -15.0452 -15.0264
   -15.0112 -14.9557 -14.8897 -14.8676 -14.8589 -14.8254 -14.8004 -14.7344
   -14.7115 -14.6707 -14.6467 -14.6379 -14.6225 -14.6204 -14.5970 -14.5543
   -14.4772 -14.2643 -14.2562 -14.2305 -14.2112 -14.1579 -14.0942 -14.0746
   -14.0604 -13.9691 -13.7801 -13.6907 -13.6866 -13.6794 -13.6667 -13.6214
   -13.6152 -13.5707 -13.5367 -13.5280 -13.5245 -13.5009 -13.4961 -13.4631
   -13.4578 -13.4462 -13.4239 -13.4198 -13.4008 -13.3783 -13.3700 -13.3618
   -13.3040 -13.2893 -13.2570 -13.1964 -13.1855 -13.1600 -13.1411 -13.1253
   -13.1084 -13.1047 -13.0945 -13.0624 -13.0611 -13.0195 -13.0179 -13.0110
   -12.9740 -12.8798 -12.8666 -12.7990 -12.7883 -12.7261 -12.6770 -12.6459
   -12.5507 -12.5491 -12.5340 -12.4873 -12.4480 -12.4172 -12.3504 -12.2757
   -12.2553 -12.1860 -12.1823 -12.1545 -12.1304 -12.1116 -12.0710 -12.0595
   -11.9952 -11.9588 -11.9051 -11.8906 -11.8574 -11.8354 -11.8308 -11.7945
   -11.7866 -11.7343 -11.6997 -11.6877 -11.6769 -11.6664 -11.6327 -11.5985
   -11.5739 -11.5664 -11.5409 -11.4573 -11.4325 -11.4221 -11.4219 -11.4085
   -11.3849 -11.3822 -11.3750 -11.3658 -11.3579 -11.3415 -11.3253 -11.3098
   -11.3074 -11.2685 -11.2488 -11.2356 -11.2209 -11.2184 -11.1799 -11.1689
   -11.1618 -11.1465 -11.1377 -11.1297 -11.0792 -11.0478 -10.9986 -10.9549
   -10.9104 -10.9077 -10.8979 -10.8754 -10.8055 -10.7671 -10.7602 -10.7559
   -10.6906 -10.6840 -10.6780 -10.6405 -10.6130 -10.5812 -10.5764 -10.5671
   -10.5618 -10.5554 -10.5318 -10.5262 -10.5196 -10.5083 -10.5026 -10.4946
   -10.4858 -10.4797 -10.4572 -10.4492 -10.4420 -10.4220 -10.3846 -10.3764
   -10.3630 -10.3491 -10.3479 -10.3340 -10.2706 -10.2533 -10.2481 -10.2369
   -10.2318 -10.2067 -10.1953 -10.1881 -10.1864 -10.1400 -10.1224 -10.1033
   -10.0924 -10.0844 -10.0800 -10.0640 -10.0607 -10.0536 -10.0457 -10.0411
   -10.0381 -10.0329 -10.0316 -10.0195 -10.0165 -10.0079 -10.0059 -10.0023
    -9.9967  -9.9804  -9.9577  -9.9519  -9.9440  -9.9290  -9.9235  -9.9219
    -9.8965  -9.8881  -9.8795  -9.8737  -9.8626  -9.8605  -9.8549  -9.8301
    -9.8037  -9.8008  -9.8001  -9.7855  -9.7724  -9.7558  -9.7353  -9.7090
    -9.7032  -9.6657  -9.6563  -9.6496  -9.6482  -9.6369  -9.6325  -9.6262
    -9.5907  -9.5772  -9.5520  -9.5381  -9.5247  -9.5208  -9.4994  -9.4891
    -9.4763  -9.4395  -9.4186  -9.4099  -9.3514  -9.3405  -9.3338  -9.3253
    -9.3236  -9.3197  -9.3066  -9.2858  -9.2639  -9.2574  -9.2438  -9.2318
    -9.2236  -9.2119  -9.1975  -9.1815  -9.1667  -9.1531  -9.1516  -9.1390
    -9.1353  -9.1257  -9.1065  -9.0969  -9.0939  -9.0793  -9.0726  -9.0624
    -9.0571  -9.0527  -9.0439  -9.0049  -8.9693  -8.9639  -8.9566  -8.9514
    -8.9272  -8.9133  -8.9120  -8.9076  -8.8920  -8.8564  -8.8037  -8.7973
    -8.7616  -8.7493  -8.7343  -8.6791  -8.6391  -8.5929  -8.5630  -8.5486
    -8.5321  -8.5165  -8.5111  -8.4843  -8.4681  -8.4383  -8.4216  -8.3468
    -8.3380  -8.3261  -8.3133  -8.2982  -8.2872  -8.2823  -8.2437  -8.2235
    -8.2187  -8.2081  -8.1983  -8.1959  -8.1850  -8.1824  -8.1759  -8.1604
    -8.1509  -8.1412  -8.1319  -8.1288  -8.1178  -8.0971  -8.0950  -8.0824
    -8.0788  -8.0576  -8.0530  -8.0277  -7.9776  -7.9654  -7.9596  -7.9494
    -7.9437  -7.9093  -7.8859  -7.8823  -7.8525  -7.8447  -7.8266  -7.8043
    -7.7859  -7.7854  -7.7775  -7.7635  -7.7522  -7.7199  -7.7107  -7.6663
    -7.6487  -7.5970  -7.5758  -7.5606  -7.5446  -7.5252  -7.5157  -7.5081
    -7.4989  -7.4579  -7.4342  -7.4214  -7.4165  -7.4000  -7.3767  -7.3438
    -7.3362  -7.3167  -7.2888  -7.2712  -7.2447  -7.2275  -7.2216  -7.1991
    -7.1636  -7.1562  -7.1475  -7.1099  -7.0989  -7.0901  -7.0829  -7.0773
    -7.0687  -7.0286  -7.0110  -6.9913  -6.9464  -6.9358  -6.9126  -6.8787
    -6.8660  -6.8337  -6.8321  -6.8297  -6.8278  -6.8137  -6.8014  -6.7946
    -6.7865  -6.7830  -6.7390  -6.7285  -6.7144  -6.6663  -6.6568  -6.6529
    -6.6353  -6.6201  -6.6149  -6.5549  -6.5244  -6.5193  -6.4880  -6.4783
    -6.4690  -6.4671  -6.4557  -6.4453  -6.3779  -6.3721  -6.3574  -6.3495
    -6.3479  -6.3193  -6.3103  -6.2491  -6.2263  -6.1955  -6.1876  -6.1588
    -6.1505  -6.1342  -6.1138  -6.0957  -6.0780  -6.0523  -5.9660  -5.9297
    -5.9148  -5.8856  -5.8607  -5.8187  -5.7595  -5.7252  -5.6876  -5.6653
    -5.6495  -5.6312  -5.6124  -5.5672  -5.4741  -5.4656  -5.3969  -5.3801
    -5.3552  -5.3321  -5.3226  -5.3073  -5.3045  -5.2941  -5.2754  -5.2733
    -5.2508  -5.2425  -5.2328  -5.1981  -5.1927  -5.1713  -5.1589  -5.1498
    -5.1040  -5.0664  -5.0393  -5.0304  -4.9890  -4.9462  -4.9204  -4.8859
    -4.8747  -4.8638  -4.8409  -4.7889  -4.7279  -4.7138  -4.6730  -4.6538
    -4.6231  -4.5625  -4.5189  -4.4471  -4.3335  -4.3072  -4.2629  -4.2053
    -4.1339  -4.0716  -3.9649  -3.9322  -3.8660  -3.8502  -3.7873  -3.7164
    -3.5527  -3.4073  -3.2907  -2.6150  -2.3777  -2.2509  -2.1236  -1.9995
    -1.9799  -1.9073  -1.8756  -1.8575  -1.6810  -1.6688  -1.6632  -1.6536
    -1.6481  -1.6412  -1.6292  -1.5555  -1.4957  -1.4906  -1.4736  -1.4642
    -1.4630  -1.4520  -1.4425  -1.4011  -1.3825  -1.3331  -1.3166  -1.2978
    -1.2811  -1.2686  -1.2027  -1.1885  -1.1770  -1.1746  -1.1597  -1.1437
    -1.1328  -1.1299  -1.1079  -1.0878  -1.0569  -1.0478  -1.0296  -1.0170
    -1.0061  -0.9982  -0.9865  -0.9798  -0.9271  -0.9077  -0.8721  -0.8489
    -0.8464  -0.8096  -0.7579  -0.6947  -0.6743  -0.6322  -0.5372  -0.5022
    -0.4686  -0.4406  -0.3896  -0.3187  -0.2437  -0.2098  -0.1911  -0.1623

          k = 0.0000 0.0000 0.3001 (****** PWs)   bands (ev):

   -22.6786 -22.6593 -22.5618 -22.5122 -22.4731 -22.4599 -22.4485 -22.4434
   -22.3540 -22.3447 -22.3141 -22.3019 -22.2952 -22.2310 -22.1073 -22.0982
   -22.0250 -22.0161 -21.9363 -21.8519 -21.8311 -21.8230 -21.8185 -21.8147
   -21.7367 -21.7218 -21.7210 -21.7166 -21.6773 -21.6680 -21.6144 -21.6072
   -21.4845 -21.4728 -21.4293 -21.4017 -21.3916 -21.2831 -21.2256 -21.2165
   -21.1127 -21.0999 -21.0790 -21.0705 -20.9980 -20.9867 -20.8421 -20.8161
   -20.8064 -20.8001 -20.7955 -20.7180 -20.7040 -20.6670 -20.6560 -20.6213
   -20.6108 -20.6001 -20.5903 -20.5858 -20.4814 -20.4643 -20.4624 -20.4556
   -20.4171 -20.4093 -20.3920 -20.3844 -20.1139 -20.0983 -20.0433 -20.0037
   -19.9877 -19.9835 -19.9767 -19.8498 -19.8354 -19.8320 -19.8117 -19.8018
   -19.6451 -19.6289 -19.6209 -19.6080 -19.5090 -19.4671 -19.4646 -19.4578
   -19.4477 -19.4423 -19.3663 -19.3492 -19.3140 -19.3027 -19.2470 -19.2359
   -19.1746 -19.1352 -19.1171 -19.0626 -19.0405 -19.0374 -19.0336 -19.0093
   -18.9996 -18.9760 -18.9706 -18.9385 -18.8437 -18.8299 -18.7794 -18.7635
   -18.7451 -18.7386 -18.6696 -18.6562 -18.4108 -18.3915 -18.3282 -18.2927
   -18.2876 -18.2845 -18.2093 -18.1901 -18.1690 -18.1634 -18.1565 -18.1051
   -18.0930 -18.0238 -18.0108 -17.9563 -17.9303 -17.8687 -17.8594 -17.8531
   -17.7983 -17.7701 -17.7644 -17.7574 -17.7387 -17.7244 -17.7150 -17.7143
   -17.5958 -17.5628 -17.5575 -17.5436 -17.5276 -17.5183 -17.5170 -17.4994
   -17.4917 -17.4665 -17.3744 -17.3525 -17.3377 -17.2908 -17.2526 -17.2098
   -17.1599 -17.1502 -17.1272 -17.1036 -17.0730 -17.0526 -17.0330 -16.9967
   -16.9261 -16.8917 -16.8707 -16.8242 -16.7756 -16.7516 -16.6953 -16.6499
   -16.3661 -16.3012 -16.2842 -16.1758 -16.1449 -16.1363 -16.1297 -16.0532
   -15.9801 -15.9699 -15.9527 -15.9474 -15.8898 -15.8581 -15.8119 -15.7791
   -15.7411 -15.6928 -15.6457 -15.5710 -15.5635 -15.5574 -15.5414 -15.5025
   -15.4795 -15.4641 -15.4567 -15.4391 -15.4288 -15.3705 -15.3270 -15.3028
   -15.2925 -15.2834 -15.2818 -15.2536 -15.2352 -15.2285 -15.2250 -15.1776
   -15.1314 -15.1083 -15.0753 -15.0599 -15.0438 -15.0346 -15.0268 -15.0150
   -15.0070 -14.9830 -14.9620 -14.9365 -14.8968 -14.8325 -14.7994 -14.7906
   -14.7657 -14.7530 -14.7083 -14.6864 -14.6739 -14.6404 -14.5832 -14.5397
   -14.4646 -14.3361 -14.2147 -14.1215 -14.1106 -14.0826 -14.0259 -13.9540
   -13.9425 -13.8338 -13.8249 -13.8188 -13.8098 -13.7571 -13.7297 -13.6893
   -13.6622 -13.6088 -13.5367 -13.5315 -13.5227 -13.5193 -13.5061 -13.4970
   -13.4901 -13.4711 -13.4344 -13.4205 -13.4127 -13.4059 -13.4007 -13.3941
   -13.3233 -13.3206 -13.2686 -13.2210 -13.2180 -13.1227 -13.1089 -13.0728
   -13.0664 -13.0394 -13.0300 -13.0187 -12.9829 -12.9619 -12.9201 -12.9183
   -12.9094 -12.8015 -12.7952 -12.7719 -12.7454 -12.6950 -12.6766 -12.6689
   -12.6485 -12.6364 -12.6314 -12.6018 -12.5628 -12.4862 -12.4083 -12.3811
   -12.3334 -12.3140 -12.1603 -12.1407 -12.0927 -12.0899 -12.0688 -11.9989
   -11.9416 -11.8946 -11.8711 -11.8405 -11.8094 -11.7595 -11.7516 -11.7344
   -11.7310 -11.6825 -11.6678 -11.6447 -11.6420 -11.6282 -11.6232 -11.6057
   -11.6032 -11.5950 -11.5095 -11.5042 -11.4933 -11.4683 -11.4422 -11.4164
   -11.4086 -11.3864 -11.3770 -11.3691 -11.3663 -11.3595 -11.3346 -11.3225
   -11.3205 -11.3126 -11.2975 -11.2769 -11.2563 -11.2353 -11.2291 -11.2161
   -11.2072 -11.2037 -11.1599 -11.1502 -11.1382 -11.0625 -11.0391 -10.9096
   -10.8794 -10.8349 -10.8082 -10.8021 -10.7991 -10.7794 -10.7061 -10.6662
   -10.6529 -10.6362 -10.6282 -10.6213 -10.6128 -10.6080 -10.6036 -10.5627
   -10.5586 -10.5571 -10.5507 -10.5440 -10.5342 -10.5002 -10.4898 -10.4722
   -10.4370 -10.4329 -10.4273 -10.4199 -10.4091 -10.3866 -10.3817 -10.3759
   -10.3693 -10.3555 -10.3355 -10.3239 -10.3109 -10.3086 -10.2946 -10.2856
   -10.2579 -10.2284 -10.2016 -10.1957 -10.1908 -10.1862 -10.1787 -10.1666
   -10.1655 -10.1485 -10.1432 -10.0955 -10.0782 -10.0669 -10.0567 -10.0496
   -10.0424 -10.0351 -10.0307 -10.0150 -10.0120 -10.0067  -9.9964  -9.9883
    -9.9794  -9.9685  -9.9611  -9.9571  -9.9490  -9.9323  -9.9193  -9.9148
    -9.9076  -9.8805  -9.8429  -9.8384  -9.8301  -9.8108  -9.8023  -9.8002
    -9.7994  -9.7935  -9.7848  -9.7807  -9.7567  -9.7481  -9.7244  -9.7015
    -9.6939  -9.6839  -9.6673  -9.6565  -9.6344  -9.6269  -9.6254  -9.5922
    -9.5723  -9.5636  -9.5596  -9.5484  -9.5423  -9.5177  -9.5030  -9.4942
    -9.4934  -9.4427  -9.4121  -9.3965  -9.3866  -9.3617  -9.3513  -9.3244
    -9.3107  -9.3036  -9.2992  -9.2926  -9.2714  -9.2647  -9.2590  -9.2402
    -9.2264  -9.1942  -9.1729  -9.1650  -9.1472  -9.1368  -9.1306  -9.1241
    -9.1136  -9.1019  -9.0974  -9.0936  -9.0917  -9.0878  -9.0739  -9.0727
    -9.0504  -9.0425  -9.0378  -9.0108  -9.0028  -8.9878  -8.9850  -8.9820
    -8.9420  -8.9347  -8.9263  -8.9185  -8.9123  -8.9069  -8.8644  -8.8486
    -8.7728  -8.7134  -8.6481  -8.6217  -8.6088  -8.5975  -8.5743  -8.5529
    -8.5498  -8.5356  -8.5152  -8.5088  -8.4200  -8.3856  -8.3667  -8.3522
    -8.3351  -8.3222  -8.3095  -8.2866  -8.2681  -8.2493  -8.2419  -8.2371
    -8.2270  -8.2150  -8.2030  -8.1983  -8.1890  -8.1774  -8.1695  -8.1613
    -8.1559  -8.1482  -8.1265  -8.1186  -8.1133  -8.0915  -8.0907  -8.0867
    -8.0765  -8.0701  -8.0492  -8.0393  -8.0072  -8.0002  -7.9880  -7.9665
    -7.9549  -7.9299  -7.9203  -7.9193  -7.9043  -7.8838  -7.8398  -7.8362
    -7.8266  -7.8206  -7.7751  -7.7136  -7.6713  -7.6612  -7.6598  -7.6439
    -7.6267  -7.5568  -7.5525  -7.5284  -7.5191  -7.5133  -7.4861  -7.4727
    -7.4571  -7.4431  -7.4216  -7.4095  -7.4049  -7.3995  -7.3702  -7.3482
    -7.3391  -7.3253  -7.2983  -7.2926  -7.2830  -7.2732  -7.2523  -7.2399
    -7.2182  -7.2109  -7.1947  -7.1878  -7.1741  -7.1367  -7.0800  -7.0386
    -7.0171  -7.0038  -6.9865  -6.9716  -6.9527  -6.9383  -6.9041  -6.8775
    -6.8631  -6.8455  -6.8336  -6.8215  -6.8125  -6.8099  -6.7924  -6.7750
    -6.7404  -6.7211  -6.7124  -6.7113  -6.7048  -6.6961  -6.6656  -6.6474
    -6.6216  -6.5930  -6.5533  -6.5377  -6.5068  -6.5029  -6.4846  -6.4598
    -6.4472  -6.4378  -6.4315  -6.4255  -6.4147  -6.4102  -6.4041  -6.3836
    -6.3736  -6.3666  -6.3516  -6.3084  -6.2702  -6.2582  -6.2397  -6.2266
    -6.1960  -6.1100  -6.0688  -6.0477  -6.0118  -5.9927  -5.9657  -5.9533
    -5.9457  -5.8565  -5.8232  -5.7734  -5.7669  -5.7091  -5.6872  -5.6499
    -5.6225  -5.5905  -5.5720  -5.5272  -5.5220  -5.4677  -5.4208  -5.4084
    -5.3888  -5.3541  -5.3256  -5.3216  -5.3044  -5.3008  -5.2886  -5.2664
    -5.2636  -5.2514  -5.2418  -5.2278  -5.2108  -5.1894  -5.1546  -5.1275
    -5.1057  -5.0890  -5.0500  -5.0309  -4.9909  -4.9484  -4.9023  -4.8839
    -4.8619  -4.8540  -4.8366  -4.7699  -4.7420  -4.6616  -4.6193  -4.6025
    -4.5740  -4.5646  -4.5075  -4.4575  -4.4151  -4.3679  -4.3514  -4.2089
    -4.1011  -4.0197  -3.9988  -3.9101  -3.8948  -3.8410  -3.7905  -3.6492
    -3.5146  -3.4592  -3.3219  -2.5954  -2.3309  -2.2625  -2.1829  -2.0402
    -1.9756  -1.9343  -1.8346  -1.8075  -1.7326  -1.6936  -1.6421  -1.6211
    -1.6134  -1.5929  -1.5764  -1.5513  -1.5312  -1.5145  -1.5121  -1.4734
    -1.4553  -1.4285  -1.4173  -1.4140  -1.4002  -1.3775  -1.3504  -1.3413
    -1.3202  -1.2994  -1.2458  -1.2066  -1.1714  -1.1440  -1.1149  -1.0991
    -1.0863  -1.0821  -1.0708  -1.0577  -1.0548  -1.0253  -1.0120  -1.0067
    -0.9910  -0.9855  -0.9818  -0.9592  -0.9328  -0.9276  -0.9174  -0.9037
    -0.8570  -0.7964  -0.7715  -0.7587  -0.7327  -0.6120  -0.5577  -0.5330
    -0.4582  -0.4153  -0.3697  -0.2669  -0.2593  -0.2406  -0.1960  -0.1149

          k = 0.0000 0.0000 0.4002 (****** PWs)   bands (ev):

   -22.6750 -22.6649 -22.5427 -22.5331 -22.4712 -22.4534 -22.4525 -22.4520
   -22.3367 -22.3228 -22.3223 -22.3193 -22.2759 -22.2701 -22.0739 -22.0605
   -22.0594 -22.0569 -21.8853 -21.8765 -21.8470 -21.8246 -21.8241 -21.8236
   -21.7161 -21.6955 -21.6940 -21.6930 -21.6744 -21.6682 -21.6660 -21.6643
   -21.4524 -21.4363 -21.4340 -21.4324 -21.3598 -21.3537 -21.1616 -21.1476
   -21.1448 -21.1436 -21.0624 -21.0482 -21.0451 -21.0434 -20.8405 -20.8095
   -20.8089 -20.8087 -20.7196 -20.7049 -20.6979 -20.6820 -20.6809 -20.6802
   -20.5522 -20.5338 -20.5295 -20.5279 -20.5090 -20.5013 -20.4981 -20.4971
   -20.4427 -20.4273 -20.4252 -20.4245 -20.0712 -20.0455 -20.0441 -20.0434
   -19.9471 -19.9360 -19.9072 -19.8951 -19.8909 -19.8884 -19.7507 -19.7351
   -19.7324 -19.7312 -19.5757 -19.5416 -19.5386 -19.5380 -19.4833 -19.4518
   -19.4506 -19.4504 -19.3557 -19.3278 -19.3264 -19.3262 -19.1645 -19.1408
   -19.1350 -19.1344 -19.1052 -19.0799 -19.0792 -19.0791 -19.0581 -19.0535
   -18.9385 -18.9196 -18.9150 -18.9145 -18.8675 -18.8573 -18.8555 -18.8537
   -18.7388 -18.7121 -18.7111 -18.7094 -18.3350 -18.2860 -18.2803 -18.2770
   -18.2574 -18.2283 -18.2260 -18.2234 -18.2007 -18.1926 -18.1887 -18.1879
   -18.0799 -18.0712 -17.9608 -17.8903 -17.8891 -17.8833 -17.8821 -17.8643
   -17.8605 -17.8591 -17.7867 -17.7524 -17.7439 -17.7366 -17.6615 -17.6383
   -17.6374 -17.6365 -17.5576 -17.5271 -17.5109 -17.4986 -17.4553 -17.4391
   -17.4319 -17.4312 -17.4233 -17.4202 -17.3915 -17.3817 -17.2236 -17.1902
   -17.1642 -17.1483 -17.0839 -17.0631 -17.0260 -17.0207 -16.9976 -16.9955
   -16.9537 -16.9535 -16.8828 -16.8685 -16.7776 -16.7466 -16.7159 -16.7004
   -16.3521 -16.2895 -16.2379 -16.2142 -16.0994 -16.0514 -16.0474 -16.0455
   -16.0427 -16.0421 -15.9663 -15.9273 -15.8752 -15.8745 -15.8392 -15.7870
   -15.7799 -15.7590 -15.6625 -15.5671 -15.5633 -15.5630 -15.5302 -15.4641
   -15.4577 -15.4574 -15.4424 -15.4034 -15.4029 -15.4026 -15.3899 -15.3717
   -15.3035 -15.2647 -15.2579 -15.2574 -15.2295 -15.2089 -15.1728 -15.1046
   -15.0971 -15.0953 -15.0898 -15.0836 -15.0571 -15.0435 -15.0139 -14.9706
   -14.9671 -14.9650 -14.9356 -14.9203 -14.9034 -14.8971 -14.8851 -14.8641
   -14.8034 -14.7274 -14.7242 -14.6980 -14.6731 -14.6717 -14.6352 -14.4497
   -14.4341 -14.3486 -14.3285 -13.9823 -13.9743 -13.9712 -13.9625 -13.9562
   -13.9425 -13.8963 -13.8884 -13.8484 -13.8365 -13.8153 -13.8098 -13.6733
   -13.6665 -13.5520 -13.5480 -13.5470 -13.5426 -13.5334 -13.5302 -13.5155
   -13.5099 -13.4832 -13.4788 -13.4183 -13.4113 -13.4077 -13.4018 -13.3725
   -13.3707 -13.2740 -13.2734 -13.2494 -13.2391 -13.0974 -13.0949 -13.0781
   -13.0689 -13.0538 -13.0464 -12.8992 -12.8940 -12.8604 -12.8599 -12.8421
   -12.8367 -12.8225 -12.8143 -12.7776 -12.7731 -12.7585 -12.7529 -12.7203
   -12.7197 -12.6193 -12.6172 -12.5406 -12.5391 -12.5127 -12.5119 -12.4418
   -12.4406 -12.2487 -12.2470 -12.1209 -12.1181 -12.0141 -12.0109 -11.9941
   -11.9917 -11.8665 -11.8656 -11.7887 -11.7873 -11.7599 -11.7464 -11.6865
   -11.6789 -11.6599 -11.6585 -11.6411 -11.6389 -11.6161 -11.6096 -11.5752
   -11.5716 -11.5330 -11.5315 -11.5077 -11.5046 -11.5025 -11.5011 -11.4582
   -11.4571 -11.4332 -11.4210 -11.3790 -11.3703 -11.3545 -11.3540 -11.3288
   -11.3232 -11.3024 -11.2967 -11.2657 -11.2636 -11.2455 -11.2430 -11.1843
   -11.1708 -11.1689 -11.1688 -11.1678 -11.1661 -11.1479 -11.1473 -10.7944
   -10.7883 -10.7838 -10.7722 -10.7643 -10.7620 -10.7570 -10.7549 -10.7326
   -10.7225 -10.7059 -10.7056 -10.6410 -10.6358 -10.5556 -10.5539 -10.5539
   -10.5412 -10.5031 -10.4949 -10.4942 -10.4837 -10.4697 -10.4668 -10.4443
   -10.4363 -10.4294 -10.4263 -10.4134 -10.4095 -10.4051 -10.4012 -10.3976
   -10.3896 -10.3445 -10.3382 -10.3273 -10.3246 -10.3135 -10.3095 -10.3023
   -10.2952 -10.2501 -10.2414 -10.2329 -10.2223 -10.2000 -10.1929 -10.1375
   -10.1362 -10.1256 -10.1209 -10.1164 -10.1085 -10.1001 -10.0975 -10.0869
   -10.0696 -10.0507 -10.0441 -10.0292 -10.0211  -9.9947  -9.9787  -9.9764
    -9.9703  -9.9529  -9.9460  -9.9407  -9.9319  -9.9044  -9.9037  -9.9011
    -9.8993  -9.8958  -9.8951  -9.8227  -9.8187  -9.8008  -9.7970  -9.7918
    -9.7892  -9.7817  -9.7772  -9.7467  -9.7393  -9.7240  -9.7168  -9.7125
    -9.6914  -9.6901  -9.6879  -9.6645  -9.6514  -9.6231  -9.6215  -9.6124
    -9.6048  -9.5597  -9.5542  -9.5146  -9.5060  -9.4999  -9.4822  -9.4793
    -9.4721  -9.4676  -9.4622  -9.4318  -9.4294  -9.3478  -9.3370  -9.3225
    -9.3080  -9.3024  -9.3013  -9.2970  -9.2945  -9.2848  -9.2763  -9.1984
    -9.1915  -9.1632  -9.1585  -9.1506  -9.1386  -9.1202  -9.1153  -9.1136
    -9.1079  -9.1053  -9.0994  -9.0956  -9.0890  -9.0830  -9.0820  -9.0628
    -9.0548  -9.0466  -9.0379  -9.0347  -9.0263  -9.0160  -9.0075  -8.9629
    -8.9592  -8.9481  -8.9437  -8.9288  -8.9211  -8.9125  -8.9122  -8.8255
    -8.8083  -8.6384  -8.6299  -8.6285  -8.6002  -8.5965  -8.5963  -8.5503
    -8.5372  -8.5149  -8.5082  -8.4743  -8.4687  -8.3818  -8.3780  -8.3315
    -8.3207  -8.3115  -8.3086  -8.2868  -8.2858  -8.2738  -8.2626  -8.2445
    -8.2374  -8.2319  -8.2299  -8.1835  -8.1809  -8.1577  -8.1507  -8.1370
    -8.1358  -8.1039  -8.0997  -8.0925  -8.0875  -8.0815  -8.0784  -8.0653
    -8.0649  -8.0554  -8.0533  -8.0490  -8.0438  -8.0389  -8.0371  -8.0294
    -8.0261  -7.9531  -7.9405  -7.8877  -7.8862  -7.8803  -7.8779  -7.8621
    -7.8617  -7.7763  -7.7705  -7.7011  -7.6993  -7.6138  -7.6073  -7.5874
    -7.5788  -7.5744  -7.5722  -7.5639  -7.5474  -7.4874  -7.4838  -7.4589
    -7.4583  -7.4169  -7.4099  -7.3851  -7.3786  -7.3703  -7.3629  -7.3356
    -7.3308  -7.3205  -7.3090  -7.2987  -7.2981  -7.2806  -7.2739  -7.2686
    -7.2673  -7.2662  -7.2645  -7.1900  -7.1840  -7.1308  -7.1181  -7.0052
    -6.9880  -6.9653  -6.9573  -6.9519  -6.9452  -6.9374  -6.9308  -6.9239
    -6.9204  -6.8519  -6.8329  -6.8142  -6.8140  -6.7776  -6.7637  -6.7571
    -6.7430  -6.7318  -6.7106  -6.6729  -6.6722  -6.6691  -6.6502  -6.6433
    -6.6371  -6.5988  -6.5912  -6.5345  -6.5226  -6.4709  -6.4686  -6.4569
    -6.4521  -6.4074  -6.4069  -6.3999  -6.3984  -6.3942  -6.3934  -6.3891
    -6.3876  -6.3797  -6.3694  -6.3429  -6.3424  -6.3276  -6.3117  -6.2141
    -6.2061  -6.0635  -6.0601  -6.0121  -6.0089  -6.0016  -5.9948  -5.9404
    -5.8881  -5.8648  -5.8556  -5.7663  -5.7624  -5.7279  -5.6814  -5.6113
    -5.6059  -5.5443  -5.5325  -5.5295  -5.5021  -5.4826  -5.4818  -5.4275
    -5.4108  -5.3654  -5.3485  -5.3186  -5.3068  -5.2927  -5.2916  -5.2899
    -5.2858  -5.2503  -5.2296  -5.2196  -5.2045  -5.1742  -5.1625  -5.1284
    -5.1159  -5.0815  -5.0736  -5.0219  -4.9731  -4.9423  -4.9418  -4.8790
    -4.8577  -4.8235  -4.8181  -4.8062  -4.7404  -4.6530  -4.5796  -4.5565
    -4.5456  -4.5199  -4.5165  -4.4762  -4.4674  -4.4055  -4.4025  -4.2108
    -4.0581  -4.0428  -3.9779  -3.9497  -3.8731  -3.8415  -3.7962  -3.5937
    -3.5336  -3.4678  -3.3392  -2.5869  -2.2920  -2.2737  -2.2198  -2.0543
    -1.9607  -1.9587  -1.7949  -1.7801  -1.7489  -1.7458  -1.6123  -1.6018
    -1.5837  -1.5816  -1.5748  -1.5727  -1.5592  -1.5087  -1.4915  -1.4577
    -1.4509  -1.4386  -1.4272  -1.4138  -1.3859  -1.3832  -1.3732  -1.3690
    -1.3520  -1.3157  -1.2746  -1.2106  -1.1598  -1.1448  -1.0945  -1.0879
    -1.0694  -1.0607  -1.0221  -1.0178  -1.0134  -1.0102  -1.0078  -1.0057
    -1.0019  -0.9866  -0.9853  -0.9844  -0.9640  -0.9337  -0.9162  -0.9088
    -0.8899  -0.8374  -0.8293  -0.7009  -0.6610  -0.6583  -0.6397  -0.5270
    -0.4161  -0.3704  -0.3415  -0.3258  -0.3243  -0.2390  -0.1291  -0.0910

          k = 0.0000 0.0000 0.5002 (****** PWs)   bands (ev):

   -22.6786 -22.6593 -22.5618 -22.5122 -22.4731 -22.4599 -22.4485 -22.4434
   -22.3540 -22.3447 -22.3141 -22.3019 -22.2952 -22.2310 -22.1073 -22.0982
   -22.0250 -22.0161 -21.9363 -21.8519 -21.8311 -21.8230 -21.8185 -21.8147
   -21.7367 -21.7218 -21.7210 -21.7166 -21.6773 -21.6680 -21.6144 -21.6072
   -21.4845 -21.4728 -21.4293 -21.4017 -21.3916 -21.2831 -21.2256 -21.2165
   -21.1127 -21.0999 -21.0790 -21.0705 -20.9980 -20.9867 -20.8421 -20.8161
   -20.8064 -20.8001 -20.7955 -20.7180 -20.7040 -20.6670 -20.6560 -20.6213
   -20.6108 -20.6001 -20.5903 -20.5858 -20.4814 -20.4643 -20.4624 -20.4556
   -20.4171 -20.4093 -20.3920 -20.3844 -20.1139 -20.0983 -20.0433 -20.0037
   -19.9877 -19.9835 -19.9767 -19.8498 -19.8354 -19.8320 -19.8117 -19.8018
   -19.6451 -19.6289 -19.6209 -19.6080 -19.5090 -19.4671 -19.4646 -19.4578
   -19.4477 -19.4423 -19.3663 -19.3492 -19.3140 -19.3027 -19.2470 -19.2359
   -19.1746 -19.1352 -19.1171 -19.0626 -19.0405 -19.0374 -19.0336 -19.0093
   -18.9996 -18.9760 -18.9706 -18.9385 -18.8437 -18.8299 -18.7794 -18.7635
   -18.7451 -18.7386 -18.6696 -18.6562 -18.4108 -18.3915 -18.3282 -18.2927
   -18.2876 -18.2845 -18.2093 -18.1901 -18.1690 -18.1634 -18.1565 -18.1051
   -18.0930 -18.0238 -18.0108 -17.9563 -17.9303 -17.8687 -17.8594 -17.8531
   -17.7983 -17.7701 -17.7644 -17.7574 -17.7387 -17.7244 -17.7150 -17.7143
   -17.5958 -17.5628 -17.5575 -17.5436 -17.5276 -17.5183 -17.5170 -17.4994
   -17.4917 -17.4665 -17.3744 -17.3525 -17.3377 -17.2908 -17.2526 -17.2098
   -17.1599 -17.1502 -17.1272 -17.1036 -17.0730 -17.0526 -17.0330 -16.9967
   -16.9261 -16.8917 -16.8707 -16.8242 -16.7756 -16.7516 -16.6953 -16.6499
   -16.3661 -16.3012 -16.2842 -16.1758 -16.1449 -16.1363 -16.1297 -16.0532
   -15.9801 -15.9699 -15.9527 -15.9474 -15.8898 -15.8581 -15.8119 -15.7791
   -15.7411 -15.6928 -15.6457 -15.5710 -15.5635 -15.5574 -15.5414 -15.5025
   -15.4795 -15.4641 -15.4567 -15.4391 -15.4288 -15.3705 -15.3270 -15.3028
   -15.2925 -15.2834 -15.2818 -15.2536 -15.2352 -15.2285 -15.2250 -15.1776
   -15.1314 -15.1083 -15.0753 -15.0599 -15.0438 -15.0346 -15.0268 -15.0150
   -15.0070 -14.9830 -14.9620 -14.9365 -14.8968 -14.8325 -14.7994 -14.7906
   -14.7657 -14.7530 -14.7083 -14.6864 -14.6739 -14.6404 -14.5832 -14.5397
   -14.4646 -14.3361 -14.2147 -14.1215 -14.1106 -14.0826 -14.0259 -13.9540
   -13.9425 -13.8338 -13.8249 -13.8188 -13.8098 -13.7571 -13.7297 -13.6893
   -13.6622 -13.6088 -13.5367 -13.5315 -13.5227 -13.5193 -13.5061 -13.4970
   -13.4901 -13.4711 -13.4344 -13.4205 -13.4127 -13.4059 -13.4007 -13.3941
   -13.3233 -13.3206 -13.2686 -13.2210 -13.2180 -13.1227 -13.1089 -13.0728
   -13.0664 -13.0394 -13.0300 -13.0187 -12.9829 -12.9619 -12.9201 -12.9183
   -12.9094 -12.8015 -12.7952 -12.7719 -12.7454 -12.6950 -12.6766 -12.6689
   -12.6485 -12.6364 -12.6314 -12.6018 -12.5628 -12.4862 -12.4083 -12.3811
   -12.3334 -12.3140 -12.1603 -12.1407 -12.0927 -12.0899 -12.0688 -11.9989
   -11.9416 -11.8946 -11.8711 -11.8405 -11.8094 -11.7595 -11.7516 -11.7344
   -11.7310 -11.6825 -11.6678 -11.6447 -11.6420 -11.6282 -11.6232 -11.6057
   -11.6032 -11.5950 -11.5095 -11.5042 -11.4933 -11.4683 -11.4422 -11.4164
   -11.4086 -11.3864 -11.3770 -11.3691 -11.3663 -11.3595 -11.3346 -11.3225
   -11.3205 -11.3126 -11.2975 -11.2769 -11.2563 -11.2353 -11.2291 -11.2161
   -11.2072 -11.2037 -11.1599 -11.1502 -11.1382 -11.0625 -11.0391 -10.9096
   -10.8794 -10.8349 -10.8082 -10.8021 -10.7991 -10.7794 -10.7061 -10.6662
   -10.6529 -10.6362 -10.6282 -10.6213 -10.6128 -10.6080 -10.6036 -10.5627
   -10.5586 -10.5571 -10.5507 -10.5440 -10.5342 -10.5002 -10.4898 -10.4722
   -10.4370 -10.4329 -10.4273 -10.4199 -10.4091 -10.3866 -10.3817 -10.3759
   -10.3693 -10.3555 -10.3355 -10.3239 -10.3109 -10.3086 -10.2946 -10.2856
   -10.2579 -10.2284 -10.2016 -10.1957 -10.1908 -10.1862 -10.1787 -10.1666
   -10.1655 -10.1485 -10.1432 -10.0955 -10.0782 -10.0669 -10.0567 -10.0496
   -10.0424 -10.0351 -10.0307 -10.0150 -10.0120 -10.0067  -9.9964  -9.9883
    -9.9794  -9.9685  -9.9611  -9.9571  -9.9490  -9.9323  -9.9193  -9.9148
    -9.9076  -9.8805  -9.8429  -9.8384  -9.8301  -9.8108  -9.8023  -9.8002
    -9.7994  -9.7935  -9.7848  -9.7807  -9.7567  -9.7481  -9.7244  -9.7015
    -9.6939  -9.6839  -9.6673  -9.6565  -9.6344  -9.6269  -9.6254  -9.5922
    -9.5723  -9.5636  -9.5596  -9.5484  -9.5423  -9.5177  -9.5030  -9.4942
    -9.4934  -9.4427  -9.4121  -9.3965  -9.3866  -9.3617  -9.3513  -9.3244
    -9.3107  -9.3036  -9.2992  -9.2926  -9.2714  -9.2647  -9.2590  -9.2402
    -9.2264  -9.1942  -9.1729  -9.1650  -9.1472  -9.1368  -9.1306  -9.1241
    -9.1136  -9.1019  -9.0974  -9.0936  -9.0917  -9.0878  -9.0739  -9.0727
    -9.0504  -9.0425  -9.0378  -9.0108  -9.0028  -8.9878  -8.9850  -8.9820
    -8.9420  -8.9347  -8.9263  -8.9185  -8.9123  -8.9069  -8.8644  -8.8486
    -8.7728  -8.7134  -8.6481  -8.6217  -8.6088  -8.5975  -8.5743  -8.5529
    -8.5498  -8.5356  -8.5152  -8.5088  -8.4200  -8.3856  -8.3667  -8.3522
    -8.3351  -8.3222  -8.3095  -8.2866  -8.2681  -8.2493  -8.2419  -8.2371
    -8.2270  -8.2150  -8.2030  -8.1983  -8.1890  -8.1774  -8.1695  -8.1613
    -8.1559  -8.1482  -8.1265  -8.1186  -8.1133  -8.0915  -8.0907  -8.0867
    -8.0765  -8.0701  -8.0492  -8.0393  -8.0072  -8.0002  -7.9880  -7.9665
    -7.9549  -7.9299  -7.9203  -7.9193  -7.9043  -7.8838  -7.8398  -7.8362
    -7.8266  -7.8206  -7.7751  -7.7136  -7.6713  -7.6612  -7.6598  -7.6439
    -7.6267  -7.5568  -7.5525  -7.5284  -7.5191  -7.5133  -7.4861  -7.4727
    -7.4571  -7.4431  -7.4216  -7.4095  -7.4049  -7.3995  -7.3702  -7.3482
    -7.3391  -7.3253  -7.2983  -7.2926  -7.2830  -7.2732  -7.2523  -7.2399
    -7.2182  -7.2109  -7.1947  -7.1878  -7.1741  -7.1367  -7.0800  -7.0386
    -7.0171  -7.0038  -6.9865  -6.9716  -6.9527  -6.9383  -6.9041  -6.8775
    -6.8631  -6.8455  -6.8336  -6.8215  -6.8125  -6.8099  -6.7924  -6.7750
    -6.7404  -6.7211  -6.7124  -6.7113  -6.7048  -6.6961  -6.6656  -6.6474
    -6.6216  -6.5930  -6.5533  -6.5377  -6.5068  -6.5029  -6.4846  -6.4598
    -6.4472  -6.4378  -6.4315  -6.4255  -6.4147  -6.4102  -6.4041  -6.3836
    -6.3736  -6.3666  -6.3516  -6.3084  -6.2702  -6.2582  -6.2397  -6.2266
    -6.1960  -6.1100  -6.0688  -6.0477  -6.0118  -5.9927  -5.9657  -5.9533
    -5.9457  -5.8565  -5.8232  -5.7734  -5.7669  -5.7091  -5.6872  -5.6499
    -5.6225  -5.5905  -5.5720  -5.5272  -5.5220  -5.4677  -5.4208  -5.4084
    -5.3888  -5.3541  -5.3256  -5.3216  -5.3044  -5.3008  -5.2886  -5.2664
    -5.2636  -5.2514  -5.2418  -5.2278  -5.2108  -5.1894  -5.1546  -5.1275
    -5.1057  -5.0890  -5.0500  -5.0309  -4.9909  -4.9484  -4.9023  -4.8839
    -4.8619  -4.8540  -4.8366  -4.7699  -4.7420  -4.6616  -4.6193  -4.6025
    -4.5740  -4.5646  -4.5075  -4.4575  -4.4151  -4.3679  -4.3514  -4.2089
    -4.1011  -4.0197  -3.9988  -3.9101  -3.8948  -3.8410  -3.7905  -3.6492
    -3.5146  -3.4592  -3.3219  -2.5954  -2.3309  -2.2625  -2.1829  -2.0402
    -1.9756  -1.9343  -1.8346  -1.8075  -1.7326  -1.6936  -1.6421  -1.6211
    -1.6134  -1.5929  -1.5764  -1.5513  -1.5312  -1.5145  -1.5121  -1.4734
    -1.4553  -1.4285  -1.4173  -1.4140  -1.4002  -1.3775  -1.3504  -1.3413
    -1.3202  -1.2994  -1.2458  -1.2066  -1.1714  -1.1440  -1.1149  -1.0991
    -1.0863  -1.0821  -1.0708  -1.0577  -1.0548  -1.0253  -1.0120  -1.0067
    -0.9910  -0.9855  -0.9818  -0.9592  -0.9328  -0.9276  -0.9174  -0.9037
    -0.8570  -0.7964  -0.7715  -0.7587  -0.7327  -0.6120  -0.5577  -0.5330
    -0.4582  -0.4153  -0.3697  -0.2669  -0.2593  -0.2406  -0.1960  -0.1149

          k = 0.0000 0.0000 0.6002 (****** PWs)   bands (ev):

   -22.6831 -22.6487 -22.5830 -22.4873 -22.4742 -22.4650 -22.4391 -22.4321
   -22.3749 -22.3662 -22.3509 -22.2757 -22.2675 -22.1873 -22.1445 -22.1361
   -21.9920 -21.9800 -21.9721 -21.8543 -21.8361 -21.8137 -21.8035 -21.7837
   -21.7757 -21.7605 -21.7465 -21.7382 -21.6509 -21.6406 -21.5558 -21.5471
   -21.5211 -21.5104 -21.4983 -21.3593 -21.3480 -21.2951 -21.2866 -21.2069
   -21.1645 -21.1535 -21.0058 -20.9946 -20.9398 -20.9272 -20.8838 -20.8406
   -20.8211 -20.7986 -20.7891 -20.7377 -20.7250 -20.6872 -20.6725 -20.6712
   -20.6685 -20.6383 -20.6290 -20.5287 -20.5115 -20.5011 -20.3944 -20.3806
   -20.3527 -20.3417 -20.3236 -20.3181 -20.1665 -20.1509 -20.1411 -20.0721
   -20.0612 -19.9501 -19.9362 -19.9350 -19.9284 -19.7381 -19.7208 -19.7120
   -19.6891 -19.6761 -19.5413 -19.5233 -19.4955 -19.4628 -19.4441 -19.4317
   -19.4050 -19.3939 -19.3801 -19.3696 -19.3432 -19.3345 -19.2918 -19.2842
   -19.2765 -19.1698 -19.1528 -19.1012 -19.0848 -19.0837 -19.0810 -19.0134
   -18.9985 -18.9403 -18.9299 -18.8337 -18.8187 -18.8136 -18.7540 -18.7427
   -18.6360 -18.6206 -18.6103 -18.5999 -18.5144 -18.5015 -18.4028 -18.3788
   -18.3670 -18.3571 -18.3274 -18.1581 -18.1354 -18.1152 -18.0869 -18.0652
   -18.0551 -18.0130 -17.9960 -17.9383 -17.8731 -17.8569 -17.8436 -17.8186
   -17.8094 -17.7921 -17.7917 -17.7818 -17.7199 -17.6957 -17.6495 -17.6367
   -17.6245 -17.6175 -17.6112 -17.6035 -17.5980 -17.5750 -17.4963 -17.4783
   -17.4603 -17.4288 -17.3234 -17.2959 -17.2873 -17.2854 -17.2709 -17.2551
   -17.2030 -17.1849 -17.1621 -17.1521 -17.1231 -17.0994 -17.0540 -17.0134
   -16.8823 -16.8614 -16.8298 -16.8110 -16.7601 -16.6535 -16.6277 -16.5902
   -16.4009 -16.3547 -16.3175 -16.2564 -16.2105 -16.1977 -16.1379 -16.0898
   -16.0073 -15.9567 -15.9322 -15.9154 -15.8444 -15.8394 -15.7614 -15.6760
   -15.6681 -15.6202 -15.5989 -15.5895 -15.5740 -15.5591 -15.5483 -15.5208
   -15.4972 -15.4878 -15.4690 -15.4189 -15.4169 -15.3865 -15.3604 -15.3554
   -15.3347 -15.3165 -15.2907 -15.2379 -15.2265 -15.2046 -15.1963 -15.1913
   -15.1728 -15.1642 -15.1550 -15.1496 -15.1048 -15.0672 -15.0452 -15.0264
   -15.0112 -14.9557 -14.8897 -14.8676 -14.8589 -14.8254 -14.8004 -14.7344
   -14.7115 -14.6707 -14.6467 -14.6379 -14.6225 -14.6204 -14.5970 -14.5543
   -14.4772 -14.2643 -14.2562 -14.2305 -14.2112 -14.1579 -14.0942 -14.0746
   -14.0604 -13.9691 -13.7801 -13.6907 -13.6866 -13.6794 -13.6667 -13.6214
   -13.6152 -13.5707 -13.5367 -13.5280 -13.5245 -13.5009 -13.4961 -13.4631
   -13.4578 -13.4462 -13.4239 -13.4198 -13.4008 -13.3783 -13.3700 -13.3618
   -13.3040 -13.2893 -13.2570 -13.1964 -13.1855 -13.1600 -13.1411 -13.1253
   -13.1084 -13.1047 -13.0945 -13.0624 -13.0611 -13.0195 -13.0179 -13.0110
   -12.9740 -12.8798 -12.8666 -12.7990 -12.7883 -12.7261 -12.6770 -12.6459
   -12.5507 -12.5491 -12.5340 -12.4873 -12.4480 -12.4172 -12.3504 -12.2757
   -12.2553 -12.1860 -12.1823 -12.1545 -12.1304 -12.1116 -12.0710 -12.0595
   -11.9952 -11.9588 -11.9051 -11.8906 -11.8574 -11.8354 -11.8308 -11.7945
   -11.7866 -11.7343 -11.6997 -11.6877 -11.6769 -11.6664 -11.6327 -11.5985
   -11.5739 -11.5664 -11.5409 -11.4573 -11.4325 -11.4221 -11.4219 -11.4085
   -11.3849 -11.3822 -11.3750 -11.3658 -11.3579 -11.3415 -11.3253 -11.3098
   -11.3074 -11.2685 -11.2488 -11.2356 -11.2209 -11.2184 -11.1799 -11.1689
   -11.1618 -11.1465 -11.1377 -11.1297 -11.0792 -11.0478 -10.9986 -10.9549
   -10.9104 -10.9077 -10.8979 -10.8754 -10.8055 -10.7671 -10.7602 -10.7559
   -10.6906 -10.6840 -10.6780 -10.6405 -10.6130 -10.5812 -10.5764 -10.5671
   -10.5618 -10.5554 -10.5318 -10.5262 -10.5196 -10.5083 -10.5026 -10.4946
   -10.4858 -10.4797 -10.4572 -10.4492 -10.4420 -10.4220 -10.3846 -10.3764
   -10.3630 -10.3491 -10.3479 -10.3340 -10.2706 -10.2533 -10.2481 -10.2369
   -10.2318 -10.2067 -10.1953 -10.1881 -10.1864 -10.1400 -10.1224 -10.1033
   -10.0924 -10.0844 -10.0800 -10.0640 -10.0607 -10.0536 -10.0457 -10.0411
   -10.0381 -10.0329 -10.0316 -10.0195 -10.0165 -10.0079 -10.0059 -10.0023
    -9.9967  -9.9804  -9.9577  -9.9519  -9.9440  -9.9290  -9.9235  -9.9219
    -9.8965  -9.8881  -9.8795  -9.8737  -9.8626  -9.8605  -9.8549  -9.8301
    -9.8037  -9.8008  -9.8001  -9.7855  -9.7724  -9.7558  -9.7353  -9.7090
    -9.7032  -9.6657  -9.6563  -9.6496  -9.6482  -9.6369  -9.6325  -9.6262
    -9.5907  -9.5772  -9.5520  -9.5381  -9.5247  -9.5208  -9.4994  -9.4891
    -9.4763  -9.4395  -9.4186  -9.4099  -9.3514  -9.3405  -9.3338  -9.3253
    -9.3236  -9.3197  -9.3066  -9.2858  -9.2639  -9.2574  -9.2438  -9.2318
    -9.2236  -9.2119  -9.1975  -9.1815  -9.1667  -9.1531  -9.1516  -9.1390
    -9.1353  -9.1257  -9.1065  -9.0969  -9.0939  -9.0793  -9.0726  -9.0624
    -9.0571  -9.0527  -9.0439  -9.0049  -8.9693  -8.9639  -8.9566  -8.9514
    -8.9272  -8.9133  -8.9120  -8.9076  -8.8920  -8.8564  -8.8037  -8.7973
    -8.7616  -8.7493  -8.7343  -8.6791  -8.6391  -8.5929  -8.5630  -8.5486
    -8.5321  -8.5165  -8.5111  -8.4843  -8.4681  -8.4383  -8.4216  -8.3468
    -8.3380  -8.3261  -8.3133  -8.2982  -8.2872  -8.2823  -8.2437  -8.2235
    -8.2187  -8.2081  -8.1983  -8.1959  -8.1850  -8.1824  -8.1759  -8.1604
    -8.1509  -8.1412  -8.1319  -8.1288  -8.1178  -8.0971  -8.0950  -8.0824
    -8.0788  -8.0576  -8.0530  -8.0277  -7.9776  -7.9654  -7.9596  -7.9494
    -7.9437  -7.9093  -7.8859  -7.8823  -7.8525  -7.8447  -7.8266  -7.8043
    -7.7859  -7.7854  -7.7775  -7.7635  -7.7522  -7.7199  -7.7107  -7.6663
    -7.6487  -7.5970  -7.5758  -7.5606  -7.5446  -7.5252  -7.5157  -7.5081
    -7.4989  -7.4579  -7.4342  -7.4214  -7.4165  -7.4000  -7.3767  -7.3438
    -7.3362  -7.3167  -7.2888  -7.2712  -7.2447  -7.2275  -7.2216  -7.1991
    -7.1636  -7.1562  -7.1475  -7.1099  -7.0989  -7.0901  -7.0829  -7.0773
    -7.0687  -7.0286  -7.0110  -6.9913  -6.9464  -6.9358  -6.9126  -6.8787
    -6.8660  -6.8337  -6.8321  -6.8297  -6.8278  -6.8137  -6.8014  -6.7946
    -6.7865  -6.7830  -6.7390  -6.7285  -6.7144  -6.6663  -6.6568  -6.6529
    -6.6353  -6.6201  -6.6149  -6.5549  -6.5244  -6.5193  -6.4880  -6.4783
    -6.4690  -6.4671  -6.4557  -6.4453  -6.3779  -6.3721  -6.3574  -6.3495
    -6.3479  -6.3193  -6.3103  -6.2491  -6.2263  -6.1955  -6.1876  -6.1588
    -6.1505  -6.1342  -6.1138  -6.0957  -6.0780  -6.0523  -5.9660  -5.9297
    -5.9148  -5.8856  -5.8607  -5.8187  -5.7595  -5.7252  -5.6876  -5.6653
    -5.6495  -5.6312  -5.6124  -5.5672  -5.4741  -5.4656  -5.3969  -5.3801
    -5.3552  -5.3321  -5.3226  -5.3073  -5.3045  -5.2941  -5.2754  -5.2733
    -5.2508  -5.2425  -5.2328  -5.1981  -5.1927  -5.1713  -5.1589  -5.1498
    -5.1040  -5.0664  -5.0393  -5.0304  -4.9890  -4.9462  -4.9204  -4.8859
    -4.8747  -4.8638  -4.8409  -4.7889  -4.7279  -4.7138  -4.6730  -4.6538
    -4.6231  -4.5625  -4.5189  -4.4471  -4.3335  -4.3072  -4.2629  -4.2053
    -4.1339  -4.0716  -3.9649  -3.9322  -3.8660  -3.8502  -3.7873  -3.7164
    -3.5527  -3.4073  -3.2907  -2.6150  -2.3777  -2.2509  -2.1236  -1.9995
    -1.9799  -1.9073  -1.8756  -1.8575  -1.6810  -1.6688  -1.6632  -1.6536
    -1.6481  -1.6412  -1.6292  -1.5555  -1.4957  -1.4906  -1.4736  -1.4642
    -1.4630  -1.4520  -1.4425  -1.4011  -1.3825  -1.3331  -1.3166  -1.2978
    -1.2811  -1.2686  -1.2027  -1.1885  -1.1770  -1.1746  -1.1597  -1.1437
    -1.1328  -1.1299  -1.1079  -1.0878  -1.0569  -1.0478  -1.0296  -1.0170
    -1.0061  -0.9982  -0.9865  -0.9798  -0.9271  -0.9077  -0.8721  -0.8489
    -0.8464  -0.8096  -0.7579  -0.6947  -0.6743  -0.6322  -0.5372  -0.5022
    -0.4686  -0.4406  -0.3896  -0.3187  -0.2437  -0.2098  -0.1911  -0.1623

          k = 0.0000 0.0000 0.7003 (****** PWs)   bands (ev):

   -22.6860 -22.6357 -22.6022 -22.4812 -22.4681 -22.4536 -22.4269 -22.4187
   -22.3943 -22.3859 -22.3853 -22.2465 -22.2377 -22.1805 -22.1720 -22.1406
   -22.0426 -21.9365 -21.9260 -21.8586 -21.8392 -21.8333 -21.8278 -21.8003
   -21.7903 -21.7659 -21.7576 -21.6985 -21.6223 -21.6111 -21.5693 -21.5546
   -21.5460 -21.4926 -21.4849 -21.3637 -21.3547 -21.3130 -21.3023 -21.2160
   -21.2051 -21.1287 -20.9685 -20.9297 -20.9167 -20.8804 -20.8656 -20.8407
   -20.8241 -20.7908 -20.7761 -20.7655 -20.7553 -20.7506 -20.7440 -20.7409
   -20.7365 -20.6117 -20.6000 -20.5462 -20.5361 -20.4349 -20.3254 -20.3038
   -20.3017 -20.2969 -20.2456 -20.2311 -20.2249 -20.2113 -20.2013 -20.1532
   -20.1437 -20.0415 -20.0335 -19.8832 -19.8685 -19.7574 -19.7423 -19.6398
   -19.6209 -19.6182 -19.5106 -19.4657 -19.4488 -19.4325 -19.4295 -19.4195
   -19.4180 -19.4159 -19.4006 -19.3948 -19.3880 -19.3286 -19.3183 -19.2641
   -19.2485 -19.2111 -19.1966 -19.1933 -19.1865 -19.1681 -19.1623 -18.9734
   -18.9552 -18.8794 -18.8632 -18.8350 -18.8250 -18.7035 -18.6687 -18.6542
   -18.6228 -18.6107 -18.5614 -18.5421 -18.5097 -18.5010 -18.4843 -18.4713
   -18.4524 -18.4320 -18.4203 -18.2681 -18.2580 -18.0708 -18.0156 -17.9775
   -17.9451 -17.9320 -17.8990 -17.8958 -17.8758 -17.8702 -17.8677 -17.8462
   -17.8313 -17.8135 -17.8006 -17.7355 -17.7216 -17.7097 -17.7056 -17.6925
   -17.6833 -17.6671 -17.6325 -17.6077 -17.5225 -17.5062 -17.4443 -17.4201
   -17.4083 -17.3970 -17.3855 -17.3403 -17.3049 -17.2793 -17.2719 -17.2579
   -17.2467 -17.2389 -17.2325 -17.2287 -17.1194 -17.0525 -17.0224 -16.9974
   -16.9349 -16.8866 -16.8124 -16.7810 -16.6340 -16.5863 -16.5416 -16.5234
   -16.4448 -16.4139 -16.3759 -16.3647 -16.2454 -16.2416 -16.1961 -16.0414
   -16.0306 -15.9984 -15.9452 -15.8998 -15.7943 -15.7308 -15.7252 -15.6721
   -15.5794 -15.5711 -15.5541 -15.5511 -15.5379 -15.5291 -15.5135 -15.5108
   -15.5004 -15.4915 -15.4886 -15.4830 -15.4446 -15.4126 -15.3941 -15.3919
   -15.3590 -15.3445 -15.3270 -15.3005 -15.2948 -15.2782 -15.2693 -15.2119
   -15.1746 -15.1543 -15.1430 -15.1290 -15.0968 -15.0650 -15.0100 -14.9995
   -14.9913 -14.9576 -14.9526 -14.8890 -14.8395 -14.7694 -14.7513 -14.7269
   -14.6873 -14.6685 -14.6170 -14.6089 -14.5888 -14.5424 -14.4831 -14.4195
   -14.4061 -14.4001 -14.3776 -14.3370 -14.2871 -14.2094 -14.1712 -14.1238
   -14.1128 -13.9769 -13.8946 -13.7714 -13.5484 -13.5460 -13.5363 -13.5307
   -13.5230 -13.5176 -13.5085 -13.4984 -13.4892 -13.4809 -13.4609 -13.4568
   -13.4490 -13.4332 -13.4305 -13.4251 -13.4042 -13.3936 -13.3585 -13.3144
   -13.2666 -13.2652 -13.2615 -13.2520 -13.2233 -13.2139 -13.2029 -13.1789
   -13.1762 -13.1678 -13.1183 -13.0957 -13.0884 -13.0212 -13.0080 -12.9998
   -12.9801 -12.9553 -12.9552 -12.9305 -12.9261 -12.7819 -12.6534 -12.5190
   -12.4986 -12.4621 -12.4030 -12.3949 -12.3424 -12.2943 -12.2796 -12.2612
   -12.2118 -12.1602 -12.1430 -12.1397 -12.1360 -12.1239 -12.1072 -12.0513
   -12.0472 -12.0228 -11.9872 -11.9798 -11.9378 -11.9293 -11.9234 -11.8708
   -11.7941 -11.7720 -11.7617 -11.7008 -11.6931 -11.6908 -11.6175 -11.5425
   -11.5360 -11.5242 -11.4956 -11.4860 -11.4771 -11.4614 -11.4499 -11.4274
   -11.4032 -11.3879 -11.3605 -11.3472 -11.3282 -11.3059 -11.2978 -11.2789
   -11.2151 -11.2089 -11.2048 -11.1880 -11.1836 -11.1754 -11.1323 -11.1254
   -11.1138 -11.0944 -11.0898 -11.0853 -11.0806 -11.0352 -11.0103 -10.9626
   -10.9488 -10.9444 -10.9081 -10.8947 -10.8465 -10.8152 -10.8100 -10.8081
   -10.7755 -10.7539 -10.7512 -10.7126 -10.6821 -10.6289 -10.5747 -10.5717
   -10.5668 -10.5427 -10.5178 -10.5160 -10.5105 -10.4982 -10.4854 -10.4779
   -10.4742 -10.4689 -10.4549 -10.4546 -10.4429 -10.4022 -10.3971 -10.3868
   -10.3480 -10.3455 -10.3335 -10.3156 -10.3007 -10.2821 -10.2451 -10.2282
   -10.2009 -10.1882 -10.1596 -10.1431 -10.1305 -10.1091 -10.0980 -10.0810
   -10.0765 -10.0621 -10.0594 -10.0558 -10.0493 -10.0480 -10.0410 -10.0355
   -10.0291 -10.0262 -10.0179 -10.0083  -9.9967  -9.9882  -9.9807  -9.9783
    -9.9683  -9.9606  -9.9546  -9.9488  -9.9428  -9.9309  -9.9271  -9.9235
    -9.9147  -9.9050  -9.9015  -9.8785  -9.8738  -9.8587  -9.8577  -9.8525
    -9.8482  -9.8368  -9.8129  -9.7920  -9.7871  -9.7814  -9.7643  -9.7604
    -9.7184  -9.7158  -9.7058  -9.6928  -9.6687  -9.6134  -9.6059  -9.5943
    -9.5731  -9.5711  -9.5600  -9.5483  -9.5367  -9.5005  -9.4940  -9.4630
    -9.4435  -9.4347  -9.4286  -9.3945  -9.3933  -9.3610  -9.3523  -9.3460
    -9.3318  -9.3224  -9.2934  -9.2801  -9.2661  -9.2462  -9.2405  -9.2302
    -9.2254  -9.1967  -9.1917  -9.1880  -9.1702  -9.1597  -9.1508  -9.1308
    -9.1235  -9.1147  -9.1053  -9.1018  -9.0969  -9.0957  -9.0899  -9.0418
    -9.0338  -9.0306  -9.0184  -8.9945  -8.9735  -8.9688  -8.9587  -8.9500
    -8.9298  -8.9228  -8.9125  -8.8997  -8.8871  -8.8808  -8.8479  -8.7308
    -8.7266  -8.7036  -8.6784  -8.6699  -8.6534  -8.5889  -8.5631  -8.5411
    -8.5321  -8.5278  -8.5175  -8.5146  -8.4780  -8.4635  -8.4578  -8.4185
    -8.4119  -8.3452  -8.3294  -8.3262  -8.3049  -8.2990  -8.2392  -8.2278
    -8.2198  -8.2109  -8.2085  -8.2031  -8.1882  -8.1812  -8.1660  -8.1597
    -8.1550  -8.1053  -8.0957  -8.0928  -8.0812  -8.0700  -8.0592  -8.0526
    -8.0450  -8.0400  -8.0264  -8.0054  -7.9962  -7.9920  -7.9834  -7.9310
    -7.9276  -7.9112  -7.8900  -7.8688  -7.8457  -7.8256  -7.7984  -7.7922
    -7.7791  -7.7758  -7.7599  -7.7419  -7.7367  -7.7254  -7.7223  -7.6955
    -7.6610  -7.6283  -7.6201  -7.6085  -7.6051  -7.5966  -7.5882  -7.5269
    -7.5025  -7.4949  -7.4716  -7.4453  -7.3969  -7.3875  -7.3415  -7.3183
    -7.3101  -7.2818  -7.2788  -7.2501  -7.2387  -7.2113  -7.1712  -7.1588
    -7.1509  -7.1306  -7.1173  -7.1055  -7.0918  -7.0491  -7.0447  -7.0394
    -7.0199  -6.9997  -6.9951  -6.9716  -6.9659  -6.9425  -6.9408  -6.9328
    -6.9239  -6.9213  -6.8890  -6.8498  -6.8394  -6.8234  -6.7964  -6.7924
    -6.7683  -6.7531  -6.7464  -6.7361  -6.7338  -6.7196  -6.7120  -6.6253
    -6.6108  -6.6031  -6.6006  -6.5893  -6.5768  -6.5633  -6.5284  -6.5256
    -6.5096  -6.4997  -6.4120  -6.3597  -6.3434  -6.3425  -6.3351  -6.2942
    -6.2852  -6.2772  -6.2632  -6.2423  -6.2080  -6.1824  -6.1717  -6.1597
    -6.1509  -6.1439  -6.1225  -6.0951  -6.0568  -6.0174  -5.9984  -5.9521
    -5.9446  -5.9234  -5.8576  -5.8484  -5.8234  -5.7792  -5.7244  -5.7145
    -5.6650  -5.5943  -5.5482  -5.5430  -5.4836  -5.4559  -5.4087  -5.3976
    -5.3746  -5.3395  -5.3277  -5.3105  -5.2964  -5.2805  -5.2518  -5.2475
    -5.2360  -5.2284  -5.2019  -5.1848  -5.1690  -5.1606  -5.1535  -5.1306
    -5.0772  -5.0465  -5.0217  -5.0018  -4.9924  -4.9569  -4.9426  -4.9199
    -4.9078  -4.8930  -4.8370  -4.8128  -4.7814  -4.7327  -4.6884  -4.6710
    -4.6183  -4.5705  -4.5591  -4.3975  -4.3098  -4.2510  -4.2207  -4.1633
    -4.1352  -4.0988  -4.0025  -3.9407  -3.8773  -3.8325  -3.7952  -3.7388
    -3.5985  -3.3665  -3.2662  -2.6339  -2.4100  -2.2422  -2.0649  -1.9778
    -1.9538  -1.9200  -1.9048  -1.8402  -1.7455  -1.7192  -1.6829  -1.6738
    -1.6607  -1.6258  -1.6003  -1.5422  -1.5175  -1.5034  -1.4834  -1.4672
    -1.4297  -1.4266  -1.3961  -1.3751  -1.3384  -1.3277  -1.2788  -1.2692
    -1.2539  -1.2439  -1.2426  -1.2267  -1.2220  -1.2016  -1.1965  -1.1716
    -1.1278  -1.1123  -1.0975  -1.0919  -1.0721  -1.0462  -1.0372  -1.0282
    -1.0082  -1.0021  -0.9903  -0.9864  -0.9769  -0.9401  -0.9121  -0.8606
    -0.7793  -0.7620  -0.7111  -0.6547  -0.6024  -0.5886  -0.5646  -0.5263
    -0.4988  -0.4260  -0.3577  -0.3431  -0.3084  -0.3065  -0.1937  -0.1434

     Writing all to output data dir ./CNT_PBE.save/

     init_run     :      6.73s CPU      8.39s WALL (       1 calls)
     electrons    :   8743.49s CPU   8341.77s WALL (       1 calls)

     Called by init_run:
     wfcinit      :      0.02s CPU      0.06s WALL (       1 calls)
     wfcinit:wfcr :    130.88s CPU    113.47s WALL (       2 calls)
     potinit      :      0.34s CPU      1.82s WALL (       1 calls)
     hinit0       :      1.52s CPU      1.55s WALL (       1 calls)

     Called by electrons:
     c_bands      :   8743.49s CPU   8341.76s WALL (       1 calls)
     v_of_rho     :      0.15s CPU      0.75s WALL (       1 calls)
     v_h          :      0.04s CPU      0.25s WALL (       1 calls)
     v_xc         :      0.11s CPU      0.49s WALL (       1 calls)

     Called by c_bands:
     init_us_2    :      0.64s CPU      0.36s WALL (       2 calls)
     init_us_2:cp :      0.64s CPU      0.36s WALL (       2 calls)
     cegterg      :   8539.69s CPU   7773.86s WALL (      12 calls)

     Called by sum_band:

     Called by *egterg:
     cdiaghg      :    168.66s CPU    276.67s WALL (     242 calls)
     cegterg:over :    783.87s CPU    817.93s WALL (     240 calls)
     cegterg:upda :    468.41s CPU    476.52s WALL (     240 calls)
     cegterg:last :   1040.64s CPU   1082.68s WALL (     104 calls)
     cdiaghg:chol :      2.27s CPU     12.93s WALL (     242 calls)
     cdiaghg:inve :      0.26s CPU      0.90s WALL (     242 calls)
     cdiaghg:para :     38.82s CPU     61.25s WALL (     484 calls)
     h_psi        :   6149.99s CPU   5180.00s WALL (     254 calls)
     g_psi        :      3.26s CPU      0.90s WALL (     240 calls)

     Called by h_psi:
     h_psi:calbec :   2365.60s CPU   2393.42s WALL (     254 calls)
     vloc_psi     :   1421.29s CPU    428.36s WALL (     254 calls)
     add_vuspsi   :   2352.80s CPU   2355.20s WALL (     254 calls)

     General routines
     calbec       :   2365.60s CPU   2393.42s WALL (     254 calls)
     fft          :      1.33s CPU      2.28s WALL (      10 calls)
     fftw         :   1384.80s CPU    418.51s WALL (  164076 calls)
     davcio       :      0.05s CPU      0.39s WALL (       4 calls)

     Parallel routines

     PWSCF        :      2h26m CPU      2h20m WALL


   This run was terminated on:  13:42:56   3Jul2025            

=------------------------------------------------------------------------------=
   JOB DONE.
=------------------------------------------------------------------------------=
