Ge Se
 1.0000000000000000
     4.5000000000000000    0.0000000000000000    0.0000000000000000
     0.0000000000000000    4.0500000000000007    0.0000000000000000
     0.0000000000000000    0.0000000000000000   11.1422209999999993
 Ge  Se 
   4   4
Selective dynamics
Cartesian
  0.4905034880985857  1.0125000000000002  1.4207587528598340   T   T   T
  2.7405034880985850  3.0375000000000005  4.1503517471401592   T   T   T
  4.0094965119014132  3.0375000000000005  9.7214622471401597   T   T   T
  1.7594965119014132  1.0125000000000002  6.9918692528598330   T   T   T
 -0.0753450291807984  1.0125000000000002  3.9333270819172368   T   T   T
  2.1746549708192009  3.0375000000000005  1.6377834180827544   T   T   T
  4.5753450291807978  3.0375000000000005  7.2088939180827545   T   T   T
  2.3253450291807991  1.0125000000000002  9.5044375819172373   T   T   T
