 C 
 1.0000000000000000
    32.3722991942999982    0.0000000000000000    0.0000000000000000
     0.0000000000000000   19.9214134216000005    0.0000000000000000
     0.0000000000000000    0.0000000000000000   40.4480476378999967
 C  
 364
Cartesian
 12.0099083482731643 10.7248567720036299  0.0996031301792668
 11.9398866697895478 10.8347718560044814  2.5423712034668666
 10.9447955610585943 11.8542077165847672  2.4695870239002411
 10.3757549284579831 12.1812766326776334  1.2103161506790125
  8.9939627466709116 12.5273213885558405  1.1371178003589757
 11.8658634157795078 10.9422044921316015  4.9853666499747629
 10.8362041489166341 11.9266627760559167  4.9126056238498634
 10.2562730671859228 12.2338467596067009  3.6532194639520514
  8.8632943724937778 12.5317474075407045  3.5798139478392068
  8.2084100417268768 12.4890891713821546  2.3205781356564366
  6.8663718593068630 12.0116196083753373  2.2475229353113866
  6.3314311700541470 11.6315041356904718  0.9881369920955289
  5.4392941267355948 10.5209273889159789  0.9150290264884239
 11.7876798080317027 11.0469554989105703  7.4289340115334142
 10.7247284323394201 11.9952558234280033  7.3560969245620136
 10.1349266235403519 12.2821913896649981  6.0964115353565820
  8.7325364805266013 12.5318561455135509  6.0229082709782285
  8.0796849559881938 12.4664972063608044  4.7634421559150804
  6.7549653009089816 11.9430011186197849  4.6905195175952583
  6.2334260130565715 11.5448363259596771  3.4309957248525014
  5.3801431412625078 10.4042295333440578  3.3577499230591257
  5.1450349857071753  9.7916230530922572  2.0984297303604467
  5.0171899647142153  8.3728311600746874  2.0251349939907342
  5.1388371121232321  7.7279043966336722  0.7657994670143966
  5.7746351612445261  6.4530931846752777  0.6928427567545885
 11.7060016814022507 11.1490117817453935  9.8731777216561305
 10.6109812681189339 12.0600198371767000  9.8001559596113861
 10.0116890211804179 12.3264239940204359  8.5401664961065169
  8.6016278092617053 12.5277000049757472  8.4665855484838470
  7.9516075581221655 12.4398187197444408  7.2067417390758584
  6.6457489986338514 11.8708862904645471  7.1338971150562323
  6.1383574165600603 11.4549898007150048  5.8742051139653020
  5.3249280865293329 10.2856061666707106  5.8007872518301875
  5.1113472500050925  9.6652186227919099  4.5412872653953231
  5.0324799384046415  8.2429079466684207  4.4681326461693400
  5.1763066386873033  7.6026510680106467  3.2085680320437322
  5.8555160948790208  6.3505157774259731  3.1354774788412070
  6.3138586578829994  5.8808228642185281  1.8762436514269727
  7.5490601991607589  5.1712216892729552  1.8027126489745209
  8.1858139801841947  5.0119146894606645  0.5435032956719453
  9.6096175444088932  5.0562008527005240  0.4705837338119437
 12.0096583379570898 10.7204450049244198 13.5789109959401966
 11.6209013896755504 11.2483849127548137 12.3182031604717199
 10.4952488372050308 12.1211974634714590 12.2449118770432257
  9.8871462485826971 12.3664953570042009 10.9845955095895409
  8.4709777653422673 12.5190771555942089 10.9110354281553708
  7.8244763049266712 12.4088421843214434  9.6508206877564771
  6.5389749995977198 11.7953063538411058  9.5779075077202567
  6.0465544351349951 11.3619008127843752  8.3179663846073986
  5.2742696388954684 10.1650532625977057  8.2443797535357870
  5.0822150725268935  9.5377278128231477  6.9846574246593285
  5.0525001136352587  8.1136128942944197  6.9116028451784342
  5.2179839463350373  7.4787705152463815  5.6518424702701040
  5.9400083212450694  6.2508574981458720  5.5784956481705974
  6.4143673494840021  5.7974155375626184  4.3190856519890461
  7.6733222009489106  5.1310677825771638  4.2456259833395187
  8.3151181060455475  4.9937665302194230  2.9862619060087074
  9.7365211091457482  5.0872691872676956  2.9132831280712974
 10.3548230375648114  5.3072493647141288  1.6540847515177104
 11.5157752125366706  6.1326384107565870  1.5805073868759507
 11.9268519296538376  6.6443590372797035  0.3213322146527264
 12.4825591966785225  7.9559372574982383  0.2484728490016784
 11.9395376898837213 10.8307052516627866 16.0249280630590505
 11.5325552442219657 11.3447263558929450 14.7639699111708609
 10.3776033088328692 12.1782854936525258 14.6904340509418105
  9.7615288052343807 12.4025212538809040 13.4297897375353958
  8.3409802647378601 12.5060782930650145 13.3563796214709782
  7.6987441738320035 12.3734488228102890 12.0957635892396915
  6.4352340046668290 11.7159451364253204 12.0226942298898862
  5.9578925125778506 11.2660877201614991 10.7624338270640934
  5.2275429222940071 10.0431761821353014 10.6887940597730271
  5.0574183856877193  9.4095855957064085  9.4287251829281633
  5.0771294234723072  7.9853390595041605  9.3557256862621276
  5.2644397822459634  7.3566281150202384  8.0957467070084022
  6.0283117246204894  6.1543739254097760  8.0221815077226744
  6.5176648995776780  5.7175480561077228  6.7624237588812690
  7.7987619580957661  5.0949726758573268  6.6891209435902628
  8.4448442602234337  4.9800406047785204  5.4294469086709007
  9.8620966148981495  5.1225544370612646  5.3563285113748274
 10.4725792172444248  5.3635995418133353  4.0969947530106801
 11.6044529711606828  6.2284171044162537  4.0234443430398983
 11.9976112796685079  6.7539604055826157  2.7641252299500132
 12.5079240996170071  8.0838607634605939  2.6913540607311055
 12.5669158635151081  8.7376282651657853  1.4321006916289687
 12.3028547864451969 10.1374298478211688  1.3587279425282837
 11.8656526222434486 10.9385777733873848 18.4713190058951184
 11.4415543908081734 11.4384362178344485 17.2101931897713811
 10.2584804634966975 12.2316554454805377 17.1365075477567572
  9.6348699307578585 12.4343335221695863 15.8756163438476356
  8.2115844329356253 12.4886061551848666 15.8023819427249173
  7.5742631852325903 12.3339994831103095 14.5414462705979215
  6.3343267648617374 11.6330206482826650 14.4681633320409180
  5.8730970037317931 11.1668334115011643 13.2075553646201733
  5.1854525049322389  9.9194883327560124 13.1339948396130684
  5.0371570955708256  9.2806539249768782 11.8734477557185603
  5.1060797041024211  7.8579528628615396 11.8004678454941807
  5.3149378225200898  7.2361557073777600 10.5401715168773507
  6.1198245424955999  6.0609660323345516 10.4664976602861834
  6.6239592385100092  5.6412827323641093  9.2063966074013486
  7.9256678396830189  5.0630299199851967  9.1332607232631933
  8.5750568324043481  4.9705090204815319  7.8731771355814582
  9.9865111980514154  5.1619273591378692  7.7999376540700620
 10.5880401688113164  5.4240677358935807  6.5402809007889298
 11.6894677584256570  6.3273758196530236  6.4668914312053962
 12.0644368546324259  6.8659742917894651  5.2072705849745526
 12.5284256092571855  8.2127129167398998  5.1344481115072043
 12.5650672777186916  8.8680165459514626  3.8750675389538314
 12.2529132668117580 10.2578757219835328  3.8016016797771206
 11.7881446154133194 11.0437142797960295 20.9178061029707401
 11.3468809814904965 11.5285660556062606 19.6566943152421381
 10.1373003325263884 12.2805741542014797 19.5829624929500490
  9.5072340188264786 12.4616480407980017 18.3218785344911517
  8.0828866702411144 12.4666470329003740 18.2488418624317212
  7.4515408540209549 12.2899552197059059 16.9877240578066768
  6.2366890027468340 11.5464464405101879 16.9142066443782113
  5.7918258395028275 11.0647941101878811 15.6533291315288690
  5.1473547202606822  9.7946188259958404 15.5799036596163010
  5.0212442769545120  9.1510975590218564 14.3190007208656791
  5.1391280958162131  7.7316186516403338 14.2459001577354520
  5.3695292632855409  7.1176192049130851 12.9852856061326474
  6.2144177937436860  5.9708773313123071 12.9115882383528486
  6.7325491053616409  5.5687917989272728 11.6510846309523259
  8.0534084769691585  5.0356877987893025 11.5780801061052330
  8.7055862964043218  4.9655468323182577 10.3176972645217102
 10.1095597866472264  5.2057948597700454 10.2442702548360938
 10.7015133701586063  5.4883767343960184  8.9841831967878196
 11.7710643627976186  6.4292117756035125  8.9110011547257084
 12.1270580292559718  6.9803207064887189  7.6509843282218846
 12.5442443238764643  8.3423047037563833  7.5780357507631617
 12.5581736680628406  8.9983092753744351  6.3183708225644954
 12.1980912431084612 10.3764797623793505  6.2449312620436155
 11.7073796563427557 11.1462527670272120 23.3642137793534133
 11.2497397064186302 11.6157201173031126 22.1032197735863463
 10.0148490493446527 12.3254984001639674 22.0295973269810759
  9.3787434930430091 12.4845519338671771 20.7684607452549344
  7.9551398645360711 12.4402191453056457 20.6954463641240203
  7.3301503391975009 12.2419093934547920 19.4343076203379539
  6.1415976377271546 11.4569515760951806 19.3606394557378430
  5.7138591535641385 10.9601221413092862 18.0995757682049110
  5.1136441868658675  9.6684935494520854 18.0263298689703930
  5.0099061085171810  9.0210604891695869 16.7651824127260980
  5.1768899512767632  7.6065574471508794 16.6918673912683495
  5.4280017471681683  7.0008569985946094 15.4309948841944422
  6.3120416706393367  5.8840649480161717 15.3573836168028546
  6.8436451382711194  5.5002371613248151 14.0965261304909735
  8.1820077072969237  5.0130154699178622 14.0235190870133017
  8.8361033362929398  4.9653555401918670 12.7628573024861343
 10.2308918396551363  5.2538901977944859 12.6892675355083853
 10.8126868836700361  5.5567170829090315 11.4288620684109059
 11.8490859321522155  6.5339496795135314 11.3558371516663428
 12.1857045034088625  7.0968546583201313 10.0954294368897077
 12.5555057639274867  8.4724155595876613 10.0222793417620260
 12.5467935184215751  9.1282979628230745  8.7622312029173575
 12.1393103683080952 10.4932103933420713  8.6888643973808026
 11.6229948315045082 11.2459769200940105 25.8102950902115893
 11.1492120662679870 11.6991505376425753 24.5494985269917088
  9.8905054292033157 12.3656826019751485 24.4760929333916764
  9.2494647772497789 12.5028866604020568 23.2149936793620739
  7.8282610460983566 12.4093605720698132 23.1419378992887950
  7.2106897700083792 12.1894802325627385 21.8808801227712024
  6.0499334038255936 11.3640444809469834 21.8071556288189861
  5.6394229526310067 10.8528196371478654 20.5460620896694586
  5.0841341699102829  9.5412668433426955 20.4729671110765636
  5.0028049793187304  8.8907042350729686 19.2117475467827177
  5.2183426476879289  7.4828031333563674 19.1382222766234342
  5.4905921439069543  6.8863300485746075 17.8772139376625994
  6.4125333422665998  5.8006449193486391 17.8037569953336359
  6.9570500189073439  5.4354301534470606 16.5426259458299469
  8.3114136701796273  4.9946859649122590 16.4694921704271913
  8.9666134275944280  4.9696705768269833 15.2086085719491830
 10.3505653324800395  5.3062123361502866 15.1349675375917361
 10.9213691774528865  5.6289105513089046 13.8742185540913443
 11.9232293707290253  6.6413776760748338 13.8012858208583431
 12.2402779809492923  7.2154612494539618 12.5406186331375089
 12.5622146230645519  8.6029440572752414 12.4671996456805658
 12.5308093547223613  9.2579946946315044 11.2068013100783581
 12.0765157756603312 10.6079529704367221 11.1335365009413785
 11.5353948180525201 11.3428338944573106 28.2558602322145767
 11.0459975187109745 11.7792607695080118 26.9953713868798744
  9.7650184100523578 12.4020547858173931 26.9222043705463285
  9.1195310585014138 12.5168122144388914 25.6613191937566789
  7.7023706348951180 12.3743060851511970 25.5881062612962999
  7.0926953502578352 12.1332825762742793 24.3272420353277035
  5.9609108472631949 11.2684969175411123 24.2536183062350403
  5.5685677971101573 10.7432513575551152 22.9925628012672263
  5.0587228873524808  9.4133821679734080 22.9195555464971754
  5.0000961985358918  8.7603032739726299 21.6584585152645666
  5.2640833864428274  7.3607072084105098 21.5847839219532851
  5.5565687117499403  6.7738618802699291 20.3237168786095808
  6.5155780500420990  5.7207724973954779 20.2504817700933870
  7.0723319974785506  5.3744504122917043 18.9892270348707051
  8.4410974412440876  4.9806741119464508 18.9159294586426725
  9.0967754264479392  4.9782852826065440 17.6548789275797873
 10.4683251187998430  5.3622969287773268 17.5812738056494489
 11.0276117275186873  5.7046616903301732 16.3202558750510143
 11.9938049445139097  6.7511628228286584 16.2473176219676461
 12.2905965979235532  7.3358564199565581 14.9864214338305217
 12.5643862916487912  8.7335591764369038 14.9128043586661931
 12.5103283218825627  9.3870580246329816 13.6520968286359583
 11.4447216813884083 11.4368996266332399 30.7007587771575032
 10.9402646990036594 11.8560694182175546 29.4405803246100319
  9.6384999804812903 12.4342883561166495 29.3676485250894146
  8.9891518003138202 12.5266571641342548 28.1071260629963753
  7.5777185086846988 12.3354515717550921 28.0337723089290272
  6.9766183916694953 12.0732203816189863 26.7731891835738942
  5.8754557979927471 11.1698074596887302 26.6998044612086964
  5.5011874647840076 10.6314047297727594 25.4388834307908454
  5.0375222841546581  9.2847024495551178 25.3658095653061331
  5.0015704131437548  8.6298937801763422 24.1049293138175003
  5.3138539583808395  7.2402775723093331 24.0312078554337951
  5.6266085352315018  6.6638894030049176 22.7702439299359227
  6.6212989611170965  5.6443938372003002 22.6971781844558294
  7.1898012399260445  5.3177390547345809 21.4359995909184349
  8.5712490192098212  4.9712422120538218 21.3625013023053718
  9.2266049766297566  4.9914452816190664 20.1013936806653817
 10.5840466358751453  5.4224663690449706 20.0279475938215619
 11.1311900407350066  5.7837786084210974 18.7667155331406654
 12.0606359362807432  6.8631116220622737 18.6936716770848435
 12.3369299214233177  7.4578026448298651 17.4326901810718873
 12.5622533372804295  8.8641600739277084 17.3590066016706714
 12.4856580586721684  9.5152691996409953 16.0980132802548361
 11.3506560684088438 11.5275265617111184 33.1449288900946044
 10.8319300204337754 11.9292272678482956 31.8850631290288824
  9.5109516996629306 12.4620995597039812 31.8122845188211194
  8.8586304280826020 12.5319598937307699 30.5522055115552646
  7.4545708389319145 12.2920954189989349 30.4788187237373620
  6.8627776385157384 12.0094021132977389 29.2185564897537873
  5.7934932009690927 11.0683671537609225 29.1454333722507286
  5.4378953901241234 10.5172614618581921 27.8848140231258768
  5.0208510265851434  9.1553476708108050 27.8115999924876647
  5.0075173372863722  8.4996326612543864 26.5509584957634708
  5.3677305266965218  7.1216479861436417 26.4773040598335427
  5.7002068967907169  6.5563191123183389 25.2165032816231580
  6.7293361887843268  5.5715753534493793 25.1435248428942408
  7.3088673717320436  5.2645864429065830 23.8826047398179924
  8.7015451204886745  4.9661745528241603 23.8089474925862099
  9.3558845714181622  5.0090255302322984 22.5479825857814440
 10.6976936835885876  5.4866485412746773 22.4747342546410280
 11.2320555116378458  5.8664669575362440 21.2134616073615092
 12.1235191995192118  6.9773024264255135 21.1401726379940094
 12.3790165776715799  7.5811990601337493 19.8791368871898477
 12.5555219157603801  8.9945185836857942 19.8055063213405163
 12.4566481860180627  9.6426911506447208 18.5443732964766035
 11.2538157304959494 11.6149571467206396 35.5885919414702414
 10.7214534157771695 11.9986272183219924 34.3289929899424564
  9.3827857575558262 12.4854855848516983 34.2562195029033845
  8.7282400462802361 12.5327255029996998 32.9965549816201147
  7.3333099583931851 12.2443130422050359 32.9231036833497654
  6.7512803088887816 11.9413063554651462 31.6632574260537147
  5.7150136057735006 10.9639511847951745 31.5903224427557703
  5.3787665084122978 10.4008395150109099 30.3300501497876205
  5.0088673184725305  9.0253259206643079 30.2566907247554227
  5.0179563284415201  8.3695350807596238 28.9963680338343224
  5.4253279072060412  7.0046717253856450 28.9229115605977611
  5.7773853287040344  6.4512478651141620 27.6623277721175143
  6.8399610343248556  5.5027100595650982 27.5893039406219387
  7.4297501035959206  5.2158120640333632 26.3287049561314745
  8.8319291643864020  4.9657520783141162 26.2550586678189042
  9.4843893200212381  5.0311710852333276 24.9942786751223736
 10.8088444776807773  5.5550059155529574 24.9211890865862813
 11.3298640337276790  5.9530311023161406 23.6601471549440063
 12.1826971314874584  7.0938307917312420 23.5866115193291073
 12.4170167624658454  7.7059988971562463 22.3255800831245423
 12.5447090204046248  9.1245602274621369 22.2521166093641156
 12.4232154125657512  9.7688654162794837 20.9909326971032222
 11.1538089759551493 11.6984874130327281 38.0318063375641486
 10.6084306917565332 12.0638212501717863 36.7724247068163592
  9.2537618574522931 12.5042596163936182 36.6995371407195776
  8.5978729739105031 12.5289366835829608 35.4401695239148395
  7.2138219548010021 12.1923169095642780 35.3667045617033651
  6.6425082270682880 11.8693066991622391 34.1071892616679975
  5.6404210725718409 10.8568841111879717 34.0343272439952287
  5.3233646767946787 10.2823870143689806 32.7745571469400048
  5.0012573500693911  8.8948503146867157 32.7010045827575340
  5.0329415820466421  8.2396075692562416 31.4410777369774692
  5.4870637408517640  6.8895475091855198 31.3678386889404059
  5.8579114761910471  6.3485463300556919 30.1075436379111530
  6.9526278964173427  5.4372259941997134 30.0343575878480031
  7.5522737410106018  5.1711156729520233 28.7741423789127566
  8.9623078611733007  4.9698798844870691 28.7005213946318172
  9.6123304648385712  5.0578334106408063 27.4400459386111777
 10.9179374664815096  5.6270823758834085 27.3670153236621410
 11.4248737387212671  6.0428798285551455 26.1062930668435911
 12.2380854972838282  7.2122715317409343 26.0326146542472934
 12.4513059952243470  7.8322859583581463 24.7718221712763800
 12.5299033511318623  9.2544502770631336 24.6985587417245931
 12.3861690651245802  9.8940990352390425 23.4374704311609392
 11.0507732802811223 11.7781417742396233  0.0267224999342698
 10.4933012381614628 12.1247925353961872 39.2154771423913004
  9.1242189092090946 12.5182936669253895 39.1424419853618915
  8.4677501409544327 12.5205319233075869 37.8832689505893043
  7.0960955374738290 12.1363139132703601 37.8098699016722577
  6.5362021754612361 11.7937023556337710 36.5505469408136534
  5.5697786216558951 10.7472022952393154 36.4776560591965264
  5.2726894681016923 10.1620500008553165 35.2182780314553696
  4.9985832357908135  8.7642870621967965 35.1446211062174427
  5.0526396948191534  8.1103102757819272 33.8850847638728112
  5.5530110745637691  6.7767066751422114 33.8119923933573077
  5.9421918485232048  6.2485884433131051 32.5521162465602742
  7.0679901490285948  5.3758844932632455 32.4787413369995264
  7.6763309936207946  5.1306585277397163 31.2188455563432434
  9.0925412019439449  4.9784376930988978 31.1453621738812174
  9.7390883827869317  5.0889893778359019 29.8851726160303635
 11.0243281839570937  5.7028530442187524 29.8120682872258094
 11.5167584934707357  6.1360635181085774 28.5517939544554622
 12.2892150695489732  7.3327578369244524 28.4780799130227287
 12.4810349290079063  7.9597256587491945 27.2175719062717540
 12.5106339963348727  9.3837645620596835 27.1444935850993367
 12.3448236577552244 10.0180815363027023 25.8837211052892613
  8.3379707317909375 12.5071753796425735 40.3259947949718836
  6.9803777460288323 12.0759262011822877 40.2527615149602127
  6.4325789642652378 11.7143726113693898 38.9934727385438507
  5.5027779289377303 10.6351783961949504 38.9204860501906325
  5.2260633840349904 10.0400290849691309 37.6613349711979879
  5.0003871890943552  8.6335924267247144 37.5877062401368818
  5.0771227430687649  7.9819022594498215 36.3283946632890746
  5.6232371562747128  6.6663280230858328 36.2554462942739448
  6.0304063222756250  6.1519274537994777 34.9958914250347490
  7.1856014629655878  5.3185687364970917 34.9223725111531280
  7.8021898970878318  5.0945663107546713 33.6627672291317523
  9.2228034259684293  4.9912060495080084 33.5895053266041970
  9.8651366324963359  5.1240702190369509 32.3295865891668655
 11.1286152385158452  5.7817020501878451 32.2564214525873894
 11.6056215934230984  6.2319353601236003 30.9965067414412587
 12.3363006531675428  7.4546610798622295 30.9229109026341504
 12.5063666681430732  8.0881007238393305 29.6627533557809464
 12.4870270768821037  9.5123589237571995 29.5898234275546059
 12.2992836057314818 10.1406259133653762 28.3294073718090900
  5.1835194967959994  9.9164775066343918 40.1039311582742286
  5.0065540924708758  8.5030100909489192 40.0304288461217084
  5.1058263795871000  7.8542487157075360 38.7711989660893011
  5.6970896090137026  6.5582541448000615 38.6983072804181703
  6.1218077842772809  6.0581125786291521 37.4389770622113218
  7.3051341005719239  5.2649964855845504 37.3654171763915528
  7.9291456520120382  5.0624093867010433 36.1060100472090042
  9.3525703753846976  5.0082454849737879 36.0329906376678366
  9.9900306432095380  5.1632044606902694 34.7733371948907077
 11.2301537012782084  5.8641206173183056 34.7000977817312162
 11.6913608662036843  6.3307192360890143 33.4404711341807044
 12.3792469016584068  7.5780526534762789 33.3670750187432859
 12.5273446596208728  8.2171593379999859 32.1071863048828732
 12.4589318676858927  9.6399637545341683 32.0342782287958343
 12.2498182795235664 10.2617577668718720 30.7743092770108788
  6.2164631951361580  5.9678305343877120 39.8817001867115764
  7.4264221709890421  5.2159262038836660 39.8081343327725534
  8.0570495186296185  5.0347170729486335 38.5488650281962535
  9.4815891454070123  5.0298087464065331 38.4760131050067145
 10.1133765998990111  5.2069241866462912 37.2165762431803628
 11.3284264354620721  5.9503812547922115 37.1432080697246150
 11.7734501975621608  6.4325403518867947 35.8837968489722670
 12.4178071181795762  7.7028968294389184 35.8106169426908210
 12.5437251352717425  8.3468842125641913 34.5509837146069501
 12.4260322334956363  9.7664853748493297 34.4780249526828726
 12.1955876430823942 10.3806932285214373 33.2183718544939239
 10.2352953241042961  5.2546475561039339 39.6594202644875438
 11.4240010602778970  6.0396826424585619 39.5859206341343111
 11.8520503581526118  6.5371263281310679 38.3266859573124563
 12.4525047882928508  7.8288199172130790 38.2536941121785432
 12.5560060444977104  8.4769690138687803 36.9942833249583387
 12.3894998209371821  9.8917080676975715 36.9211812639162034
 12.1377435462704746 10.4978569242759132 35.6618759596831936
 12.5639122117786073  8.6072487511934490 39.4372355452095817
 12.3484773488068988 10.0153874325616030 39.3640046254719635
 12.0759683517035441 10.6126154126556873 38.1048880437920729
