KPOINTS created by Atomic Simulation Environment
16 
Reciprocal
0.000000 0.000000 0.000000 1.0 
0.000000 0.000000 -0.033333 1.0 
0.000000 0.000000 -0.066667 1.0 
0.000000 0.000000 -0.100000 1.0 
0.000000 0.000000 -0.133333 1.0 
0.000000 0.000000 -0.166667 1.0 
0.000000 0.000000 -0.200000 1.0 
0.000000 0.000000 -0.233333 1.0 
0.000000 0.000000 -0.266667 1.0 
0.000000 0.000000 -0.300000 1.0 
0.000000 0.000000 -0.333333 1.0 
0.000000 0.000000 -0.366667 1.0 
0.000000 0.000000 -0.400000 1.0 
0.000000 0.000000 -0.433333 1.0 
0.000000 0.000000 -0.466667 1.0 
0.000000 0.000000 -0.500000 1.0 
