Ge Se                                   
    1.000000000000000     
     4.2000000000000002    0.0000000000000000    0.0000000000000000
     0.0000000000000000    4.7500000000000000    0.0000000000000000
     0.0000000000000000    0.0000000000000000   11.1422209999999993
   Ge   Se
     4     4
Selective dynamics
Direct
  0.2500000000000000  0.1152015690589678  0.1292606571685582   T   T   T
  0.7500000000000000  0.6152015690589678  0.3707393428314418   T   T   T
  0.7500000000000000  0.8847984309410322  0.8707393428314418   T   T   T
  0.2500000000000000  0.3847984309410322  0.6292606571685582   T   T   T
  0.2500000000000000  0.9620041610085792  0.3502553879507460   T   T   T
  0.7500000000000000  0.4620041610085792  0.1497446120492540   T   T   T
  0.7500000000000000  0.0379958389914208  0.6497446120492540   T   T   T
  0.2500000000000000  0.5379958389914208  0.8502553879507460   T   T   T
 
  0.00000000E+00  0.00000000E+00  0.00000000E+00
  0.00000000E+00  0.00000000E+00  0.00000000E+00
  0.00000000E+00  0.00000000E+00  0.00000000E+00
  0.00000000E+00  0.00000000E+00  0.00000000E+00
  0.00000000E+00  0.00000000E+00  0.00000000E+00
  0.00000000E+00  0.00000000E+00  0.00000000E+00
  0.00000000E+00  0.00000000E+00  0.00000000E+00
  0.00000000E+00  0.00000000E+00  0.00000000E+00
