Ge Se
 1.0000000000000000
     4.2000000000000002    0.0000000000000000    0.0000000000000000
     0.0000000000000000    4.7500000000000000    0.0000000000000000
     0.0000000000000000    0.0000000000000000   11.1422209999999993
 Ge  Se 
   4   4
Selective dynamics
Cartesian
  1.0500000000000000  0.5472074530300832  1.4402508087772723   T   T   T
  3.1500000000000004  2.9222074530300826  4.1308596912227289   T   T   T
  3.1500000000000004  4.2027925469699179  9.7019701912227241   T   T   T
  1.0500000000000000  1.8277925469699168  7.0113613087772704   T   T   T
  1.0500000000000000 -0.1804802352092454  3.9026229389879843   T   T   T
  3.1500000000000004  2.1945197647907535  1.6684875610120169   T   T   T
  3.1500000000000004  4.9304802352092443  7.2395980610120194   T   T   T
  1.0500000000000000  2.5554802352092465  9.4737334389879848   T   T   T
