Ge Se                                   
    1.000000000000000     
    12.4236074285170517    0.0000012400763680   -0.0000018200748017
     0.0000012494467965   12.5174839335309809   -0.0000009536897379
    -0.0000020899316848   -0.0000010868775695   11.0820698244916045
   Ge   Se
    36    36
Direct
  0.0794187425274231  0.0570258805938693  0.1340077390914658
  0.2440430950605901  0.8773982271518292  0.3627653735870311
  0.5453593409724533  0.1975828103447341  0.3683873468300760
  0.5739096844117668  0.5485015449200645  0.3661722368126519
  0.5515821417798250  0.8670436646333499  0.3696805464169941
  0.8696229227603709  0.2030532321543745  0.3643157025760289
  0.9122326077337561  0.5323836012995073  0.3703325429248423
  0.9089574002467273  0.8758923997459007  0.3509421994541739
  0.0556923886046903  0.1691387935438655  0.6127782318916530
  0.0704583245880812  0.4983666894889751  0.6217779096096265
  0.0792485840898749  0.8238029269941620  0.6359193081478480
  0.3929617940825594  0.1646987809803022  0.6465573629261101
  0.4142845831698452  0.4889161905352921  0.6193034562756452
  0.4118546144184307  0.8213173080344234  0.6518950420046252
  0.7344043582646549  0.1478660874006863  0.6318207137074765
  0.7336930963808399  0.4841210424784279  0.6330350326969238
  0.2219717271255632  0.5432191499806365  0.3441454519389922
  0.2397061703423233  0.2056847261799959  0.3763571262371457
  0.7416835214967605  0.8230200566540589  0.6350184740223952
  0.8835395000095687  0.6537620807353619  0.8744051336927825
  0.9048529792748852  0.9813374430823245  0.8771773678271302
  0.0365294912578946  0.3533409624924744  0.1388875610408036
  0.0680873148436731  0.7128365833418044  0.1111813564513895
  0.3948786254701488  0.0353366872878027  0.1268323611470450
  0.4047771733904426  0.3775031032997944  0.1332331919408745
  0.6964285543593007  0.0253961680403663  0.1251076825525814
  0.7270386776907074  0.3828285777928997  0.1325750364995955
  0.3932213524034367  0.7059359432198420  0.1363738945845796
  0.2168025612048723  0.3168035602456456  0.8852504201573481
  0.2337905334449246  0.6504399421908431  0.8621579544814608
  0.2338369259221125  0.0065721688086171  0.8581123916420665
  0.5632304540312205  0.3331417364911999  0.8605435422760195
  0.5478732537085591  0.6470863698604319  0.8841272628880574
  0.5726455355771023  0.9849819970401725  0.8667775931455211
  0.8970100831422485  0.3183233569946822  0.8651184052579097
  0.7395991047690202  0.7135231856079898  0.1385582525151889
  0.8945815985472620  0.0250019821566099  0.6518257457966357
  0.2387539580366607  0.3528553627686506  0.6555585777140962
  0.2463627679811538  0.6915949552286023  0.6398542703374304
  0.5764494121955792  0.0225279887169165  0.6396776207542061
  0.5720768451250891  0.3479801900059059  0.6397641317221954
  0.5722649437053633  0.6777282023605338  0.6543631994047914
  0.9150214998182093  0.3577087399020940  0.6405043531161212
  0.7611424266966651  0.0188823920121450  0.3488053227925150
  0.0842106877825870  0.0143937129272373  0.3618403211972918
  0.0889571534195426  0.3759997867833533  0.3641760937440779
  0.0593651947913401  0.6786363112604690  0.3418609736706415
  0.4049270502832769  0.0108363286309370  0.3639208717092828
  0.4103087718423026  0.3416440731424757  0.3630513716716237
  0.4212786782953657  0.6960741253606884  0.3529930168556916
  0.2234384167541705  0.0148409684131465  0.6398835294995067
  0.8996647392094417  0.6922814289309898  0.6507464621591197
  0.9051360232569650  0.8479578697948256  0.1255013820448525
  0.2397027450835907  0.1887830284976957  0.1552676611629735
  0.9144676876746942  0.1929975712030298  0.1405467046395756
  0.7176680600663516  0.3301040580290504  0.3466887057258106
  0.0686529951995567  0.1767701334344949  0.8613752631710412
  0.0751387708752915  0.5129938761852131  0.8578477343723918
  0.0780681894999660  0.8516794905855463  0.8624953752958717
  0.4103312603790030  0.1797137836056635  0.8650925600799155
  0.4021280427375160  0.5134261073718989  0.8375243734492201
  0.4224736527338777  0.8530857669561343  0.8664005636107817
  0.7314600405081748  0.1796117703407063  0.8532818605636905
  0.7359414112281684  0.5136710346635667  0.8700478612250890
  0.7320639412857375  0.8515848196096343  0.8731371971897346
  0.2692678901542820  0.5332777459855578  0.1210550618651638
  0.2416752114517493  0.8462654938840615  0.1410861947061122
  0.5560841935279015  0.1763207311535453  0.1448754346903627
  0.5849587457098835  0.5147184078086440  0.1294056530701226
  0.5867604473513097  0.8575105484473511  0.1381616977389015
  0.8944157289591814  0.5057622685125125  0.1384119084438069
  0.7409152429958326  0.6903908288211085  0.3610643327212699
 
  0.00000000E+00  0.00000000E+00  0.00000000E+00
  0.00000000E+00  0.00000000E+00  0.00000000E+00
  0.00000000E+00  0.00000000E+00  0.00000000E+00
  0.00000000E+00  0.00000000E+00  0.00000000E+00
  0.00000000E+00  0.00000000E+00  0.00000000E+00
  0.00000000E+00  0.00000000E+00  0.00000000E+00
  0.00000000E+00  0.00000000E+00  0.00000000E+00
  0.00000000E+00  0.00000000E+00  0.00000000E+00
  0.00000000E+00  0.00000000E+00  0.00000000E+00
  0.00000000E+00  0.00000000E+00  0.00000000E+00
  0.00000000E+00  0.00000000E+00  0.00000000E+00
  0.00000000E+00  0.00000000E+00  0.00000000E+00
  0.00000000E+00  0.00000000E+00  0.00000000E+00
  0.00000000E+00  0.00000000E+00  0.00000000E+00
  0.00000000E+00  0.00000000E+00  0.00000000E+00
  0.00000000E+00  0.00000000E+00  0.00000000E+00
  0.00000000E+00  0.00000000E+00  0.00000000E+00
  0.00000000E+00  0.00000000E+00  0.00000000E+00
  0.00000000E+00  0.00000000E+00  0.00000000E+00
  0.00000000E+00  0.00000000E+00  0.00000000E+00
  0.00000000E+00  0.00000000E+00  0.00000000E+00
  0.00000000E+00  0.00000000E+00  0.00000000E+00
  0.00000000E+00  0.00000000E+00  0.00000000E+00
  0.00000000E+00  0.00000000E+00  0.00000000E+00
  0.00000000E+00  0.00000000E+00  0.00000000E+00
  0.00000000E+00  0.00000000E+00  0.00000000E+00
  0.00000000E+00  0.00000000E+00  0.00000000E+00
  0.00000000E+00  0.00000000E+00  0.00000000E+00
  0.00000000E+00  0.00000000E+00  0.00000000E+00
  0.00000000E+00  0.00000000E+00  0.00000000E+00
  0.00000000E+00  0.00000000E+00  0.00000000E+00
  0.00000000E+00  0.00000000E+00  0.00000000E+00
  0.00000000E+00  0.00000000E+00  0.00000000E+00
  0.00000000E+00  0.00000000E+00  0.00000000E+00
  0.00000000E+00  0.00000000E+00  0.00000000E+00
  0.00000000E+00  0.00000000E+00  0.00000000E+00
  0.00000000E+00  0.00000000E+00  0.00000000E+00
  0.00000000E+00  0.00000000E+00  0.00000000E+00
  0.00000000E+00  0.00000000E+00  0.00000000E+00
  0.00000000E+00  0.00000000E+00  0.00000000E+00
  0.00000000E+00  0.00000000E+00  0.00000000E+00
  0.00000000E+00  0.00000000E+00  0.00000000E+00
  0.00000000E+00  0.00000000E+00  0.00000000E+00
  0.00000000E+00  0.00000000E+00  0.00000000E+00
  0.00000000E+00  0.00000000E+00  0.00000000E+00
  0.00000000E+00  0.00000000E+00  0.00000000E+00
  0.00000000E+00  0.00000000E+00  0.00000000E+00
  0.00000000E+00  0.00000000E+00  0.00000000E+00
  0.00000000E+00  0.00000000E+00  0.00000000E+00
  0.00000000E+00  0.00000000E+00  0.00000000E+00
  0.00000000E+00  0.00000000E+00  0.00000000E+00
  0.00000000E+00  0.00000000E+00  0.00000000E+00
  0.00000000E+00  0.00000000E+00  0.00000000E+00
  0.00000000E+00  0.00000000E+00  0.00000000E+00
  0.00000000E+00  0.00000000E+00  0.00000000E+00
  0.00000000E+00  0.00000000E+00  0.00000000E+00
  0.00000000E+00  0.00000000E+00  0.00000000E+00
  0.00000000E+00  0.00000000E+00  0.00000000E+00
  0.00000000E+00  0.00000000E+00  0.00000000E+00
  0.00000000E+00  0.00000000E+00  0.00000000E+00
  0.00000000E+00  0.00000000E+00  0.00000000E+00
  0.00000000E+00  0.00000000E+00  0.00000000E+00
  0.00000000E+00  0.00000000E+00  0.00000000E+00
  0.00000000E+00  0.00000000E+00  0.00000000E+00
  0.00000000E+00  0.00000000E+00  0.00000000E+00
  0.00000000E+00  0.00000000E+00  0.00000000E+00
  0.00000000E+00  0.00000000E+00  0.00000000E+00
  0.00000000E+00  0.00000000E+00  0.00000000E+00
  0.00000000E+00  0.00000000E+00  0.00000000E+00
  0.00000000E+00  0.00000000E+00  0.00000000E+00
  0.00000000E+00  0.00000000E+00  0.00000000E+00
  0.00000000E+00  0.00000000E+00  0.00000000E+00
