Ge Se 
 1.0000000000000000
    12.4174682062569097    0.0000059553194448   -0.0000024896195773
     0.0000059969854248   12.5043373701546123   -0.0000025163711471
    -0.0000028530277190   -0.0000028636488770   11.0544259960371409
 Ge  Se 
  36  36
Cartesian
  0.9040490459867955  0.7123588686581608  1.5312419055274149
  2.7256659049654326 10.6612183649972927  4.1862558868756850
  6.9784008009224916  2.5900102725431506  3.9617047753914565
  7.3853247117351408  7.0255403713609610  4.1653735900471700
  6.6435832911918622 10.9281478986992937  4.1318948304146996
 11.0116597797347548  2.6257484364573429  4.1318479019789640
 11.1325001894799680  6.6894543366317771  4.0444609669726539
 11.3391100883395577 11.0576930916931975  3.9984484407248750
  1.1489160180806290  2.0361516765282830  7.0543318073980874
  0.8369645785475269  5.8394116847534727  6.9115555417332475
  0.8733961093185274 10.0879877540755878  6.7335762725071264
  5.0463681174548594  1.7858972753970574  6.8827986776931915
  5.2627969550496969  6.3120794854961897  6.8789687875830863
  4.9104111432170088 10.1877298575334070  7.0667691701514084
  9.0831091887925961  1.7301091527870818  6.8685975494193627
  9.3377938943130765  6.0279877610607633  6.7049707244561079
  2.8201867707965675  6.3714996759910250  4.2277285355288701
  2.7846673716861514  2.6934367980496989  3.9859441002572202
  9.4626512008488195 10.5494377822730367  6.8488994222541706
 11.1161765377527963  8.1077105078105003  9.6004137038655575
 11.6674051587198182 12.5807995132270065  9.6257543287774254
  0.8679183779391370  4.8817928944298030  1.1129099940403817
  0.7363415209339245  8.9520982063443935  1.2991910642798647
  4.8744241619503192  0.3847541035914134  1.4443691408424639
  5.3400712888819912  4.5269413564890684  1.5894986523056642
  9.3538986875700711  0.3707137217065695  1.4569261409433991
  9.0191255493483027  4.7329330394435321  1.4370520713118844
  4.9208883225584490  8.6419302202262163  1.2086818894871172
  3.4369539185357465  4.1449163691654807  9.6997496690171783
  2.8245587749015391  7.9977497194950304  9.5633663841093544
  2.9207197601308326 12.4763419141806455  9.7441970967418161
  7.1349669382188559  4.0497886089382131  9.5735310352662033
  7.5486976516207145  8.3207479151208545  9.5379542448063059
  7.1050250876634715 12.0828565493438607  9.7785207030022026
 11.1631081170394584  3.8144063332595928  9.8561932948975528
  9.0473080717908942  9.0635257175248558  1.4393967503076401
 11.0452221938786881  0.0918068471187312  7.1368990582394884
  2.8725409195829599  4.0776402524008164  7.1334592940569266
  2.8673735936432960  8.3983289308680451  6.9836167130570228
  7.0769315352222835  0.1855307769733968  7.2447452490300881
  7.2373489759520782  4.4429070722502049  7.1113534453631253
  6.9344980613748239  8.3611256884630389  7.0711435834963199
 11.2721552043062356  4.2434340655347640  7.1233980937831678
  9.3877276947083512  0.1100686791354572  3.9588694311883033
  1.0210155974931074  0.1097796022190221  3.9921305465217132
  0.8534270355616258  4.3393094264688488  3.8461366507951800
  0.8462253883335893  8.2904106637721267  3.8959906205339734
  4.9175829662980650  0.0676239584406588  4.0200970024513536
  4.9414179727418874  4.1945296485605690  4.1731808542775877
  5.2343907180794798  8.5215840971987120  3.8828785160517660
  3.0376816326362048  0.3340816779879657  7.2710519909683544
 11.2778516039934562  8.4962754825682971  7.0489680323572115
 11.2405922005134880 10.6076740271913135  1.5399958100722309
  3.0312289324328665  2.2011533070033749  1.4211075008679757
 11.2810444411465749  2.4271443827750323  1.6342069145591382
  9.2141430512096321  4.2618868945821111  3.9601223245886699
  0.8826467507509275  2.2529752339531268  9.5046770390457080
  0.8638660048822330  6.2885043245926999  9.4852972997133449
  0.9740201150176773 10.7875117841306309  9.3293253266070533
  5.0612418843600429  2.2826191033753700  9.4316671852301894
  4.8406438287404967  6.3350843205778471  9.3820093778813067
  4.9571242926233685 10.5643429794583827  9.5379035073405536
  9.1283962056399233  2.2959203903606169  9.4632882253602801
  9.2664806705086686  6.4640425447217416  9.3716576582039544
  9.0324316546414263 10.5619597750139036  9.3626373231479008
  3.0888852562423961  6.4133339214176068  1.6465690670268172
  3.0066969623616036 10.4339246492466735  1.6144471262527607
  6.9421308205930501  2.1801891532208875  1.5525867307790424
  7.1547675640169022  6.5604267406783849  1.6055197653983970
  7.2769033604336224 10.7562885401953601  1.4682042679755589
 11.0184286665472424  6.3072245843150894  1.5957932394007539
  9.1730782014240813  8.7612662075943391  4.0555095482580965
