Ge Se                                   
    1.000000000000000     
    12.4580369984270618   -0.0000066814597399    0.0000000870940899
    -0.0000067024749926   12.4972178654498656   -0.0000037995784527
     0.0000000996508459   -0.0000043337501923   11.0731681417969980
   Ge   Se
    36    36
Direct
  0.0667549471655704  0.0396695192402632  0.1342177889950733
  0.2326327520518205  0.8723222858181501  0.3606793625470956
  0.5689909112847928  0.2106812354373275  0.3681719094119345
  0.5757026092332111  0.5379121296941705  0.3544107966127825
  0.5453810643950803  0.8538345671564400  0.3660516102925513
  0.8838870599770985  0.2015890912160145  0.3574952753575502
  0.9079283699417360  0.5390383534952292  0.3714579194981198
  0.9077564999339671  0.8881776120973015  0.3858375607549220
  0.0471980030510650  0.1617332240620186  0.6311995001567041
  0.0726285114592429  0.4682604237025245  0.6221642301858950
  0.0622589821198503  0.7979227286216926  0.6260646681396338
  0.3999450620023026  0.1459008041502656  0.6319816147287725
  0.3974983089380970  0.4873407202746378  0.6272245638060241
  0.3686781754557984  0.8395951582217691  0.6242844771086595
  0.7391310396859296  0.1397150081691052  0.6232772843325165
  0.7078801825315679  0.4994057449609244  0.6389022502984147
  0.2214724656780618  0.5150438607524777  0.3713576928155575
  0.2470582738133871  0.2006816424293802  0.3818741117188438
  0.7415459706560341  0.8095188137675180  0.6184281233305100
  0.9181830681727163  0.6353258847302428  0.8814673963527540
  0.8944644894699678  0.9872703015276230  0.8922623284599567
  0.0549416445113806  0.3597575693010384  0.1228369956108821
  0.0535597596893709  0.6966890188894226  0.1358174398152201
  0.3992231669014004  0.0263048257681291  0.1244023247100543
  0.3900773036114273  0.3714943644530067  0.1175876386056913
  0.7351478521853849  0.0149191804760207  0.1265504746229524
  0.7357256386419095  0.3760771330597024  0.1235894238032671
  0.3954029636927316  0.6901444630934321  0.1228237185270302
  0.2479143705244340  0.3000946901379109  0.8765296013868351
  0.2244194097093413  0.6550667609152896  0.8704398266783571
  0.2113872638695184  0.0179076485327059  0.8671005837990862
  0.5382211850701424  0.3107328973773420  0.8764545318423558
  0.5416881954671950  0.6763208569512003  0.8593997555688446
  0.5850061413530625  0.9713276250305611  0.8558361558084329
  0.8602657348129554  0.3372430738473966  0.8657207425760021
  0.7165756245831645  0.7089733660607678  0.1311866638285224
  0.9025160191553567  0.0169540445410519  0.6588286744845604
  0.2483912919732134  0.3409948906552955  0.6404548254943876
  0.2235835557514179  0.6768014232739148  0.6544531480259579
  0.5814489633888300  0.9918336650416038  0.6344921087147597
  0.5714273200899811  0.3496515680106995  0.6578623391510945
  0.5648460452302260  0.6742488272761875  0.6303163856010983
  0.9119172321695643  0.3384025838244540  0.6398736865012538
  0.7458760185161069  0.0202671845343616  0.3466399413192605
  0.0780758613877595  0.0221666625411601  0.3569716093585455
  0.0876745704882964  0.3446525514510839  0.3554576106082692
  0.0648639619343498  0.6712995372860817  0.3657579926401411
  0.3988288031570164  0.9959220482332469  0.3421633851318191
  0.4134280687046541  0.3539606701151286  0.3518876194840530
  0.4230213565297873  0.6817638350645367  0.3577318141936274
  0.2394320063278244  0.0099687294740960  0.6430315259857124
  0.9053745938125317  0.6667946520190071  0.6308606267845462
  0.9316029352000825  0.8533078976005442  0.1526365106252214
  0.2554647094467555  0.1873735226603515  0.1582375889261840
  0.9119163031160866  0.1896851487844415  0.1371535163588788
  0.7278361368889890  0.3463835685380374  0.3538794827771454
  0.0839324193818598  0.1786779833263310  0.8676004409701221
  0.0794095438928295  0.5004706160223193  0.8651128789712530
  0.0743377164881736  0.8651885622503528  0.8505260607803677
  0.4132218620809454  0.1546070813918163  0.8600345685343740
  0.3976531384446247  0.5273406514813956  0.8563613993666337
  0.4234343662819313  0.8538716902594103  0.8513251754047744
  0.7104308357453490  0.1949456858708487  0.8415640673367690
  0.7420606083203154  0.5170777651622700  0.8540706996795109
  0.7529641214162694  0.8225924641784630  0.8619296614672294
  0.2364429100574057  0.5232167517249238  0.1426244095987599
  0.2462850561523382  0.8315935634740796  0.1353795669600615
  0.5710093877074343  0.1708641914774418  0.1465476108689998
  0.5965560027375076  0.5166032559010603  0.1244961312971924
  0.5745270345622302  0.8540506831748971  0.1304089615639512
  0.9033201384497431  0.5085648058670884  0.1385781797520522
  0.7568272190837959  0.6868414499895010  0.3480006783049561
 
  0.00000000E+00  0.00000000E+00  0.00000000E+00
  0.00000000E+00  0.00000000E+00  0.00000000E+00
  0.00000000E+00  0.00000000E+00  0.00000000E+00
  0.00000000E+00  0.00000000E+00  0.00000000E+00
  0.00000000E+00  0.00000000E+00  0.00000000E+00
  0.00000000E+00  0.00000000E+00  0.00000000E+00
  0.00000000E+00  0.00000000E+00  0.00000000E+00
  0.00000000E+00  0.00000000E+00  0.00000000E+00
  0.00000000E+00  0.00000000E+00  0.00000000E+00
  0.00000000E+00  0.00000000E+00  0.00000000E+00
  0.00000000E+00  0.00000000E+00  0.00000000E+00
  0.00000000E+00  0.00000000E+00  0.00000000E+00
  0.00000000E+00  0.00000000E+00  0.00000000E+00
  0.00000000E+00  0.00000000E+00  0.00000000E+00
  0.00000000E+00  0.00000000E+00  0.00000000E+00
  0.00000000E+00  0.00000000E+00  0.00000000E+00
  0.00000000E+00  0.00000000E+00  0.00000000E+00
  0.00000000E+00  0.00000000E+00  0.00000000E+00
  0.00000000E+00  0.00000000E+00  0.00000000E+00
  0.00000000E+00  0.00000000E+00  0.00000000E+00
  0.00000000E+00  0.00000000E+00  0.00000000E+00
  0.00000000E+00  0.00000000E+00  0.00000000E+00
  0.00000000E+00  0.00000000E+00  0.00000000E+00
  0.00000000E+00  0.00000000E+00  0.00000000E+00
  0.00000000E+00  0.00000000E+00  0.00000000E+00
  0.00000000E+00  0.00000000E+00  0.00000000E+00
  0.00000000E+00  0.00000000E+00  0.00000000E+00
  0.00000000E+00  0.00000000E+00  0.00000000E+00
  0.00000000E+00  0.00000000E+00  0.00000000E+00
  0.00000000E+00  0.00000000E+00  0.00000000E+00
  0.00000000E+00  0.00000000E+00  0.00000000E+00
  0.00000000E+00  0.00000000E+00  0.00000000E+00
  0.00000000E+00  0.00000000E+00  0.00000000E+00
  0.00000000E+00  0.00000000E+00  0.00000000E+00
  0.00000000E+00  0.00000000E+00  0.00000000E+00
  0.00000000E+00  0.00000000E+00  0.00000000E+00
  0.00000000E+00  0.00000000E+00  0.00000000E+00
  0.00000000E+00  0.00000000E+00  0.00000000E+00
  0.00000000E+00  0.00000000E+00  0.00000000E+00
  0.00000000E+00  0.00000000E+00  0.00000000E+00
  0.00000000E+00  0.00000000E+00  0.00000000E+00
  0.00000000E+00  0.00000000E+00  0.00000000E+00
  0.00000000E+00  0.00000000E+00  0.00000000E+00
  0.00000000E+00  0.00000000E+00  0.00000000E+00
  0.00000000E+00  0.00000000E+00  0.00000000E+00
  0.00000000E+00  0.00000000E+00  0.00000000E+00
  0.00000000E+00  0.00000000E+00  0.00000000E+00
  0.00000000E+00  0.00000000E+00  0.00000000E+00
  0.00000000E+00  0.00000000E+00  0.00000000E+00
  0.00000000E+00  0.00000000E+00  0.00000000E+00
  0.00000000E+00  0.00000000E+00  0.00000000E+00
  0.00000000E+00  0.00000000E+00  0.00000000E+00
  0.00000000E+00  0.00000000E+00  0.00000000E+00
  0.00000000E+00  0.00000000E+00  0.00000000E+00
  0.00000000E+00  0.00000000E+00  0.00000000E+00
  0.00000000E+00  0.00000000E+00  0.00000000E+00
  0.00000000E+00  0.00000000E+00  0.00000000E+00
  0.00000000E+00  0.00000000E+00  0.00000000E+00
  0.00000000E+00  0.00000000E+00  0.00000000E+00
  0.00000000E+00  0.00000000E+00  0.00000000E+00
  0.00000000E+00  0.00000000E+00  0.00000000E+00
  0.00000000E+00  0.00000000E+00  0.00000000E+00
  0.00000000E+00  0.00000000E+00  0.00000000E+00
  0.00000000E+00  0.00000000E+00  0.00000000E+00
  0.00000000E+00  0.00000000E+00  0.00000000E+00
  0.00000000E+00  0.00000000E+00  0.00000000E+00
  0.00000000E+00  0.00000000E+00  0.00000000E+00
  0.00000000E+00  0.00000000E+00  0.00000000E+00
  0.00000000E+00  0.00000000E+00  0.00000000E+00
  0.00000000E+00  0.00000000E+00  0.00000000E+00
  0.00000000E+00  0.00000000E+00  0.00000000E+00
  0.00000000E+00  0.00000000E+00  0.00000000E+00
