 S  O 
 1.0000000000000000
    32.3722991942999982    0.0000000000000000    0.0000000000000000
     0.0000000000000000   19.9214134216000005    0.0000000000000000
     0.0000000000000000    0.0000000000000000   40.4480476378999967
 S   O  
   1   2
Cartesian
 14.1671543120000489  8.9997189155960129 19.7981843522740029
 14.1671543120000489  8.2767387108116406 18.5443665610316870
 14.1671543120000489 10.4470073395923464 19.7812035886944244
