 C  S  O                                
    1.000000000000000     
    32.3722991942999982    0.0000000000000000    0.0000000000000000
     0.0000000000000000   19.9214134216000005    0.0000000000000000
     0.0000000000000000    0.0000000000000000   40.4480476378999967
   C    S    O 
   364     1     2
Selective dynamics
Direct
  0.3709481586023738  0.5383116388655247  0.0024669876092227   T   T   T
  0.3687492763953310  0.5438423832982677  0.0629328466061019   T   T   T
  0.3380020164658790  0.5949929124398041  0.0611137841398501   T   T   T
  0.3204517626161384  0.6113774938874499  0.0299450807081883   T   T   T
  0.2777688338191397  0.6287312007844377  0.0281241290214645   T   T   T
  0.3663840084055494  0.5492712630652593  0.1233914479184932   T   T   T
  0.3345808081211110  0.5986857626659421  0.1215603436542723   T   T   T
  0.3167128333275972  0.6140609471412549  0.0903878279291830   T   T   T
  0.2736860968644336  0.6290054032679862  0.0885513719344826   T   T   T
  0.2534940562055117  0.6268379162799769  0.0573946258836959   T   T   T
  0.2120380872996856  0.6028903599098544  0.0555806094259307   T   T   T
  0.1955330763679548  0.5838179525978263  0.0244300200229577   T   T   T
  0.1679596039603031  0.5280993144388759  0.0226208409914632   T   T   T
  0.3638490560977027  0.5545898210876475  0.1838432353915843   T   T   T
  0.3310402185995067  0.6022295872084241  0.1819990713639364   T   T   T
  0.3128821686629181  0.6165801180879391  0.1508224797303983   T   T   T
  0.2695660163036155  0.6291105367237578  0.1489762799766314   T   T   T
  0.2494508374283005  0.6257753914034641  0.1178154772638522   T   T   T
  0.2085336001692367  0.5994974021501212  0.1160023114065956   T   T   T
  0.1924613322370992  0.5794987244854036  0.0848492620828670   T   T   T
  0.1660962049566816  0.5222611888037919  0.0830351826418897   T   T   T
  0.1588515839219490  0.4915164969558602  0.0518915695932666   T   T   T
  0.1548982644849300  0.4203073648287644  0.0500779959037691   T   T   T
  0.1586698241737193  0.3879404327403204  0.0189349340281991   T   T   T
  0.1783227274932733  0.3239701779412976  0.0171310067929203   T   T   T
  0.3611813385726508  0.5598051842224065  0.2442837224550834   T   T   T
  0.3274127232266943  0.6056348813160906  0.2424288078773063   T   T   T
  0.3089691272105087  0.6189470585890386  0.2112509663126817   T   T   T
  0.2654156976789232  0.6290541114771780  0.2094012419133274   T   T   T
  0.2453978490766362  0.6245475254081732  0.1782358294088269   T   T   T
  0.2050736215715765  0.5959467513867950  0.1764264420928188   T   T   T
  0.1894542130826752  0.5750307560714430  0.1452719799062999   T   T   T
  0.1643365010968807  0.5163281959752570  0.1434557616969372   T   T   T
  0.1577674912289750  0.4851877455433031  0.1123080785389075   T   T   T
  0.1553277904583211  0.4137993940697253  0.1104979423223561   T   T   T
  0.1597950966394870  0.3816643617186751  0.0793508828337280   T   T   T
  0.1807849560150258  0.3188269932691688  0.0775438808994313   T   T   T
  0.1949708670914848  0.2952686074932324  0.0464050626652393   T   T   T
  0.2331327544189725  0.2596796428129705  0.0445919677143021   T   T   T
  0.2528106188260541  0.2516997329927764  0.0134468319674967   T   T   T
  0.2967902341648325  0.2539216129741960  0.0116464162777250   T   T   T
  0.3702581437081628  0.5383921137403183  0.3358946316546537   T   T   T
  0.3584050085496476  0.5649277406251760  0.3047126606310508   T   T   T
  0.3237325088850908  0.6089347139539319  0.3028522023832643   T   T   T
  0.3050105164603995  0.6211752834740697  0.2716752802950360   T   T   T
  0.2612669854439084  0.6288276543633322  0.2698295152508073   T   T   T
  0.2413567631918692  0.6231487976687314  0.2386634897777350   T   T   T
  0.2016824818957475  0.5922351905298439  0.2368573631711531   T   T   T
  0.1865384077967743  0.5704072009354269  0.2057014650843117   T   T   T
  0.1627180971378040  0.5102928608941646  0.2038859201219469   T   T   T
  0.1568152547216461  0.4788020449125026  0.1727339798708414   T   T   T
  0.1558899228518866  0.4073201866377717  0.1709273462136997   T   T   T
  0.1610254079703564  0.3754548111315173  0.1397752784006547   T   T   T
  0.1833216318853942  0.3138155458087207  0.1379618755730592   T   T   T
  0.1980149040803385  0.2910717254481706  0.1068228984980614   T   T   T
  0.2369071090745426  0.2576356724079857  0.1050182341178757   T   T   T
  0.2567643694143171  0.2507740205597609  0.0738779449357589   T   T   T
  0.3006715350255330  0.2554654897169196  0.0720894228222886   T   T   T
  0.3197860024581332  0.2665040294776360  0.0409394148479101   T   T   T
  0.3556615883025882  0.3079065803741944  0.0391284819751062   T   T   T
  0.3683690891766012  0.3335600507592846  0.0079612986224252   T   T   T
  0.3855524373215160  0.3993866113258099  0.0061562934209883   T   T   T
  0.3679430451639606  0.5440818250698560  0.3963044495504467   T   T   T
  0.3555459105290119  0.5699586159972079  0.3651306167695672   T   T   T
  0.3200072661362107  0.6121060916998566  0.3632766805531045   T   T   T
  0.3010311677481586  0.6232780160742403  0.3321014783300971   T   T   T
  0.2571477439448336  0.6284254041257412  0.3302676071062333   T   T   T
  0.2373666390430663  0.6215552650680414  0.2991008405553457   T   T   T
  0.1984079440197787  0.5883257522370201  0.2972975139426278   T   T   T
  0.1837362334179122  0.5656375217421699  0.2661415601274127   T   T   T
  0.1612498452737388  0.5041768700032239  0.2643291903474111   T   T   T
  0.1560136130201208  0.4723740963413433  0.2331716929563127   T   T   T
  0.1565998534392745  0.4008816323042630  0.2313654096286292   T   T   T
  0.1623899795374468  0.3693202031126406  0.2002089920445930   T   T   T
  0.1859464052663503  0.3089314903873126  0.1983879555728400   T   T   T
  0.2011079709836873  0.2870189818189238  0.1672453483926009   T   T   T
  0.2406755556056488  0.2557485395117471  0.1654482241451442   T   T   T
  0.2606881779232728  0.2500294805342514  0.1343120001571438   T   T   T
  0.3044683906923283  0.2571892919167701  0.1325310570607920   T   T   T
  0.3233646772676506  0.2693092599413559  0.1013923020609903   T   T   T
  0.3583368099419932  0.3127083249450864  0.0995961666672188   T   T   T
  0.3705172853810094  0.3390630903065981  0.0684350945511909   T   T   T
  0.3862941734221412  0.4058132943530415  0.0666385169545353   T   T   T
  0.3881457553266643  0.4385950345898129  0.0354629710703074   T   T   T
  0.3799832013630624  0.5088568945415494  0.0336386859548288   T   T   T
  0.3655578449406984  0.5496651369922616  0.4567034008856949   T   T   T
  0.3526470389400049  0.5748951998546507  0.4255417577587571   T   T   T
  0.3162618639532980  0.6150896557736693  0.4237070462371464   T   T   T
  0.2970350645575525  0.6251941400686545  0.3925357975939561   T   T   T
  0.2530658443328703  0.6277946326787298  0.3907172763502039   T   T   T
  0.2334355256234237  0.6197643426682798  0.3595496153484181   T   T   T
  0.1952547584351465  0.5842240505430334  0.3577454754044345   T   T   T
  0.1810889916002329  0.5606775319376781  0.3265895366065180   T   T   T
  0.1599647948122473  0.4979558142557360  0.3247813350929474   T   T   T
  0.1553864242264533  0.4658905476961838  0.2936177364452205   T   T   T
  0.1574582121733018  0.3944688888237183  0.2918094581336016   T   T   T
  0.1638820354316381  0.3632470588259457  0.2606476727558881   T   T   T
  0.1886518122210543  0.3041521435325606  0.2588197457524449   T   T   T
  0.2042646231853937  0.2830924586955383  0.2276726959196151   T   T   T
  0.2444579910248551  0.2540018538125521  0.2258800833835976   T   T   T
  0.2645910933110043  0.2494382208098953  0.1947462346183659   T   T   T
  0.3081916216032953  0.2590820003741244  0.1929710964712857   T   T   T
  0.3268297944012082  0.2722997248618356  0.1618419659559517   T   T   T
  0.3608454901242649  0.3176656636746104  0.1600620381232838   T   T   T
  0.3724870498551929  0.3446924130798854  0.1289079752702609   T   T   T
  0.3868253171698401  0.4122930114185682  0.1271135298126079   T   T   T
  0.3880186562591446  0.4451540384444874  0.0959416276091325   T   T   T
  0.3783780834310592  0.5149196546375692  0.0941089302099707   T   T   T
  0.3632201863952886  0.5549247077557508  0.5171374073612000   T   T   T
  0.3496843071704042  0.5794893195258305  0.4859870191829288   T   T   T
  0.3124946263352156  0.6176292482085425  0.4841650138831141   T   T   T
  0.2930470318705984  0.6267569307525778  0.4529899988010829   T   T   T
  0.2490484026058175  0.6268188517275293  0.4511827687878646   T   T   T
  0.2295911407876567  0.6177038883209442  0.4200123913148063   T   T   T
  0.1922343751434410  0.5799182560851718  0.4182019621712836   T   T   T
  0.1785889641386986  0.5555642658053688  0.3870436667564223   T   T   T
  0.1588360446410144  0.4916708400498773  0.3852385981366351   T   T   T
  0.1549284985231688  0.4593665863970254  0.3540733199109147   T   T   T
  0.1584662062462994  0.3880951509255574  0.3522614694686998   T   T   T
  0.1655045155750778  0.3572413222422921  0.3210944680013048   T   T   T
  0.1914470341740078  0.2994876523886100  0.3192623110048068   T   T   T
  0.2074741582256182  0.2792909980158789  0.2881077115296523   T   T   T
  0.2482497642336012  0.2524178138592243  0.2863155965949461   T   T   T
  0.2684772522535916  0.2490107970935982  0.2551846567914418   T   T   T
  0.3118409865647540  0.2611627374816393  0.2534094980460698   T   T   T
  0.3301943098575143  0.2754602668271839  0.2222879113570584   T   T   T
  0.3631939668645190  0.3227682281230411  0.2205218658175354   T   T   T
  0.3742677753298573  0.3504429250139850  0.1893760076580597   T   T   T
  0.3871483994629874  0.4188150496367103  0.1875797791476794   T   T   T
  0.3876767589163505  0.4517175357644471  0.1564117406248119   T   T   T
  0.3765759875311720  0.5209041576686169  0.1545733386124031   T   T   T
  0.3608311299686531  0.5599544503907948  0.5775375896735691   T   T   T
  0.3467547924622210  0.5838283213726594  0.5464263650832787   T   T   T
  0.3087230135595774  0.6198005308116424  0.5446222216184839   T   T   T
  0.2890643166984724  0.6279062251425475  0.5134671114422119   T   T   T
  0.2450918582430939  0.6254727253997135  0.5116602151236008   T   T   T
  0.2258310005280781  0.6152999800603945  0.4804847763699814   T   T   T
  0.1893156373254987  0.5754119027411960  0.4786638575459874   T   T   T
  0.1762110783600161  0.5503016607677844  0.4474998030505299   T   T   T
  0.1578479652765615  0.4853272512014687  0.4456957178142720   T   T   T
  0.1546286293488935  0.4528172076185702  0.4145308112440051   T   T   T
  0.1596340868413509  0.3817799756056689  0.4127163354933571   T   T   T
  0.1672762670847504  0.3513134301177776  0.3815463372758878   T   T   T
  0.1943534182354891  0.2949515557463916  0.3797166659520685   T   T   T
  0.2107663144986338  0.2756307070506605  0.3485519295093432   T   T   T
  0.2520749591961667  0.2510056289995581  0.3467557259149932   T   T   T
  0.2723616789702755  0.2487679845211454  0.3156221439377855   T   T   T
  0.3154277779352465  0.2634298300018479  0.3138443954127034   T   T   T
  0.3334558813234675  0.2788100730217030  0.2827275508650531   T   T   T
  0.3653811012124312  0.3280253883810155  0.2809707310414745   T   T   T
  0.3758702341050642  0.3563110994606779  0.2498337999592228   T   T   T
  0.3872776484672458  0.4253678770263035  0.2480331234831840   T   T   T
  0.3871382750386583  0.4582724633187549  0.2168687165716168   T   T   T
  0.3746072956452889  0.5268089570863164  0.2150269673169009   T   T   T
  0.3583597028254504  0.5648524883900485  0.6379583445448684   T   T   T
  0.3437277624688032  0.5878264487565174  0.6068439385157589   T   T   T
  0.3049368848326427  0.6215684572411485  0.6050643421655791   T   T   T
  0.2850957186099876  0.6286472786253513  0.5739193348513724   T   T   T
  0.2411966754832883  0.6237819593417383  0.5721199722105493   T   T   T
  0.2221344050129231  0.6126242059826613  0.5409545474023777   T   T   T
  0.1864763259565350  0.5707279039786599  0.5391264849118352   T   T   T
  0.1739234522820829  0.5448997517694339  0.5079593514255341   T   T   T
  0.1569466837134143  0.4789418799156893  0.5061532899935877   T   T   T
  0.1544436590293276  0.4462669276420200  0.4749875917348009   T   T   T
  0.1609157926284974  0.3755460666249976  0.4731716927438630   T   T   T
  0.1691864925231961  0.3454995385156624  0.4420054014436109   T   T   T
  0.1973852112679479  0.2906068521881120  0.4401857280400879   T   T   T
  0.2141525924784289  0.2721402775502725  0.4090109092805796   T   T   T
  0.2559435821017921  0.2497646708666104  0.4072047926188796   T   T   T
  0.2762528514170998  0.2486909694074720  0.3760621750520086   T   T   T
  0.3189669714326471  0.2658713078210834  0.3742746841102588   T   T   T
  0.3366370582623042  0.2823303897608485  0.3431618039244599   T   T   T
  0.3674390687480916  0.3334041805529849  0.3414044528792549   T   T   T
  0.3772985774774667  0.3622916902727013  0.3102764482076291   T   T   T
  0.3872259727038534  0.4319476526259967  0.3084689837534811   T   T   T
  0.3864179822901267  0.4648209210209860  0.2773104820819229   T   T   T
  0.3724959848499673  0.5326409555725371  0.2754678804344352   T   T   T
  0.3558177610837522  0.5696072688645940  0.6983900250124185   T   T   T
  0.3406678054457180  0.5916875991534846  0.6672708094298075   T   T   T
  0.3011506584290163  0.6231385496242843  0.6655055067503436   T   T   T
  0.2811527816938861  0.6290707492880409  0.6343701132837386   T   T   T
  0.2373788211496513  0.6217904028305310  0.6325739737353434   T   T   T
  0.2185392359811135  0.6096341716806261  0.6014138275355866   T   T   T
  0.1837436011600153  0.5658682267768634  0.5995859074898999   T   T   T
  0.1717206029724078  0.5393895640462443  0.5684155840599999   T   T   T
  0.1561228095704539  0.4725338363897352  0.5666086510712842   T   T   T
  0.1543311960206047  0.4397302480271120  0.5354469509106546   T   T   T
  0.1622978822731071  0.3694121273482796  0.5336322827551165   T   T   T
  0.1712059051586260  0.3398243982696934  0.5024699218148913   T   T   T
  0.2005439776146719  0.2865349953218243  0.5006634882339588   T   T   T
  0.2176648469475825  0.2689361128995618  0.4694868513690358   T   T   T
  0.2598973902361713  0.2488677659466619  0.4676739839791283   T   T   T
  0.2801707405253233  0.2488236199173162  0.4365104922892716   T   T   T
  0.3224759436644823  0.2684770643395074  0.4347061355090970   T   T   T
  0.3397441649776014  0.2860054200864951  0.4035877443010107   T   T   T
  0.3693623744700562  0.3388931715715399  0.4018149928175845   T   T   T
  0.3785975598480696  0.3683484821730524  0.3707003237179161   T   T   T
  0.3870236090599164  0.4385362667504960  0.3688848868215807   T   T   T
  0.3855424948497368  0.4713489130644672  0.3377335980486975   T   T   T
  0.3531734813397876  0.5742262650671323  0.7588307516876823   T   T   T
  0.3375441738079450  0.5953877527490600  0.7277062292705985   T   T   T
  0.2973564293646490  0.6245193242363072  0.7259464522323330   T   T   T
  0.2772313649817700  0.6292876672562407  0.6948148041735237   T   T   T
  0.2336370785567627  0.6195957176964820  0.6930181126908095   T   T   T
  0.2150347456890682  0.6064337614480759  0.6618661518917606   T   T   T
  0.1811391086417210  0.5608414182881748  0.6600441182081344   T   T   T
  0.1696402218448262  0.5337464725279442  0.6288750679741477   T   T   T
  0.1554207357725766  0.4660831714716557  0.6270654332354939   T   T   T
  0.1543267469403092  0.4331999671827694  0.5959031247198444   T   T   T
  0.1638029411524783  0.3633789058547546  0.5940906694318122   T   T   T
  0.1733460511737172  0.3343119566638609  0.5629323835428086   T   T   T
  0.2038260101828900  0.2827370805744051  0.5611359282648092   T   T   T
  0.2212978241371930  0.2660806226124344  0.5299670035708691   T   T   T
  0.2639375462989578  0.2484360735484339  0.5281493343306052   T   T   T
  0.2841657495941701  0.2494213032229769  0.4969762883729291   T   T   T
  0.3260090590591542  0.2714638405651857  0.4951613425696204   T   T   T
  0.3427949421179509  0.2898600968006252  0.4640068524145434   T   T   T
  0.3710585751683862  0.3445973518042201  0.4622055996903266   T   T   T
  0.3796756748970183  0.3745155596615250  0.4311025124427764   T   T   T
  0.3866098801383773  0.4451477962800833  0.4292736117576956   T   T   T
  0.3845204267050916  0.4778578142756574  0.3981275335110306   T   T   T
  0.3504035286213316  0.5786913052730674  0.8192789102731445   T   T   T
  0.3343290640567592  0.5989245542230747  0.7881467899722829   T   T   T
  0.2935315981413512  0.6257142446254479  0.7863837874686311   T   T   T
  0.2733201367357180  0.6293205422077003  0.7552529526227924   T   T   T
  0.2299534133891326  0.6172186658731262  0.7534556829728517   T   T   T
  0.2116278270198959  0.6030492247950844  0.7223109945215487   T   T   T
  0.1786684047873862  0.5556785600250718  0.7204977543789142   T   T   T
  0.1677047327720499  0.5279856700576843  0.6893330349897338   T   T   T
  0.1548773194571042  0.4595924646669963  0.6875197726128562   T   T   T
  0.1544590509170820  0.4266717694627289  0.6563589565590208   T   T   T
  0.1654494027056714  0.3574377921789234  0.6545482292300802   T   T   T
  0.1756224548424143  0.3289480266726173  0.6233914937280917   T   T   T
  0.2072384372337061  0.2792160645508194  0.6215971981301976   T   T   T
  0.2250440898537525  0.2635589963656409  0.5904321730868790   T   T   T
  0.2680466585202356  0.2484303450204098  0.5886009956122338   T   T   T
  0.2882157008795852  0.2504902859638710  0.5574298647010303   T   T   T
  0.3295800684336763  0.2748591811782092  0.5555982580723002   T   T   T
  0.3459259699064584  0.2941124613563388  0.5244281833706107   T   T   T
  0.3730696870596902  0.3503255716805529  0.5226176966547930   T   T   T
  0.3805841200422194  0.3807757279674716  0.4914771963323442   T   T   T
  0.3861885642214286  0.4517309792296715  0.4896570421263665   T   T   T
  0.3833074558458875  0.4843185512859772  0.4584953957237474   T   T   T
  0.3475124955455608  0.5830163925425875  0.8797361721284753   T   T   T
  0.3310285016084471  0.6023059766864833  0.8485924571684619   T   T   T
  0.2896759879386540  0.6267442824126673  0.8468206289460342   T   T   T
  0.2694073270311795  0.6291797886405692  0.8156884082539420   T   T   T
  0.2263205849582771  0.6146734954653803  0.8138872013688210   T   T   T
  0.2082957807058863  0.5994944029251661  0.7827470865557222   T   T   T
  0.1763172079972440  0.5503823092805799  0.7809419871753841   T   T   T
  0.1659156508432267  0.5221165139184758  0.7497830291217770   T   T   T
  0.1545115085389180  0.4530612009464908  0.7479677479054494   T   T   T
  0.1547711261076996  0.4201440566714402  0.7168099871651642   T   T   T
  0.1672684582604121  0.3515884526512513  0.7150013713829009   T   T   T
  0.1780513571906063  0.3237226418896663  0.6838425133863782   T   T   T
  0.2107711993710304  0.2759149933595262  0.6820426727474757   T   T   T
  0.2289006080912386  0.2613260036118997  0.6508803154307765   T   T   T
  0.2722066373132501  0.2487086889957515  0.6490376997650720   T   T   T
  0.2922960502719658  0.2519253576964957  0.6178601560224474   T   T   T
  0.3331268086064743  0.2785455103850173  0.6160097213834874   T   T   T
  0.3490721319044787  0.2986409556380187  0.5848292057994681   T   T   T
  0.3752091729353898  0.3561659741385835  0.5829810304478450   T   T   T
  0.3822539961370118  0.3869648684953109  0.5518369721338564   T   T   T
  0.3862431129118021  0.4582136082190527  0.5500341819614980   T   T   T
  0.3824278957190788  0.4906665333642279  0.5189508315592307   T   T   T
  0.3444782329951716  0.5871701621736436  0.9401968936746371   T   T   T
  0.3276139101082121  0.6055105546561641  0.9090431184675988   T   T   T
  0.2857650687245056  0.6276001006888479  0.9072565736797574   T   T   T
  0.2654747583319513  0.6288731558664316  0.8761186889604022   T   T   T
  0.2227229575351235  0.6119742103016564  0.8743127461264223   T   T   T
  0.2050358435432423  0.5957940912398441  0.8431739476296221   T   T   T
  0.1740858712173210  0.5449708224690646  0.8413735856379485   T   T   T
  0.1642637926449395  0.5161470231935268  0.8102242783545953   T   T   T
  0.1543103173022156  0.4465012355568928  0.8084059653250042   T   T   T
  0.1552578142353207  0.4136180347268072  0.7772521198901784   T   T   T
  0.1692389773775939  0.3458254978818278  0.7754458818149516   T   T   T
  0.1806221962438266  0.3186209952362190  0.7442862420724131   T   T   T
  0.2143846397515472  0.2727709216910728  0.7424763726803546   T   T   T
  0.2328259138844377  0.2592853897695451  0.7113149617549420   T   T   T
  0.2763793601087909  0.2491596971560675  0.7094674623528862   T   T   T
  0.2963832897885753  0.2535185904016972  0.6782880016424340   T   T   T
  0.3366560728285056  0.2823010824387441  0.6764331368153618   T   T   T
  0.3521649187235939  0.3032579757010443  0.6452492891100281   T   T   T
  0.3771356661978242  0.3621246195593790  0.6433918542046236   T   T   T
  0.3835500655121846  0.3932966413344244  0.6122359170177483   T   T   T
  0.3860102863496706  0.4646779697255545  0.6104354225139706   T   T   T
  0.3815506443709970  0.4968774672391287  0.5793114652004177   T   T   T
  0.3413057338274537  0.5911558468757709  0.0006581089488044   T   T   T
  0.3240910416387011  0.6085383939202329  0.9694953099942867   T   T   T
  0.2817989266700840  0.6282699982784371  0.9676914294252088   T   T   T
  0.2615153050671265  0.6283953373186637  0.9365466319292038   T   T   T
  0.2191444861834149  0.6091246263143207  0.9347365800622226   T   T   T
  0.2018260489846062  0.5919554203469930  0.9035955610626866   T   T   T
  0.1719611837613792  0.5394479630064488  0.9017960597102572   T   T   T
  0.1627552325763617  0.5100935873197259  0.8706529538507258   T   T   T
  0.1542760550378109  0.4399390380681837  0.8688332078686346   T   T   T
  0.1559123612988562  0.4071229148130646  0.8376846182506725   T   T   T
  0.1713521949942459  0.3401729774298516  0.8358799576469012   T   T   T
  0.1833189440083818  0.3136454642917613  0.8047232032574676   T   T   T
  0.2180751045898152  0.2698006078873831  0.8029050126608489   T   T   T
  0.2367972769930689  0.2574176202477496  0.7717424023565674   T   T   T
  0.2805418123433932  0.2497716350429659  0.7698969955962243   T   T   T
  0.3004408668477501  0.2552732125241078  0.7387168944465832   T   T   T
  0.3401065005261461  0.2862023011597886  0.7368624308055012   T   T   T
  0.3551923596333980  0.3079854415750409  0.7056789137966893   T   T   T
  0.3789608478902336  0.3681502278642163  0.7038209199571381   T   T   T
  0.3847293358450277  0.3996558265789960  0.6726562162813172   T   T   T
  0.3856649156471947  0.4711360848248755  0.6708582753539031   T   T   T
  0.3804787010989074  0.5030350155694183  0.6397250527096482   T   T   T
  0.2575236820007440  0.6277149816566107  0.9969723427653985   T   T   T
  0.2155858929164067  0.6060907702258899  0.9951594816278901   T   T   T
  0.1986623074035358  0.5879636675278092  0.9640137991453663   T   T   T
  0.1699239508018324  0.5338231648124825  0.9622102999325660   T   T   T
  0.1613580326215445  0.5039668176743526  0.9310705114961251   T   T   T
  0.1543757454250613  0.4333777569746786  0.9292514731359375   T   T   T
  0.1567225997227801  0.4006762719331106  0.8981072956789712   T   T   T
  0.1735936611958026  0.3346459338569024  0.8963044759490614   T   T   T
  0.1861331198134362  0.3088256482321231  0.8651512709596183   T   T   T
  0.2218154401261312  0.2669986045031925  0.8633273930570382   T   T   T
  0.2408062876822231  0.2557217172659674  0.8321663350448295   T   T   T
  0.2846867704084085  0.2505407043528244  0.8303287029999158   T   T   T
  0.3044637644953355  0.2571704712903004  0.7991494318119338   T   T   T
  0.3434734921457693  0.2902309976248325  0.7973000958634526   T   T   T
  0.3581111370308556  0.3128333367172597  0.7661171628905433   T   T   T
  0.3806349482578822  0.3742526709117609  0.7642653829733356   T   T   T
  0.3857628179949715  0.4060614052384898  0.7330962495696527   T   T   T
  0.3851827289191181  0.4775592232486415  0.7313012188044471   T   T   T
  0.3793068118323258  0.5091408054261475  0.7001605579594359   T   T   T
  0.1600592734161191  0.4977710721732954  0.9914808587577010   T   T   T
  0.1545850618655894  0.4268299560921312  0.9896637411093534   T   T   T
  0.1576466412088759  0.3942729663735568  0.9585216146616310   T   T   T
  0.1759209626495989  0.3292359104790743  0.9567194282386663   T   T   T
  0.1890245950542935  0.3041416514819112  0.9255719374457956   T   T   T
  0.2255838087651186  0.2643579497485097  0.9237473742550887   T   T   T
  0.2448217140572260  0.2541806877838735  0.8925905040992116   T   T   T
  0.2887876767267323  0.2514702827388346  0.8907643782747774   T   T   T
  0.3084272304718430  0.2592217455044550  0.8595889592076847   T   T   T
  0.3467299951157480  0.2944072806230885  0.8577467838903993   T   T   T
  0.3609067343433436  0.3178125388527636  0.8265661996179323   T   T   T
  0.3821445786731768  0.3804332263476024  0.8247243075998910   T   T   T
  0.3866241829702989  0.4125105903929169  0.7935506082291393   T   T   T
  0.3845208678213607  0.4839333711098382  0.7917548752237595   T   T   T
  0.3779852126912883  0.5151695804915035  0.7606085424926307   T   T   T
  0.1919779703833864  0.2996271232146672  0.9859896480898576   T   T   T
  0.2293614330679249  0.2619200411799442  0.9841691407716936   T   T   T
  0.2488267222341023  0.2528312418335628  0.9530176060958313   T   T   T
  0.2928270415802612  0.2525879137416032  0.9512052836406377   T   T   T
  0.3123108874682348  0.2614572836636657  0.9200362556077516   T   T   T
  0.3498502246643191  0.2987538748288863  0.9182019854774637   T   T   T
  0.3635539443002153  0.3229297069100285  0.8870245369762120   T   T   T
  0.3834665544274365  0.3866892527803660  0.8851951323269476   T   T   T
  0.3872961757349304  0.4189993882793862  0.8540175586830763   T   T   T
  0.3836664412466218  0.4902606324468735  0.8522185143625181   T   T   T
  0.3764871170274334  0.5210985687252353  0.8210646579363444   T   T   T
  0.3161078959397232  0.2638671351650440  0.9804874979537811   T   T   T
  0.3528389224045941  0.3032424757240685  0.9786634016414852   T   T   T
  0.3660449298238102  0.3281788843856943  0.9474903751910816   T   T   T
  0.3846091575255688  0.3930052291672548  0.9456740822115852   T   T   T
  0.3877789882834171  0.4255134002488936  0.9144951884260306   T   T   T
  0.3826352382479681  0.4965297885868671  0.9126893720531196   T   T   T
  0.3748218449634720  0.5269466758250906  0.8815294053601301   T   T   T
  0.3880660319644274  0.4320466975629199  0.9749782102492832   T   T   T
  0.3814061471620478  0.5027282778022490  0.9731634892317708   T   T   T
  0.3729776093223078  0.5326846143926036  0.9419977729229472   T   T   T
  0.4804291348650717  0.4094352394279600  0.4783015194846112   T   T   T
  0.4825695361696883  0.3453136796450259  0.4951337365709164   T   T   T
  0.4942129325998432  0.4691347757755481  0.4955671749590037   T   T   T
 
  0.00000000E+00  0.00000000E+00  0.00000000E+00
  0.00000000E+00  0.00000000E+00  0.00000000E+00
  0.00000000E+00  0.00000000E+00  0.00000000E+00
  0.00000000E+00  0.00000000E+00  0.00000000E+00
  0.00000000E+00  0.00000000E+00  0.00000000E+00
  0.00000000E+00  0.00000000E+00  0.00000000E+00
  0.00000000E+00  0.00000000E+00  0.00000000E+00
  0.00000000E+00  0.00000000E+00  0.00000000E+00
  0.00000000E+00  0.00000000E+00  0.00000000E+00
  0.00000000E+00  0.00000000E+00  0.00000000E+00
  0.00000000E+00  0.00000000E+00  0.00000000E+00
  0.00000000E+00  0.00000000E+00  0.00000000E+00
  0.00000000E+00  0.00000000E+00  0.00000000E+00
  0.00000000E+00  0.00000000E+00  0.00000000E+00
  0.00000000E+00  0.00000000E+00  0.00000000E+00
  0.00000000E+00  0.00000000E+00  0.00000000E+00
  0.00000000E+00  0.00000000E+00  0.00000000E+00
  0.00000000E+00  0.00000000E+00  0.00000000E+00
  0.00000000E+00  0.00000000E+00  0.00000000E+00
  0.00000000E+00  0.00000000E+00  0.00000000E+00
  0.00000000E+00  0.00000000E+00  0.00000000E+00
  0.00000000E+00  0.00000000E+00  0.00000000E+00
  0.00000000E+00  0.00000000E+00  0.00000000E+00
  0.00000000E+00  0.00000000E+00  0.00000000E+00
  0.00000000E+00  0.00000000E+00  0.00000000E+00
  0.00000000E+00  0.00000000E+00  0.00000000E+00
  0.00000000E+00  0.00000000E+00  0.00000000E+00
  0.00000000E+00  0.00000000E+00  0.00000000E+00
  0.00000000E+00  0.00000000E+00  0.00000000E+00
  0.00000000E+00  0.00000000E+00  0.00000000E+00
  0.00000000E+00  0.00000000E+00  0.00000000E+00
  0.00000000E+00  0.00000000E+00  0.00000000E+00
  0.00000000E+00  0.00000000E+00  0.00000000E+00
  0.00000000E+00  0.00000000E+00  0.00000000E+00
  0.00000000E+00  0.00000000E+00  0.00000000E+00
  0.00000000E+00  0.00000000E+00  0.00000000E+00
  0.00000000E+00  0.00000000E+00  0.00000000E+00
  0.00000000E+00  0.00000000E+00  0.00000000E+00
  0.00000000E+00  0.00000000E+00  0.00000000E+00
  0.00000000E+00  0.00000000E+00  0.00000000E+00
  0.00000000E+00  0.00000000E+00  0.00000000E+00
  0.00000000E+00  0.00000000E+00  0.00000000E+00
  0.00000000E+00  0.00000000E+00  0.00000000E+00
  0.00000000E+00  0.00000000E+00  0.00000000E+00
  0.00000000E+00  0.00000000E+00  0.00000000E+00
  0.00000000E+00  0.00000000E+00  0.00000000E+00
  0.00000000E+00  0.00000000E+00  0.00000000E+00
  0.00000000E+00  0.00000000E+00  0.00000000E+00
  0.00000000E+00  0.00000000E+00  0.00000000E+00
  0.00000000E+00  0.00000000E+00  0.00000000E+00
  0.00000000E+00  0.00000000E+00  0.00000000E+00
  0.00000000E+00  0.00000000E+00  0.00000000E+00
  0.00000000E+00  0.00000000E+00  0.00000000E+00
  0.00000000E+00  0.00000000E+00  0.00000000E+00
  0.00000000E+00  0.00000000E+00  0.00000000E+00
  0.00000000E+00  0.00000000E+00  0.00000000E+00
  0.00000000E+00  0.00000000E+00  0.00000000E+00
  0.00000000E+00  0.00000000E+00  0.00000000E+00