 C  S  O                                
    1.000000000000000     
    32.3722991942999982    0.0000000000000000    0.0000000000000000
     0.0000000000000000   19.9214134216000005    0.0000000000000000
     0.0000000000000000    0.0000000000000000   40.4480476378999967
   C    S    O 
   364     1     2
Selective dynamics
Direct
  0.3709236937873265  0.5383171046007624  0.0024665611044375   T   T   T
  0.3687251527320732  0.5438485861459602  0.0629309841988454   T   T   T
  0.3379804582076748  0.5950026639320469  0.0611122869755572   T   T   T
  0.3204300246320794  0.6113883811165235  0.0299441682400596   T   T   T
  0.2777471805628196  0.6287430585691464  0.0281233536395271   T   T   T
  0.3663626233091348  0.5492776211456294  0.1233882034790615   T   T   T
  0.3345622148378475  0.5986961040243134  0.1215583062187260   T   T   T
  0.3166929923515652  0.6140730426518946  0.0903868908233897   T   T   T
  0.2736660839508744  0.6290187263406829  0.0885508445734355   T   T   T
  0.2534730927633158  0.6268494099114370  0.0573943857887757   T   T   T
  0.2120180529612403  0.6028981923951964  0.0555807013556190   T   T   T
  0.1955131779595620  0.5838237794339379  0.0244294086875438   T   T   T
  0.1679416633628059  0.5281030870273982  0.0226204737107068   T   T   T
  0.3638336845996550  0.5545942205457451  0.1838392403694729   T   T   T
  0.3310265115590652  0.6022377783660733  0.1819972823863201   T   T   T
  0.3128658984488573  0.6165921326901732  0.1508218911230438   T   T   T
  0.2695502749831735  0.6291232268516511  0.1489767429560232   T   T   T
  0.2494327435497029  0.6257877364581834  0.1178162237370985   T   T   T
  0.2085167443473615  0.5995049892557343  0.1160033305134858   T   T   T
  0.1924438887555315  0.5795045482513784  0.0848500699468732   T   T   T
  0.1660808172761641  0.5222641355038430  0.0830363606165383   T   T   T
  0.1588350828182105  0.4915191355740599  0.0518918108356598   T   T   T
  0.1548810059049597  0.4203114109812759  0.0500784898719004   T   T   T
  0.1586506091613088  0.3879437116825205  0.0189345408193766   T   T   T
  0.1783004624119329  0.3239718691346870  0.0171305106857471   T   T   T
  0.3611752423628841  0.5598056056165593  0.2442797014538503   T   T   T
  0.3274055594912290  0.6056335528840683  0.2424278764565026   T   T   T
  0.3089583673548635  0.6189519486218430  0.2112512242816929   T   T   T
  0.2654051540984988  0.6290588085486845  0.2094031139123268   T   T   T
  0.2453845274414575  0.6245564119883497  0.1782380430968124   T   T   T
  0.2050612387283209  0.5959518006876497  0.1764287393640133   T   T   T
  0.1894406424978832  0.5750353366099477  0.1452740171772461   T   T   T
  0.1643253861068711  0.5163298298358198  0.1434577942483360   T   T   T
  0.1577550263632919  0.4851901464419214  0.1123096445378898   T   T   T
  0.1553143766499553  0.4138016012651525  0.1104997969855950   T   T   T
  0.1597780905065604  0.3816668252482278  0.0793519583189648   T   T   T
  0.1807647207810359  0.3188270236229604  0.0775449165178219   T   T   T
  0.1949482935742854  0.2952673490219847  0.0464052260169194   T   T   T
  0.2331084068657262  0.2596753684796840  0.0445917111457954   T   T   T
  0.2527854458990319  0.2516950578518269  0.0134463769101632   T   T   T
  0.2967650016245895  0.2539177211616863  0.0116457957837815   T   T   T
  0.3702737976671579  0.5383835469585720  0.3358896864975052   T   T   T
  0.3584102726075211  0.5649190830033115  0.3047091693775976   T   T   T
  0.3237318684988693  0.6089159491972851  0.3028527334988565   T   T   T
  0.3050065411172814  0.6211640111939204  0.2716770183565860   T   T   T
  0.2612623335682154  0.6288159447889526  0.2698331440139288   T   T   T
  0.2413488617250366  0.6231470073971166  0.2386668185707785   T   T   T
  0.2016747264788331  0.5922346980019007  0.2368604305799756   T   T   T
  0.1865288569046734  0.5704091882255731  0.2057040151184106   T   T   T
  0.1627095617235597  0.5102933704406172  0.2038879771606160   T   T   T
  0.1568063489240291  0.4788039826996802  0.1727360789571607   T   T   T
  0.1558802304402027  0.4073205014063290  0.1709296127478404   T   T   T
  0.1610126641803738  0.3754563564645160  0.1397772525193369   T   T   T
  0.1833054491291169  0.3138137145825426  0.1379639219199833   T   T   T
  0.1979949164783610  0.2910686704412616  0.1068240149867623   T   T   T
  0.2368857518865709  0.2576285791143142  0.1050187028983890   T   T   T
  0.2567409571935979  0.2507673027838506  0.0738777627239488   T   T   T
  0.3006480913219622  0.2554602823868659  0.0720882815917766   T   T   T
  0.3197611971979088  0.2665013359417064  0.0409384087265109   T   T   T
  0.3556350415570935  0.3079071011431989  0.0391269131490704   T   T   T
  0.3683414188274470  0.3335623793153135  0.0079606679174806   T   T   T
  0.3855241008523280  0.3993895701967897  0.0061557527137766   T   T   T
  0.3679698064509858  0.5440514979551281  0.3963030998493808   T   T   T
  0.3555606849635933  0.5699297547113783  0.3651286857183010   T   T   T
  0.3200134394348055  0.6120596015965852  0.3632791284385218   T   T   T
  0.3010339686424913  0.6232426718006951  0.3321042771151791   T   T   T
  0.2571498428959986  0.6283904645074792  0.3302723984641658   T   T   T
  0.2373654223745951  0.6215361817868189  0.2991052148235356   T   T   T
  0.1984032019376355  0.5883160139057663  0.2973006919115092   T   T   T
  0.1837288295237696  0.5656353056559958  0.2661444894027792   T   T   T
  0.1612397743201351  0.5041768872291343  0.2643308348204881   T   T   T
  0.1560046932841872  0.4723745830853014  0.2331734513213184   T   T   T
  0.1565910129334811  0.4008816658897889  0.2313675806235721   T   T   T
  0.1623803212722842  0.3693213980056617  0.2002113435437341   T   T   T
  0.1859355678296476  0.3089295696775438  0.1983909499884509   T   T   T
  0.2010926596858197  0.2870152966711649  0.1672475738448165   T   T   T
  0.2406593954304718  0.2557407823715890  0.1654501990339788   T   T   T
  0.2606689980990253  0.2500206449109131  0.1343120457995089   T   T   T
  0.3044485961788361  0.2571826351192030  0.1325300068563791   T   T   T
  0.3233422609669241  0.2693048662919624  0.1013903433814553   T   T   T
  0.3583124010606482  0.3127086361699773  0.0995932455873713   T   T   T
  0.3704908742978534  0.3390653435119608  0.0684327996192629   T   T   T
  0.3862663251843554  0.4058158696661932  0.0666359182003477   T   T   T
  0.3881179043406419  0.4385989549166661  0.0354614834469648   T   T   T
  0.3799575366389167  0.5088609788031878  0.0336372491684460   T   T   T
  0.3655999325048794  0.5496102609920694  0.4567031109694841   T   T   T
  0.3526704762665510  0.5748375572620403  0.4255429919965068   T   T   T
  0.3162741838246826  0.6150078201719553  0.4237109116394770   T   T   T
  0.2970436629423320  0.6251253150275892  0.3925397631500407   T   T   T
  0.2530743605631671  0.6277311238079006  0.3907225967054967   T   T   T
  0.2334398735056775  0.6197238876025211  0.3595538949882603   T   T   T
  0.1952511889681524  0.5842057146619380  0.3577483229576196   T   T   T
  0.1810805310055588  0.5606704014967674  0.3265919325521041   T   T   T
  0.1599483887070203  0.4979563471686111  0.3247818839646510   T   T   T
  0.1553726571790142  0.4658909914119176  0.2936188018127196   T   T   T
  0.1574467256007990  0.3944692731878089  0.2918110504729288   T   T   T
  0.1638735605937897  0.3632479941005741  0.2606500821375923   T   T   T
  0.1886462705897896  0.3041556666404378  0.2588236016888195   T   T   T
  0.2042560712499743  0.2830930867656378  0.2276761870060232   T   T   T
  0.2444490806019976  0.2540015638626248  0.2258831226190268   T   T   T
  0.2645777276514100  0.2494326653683735  0.1947475239717691   T   T   T
  0.3081781636417487  0.2590780659545667  0.1929702754304916   T   T   T
  0.3268123724723085  0.2722954510022223  0.1618395198638871   T   T   T
  0.3608257287621788  0.3176658845203085  0.1600579399237179   T   T   T
  0.3724633274857416  0.3446942471886708  0.1289035081538999   T   T   T
  0.3867998740840552  0.4122956055930074  0.1271089027937448   T   T   T
  0.3879918782030938  0.4451573634553651  0.0959380557439096   T   T   T
  0.3783536799923668  0.5149239701359747  0.0941058867787897   T   T   T
  0.3632670622672712  0.5548754451595252  0.5171368176076628   T   T   T
  0.3497157795736680  0.5794174245040355  0.4859877616182763   T   T   T
  0.3125110160912440  0.6175215721923278  0.4841651087553674   T   T   T
  0.2930598054410143  0.6266569546981408  0.4529925821976403   T   T   T
  0.2490613469327931  0.6267325457506367  0.4511857630626023   T   T   T
  0.2295989926121079  0.6176430016692167  0.4200155563751334   T   T   T
  0.1922283645680546  0.5798939159462838  0.4182039058776286   T   T   T
  0.1785762546510594  0.5555536976619169  0.3870450118146501   T   T   T
  0.1588098236312001  0.4916720473942216  0.3852383756927776   T   T   T
  0.1549051398730500  0.4593673242088993  0.3540736032993079   T   T   T
  0.1584487591896018  0.3880969123131507  0.3522626167581954   T   T   T
  0.1654951060062322  0.3572439240264361  0.3210964331113316   T   T   T
  0.1914474902651885  0.2995021721254480  0.3192667975339910   T   T   T
  0.2074735116611865  0.2793038752387974  0.2881121463693654   T   T   T
  0.2482506845349421  0.2524356769651355  0.2863203470777690   T   T   T
  0.2684727387521724  0.2490177150857368  0.2551873612475115   T   T   T
  0.3118363231811084  0.2611672480072478  0.2534095604477501   T   T   T
  0.3301848060798087  0.2754601562157543  0.2222850362314005   T   T   T
  0.3631831172947663  0.3227691807203278  0.2205164567391099   T   T   T
  0.3742507566612912  0.3504439276570573  0.1893695381790869   T   T   T
  0.3871301426798752  0.4188176434420671  0.1875730069761367   T   T   T
  0.3876544358748613  0.4517204084211638  0.1564059256953746   T   T   T
  0.3765560896474207  0.5209079114903575  0.1545687595246265   T   T   T
  0.3608674701707651  0.5599141276353834  0.5775400292660526   T   T   T
  0.3467826191865574  0.5837545342546979  0.5464276131933957   T   T   T
  0.3087378794566943  0.6196933994179645  0.5446200566863485   T   T   T
  0.2890787410881342  0.6277885897931911  0.5134674295036821   T   T   T
  0.2451067367733034  0.6253766103226199  0.5116595694050707   T   T   T
  0.2258402609796755  0.6152270128217480  0.4804852769837921   T   T   T
  0.1893065487361488  0.5753859917225490  0.4786640711724252   T   T   T
  0.1761910526845979  0.5502922216426259  0.4474996126784822   T   T   T
  0.1578109882212655  0.4853311113587526  0.4456949811598351   T   T   T
  0.1545945367262833  0.4528199282922646  0.4145304489916148   T   T   T
  0.1596113722027168  0.3817843955713980  0.4127169017518132   T   T   T
  0.1672650620344962  0.3513210458550813  0.3815482257110563   T   T   T
  0.1943615829250970  0.2949833483429884  0.3797207779068038   T   T   T
  0.2107754583416309  0.2756633488861675  0.3485569359834214   T   T   T
  0.2520873758763143  0.2510524228771364  0.3467611914762817   T   T   T
  0.2723676963676945  0.2487985225446765  0.3156261810105396   T   T   T
  0.3154351176397426  0.2634503227998888  0.3138450217630101   T   T   T
  0.3334575225637211  0.2788178100840928  0.2827251851404909   T   T   T
  0.3653851215020753  0.3280283398690031  0.2809641384022006   T   T   T
  0.3758664185662040  0.3563121861535762  0.2498260057113604   T   T   T
  0.3872734718628360  0.4253694150139150  0.2480245495956517   T   T   T
  0.3871260089010669  0.4582740435848276  0.2168610276125098   T   T   T
  0.3745956141874290  0.5268113908376633  0.2150209003120428   T   T   T
  0.3583832661998338  0.5648230657869066  0.6379621592752185   T   T   T
  0.3437497265771096  0.5877735831295668  0.6068448937945549   T   T   T
  0.3049484852388579  0.6214864761845669  0.6050609247234087   T   T   T
  0.2851095648538643  0.6285458438127742  0.5739170334123390   T   T   T
  0.2412095050752033  0.6236986018916459  0.5721162797896381   T   T   T
  0.2221443326025475  0.6125528162622211  0.5409533877568323   T   T   T
  0.1864650343663034  0.5707043777127793  0.5391256396541082   T   T   T
  0.1739006986802568  0.5448910405954576  0.5079587373958797   T   T   T
  0.1569069696213390  0.4789462721657759  0.5061527344177824   T   T   T
  0.1544047081144140  0.4462720749004734  0.4749869451343675   T   T   T
  0.1608984399795312  0.3755574546007890  0.4731714655699961   T   T   T
  0.1691773000336760  0.3455150664754548  0.4420065265069446   T   T   T
  0.1974019256485351  0.2906574433201786  0.4401880807008255   T   T   T
  0.2141731519212190  0.2721992649162457  0.4090152090448914   T   T   T
  0.2559700146121354  0.2498504279803319  0.4072098619690108   T   T   T
  0.2762717222573133  0.2487579793840318  0.3760667921273913   T   T   T
  0.3189882909628276  0.2659197385577002  0.3742762108618137   T   T   T
  0.3366537702847904  0.2823524778445314  0.3431596414356365   T   T   T
  0.3674640645980807  0.3334106114514177  0.3413978870778287   T   T   T
  0.3773143802553224  0.3622939616067293  0.3102673825419581   T   T   T
  0.3872426152235197  0.4319482046319679  0.3084593677272587   T   T   T
  0.3864226912057602  0.4648213088171233  0.2773016481933078   T   T   T
  0.3724972758540041  0.5326404702537811  0.2754614861105462   T   T   T
  0.3558272689569995  0.5695891099657531  0.6983937417882985   T   T   T
  0.3406793053486507  0.5916537972122665  0.6672711143899051   T   T   T
  0.3011570376748255  0.6230878219894941  0.6655015384053300   T   T   T
  0.2811625980000845  0.6289995937683893  0.6343656391907461   T   T   T
  0.2373872055269404  0.6217326613292251  0.6325686463633947   T   T   T
  0.2185460061644447  0.6095800185143463  0.6014101937992965   T   T   T
  0.1837328334669889  0.5658509927734025  0.5995839206564882   T   T   T
  0.1716968537132540  0.5393827881235507  0.5684144547256866   T   T   T
  0.1560843447865941  0.4725370802470679  0.5666081528875317   T   T   T
  0.1542927363690270  0.4397347039550337  0.5354465629251104   T   T   T
  0.1622826959386093  0.3694246572024953  0.5336311863554586   T   T   T
  0.1712112253326595  0.3398524586698353  0.5024696459590378   T   T   T
  0.2005700905526391  0.2865991902397426  0.5006627603670524   T   T   T
  0.2176946884232340  0.2690150041868365  0.4694875379516661   T   T   T
  0.2599336693506863  0.2489811917468831  0.4676746408625777   T   T   T
  0.2802039316973183  0.2489292797201406  0.4365139008298308   T   T   T
  0.3225159392340137  0.2685543784449158  0.4347079654544611   T   T   T
  0.3397808784704369  0.2860488307597461  0.4035870052317028   T   T   T
  0.3694238970418504  0.3389001661332767  0.4018100861999856   T   T   T
  0.3786419039807387  0.3683507480892851  0.3706910078115166   T   T   T
  0.3870684536215158  0.4385345116096915  0.3688759760282081   T   T   T
  0.3855696069030614  0.4713468729573661  0.3377253322263531   T   T   T
  0.3531702803106493  0.5742212025802418  0.7588337254318158   T   T   T
  0.3375450225125782  0.5953733453531308  0.7277063062347334   T   T   T
  0.2973563789507563  0.6244995510727632  0.7259427413436007   T   T   T
  0.2772349060345802  0.6292518143234899  0.6948092906956317   T   T   T
  0.2336400497206371  0.6195674972425974  0.6930120608077475   T   T   T
  0.2150378110850744  0.6064018989965511  0.6618608893867840   T   T   T
  0.1811310245718794  0.5608311036736136  0.6600408825309496   T   T   T
  0.1696223118350031  0.5337411088699944  0.6288732174936454   T   T   T
  0.1553923653129131  0.4660838539014449  0.6270644453879723   T   T   T
  0.1542938085337958  0.4332009017620810  0.5959025122086995   T   T   T
  0.1637862832037823  0.3633862772957085  0.5940883119399798   T   T   T
  0.1733422669745212  0.3343318595528838  0.5629300201372728   T   T   T
  0.2038464098355905  0.2827949160645040  0.5611323555396767   T   T   T
  0.2213293675293088  0.2661629563303828  0.5299648799237112   T   T   T
  0.2639733175026297  0.2485479970647476  0.5281473513933361   T   T   T
  0.2842045499621775  0.2495402372409843  0.4969755415421740   T   T   T
  0.3260578802747033  0.2715448084990731  0.4951605409895680   T   T   T
  0.3428601930859235  0.2899081750610790  0.4640064284340037   T   T   T
  0.3711912840935456  0.3445682801431158  0.4622029142566111   T   T   T
  0.3797863708957760  0.3744991037280139  0.4310957664503760   T   T   T
  0.3867068528929499  0.4451400519756104  0.4292705097618106   T   T   T
  0.3845738006851311  0.4778472915476457  0.3981223426387842   T   T   T
  0.3503913421237461  0.5786953780659370  0.8192811962678924   T   T   T
  0.3343209224035567  0.5989257568861042  0.7881466016542114   T   T   T
  0.2935248955644333  0.6257162817959682  0.7863812114430326   T   T   T
  0.2733166299068667  0.6293132102531926  0.7552478699424769   T   T   T
  0.2299499303497718  0.6172127789763918  0.7534502412029898   T   T   T
  0.2116264896083541  0.6030374216748927  0.7223054833664754   T   T   T
  0.1786623834169380  0.5556746451522919  0.7204938365035507   T   T   T
  0.1676935055039600  0.5279829763170339  0.6893303013651604   T   T   T
  0.1548609425815266  0.4595926316773027  0.6875178720738977   T   T   T
  0.1544375155894693  0.4266715355443119  0.6563575422929598   T   T   T
  0.1654383974863986  0.3574421558830210  0.6545449394626205   T   T   T
  0.1756184451093738  0.3289621559629352  0.6233880709499551   T   T   T
  0.2072516779693497  0.2792588009234736  0.6215920866360289   T   T   T
  0.2250669258547714  0.2636270324411822  0.5904270801010957   T   T   T
  0.2680721628485997  0.2485157321902495  0.5885970344508096   T   T   T
  0.2882465740681467  0.2505877458692993  0.5574269876843719   T   T   T
  0.3296201515988193  0.2749212186452638  0.5555982169095119   T   T   T
  0.3459879434376954  0.2941481739245705  0.5244302027216247   T   T   T
  0.3731856774159030  0.3503013701680117  0.5226229922181168   T   T   T
  0.3807685938352831  0.3807240808009265  0.4914801744561418   T   T   T
  0.3863448090134211  0.4517251721839147  0.4896588673960255   T   T   T
  0.3834079082409237  0.4843017477840461  0.4584935117232988   T   T   T
  0.3474944982756972  0.5830248395648654  0.8797373678052731   T   T   T
  0.3310140337279240  0.6023150494755587  0.8485926240791324   T   T   T
  0.2896625392845805  0.6267566527379070  0.8468188911107065   T   T   T
  0.2693970102563369  0.6291882877459675  0.8156846983265251   T   T   T
  0.2263107753850216  0.6146797226079243  0.8138828826911347   T   T   T
  0.2082893718306999  0.5994956924893114  0.7827419364444831   T   T   T
  0.1763110618344741  0.5503827504755712  0.7809375430603697   T   T   T
  0.1659089290583705  0.5221167933473999  0.7497795119603436   T   T   T
  0.1545032746946817  0.4530609275449226  0.7479645660175044   T   T   T
  0.1547599536360952  0.4201440931068166  0.7168076958085668   T   T   T
  0.1672614597373879  0.3515904028522767  0.7149974363966057   T   T   T
  0.1780481001399523  0.3237310991306583  0.6838382155236312   T   T   T
  0.2107766154105541  0.2759391567539985  0.6820367326399630   T   T   T
  0.2289129787799993  0.2613701625252414  0.6508742076491312   T   T   T
  0.2722205775185851  0.2487602648965279  0.6490333445822836   T   T   T
  0.2923157869467600  0.2519877779966802  0.6178574939416532   T   T   T
  0.3331542634865517  0.2785774412019033  0.6160123392177071   T   T   T
  0.3491150316646755  0.2986647851862436  0.5848338608594232   T   T   T
  0.3752764169983665  0.3561597885902119  0.5829918235970537   T   T   T
  0.3823487161654736  0.3869501363766234  0.5518475852153381   T   T   T
  0.3863335854959905  0.4582021090247885  0.5500435442039890   T   T   T
  0.3825242111957064  0.4906530392666907  0.5189541152529893   T   T   T
  0.3444569759370668  0.5871792761813472  0.9401972214226438   T   T   T
  0.3275952113482734  0.6055213702167871  0.9090431754451619   T   T   T
  0.2857465262012296  0.6276138493503746  0.9072554700900726   T   T   T
  0.2654588010220764  0.6288864104975233  0.8761161672889280   T   T   T
  0.2227078240630072  0.6119839513105003  0.8743097273649476   T   T   T
  0.2050240974931322  0.5958006592337050  0.8431694205761022   T   T   T
  0.1740765842590484  0.5449734721665995  0.8413695527748715   T   T   T
  0.1642572372289453  0.5161487266739794  0.8102201675327472   T   T   T
  0.1543037737325326  0.4465018543493242  0.8084019985834756   T   T   T
  0.1552509681932938  0.4136191763241163  0.7772486275530068   T   T   T
  0.1692315774557281  0.3458254502535740  0.7754414761938563   T   T   T
  0.1806167874982958  0.3186237369208011  0.7442815375137434   T   T   T
  0.2143815469501972  0.2727776174492538  0.7424710395099072   T   T   T
  0.2328284077390441  0.2593048062324331  0.7113093489160882   T   T   T
  0.2763820053822431  0.2491813166612285  0.7094637621366561   T   T   T
  0.2963918789354167  0.2535506852960376  0.6782859985700858   T   T   T
  0.3366699425945995  0.2823145386755482  0.6764360583398411   T   T   T
  0.3521926396108114  0.3032674614082592  0.6452552676817261   T   T   T
  0.3771784436607513  0.3621164972828255  0.6434026987272856   T   T   T
  0.3836111347504321  0.3932871662088022  0.6122479283703239   T   T   T
  0.3860705612418112  0.4646666844709575  0.6104467076310532   T   T   T
  0.3816156982324516  0.4968613350274813  0.5793203342362244   T   T   T
  0.3412832322774284  0.5911651001076447  0.0006575201507124   T   T   T
  0.3240695632987176  0.6085489230543404  0.9694949841675008   T   T   T
  0.2817776970026099  0.6282820285037064  0.9676905603665878   T   T   T
  0.2614955711790878  0.6284074722240448  0.9365451131340691   T   T   T
  0.2191251991007646  0.6091333994287366  0.9347344273064233   T   T   T
  0.2018097600481940  0.5919626747362476  0.9035923733095506   T   T   T
  0.1719471420313117  0.5394516330603628  0.9017927138954881   T   T   T
  0.1627446714258425  0.5100959334804106  0.8706489029060236   T   T   T
  0.1542659266892872  0.4399417343679551  0.8688292955738565   T   T   T
  0.1559036326529249  0.4071248635954948  0.8376807869158499   T   T   T
  0.1713405197247743  0.3401726046645996  0.8358756967142312   T   T   T
  0.1833086804761809  0.3136444639026047  0.8047190065436326   T   T   T
  0.2180634818674647  0.2697962926053746  0.8029007199914433   T   T   T
  0.2367898292571089  0.2574183848405975  0.7717381067735604   T   T   T
  0.2805343196814301  0.2497721252177486  0.7698945935804691   T   T   T
  0.3004388426260327  0.2552813950035587  0.7387161531961505   T   T   T
  0.3401061361367030  0.2862040929759592  0.7368657075019860   T   T   T
  0.3552031114490317  0.3079872672301980  0.7056855293395495   T   T   T
  0.3789786238454873  0.3681429133702430  0.7038311801653311   T   T   T
  0.3847636723801944  0.3996478964022819  0.6726680269840354   T   T   T
  0.3856983188158828  0.4711267372600242  0.6708694364191270   T   T   T
  0.3805197071105710  0.5030223855613259  0.6397340342855888   T   T   T
  0.2575022825177974  0.6277259729391821  0.9969713214661841   T   T   T
  0.2155648220801990  0.6060987211058653  0.9951584362362953   T   T   T
  0.1986427850097147  0.5879699033779051  0.9640117777292652   T   T   T
  0.1699066516619680  0.5338274652742999  0.9622082900123592   T   T   T
  0.1613428681292622  0.5039699012976718  0.9310674958919716   T   T   T
  0.1543606552339483  0.4333817393727317  0.9292485203126659   T   T   T
  0.1567089899749427  0.4006789304627175  0.8981039053635745   T   T   T
  0.1735765367158447  0.3346466639253970  0.8963012596971470   T   T   T
  0.1861168675011847  0.3088235986279306  0.8651479908864877   T   T   T
  0.2217966696459523  0.2669911019802674  0.8633244672390574   T   T   T
  0.2407902635207227  0.2557135129304218  0.8321637879212666   T   T   T
  0.2846710382364838  0.2505324477834269  0.8303276485936465   T   T   T
  0.3044521472902537  0.2571657889904947  0.7991498594271840   T   T   T
  0.3434610892423479  0.2902278914409960  0.7973035667702902   T   T   T
  0.3581055970069725  0.3128315677878984  0.7661232955072365   T   T   T
  0.3806308861763322  0.3742489204971623  0.7642740879402697   T   T   T
  0.3857705752918812  0.4060565836932224  0.7331067319402083   T   T   T
  0.3851904482697992  0.4775535348283430  0.7313110747539400   T   T   T
  0.3793235350804157  0.5091329635160957  0.7001688223642385   T   T   T
  0.1600417179497931  0.4977744016763482  0.9914795864536824   T   T   T
  0.1545670555073168  0.4268340242401666  0.9896624952896563   T   T   T
  0.1576287350170839  0.3942759214864183  0.9585196402535864   T   T   T
  0.1758996494070433  0.3292379577447592  0.9567175742152689   T   T   T
  0.1890036810804312  0.3041405710712478  0.9255697828823546   T   T   T
  0.2255607871931797  0.2643523617346427  0.9237457768503619   T   T   T
  0.2448000485565099  0.2541720828058230  0.8925892404822923   T   T   T
  0.2887662458446288  0.2514621579292183  0.8907641870383229   T   T   T
  0.3084078104446996  0.2592144601201701  0.8595899092995649   T   T   T
  0.3467091901685066  0.2944047180340214  0.8577495208046723   T   T   T
  0.3608891676687030  0.3178108305003419  0.8265710447092586   T   T   T
  0.3821258584837382  0.3804325619445358  0.8247308233521112   T   T   T
  0.3866121998824169  0.4125094834999355  0.7935587226542414   T   T   T
  0.3845101165070242  0.4839311524792292  0.7917623075176767   T   T   T
  0.3779821473652757  0.5151662118887621  0.7606150270214830   T   T   T
  0.1919546066829508  0.2996268221698562  0.9859887836066984   T   T   T
  0.2293365013391070  0.2619163966175921  0.9841683890976377   T   T   T
  0.2488022339098294  0.2528255096077413  0.9530167204197286   T   T   T
  0.2928023266515027  0.2525826493163685  0.9512052177863102   T   T   T
  0.3122869535087353  0.2614519656004228  0.9200368107603667   T   T   T
  0.3498250752934203  0.2987534337275754  0.9182035943801983   T   T   T
  0.3635295824310598  0.3229297614781721  0.8870276519435562   T   T   T
  0.3834407715283943  0.3866908930984082  0.8851990980022504   T   T   T
  0.3872732122208988  0.4190005618014788  0.8540229411037163   T   T   T
  0.3836458404922707  0.4902619647574334  0.8522232914989347   T   T   T
  0.3764716313050194  0.5210995769617420  0.8210692386100374   T   T   T
  0.3160824356758584  0.2638643917707632  0.9804872870722098   T   T   T
  0.3528117785612901  0.3032433009986604  0.9786636321773773   T   T   T
  0.3660175710929503  0.3281808210875950  0.9474914827264953   T   T   T
  0.3845808088919813  0.3930078445339030  0.9456756541645971   T   T   T
  0.3877517832149126  0.4255157960426668  0.9144979846883844   T   T   T
  0.3826105365270812  0.4965332766030278  0.9126916502377904   T   T   T
  0.3748002865742007  0.5269505362784566  0.8815322996616939   T   T   T
  0.3880379814184080  0.4320502540103279  0.9749787177129822   T   T   T
  0.3813803489816008  0.5027322140244538  0.9731639726260058   T   T   T
  0.3729536475958632  0.5326898514798184  0.9419988757153993   T   T   T
  0.4805257187148765  0.4098763029331656  0.4796287470423530   T   T   T
  0.4859694832143306  0.3457444848339406  0.4960030867811562   T   T   T
  0.4960916748809577  0.4698902283991408  0.4956205877937877   T   T   T
 
  0.00000000E+00  0.00000000E+00  0.00000000E+00
  0.00000000E+00  0.00000000E+00  0.00000000E+00
  0.00000000E+00  0.00000000E+00  0.00000000E+00
  0.00000000E+00  0.00000000E+00  0.00000000E+00
  0.00000000E+00  0.00000000E+00  0.00000000E+00
  0.00000000E+00  0.00000000E+00  0.00000000E+00
  0.00000000E+00  0.00000000E+00  0.00000000E+00
  0.00000000E+00  0.00000000E+00  0.00000000E+00
  0.00000000E+00  0.00000000E+00  0.00000000E+00
  0.00000000E+00  0.00000000E+00  0.00000000E+00
  0.00000000E+00  0.00000000E+00  0.00000000E+00
  0.00000000E+00  0.00000000E+00  0.00000000E+00
  0.00000000E+00  0.00000000E+00  0.00000000E+00
  0.00000000E+00  0.00000000E+00  0.00000000E+00
  0.00000000E+00  0.00000000E+00  0.00000000E+00
  0.00000000E+00  0.00000000E+00  0.00000000E+00
  0.00000000E+00  0.00000000E+00  0.00000000E+00
  0.00000000E+00  0.00000000E+00  0.00000000E+00
  0.00000000E+00  0.00000000E+00  0.00000000E+00
  0.00000000E+00  0.00000000E+00  0.00000000E+00
  0.00000000E+00  0.00000000E+00  0.00000000E+00
  0.00000000E+00  0.00000000E+00  0.00000000E+00
  0.00000000E+00  0.00000000E+00  0.00000000E+00
  0.00000000E+00  0.00000000E+00  0.00000000E+00
  0.00000000E+00  0.00000000E+00  0.00000000E+00
  0.00000000E+00  0.00000000E+00  0.00000000E+00
  0.00000000E+00  0.00000000E+00  0.00000000E+00
  0.00000000E+00  0.00000000E+00  0.00000000E+00
  0.00000000E+00  0.00000000E+00  0.00000000E+00
  0.00000000E+00  0.00000000E+00  0.00000000E+00
  0.00000000E+00  0.00000000E+00  0.00000000E+00
  0.00000000E+00  0.00000000E+00  0.00000000E+00
  0.00000000E+00  0.00000000E+00  0.00000000E+00
  0.00000000E+00  0.00000000E+00  0.00000000E+00
  0.00000000E+00  0.00000000E+00  0.00000000E+00
  0.00000000E+00  0.00000000E+00  0.00000000E+00
  0.00000000E+00  0.00000000E+00  0.00000000E+00
  0.00000000E+00  0.00000000E+00  0.00000000E+00
  0.00000000E+00  0.00000000E+00  0.00000000E+00
  0.00000000E+00  0.00000000E+00  0.00000000E+00
  0.00000000E+00  0.00000000E+00  0.00000000E+00
  0.00000000E+00  0.00000000E+00  0.00000000E+00
  0.00000000E+00  0.00000000E+00  0.00000000E+00
  0.00000000E+00  0.00000000E+00  0.00000000E+00
  0.00000000E+00  0.00000000E+00  0.00000000E+00
  0.00000000E+00  0.00000000E+00  0.00000000E+00
  0.00000000E+00  0.00000000E+00  0.00000000E+00
  0.00000000E+00  0.00000000E+00  0.00000000E+00
  0.00000000E+00  0.00000000E+00  0.00000000E+00
  0.00000000E+00  0.00000000E+00  0.00000000E+00
  0.00000000E+00  0.00000000E+00  0.00000000E+00
  0.00000000E+00  0.00000000E+00  0.00000000E+00
  0.00000000E+00  0.00000000E+00  0.00000000E+00
  0.00000000E+00  0.00000000E+00  0.00000000E+00
  0.00000000E+00  0.00000000E+00  0.00000000E+00
  0.00000000E+00  0.00000000E+00  0.00000000E+00
  0.00000000E+00  0.00000000E+00  0.00000000E+00
  0.00000000E+00  0.00000000E+00  0.00000000E+00