 C  S  O                                
    1.000000000000000     
    32.3722991942999982    0.0000000000000000    0.0000000000000000
     0.0000000000000000   19.9214134216000005    0.0000000000000000
     0.0000000000000000    0.0000000000000000   40.4480476378999967
   C    S    O 
   364     1     2
Selective dynamics
Direct
  0.3709481586023742  0.5383116388655225  0.0024669876092247   F   F   F
  0.3687492763953344  0.5438423832982693  0.0629328466061025   F   F   F
  0.3380020164658788  0.5949929124398068  0.0611137841398488   F   F   F
  0.3204517626161376  0.6113774938874528  0.0299450807081882   F   F   F
  0.2777688338191382  0.6287312007844363  0.0281241290214638   F   F   F
  0.3663840084055465  0.5492712630652576  0.1233914479184932   F   F   F
  0.3345808081211104  0.5986857626659443  0.1215603436542736   F   F   F
  0.3167128333275997  0.6140609471412546  0.0903878279291845   F   F   F
  0.2736860968644308  0.6290054032679890  0.0885513719344857   F   F   F
  0.2534940562055112  0.6268379162799746  0.0573946258836955   F   F   F
  0.2120380872996890  0.6028903599098570  0.0555806094259310   F   F   F
  0.1955330763679513  0.5838179525978262  0.0244300200229546   F   F   F
  0.1679596039603055  0.5280993144388759  0.0226208409914648   F   F   F
  0.3638490560977061  0.5545898210876459  0.1838432353915849   F   F   F
  0.3310402185995045  0.6022295872084271  0.1819990713639399   F   F   F
  0.3128821686629166  0.6165801180879384  0.1508224797304010   F   F   F
  0.2695660163036138  0.6291105367237577  0.1489762799766297   F   F   F
  0.2494508374282987  0.6257753914034652  0.1178154772638536   F   F   F
  0.2085336001692397  0.5994974021501207  0.1160023114065964   F   F   F
  0.1924613322371016  0.5794987244854042  0.0848492620828694   F   F   F
  0.1660962049566805  0.5222611888037889  0.0830351826418863   F   F   F
  0.1588515839219511  0.4915164969558603  0.0518915695932662   F   F   F
  0.1548982644849275  0.4203073648287656  0.0500779959037700   F   F   F
  0.1586698241737210  0.3879404327403222  0.0189349340282021   F   F   F
  0.1783227274932742  0.3239701779412982  0.0171310067929227   F   F   F
  0.3611813385726492  0.5598051842224052  0.2442837224550800   F   F   F
  0.3274127232266935  0.6056348813160923  0.2424288078773031   F   F   F
  0.3089691272105100  0.6189470585890362  0.2112509663126829   F   F   F
  0.2654156976789253  0.6290541114771813  0.2094012419133264   F   F   F
  0.2453978490766389  0.6245475254081754  0.1782358294088269   F   F   F
  0.2050736215715787  0.5959467513867978  0.1764264420928185   F   F   F
  0.1894542130826764  0.5750307560714418  0.1452719799062976   F   F   F
  0.1643365010968836  0.5163281959752553  0.1434557616969343   F   F   F
  0.1577674912289737  0.4851877455432998  0.1123080785389092   F   F   F
  0.1553277904583226  0.4137993940697271  0.1104979423223540   F   F   F
  0.1597950966394848  0.3816643617186770  0.0793508828337295   F   F   F
  0.1807849560150245  0.3188269932691696  0.0775438808994338   F   F   F
  0.1949708670914845  0.2952686074932345  0.0464050626652366   F   F   F
  0.2331327544189747  0.2596796428129693  0.0445919677143038   F   F   F
  0.2528106188260537  0.2516997329927761  0.0134468319674994   F   F   F
  0.2967902341648312  0.2539216129741959  0.0116464162777277   F   F   F
  0.3702581437081633  0.5383921137403149  0.3358946316546536   F   F   F
  0.3584050085496457  0.5649277406251727  0.3047126606310542   F   F   F
  0.3237325088850938  0.6089347139539285  0.3028522023832636   F   F   F
  0.3050105164603991  0.6211752834740665  0.2716752802950353   F   F   F
  0.2612669854439105  0.6288276543633344  0.2698295152508052   F   F   F
  0.2413567631918667  0.6231487976687333  0.2386634897777355   F   F   F
  0.2016824818957446  0.5922351905298413  0.2368573631711541   F   F   F
  0.1865384077967747  0.5704072009354277  0.2057014650843101   F   F   F
  0.1627180971378053  0.5102928608941681  0.2038859201219481   F   F   F
  0.1568152547216428  0.4788020449125057  0.1727339798708414   F   F   F
  0.1558899228518840  0.4073201866377687  0.1709273462137020   F   F   F
  0.1610254079703566  0.3754548111315188  0.1397752784006556   F   F   F
  0.1833216318853914  0.3138155458087226  0.1379618755730618   F   F   F
  0.1980149040803383  0.2910717254481696  0.1068228984980593   F   F   F
  0.2369071090745436  0.2576356724079858  0.1050182341178783   F   F   F
  0.2567643694143200  0.2507740205597599  0.0738779449357594   F   F   F
  0.3006715350255362  0.2554654897169186  0.0720894228222875   F   F   F
  0.3197860024581303  0.2665040294776375  0.0409394148479123   F   F   F
  0.3556615883025884  0.3079065803741940  0.0391284819751050   F   F   F
  0.3683690891766034  0.3335600507592815  0.0079612986224262   F   F   F
  0.3855524373215147  0.3993866113258093  0.0061562934209860   F   F   F
  0.3679430451639618  0.5440818250698527  0.3963044495504491   F   F   F
  0.3555459105290097  0.5699586159972085  0.3651306167695694   F   F   F
  0.3200072661362086  0.6121060916998573  0.3632766805531062   F   F   F
  0.3010311677481567  0.6232780160742379  0.3321014783300953   F   F   F
  0.2571477439448344  0.6284254041257427  0.3302676071062365   F   F   F
  0.2373666390430671  0.6215552650680394  0.2991008405553472   F   F   F
  0.1984079440197775  0.5883257522370187  0.2972975139426310   F   F   F
  0.1837362334179105  0.5656375217421683  0.2661415601274157   F   F   F
  0.1612498452737370  0.5041768700032208  0.2643291903474108   F   F   F
  0.1560136130201215  0.4723740963413405  0.2331716929563115   F   F   F
  0.1565998534392747  0.4008816323042623  0.2313654096286299   F   F   F
  0.1623899795374442  0.3693202031126432  0.2002089920445940   F   F   F
  0.1859464052663498  0.3089314903873159  0.1983879555728407   F   F   F
  0.2011079709836849  0.2870189818189246  0.1672453483925977   F   F   F
  0.2406755556056481  0.2557485395117496  0.1654482241451447   F   F   F
  0.2606881779232708  0.2500294805342520  0.1343120001571450   F   F   F
  0.3044683906923282  0.2571892919167666  0.1325310570607954   F   F   F
  0.3233646772676479  0.2693092599413589  0.1013923020609937   F   F   F
  0.3583368099419957  0.3127083249450848  0.0995961666672187   F   F   F
  0.3705172853810126  0.3390630903065954  0.0684350945511909   F   F   F
  0.3862941734221437  0.4058132943530381  0.0666385169545336   F   F   F
  0.3881457553266614  0.4385950345898095  0.0354629710703094   F   F   F
  0.3799832013630606  0.5088568945415517  0.0336386859548270   F   F   F
  0.3655578449406960  0.5496651369922603  0.4567034008856936   F   F   F
  0.3526470389400060  0.5748951998546517  0.4255417577587579   F   F   F
  0.3162618639533008  0.6150896557736658  0.4237070462371477   F   F   F
  0.2970350645575550  0.6251941400686576  0.3925357975939576   F   F   F
  0.2530658443328733  0.6277946326787287  0.3907172763502018   F   F   F
  0.2334355256234204  0.6197643426682831  0.3595496153484206   F   F   F
  0.1952547584351478  0.5842240505430354  0.3577454754044354   F   F   F
  0.1810889916002338  0.5606775319376780  0.3265895366065195   F   F   F
  0.1599647948122467  0.4979558142557394  0.3247813350929505   F   F   F
  0.1553864242264567  0.4658905476961834  0.2936177364452206   F   F   F
  0.1574582121733030  0.3944688888237167  0.2918094581335993   F   F   F
  0.1638820354316408  0.3632470588259480  0.2606476727558871   F   F   F
  0.1886518122210532  0.3041521435325620  0.2588197457524473   F   F   F
  0.2042646231853951  0.2830924586955348  0.2276726959196154   F   F   F
  0.2444579910248521  0.2540018538125537  0.2258800833836005   F   F   F
  0.2645910933110045  0.2494382208098926  0.1947462346183642   F   F   F
  0.3081916216032923  0.2590820003741214  0.1929710964712825   F   F   F
  0.3268297944012062  0.2722997248618384  0.1618419659559507   F   F   F
  0.3608454901242624  0.3176656636746102  0.1600620381232858   F   F   F
  0.3724870498551951  0.3446924130798834  0.1289079752702591   F   F   F
  0.3868253171698370  0.4122930114185692  0.1271135298126111   F   F   F
  0.3880186562591419  0.4451540384444854  0.0959416276091360   F   F   F
  0.3783780834310591  0.5149196546375663  0.0941089302099698   F   F   F
  0.3632201863952886  0.5549247077557524  0.5171374073611972   F   F   F
  0.3496843071704063  0.5794893195258339  0.4859870191829287   F   F   F
  0.3124946263352157  0.6176292482085444  0.4841650138831142   F   F   F
  0.2930470318706000  0.6267569307525775  0.4529899988010797   F   F   F
  0.2490484026058155  0.6268188517275277  0.4511827687878665   F   F   F
  0.2295911407876545  0.6177038883209462  0.4200123913148062   F   F   F
  0.1922343751434425  0.5799182560851719  0.4182019621712811   F   F   F
  0.1785889641386973  0.5555642658053657  0.3870436667564192   F   F   F
  0.1588360446410135  0.4916708400498777  0.3852385981366382   F   F   F
  0.1549284985231694  0.4593665863970244  0.3540733199109170   F   F   F
  0.1584662062463025  0.3880951509255581  0.3522614694687007   F   F   F
  0.1655045155750798  0.3572413222422952  0.3210944680013057   F   F   F
  0.1914470341740113  0.2994876523886134  0.3192623110048061   F   F   F
  0.2074741582256152  0.2792909980158811  0.2881077115296549   F   F   F
  0.2482497642335986  0.2524178138592248  0.2863155965949460   F   F   F
  0.2684772522535894  0.2490107970935966  0.2551846567914424   F   F   F
  0.3118409865647536  0.2611627374816408  0.2534094980460679   F   F   F
  0.3301943098575109  0.2754602668271815  0.2222879113570571   F   F   F
  0.3631939668645217  0.3227682281230386  0.2205218658175383   F   F   F
  0.3742677753298551  0.3504429250139864  0.1893760076580620   F   F   F
  0.3871483994629870  0.4188150496367129  0.1875797791476828   F   F   F
  0.3876767589163492  0.4517175357644447  0.1564117406248116   F   F   F
  0.3765759875311687  0.5209041576686175  0.1545733386124013   F   F   F
  0.3608311299686520  0.5599544503907978  0.5775375896735682   F   F   F
  0.3467547924622210  0.5838283213726569  0.5464263650832777   F   F   F
  0.3087230135595789  0.6198005308116450  0.5446222216184822   F   F   F
  0.2890643166984717  0.6279062251425458  0.5134671114422105   F   F   F
  0.2450918582430930  0.6254727253997103  0.5116602151235981   F   F   F
  0.2258310005280748  0.6152999800603922  0.4804847763699840   F   F   F
  0.1893156373254996  0.5754119027411946  0.4786638575459889   F   F   F
  0.1762110783600193  0.5503016607677864  0.4474998030505333   F   F   F
  0.1578479652765594  0.4853272512014684  0.4456957178142744   F   F   F
  0.1546286293488919  0.4528172076185726  0.4145308112440063   F   F   F
  0.1596340868413506  0.3817799756056672  0.4127163354933572   F   F   F
  0.1672762670847519  0.3513134301177772  0.3815463372758856   F   F   F
  0.1943534182354867  0.2949515557463940  0.3797166659520670   F   F   F
  0.2107663144986347  0.2756307070506594  0.3485519295093411   F   F   F
  0.2520749591961646  0.2510056289995575  0.3467557259149956   F   F   F
  0.2723616789702774  0.2487679845211446  0.3156221439377873   F   F   F
  0.3154277779352483  0.2634298300018472  0.3138443954127013   F   F   F
  0.3334558813234665  0.2788100730217025  0.2827275508650544   F   F   F
  0.3653811012124280  0.3280253883810147  0.2809707310414780   F   F   F
  0.3758702341050650  0.3563110994606760  0.2498337999592195   F   F   F
  0.3872776484672471  0.4253678770263036  0.2480331234831823   F   F   F
  0.3871382750386587  0.4582724633187567  0.2168687165716179   F   F   F
  0.3746072956452906  0.5268089570863168  0.2150269673169021   F   F   F
  0.3583597028254530  0.5648524883900450  0.6379583445448702   F   F   F
  0.3437277624688022  0.5878264487565161  0.6068439385157589   F   F   F
  0.3049368848326424  0.6215684572411462  0.6050643421655764   F   F   F
  0.2850957186099876  0.6286472786253512  0.5739193348513751   F   F   F
  0.2411966754832875  0.6237819593417413  0.5721199722105510   F   F   F
  0.2221344050129233  0.6126242059826623  0.5409545474023787   F   F   F
  0.1864763259565336  0.5707279039786570  0.5391264849118329   F   F   F
  0.1739234522820823  0.5448997517694352  0.5079593514255336   F   F   F
  0.1569466837134144  0.4789418799156877  0.5061532899935912   F   F   F
  0.1544436590293259  0.4462669276420215  0.4749875917348021   F   F   F
  0.1609157926285008  0.3755460666249988  0.4731716927438612   F   F   F
  0.1691864925231954  0.3454995385156607  0.4420054014436090   F   F   F
  0.1973852112679495  0.2906068521881124  0.4401857280400847   F   F   F
  0.2141525924784276  0.2721402775502710  0.4090109092805818   F   F   F
  0.2559435821017928  0.2497646708666110  0.4072047926188773   F   F   F
  0.2762528514170981  0.2486909694074697  0.3760621750520059   F   F   F
  0.3189669714326442  0.2658713078210866  0.3742746841102615   F   F   F
  0.3366370582623048  0.2823303897608511  0.3431618039244597   F   F   F
  0.3674390687480908  0.3334041805529822  0.3414044528792530   F   F   F
  0.3772985774774682  0.3622916902726985  0.3102764482076310   F   F   F
  0.3872259727038525  0.4319476526259933  0.3084689837534782   F   F   F
  0.3864179822901264  0.4648209210209870  0.2773104820819228   F   F   F
  0.3724959848499694  0.5326409555725391  0.2754678804344337   F   F   F
  0.3558177610837490  0.5696072688645941  0.6983900250124151   F   F   F
  0.3406678054457188  0.5916875991534880  0.6672708094298088   F   F   F
  0.3011506584290160  0.6231385496242865  0.6655055067503426   F   F   F
  0.2811527816938835  0.6290707492880401  0.6343701132837367   F   F   F
  0.2373788211496546  0.6217904028305341  0.6325739737353402   F   F   F
  0.2185392359811118  0.6096341716806251  0.6014138275355876   F   F   F
  0.1837436011600175  0.5658682267768640  0.5995859074899030   F   F   F
  0.1717206029724068  0.5393895640462461  0.5684155840599985   F   F   F
  0.1561228095704550  0.4725338363897365  0.5666086510712844   F   F   F
  0.1543311960206069  0.4397302480271108  0.5354469509106536   F   F   F
  0.1622978822731085  0.3694121273482764  0.5336322827551143   F   F   F
  0.1712059051586294  0.3398243982696911  0.5024699218148925   F   F   F
  0.2005439776146716  0.2865349953218228  0.5006634882339611   F   F   F
  0.2176648469475850  0.2689361128995600  0.4694868513690338   F   F   F
  0.2598973902361692  0.2488677659466632  0.4676739839791253   F   F   F
  0.2801707405253211  0.2488236199173173  0.4365104922892726   F   F   F
  0.3224759436644788  0.2684770643395069  0.4347061355090958   F   F   F
  0.3397441649776027  0.2860054200864965  0.4035877443010136   F   F   F
  0.3693623744700574  0.3388931715715415  0.4018149928175845   F   F   F
  0.3785975598480675  0.3683484821730545  0.3707003237179194   F   F   F
  0.3870236090599164  0.4385362667504964  0.3688848868215828   F   F   F
  0.3855424948497372  0.4713489130644675  0.3377335980487004   F   F   F
  0.3531734813397875  0.5742262650671321  0.7588307516876824   F   F   F
  0.3375441738079417  0.5953877527490619  0.7277062292705949   F   F   F
  0.2973564293646476  0.6245193242363101  0.7259464522323356   F   F   F
  0.2772313649817733  0.6292876672562429  0.6948148041735251   F   F   F
  0.2336370785567610  0.6195957176964839  0.6930181126908082   F   F   F
  0.2150347456890671  0.6064337614480735  0.6618661518917577   F   F   F
  0.1811391086417231  0.5608414182881774  0.6600441182081340   F   F   F
  0.1696402218448227  0.5337464725279446  0.6288750679741497   F   F   F
  0.1554207357725801  0.4660831714716522  0.6270654332354937   F   F   F
  0.1543267469403062  0.4331999671827660  0.5959031247198467   F   F   F
  0.1638029411524755  0.3633789058547521  0.5940906694318144   F   F   F
  0.1733460511737164  0.3343119566638606  0.5629323835428082   F   F   F
  0.2038260101828868  0.2827370805744067  0.5611359282648110   F   F   F
  0.2212978241371957  0.2660806226124350  0.5299670035708672   F   F   F
  0.2639375462989548  0.2484360735484330  0.5281493343306067   F   F   F
  0.2841657495941732  0.2494213032229737  0.4969762883729274   F   F   F
  0.3260090590591531  0.2714638405651826  0.4951613425696237   F   F   F
  0.3427949421179477  0.2898600968006235  0.4640068524145420   F   F   F
  0.3710585751683837  0.3445973518042180  0.4622055996903285   F   F   F
  0.3796756748970154  0.3745155596615248  0.4311025124427772   F   F   F
  0.3866098801383799  0.4451477962800823  0.4292736117576936   F   F   F
  0.3845204267050946  0.4778578142756587  0.3981275335110297   F   F   F
  0.3504035286213281  0.5786913052730682  0.8192789102731410   F   F   F
  0.3343290640567602  0.5989245542230748  0.7881467899722807   F   F   F
  0.2935315981413495  0.6257142446254491  0.7863837874686297   F   F   F
  0.2733201367357196  0.6293205422077008  0.7552529526227900   F   F   F
  0.2299534133891328  0.6172186658731249  0.7534556829728487   F   F   F
  0.2116278270198961  0.6030492247950860  0.7223109945215498   F   F   F
  0.1786684047873877  0.5556785600250720  0.7204977543789113   F   F   F
  0.1677047327720516  0.5279856700576815  0.6893330349897369   F   F   F
  0.1548773194571069  0.4595924646669971  0.6875197726128590   F   F   F
  0.1544590509170831  0.4266717694627289  0.6563589565590178   F   F   F
  0.1654494027056685  0.3574377921789207  0.6545482292300804   F   F   F
  0.1756224548424115  0.3289480266726201  0.6233914937280929   F   F   F
  0.2072384372337055  0.2792160645508162  0.6215971981301962   F   F   F
  0.2250440898537533  0.2635589963656386  0.5904321730868816   F   F   F
  0.2680466585202339  0.2484303450204095  0.5886009956122322   F   F   F
  0.2882157008795829  0.2504902859638705  0.5574298647010281   F   F   F
  0.3295800684336783  0.2748591811782077  0.5555982580723011   F   F   F
  0.3459259699064603  0.2941124613563417  0.5244281833706097   F   F   F
  0.3730696870596901  0.3503255716805498  0.5226176966547911   F   F   F
  0.3805841200422222  0.3807757279674746  0.4914771963323474   F   F   F
  0.3861885642214276  0.4517309792296729  0.4896570421263675   F   F   F
  0.3833074558458875  0.4843185512859804  0.4584953957237445   F   F   F
  0.3475124955455584  0.5830163925425893  0.8797361721284744   F   F   F
  0.3310285016084435  0.6023059766864804  0.8485924571684649   F   F   F
  0.2896759879386508  0.6267442824126661  0.8468206289460340   F   F   F
  0.2694073270311819  0.6291797886405703  0.8156884082539406   F   F   F
  0.2263205849582803  0.6146734954653823  0.8138872013688214   F   F   F
  0.2082957807058889  0.5994944029251670  0.7827470865557231   F   F   F
  0.1763172079972435  0.5503823092805789  0.7809419871753818   F   F   F
  0.1659156508432247  0.5221165139184762  0.7497830291217795   F   F   F
  0.1545115085389170  0.4530612009464932  0.7479677479054487   F   F   F
  0.1547711261076969  0.4201440566714396  0.7168099871651634   F   F   F
  0.1672684582604091  0.3515884526512494  0.7150013713829040   F   F   F
  0.1780513571906042  0.3237226418896668  0.6838425133863808   F   F   F
  0.2107711993710311  0.2759149933595282  0.6820426727474782   F   F   F
  0.2289006080912372  0.2613260036118987  0.6508803154307756   F   F   F
  0.2722066373132535  0.2487086889957482  0.6490376997650742   F   F   F
  0.2922960502719647  0.2519253576964928  0.6178601560224450   F   F   F
  0.3331268086064725  0.2785455103850154  0.6160097213834845   F   F   F
  0.3490721319044781  0.2986409556380210  0.5848292057994655   F   F   F
  0.3752091729353921  0.3561659741385839  0.5829810304478471   F   F   F
  0.3822539961370097  0.3869648684953120  0.5518369721338559   F   F   F
  0.3862431129117994  0.4582136082190544  0.5500341819615002   F   F   F
  0.3824278957190757  0.4906665333642266  0.5189508315592306   F   F   F
  0.3444782329951721  0.5871701621736420  0.9401968936746385   F   F   F
  0.3276139101082123  0.6055105546561634  0.9090431184676007   F   F   F
  0.2857650687245084  0.6276001006888450  0.9072565736797600   F   F   F
  0.2654747583319548  0.6288731558664296  0.8761186889604033   F   F   F
  0.2227229575351259  0.6119742103016534  0.8743127461264208   F   F   F
  0.2050358435432429  0.5957940912398456  0.8431739476296229   F   F   F
  0.1740858712173221  0.5449708224690681  0.8413735856379461   F   F   F
  0.1642637926449382  0.5161470231935255  0.8102242783545961   F   F   F
  0.1543103173022189  0.4465012355568945  0.8084059653250009   F   F   F
  0.1552578142353198  0.4136180347268095  0.7772521198901785   F   F   F
  0.1692389773775957  0.3458254978818260  0.7754458818149530   F   F   F
  0.1806221962438244  0.3186209952362162  0.7442862420724126   F   F   F
  0.2143846397515503  0.2727709216910696  0.7424763726803576   F   F   F
  0.2328259138844402  0.2592853897695448  0.7113149617549439   F   F   F
  0.2763793601087912  0.2491596971560668  0.7094674623528832   F   F   F
  0.2963832897885723  0.2535185904016970  0.6782880016424357   F   F   F
  0.3366560728285037  0.2823010824387424  0.6764331368153620   F   F   F
  0.3521649187235951  0.3032579757010438  0.6452492891100263   F   F   F
  0.3771356661978231  0.3621246195593812  0.6433918542046229   F   F   F
  0.3835500655121820  0.3932966413344232  0.6122359170177489   F   F   F
  0.3860102863496735  0.4646779697255567  0.6104354225139730   F   F   F
  0.3815506443709964  0.4968774672391305  0.5793114652004192   F   F   F
  0.3413057338274541  0.5911558468757718  0.0006581089488051   F   F   F
  0.3240910416387024  0.6085383939202345  0.9694953099942865   F   F   F
  0.2817989266700849  0.6282699982784337  0.9676914294252086   F   F   F
  0.2615153050671282  0.6283953373186648  0.9365466319292040   F   F   F
  0.2191444861834171  0.6091246263143191  0.9347365800622214   F   F   F
  0.2018260489846071  0.5919554203469914  0.9035955610626871   F   F   F
  0.1719611837613826  0.5394479630064524  0.9017960597102572   F   F   F
  0.1627552325763588  0.5100935873197230  0.8706529538507226   F   F   F
  0.1542760550378119  0.4399390380681822  0.8688332078686329   F   F   F
  0.1559123612988529  0.4071229148130655  0.8376846182506696   F   F   F
  0.1713521949942489  0.3401729774298516  0.8358799576469025   F   F   F
  0.1833189440083842  0.3136454642917599  0.8047232032574669   F   F   F
  0.2180751045898148  0.2698006078873831  0.8029050126608510   F   F   F
  0.2367972769930660  0.2574176202477503  0.7717424023565655   F   F   F
  0.2805418123433938  0.2497716350429684  0.7698969955962269   F   F   F
  0.3004408668477510  0.2552732125241093  0.7387168944465827   F   F   F
  0.3401065005261472  0.2862023011597898  0.7368624308055018   F   F   F
  0.3551923596333992  0.3079854415750418  0.7056789137966888   F   F   F
  0.3789608478902338  0.3681502278642128  0.7038209199571384   F   F   F
  0.3847293358450301  0.3996558265789929  0.6726562162813181   F   F   F
  0.3856649156471974  0.4711360848248773  0.6708582753539005   F   F   F
  0.3804787010989088  0.5030350155694165  0.6397250527096503   F   F   F
  0.2575236820007447  0.6277149816566094  0.9969723427653960   F   F   F
  0.2155858929164083  0.6060907702258902  0.9951594816278870   F   F   F
  0.1986623074035379  0.5879636675278093  0.9640137991453628   F   F   F
  0.1699239508018309  0.5338231648124818  0.9622102999325648   F   F   F
  0.1613580326215427  0.5039668176743533  0.9310705114961237   F   F   F
  0.1543757454250638  0.4333777569746786  0.9292514731359347   F   F   F
  0.1567225997227766  0.4006762719331078  0.8981072956789689   F   F   F
  0.1735936611958024  0.3346459338569048  0.8963044759490586   F   F   F
  0.1861331198134337  0.3088256482321228  0.8651512709596147   F   F   F
  0.2218154401261287  0.2669986045031933  0.8633273930570411   F   F   F
  0.2408062876822257  0.2557217172659705  0.8321663350448318   F   F   F
  0.2846867704084062  0.2505407043528223  0.8303287029999140   F   F   F
  0.3044637644953383  0.2571704712903014  0.7991494318119337   F   F   F
  0.3434734921457689  0.2902309976248318  0.7973000958634557   F   F   F
  0.3581111370308534  0.3128333367172615  0.7661171628905450   F   F   F
  0.3806349482578852  0.3742526709117584  0.7642653829733348   F   F   F
  0.3857628179949728  0.4060614052384892  0.7330962495696554   F   F   F
  0.3851827289191192  0.4775592232486403  0.7313012188044468   F   F   F
  0.3793068118323291  0.5091408054261493  0.7001605579594354   F   F   F
  0.1600592734161168  0.4977710721732933  0.9914808587577042   F   F   F
  0.1545850618655891  0.4268299560921278  0.9896637411093536   F   F   F
  0.1576466412088777  0.3942729663735562  0.9585216146616276   F   F   F
  0.1759209626495988  0.3292359104790776  0.9567194282386637   F   F   F
  0.1890245950542919  0.3041416514819133  0.9255719374457954   F   F   F
  0.2255838087651156  0.2643579497485078  0.9237473742550861   F   F   F
  0.2448217140572240  0.2541806877838724  0.8925905040992106   F   F   F
  0.2887876767267343  0.2514702827388362  0.8907643782747741   F   F   F
  0.3084272304718425  0.2592217455044548  0.8595889592076844   F   F   F
  0.3467299951157514  0.2944072806230906  0.8577467838903985   F   F   F
  0.3609067343433452  0.3178125388527633  0.8265661996179290   F   F   F
  0.3821445786731772  0.3804332263476056  0.8247243075998938   F   F   F
  0.3866241829703014  0.4125105903929196  0.7935506082291397   F   F   F
  0.3845208678213581  0.4839333711098348  0.7917548752237593   F   F   F
  0.3779852126912857  0.5151695804915022  0.7606085424926334   F   F   F
  0.1919779703833839  0.2996271232146697  0.9859896480898556   F   F   F
  0.2293614330679219  0.2619200411799412  0.9841691407716908   F   F   F
  0.2488267222340994  0.2528312418335616  0.9530176060958340   F   F   F
  0.2928270415802601  0.2525879137415998  0.9512052836406397   F   F   F
  0.3123108874682359  0.2614572836636668  0.9200362556077550   F   F   F
  0.3498502246643156  0.2987538748288898  0.9182019854774666   F   F   F
  0.3635539443002145  0.3229297069100312  0.8870245369762131   F   F   F
  0.3834665544274358  0.3866892527803643  0.8851951323269489   F   F   F
  0.3872961757349316  0.4189993882793885  0.8540175586830756   F   F   F
  0.3836664412466249  0.4902606324468763  0.8522185143625194   F   F   F
  0.3764871170274304  0.5210985687252361  0.8210646579363470   F   F   F
  0.3161078959397230  0.2638671351650430  0.9804874979537814   F   F   F
  0.3528389224045938  0.3032424757240690  0.9786634016414837   F   F   F
  0.3660449298238078  0.3281788843856930  0.9474903751910801   F   F   F
  0.3846091575255670  0.3930052291672581  0.9456740822115819   F   F   F
  0.3877789882834151  0.4255134002488958  0.9144951884260308   F   F   F
  0.3826352382479712  0.4965297885868694  0.9126893720531228   F   F   F
  0.3748218449634706  0.5269466758250871  0.8815294053601335   F   F   F
  0.3880660319644278  0.4320466975629174  0.9749782102492830   F   F   F
  0.3814061471620462  0.5027282778022482  0.9731634892317729   F   F   F
  0.3729776093223052  0.5326846143926005  0.9419977729229458   F   F   F
  0.4804197317282982  0.4098792514448949  0.4795966450838776   T   T   T
  0.4857256372578914  0.3457032130527743  0.4959573962922973   T   T   T
  0.4960549123528057  0.4698077766867529  0.4956257163944189   T   T   T
 
  0.00000000E+00  0.00000000E+00  0.00000000E+00
  0.00000000E+00  0.00000000E+00  0.00000000E+00
  0.00000000E+00  0.00000000E+00  0.00000000E+00
  0.00000000E+00  0.00000000E+00  0.00000000E+00
  0.00000000E+00  0.00000000E+00  0.00000000E+00
  0.00000000E+00  0.00000000E+00  0.00000000E+00
  0.00000000E+00  0.00000000E+00  0.00000000E+00
  0.00000000E+00  0.00000000E+00  0.00000000E+00
  0.00000000E+00  0.00000000E+00  0.00000000E+00
  0.00000000E+00  0.00000000E+00  0.00000000E+00
  0.00000000E+00  0.00000000E+00  0.00000000E+00
  0.00000000E+00  0.00000000E+00  0.00000000E+00
  0.00000000E+00  0.00000000E+00  0.00000000E+00
  0.00000000E+00  0.00000000E+00  0.00000000E+00
  0.00000000E+00  0.00000000E+00  0.00000000E+00
  0.00000000E+00  0.00000000E+00  0.00000000E+00
  0.00000000E+00  0.00000000E+00  0.00000000E+00
  0.00000000E+00  0.00000000E+00  0.00000000E+00
  0.00000000E+00  0.00000000E+00  0.00000000E+00
  0.00000000E+00  0.00000000E+00  0.00000000E+00
  0.00000000E+00  0.00000000E+00  0.00000000E+00
  0.00000000E+00  0.00000000E+00  0.00000000E+00
  0.00000000E+00  0.00000000E+00  0.00000000E+00
  0.00000000E+00  0.00000000E+00  0.00000000E+00
  0.00000000E+00  0.00000000E+00  0.00000000E+00
  0.00000000E+00  0.00000000E+00  0.00000000E+00
  0.00000000E+00  0.00000000E+00  0.00000000E+00
  0.00000000E+00  0.00000000E+00  0.00000000E+00
  0.00000000E+00  0.00000000E+00  0.00000000E+00
  0.00000000E+00  0.00000000E+00  0.00000000E+00
  0.00000000E+00  0.00000000E+00  0.00000000E+00
  0.00000000E+00  0.00000000E+00  0.00000000E+00
  0.00000000E+00  0.00000000E+00  0.00000000E+00
  0.00000000E+00  0.00000000E+00  0.00000000E+00
  0.00000000E+00  0.00000000E+00  0.00000000E+00
  0.00000000E+00  0.00000000E+00  0.00000000E+00
  0.00000000E+00  0.00000000E+00  0.00000000E+00
  0.00000000E+00  0.00000000E+00  0.00000000E+00
  0.00000000E+00  0.00000000E+00  0.00000000E+00
  0.00000000E+00  0.00000000E+00  0.00000000E+00
  0.00000000E+00  0.00000000E+00  0.00000000E+00
  0.00000000E+00  0.00000000E+00  0.00000000E+00
  0.00000000E+00  0.00000000E+00  0.00000000E+00
  0.00000000E+00  0.00000000E+00  0.00000000E+00
  0.00000000E+00  0.00000000E+00  0.00000000E+00
  0.00000000E+00  0.00000000E+00  0.00000000E+00
  0.00000000E+00  0.00000000E+00  0.00000000E+00
  0.00000000E+00  0.00000000E+00  0.00000000E+00
  0.00000000E+00  0.00000000E+00  0.00000000E+00
  0.00000000E+00  0.00000000E+00  0.00000000E+00
  0.00000000E+00  0.00000000E+00  0.00000000E+00
  0.00000000E+00  0.00000000E+00  0.00000000E+00
  0.00000000E+00  0.00000000E+00  0.00000000E+00
  0.00000000E+00  0.00000000E+00  0.00000000E+00
  0.00000000E+00  0.00000000E+00  0.00000000E+00
  0.00000000E+00  0.00000000E+00  0.00000000E+00
  0.00000000E+00  0.00000000E+00  0.00000000E+00
  0.00000000E+00  0.00000000E+00  0.00000000E+00