 C  S  O                                
    1.000000000000000     
    32.3722991942999982    0.0000000000000000    0.0000000000000000
     0.0000000000000000   19.9214134216000005    0.0000000000000000
     0.0000000000000000    0.0000000000000000   40.4480476378999967
   C    S    O 
   364     1     2
Selective dynamics
Direct
  0.3710232351116574  0.5383055132404664  0.0024678434257268   T   T   T
  0.3688496735822042  0.5438254772871147  0.0629328291550380   T   T   T
  0.3381056308039376  0.5949807613793112  0.0611141629178960   T   T   T
  0.3205495353054175  0.6113900159477836  0.0299486679375534   T   T   T
  0.2778675142078413  0.6287585316512363  0.0281256078685246   T   T   T
  0.3665278409802681  0.5492239695650198  0.1233968854113883   T   T   T
  0.3347082493702160  0.5986115831956482  0.1215632663124779   T   T   T
  0.3168269924035627  0.6140209607168572  0.0903939657410717   T   T   T
  0.2738001412372313  0.6289713023255388  0.0885547019424422   T   T   T
  0.2535992953516910  0.6268431082280728  0.0573989185492323   T   T   T
  0.2121423625786036  0.6028900951518068  0.0555797125115305   T   T   T
  0.1956349652976499  0.5838232605578284  0.0244299142246973   T   T   T
  0.1680727040761667  0.5280873504148076  0.0226179034534937   T   T   T
  0.3640275319855775  0.5545071716860548  0.1838600557305980   T   T   T
  0.3311796348542160  0.6020774973538110  0.1820027385781700   T   T   T
  0.3130114160743886  0.6164497801952322  0.1508280350223359   T   T   T
  0.2696945164119029  0.6289787558222812  0.1489759717641235   T   T   T
  0.2495708735926101  0.6257045738843274  0.1178160047682937   T   T   T
  0.2086466055941187  0.5994541280580208  0.1159975932853783   T   T   T
  0.1925679791939103  0.5794806985764467  0.0848438858556975   T   T   T
  0.1662016773072637  0.5222424087259867  0.0830253478460747   T   T   T
  0.1589648238767722  0.4914941635699037  0.0518840527096529   T   T   T
  0.1550155659243870  0.4202831883523359  0.0500705523714373   T   T   T
  0.1587899588713597  0.3879103842336633  0.0189317322154210   T   T   T
  0.1784343771714774  0.3239315759354824  0.0171290898367431   T   T   T
  0.3613446723111764  0.5597198863216732  0.2443127391419253   T   T   T
  0.3275331908600236  0.6054649535591992  0.2424273927532354   T   T   T
  0.3090929154406581  0.6187476682148869  0.2112469561722108   T   T   T
  0.2655409516871075  0.6288497851708854  0.2093863545259964   T   T   T
  0.2455230481586170  0.6243937953228240  0.1782252837533065   T   T   T
  0.2051808193870812  0.5958643021910746  0.1764121258789757   T   T   T
  0.1895551255824941  0.5749868367159792  0.1452570604600893   T   T   T
  0.1644169941739690  0.5163081552594946  0.1434386511208956   T   T   T
  0.1578608337765957  0.4851670879284384  0.1122920251938240   T   T   T
  0.1554275469826720  0.4137775369462702  0.1104838783919533   T   T   T
  0.1599084472340877  0.3816379571028250  0.0793414084418202   T   T   T
  0.1809006244883093  0.3187997791733181  0.0775408129246458   T   T   T
  0.1950819230133760  0.2952265914397145  0.0464043155714506   T   T   T
  0.2332418370087339  0.2596276558801236  0.0445958607399533   T   T   T
  0.2529142710119885  0.2516333639142090  0.0134486893581496   T   T   T
  0.2968941665513398  0.2538665495754699  0.0116483771041160   T   T   T
  0.3702235467041604  0.5384697639860718  0.3359719332513578   T   T   T
  0.3584749881620155  0.5649346979477130  0.3047467271236641   T   T   T
  0.3237960555524353  0.6089179361522241  0.3028388942272784   T   T   T
  0.3050984856964902  0.6210330882383701  0.2716514395793581   T   T   T
  0.2613582878588900  0.6286736757364082  0.2697912367665722   T   T   T
  0.2414640714094958  0.6229710169070870  0.2386332451916857   T   T   T
  0.2017672174392899  0.5921454528400290  0.2368298082958020   T   T   T
  0.1866173691721258  0.5703515420201271  0.2056772776252913   T   T   T
  0.1627595290655748  0.5102797511798300  0.2038630856902799   T   T   T
  0.1568709678780849  0.4787906241124205  0.1727113720532998   T   T   T
  0.1559577460806949  0.4073091800949769  0.1709070939771919   T   T   T
  0.1611219000943649  0.3754417148664118  0.1397601378562285   T   T   T
  0.1834440730573519  0.3138260973706934  0.1379542075974243   T   T   T
  0.1981401710887596  0.2910679267865603  0.1068208651389710   T   T   T
  0.2370380873731435  0.2576464437901578  0.1050245674505277   T   T   T
  0.2568832068376281  0.2507489262684359  0.0738821255551798   T   T   T
  0.3007906599929768  0.2554457199623599  0.0720973404976704   T   T   T
  0.3198917057178008  0.2664687248949065  0.0409416461680223   T   T   T
  0.3557570689099805  0.3078908245164698  0.0391298560344779   T   T   T
  0.3684499931087259  0.3335484381657565  0.0079623489922866   T   T   T
  0.3856188451010638  0.3993805409429569  0.0061557913842449   T   T   T
  0.3676694502991396  0.5443963938384400  0.3963850631506887   T   T   T
  0.3554629972961010  0.5702155878040429  0.3651599250410200   T   T   T
  0.3199946577457666  0.6125108006293587  0.3632504202772466   T   T   T
  0.3010566590890420  0.6234355889499739  0.3320515734521763   T   T   T
  0.2571765036805900  0.6285232248502695  0.3302074592412083   T   T   T
  0.2374288664584228  0.6214936414208267  0.2990497804540198   T   T   T
  0.1984657965699199  0.5882895260943428  0.2972598484143987   T   T   T
  0.1837903850288569  0.5655985756390436  0.2661128209195951   T   T   T
  0.1612673088909773  0.5041751120689000  0.2643081149064486   T   T   T
  0.1560318265489613  0.4723776226112477  0.2331502591534544   T   T   T
  0.1566377273607813  0.4008866055242635  0.2313435115590394   T   T   T
  0.1624618169507812  0.3693300189392446  0.2001896498994284   T   T   T
  0.1860692366546104  0.3089967707708396  0.1983714021598288   T   T   T
  0.2012483224096684  0.2870828937879963  0.1672381649242496   T   T   T
  0.2408306749467357  0.2558581428469466  0.1654495465958874   T   T   T
  0.2608340047619251  0.2500939111967497  0.1343159006134087   T   T   T
  0.3046153830126528  0.2572384272302912  0.1325425465522940   T   T   T
  0.3234970786397682  0.2693148308595141  0.1013954070861089   T   T   T
  0.3584734112423149  0.3127018570938560  0.0996011326542074   T   T   T
  0.3706264082889774  0.3390522261221633  0.0684319972055576   T   T   T
  0.3863973050779705  0.4058013469757924  0.0666347688292177   T   T   T
  0.3882218883090971  0.4385861160975253  0.0354600004338650   T   T   T
  0.3800630422249185  0.5088455368964802  0.0336354280843381   T   T   T
  0.3650095557284629  0.5503573108075202  0.4567562937029024   T   T   T
  0.3524070971960711  0.5756326730069077  0.4255536846918346   T   T   T
  0.3161771455731923  0.6161725438474690  0.4236755334783808   T   T   T
  0.2969879367046815  0.6259326899450883  0.3924703019157718   T   T   T
  0.2530187549790526  0.6283272964326798  0.3906527421511825   T   T   T
  0.2334401198004485  0.6199745493297186  0.3594882212987613   T   T   T
  0.1953132356676619  0.5842900189598339  0.3577092547813692   T   T   T
  0.1811514292524734  0.5606793259227558  0.3265652618482804   T   T   T
  0.1600272774600242  0.4979580962660251  0.3247705544102999   T   T   T
  0.1554134377996021  0.4659034688731580  0.2936059707497307   T   T   T
  0.1575029237740466  0.3944841597636355  0.2917923079011686   T   T   T
  0.1639372534647876  0.3632768844240957  0.2606278878230412   T   T   T
  0.1887599888550184  0.3042451765393253  0.2587907649756929   T   T   T
  0.2044045080892261  0.2832166783136429  0.2276538480620331   T   T   T
  0.2446128635416613  0.2541883137900740  0.2258651519520214   T   T   T
  0.2647541600721510  0.2496005675661834  0.1947428937416475   T   T   T
  0.3083588149640306  0.2591978639853139  0.1929814513589392   T   T   T
  0.3269963776249938  0.2723584068486531  0.1618486862236637   T   T   T
  0.3610423890290519  0.3176675875835571  0.1600774410233825   T   T   T
  0.3726613912779939  0.3446764256102028  0.1289101282461047   T   T   T
  0.3870084050698281  0.4122708220573301  0.1271167599576586   T   T   T
  0.3881556700665882  0.4451354016972928  0.0959387824157432   T   T   T
  0.3785048846011918  0.5148947320597870  0.0941062022570947   T   T   T
  0.3626000213985776  0.5557332790871001  0.5171417634157791   T   T   T
  0.3493575313124921  0.5806332065518731  0.4859988710081353   T   T   T
  0.3123500445498522  0.6192359383629764  0.4841608238913864   T   T   T
  0.2929399709095293  0.6281463171668946  0.4529546520188816   T   T   T
  0.2489373441270288  0.6277705020889357  0.4511494180513864   T   T   T
  0.2295522299583865  0.6182408730618860  0.4199678207722926   T   T   T
  0.1923394110191623  0.5800839456617766  0.4181807667937463   T   T   T
  0.1787176143413944  0.5556104548251568  0.3870308208108497   T   T   T
  0.1590298696612962  0.4916649227435173  0.3852412852873002   T   T   T
  0.1550531744480210  0.4593723393273663  0.3540755014969506   T   T   T
  0.1585815236174000  0.3880994687129657  0.3522547330171761   T   T   T
  0.1655787294380815  0.3572648285633662  0.3210761349604283   T   T   T
  0.1915231823937233  0.2995196385083148  0.3192226491325769   T   T   T
  0.2075789312787677  0.2793882534079657  0.2880703558383644   T   T   T
  0.2483570261262287  0.2525408303417933  0.2862751874239891   T   T   T
  0.2686208068825877  0.2491882817744511  0.2551654581732379   T   T   T
  0.3119928788219255  0.2612762055769835  0.2534144060564643   T   T   T
  0.3303742383391040  0.2755476854113184  0.2223007992627899   T   T   T
  0.3634250241896382  0.3227697634812472  0.2205582650333113   T   T   T
  0.3745080416179789  0.3504180995961121  0.1893987358966527   T   T   T
  0.3874107926009955  0.4187855075342100  0.1876067325481330   T   T   T
  0.3878971939934672  0.4516848764450643  0.1564234417042982   T   T   T
  0.3767587468956393  0.5208579267325675  0.1545809680581414   T   T   T
  0.3605300617117706  0.5605649716492920  0.5775168284407144   T   T   T
  0.3464989189645564  0.5848941717651499  0.5464659787696249   T   T   T
  0.3085992607014774  0.6212211795237010  0.5446698163705577   T   T   T
  0.2889344326009180  0.6294435068137361  0.5134957723470990   T   T   T
  0.2449705872179209  0.6264757594850821  0.5116782651833347   T   T   T
  0.2257732564595543  0.6160361543365838  0.4804801171154836   T   T   T
  0.1894682225168367  0.5756247580446328  0.4786635471719265   T   T   T
  0.1764311369935925  0.5503718488965461  0.4475011268815834   T   T   T
  0.1581886512949069  0.4853040685963279  0.4457056715044487   T   T   T
  0.1549165650369986  0.4527983638319526  0.4145406585767688   T   T   T
  0.1598666049318922  0.3817537479968394  0.4127174540729186   T   T   T
  0.1674072125365242  0.3512856272051224  0.3815307636521865   T   T   T
  0.1943784866016358  0.2947976390239901  0.3796728885440004   T   T   T
  0.2107929295514595  0.2755351567797675  0.3484997250912727   T   T   T
  0.2520771576987215  0.2508095647661790  0.3466915177113705   T   T   T
  0.2724274445563424  0.2487540629937115  0.3155847981482935   T   T   T
  0.3154978322856437  0.2633987401849112  0.3138390479554900   T   T   T
  0.3335876412065844  0.2788487174266336  0.2827513210680053   T   T   T
  0.3655484777962315  0.3280221271737247  0.2810374198659034   T   T   T
  0.3761030165747528  0.3562867153941554  0.2498941443550038   T   T   T
  0.3875299848126517  0.4253473029261130  0.2481020036650392   T   T   T
  0.3874033696716594  0.4582351198370986  0.2169129724683074   T   T   T
  0.3748156763079535  0.5267513018732828  0.2150556520751081   T   T   T
  0.3583000074490386  0.5650917091364036  0.6379349251427797   T   T   T
  0.3436348642429294  0.5883991035809899  0.6068775147751140   T   T   T
  0.3048866734483298  0.6223041781833984  0.6051300135400126   T   T   T
  0.2849996586577319  0.6297004075497696  0.5740045203471169   T   T   T
  0.2411147951876700  0.6244513883350677  0.5721826306141438   T   T   T
  0.2220956382562065  0.6132208563845083  0.5409913204592769   T   T   T
  0.1866348101704389  0.5708831254631548  0.5391423092441769   T   T   T
  0.1741852578412022  0.5449577773877721  0.5079626110991882   T   T   T
  0.1573413525872880  0.4789089689257509  0.5061542788222440   T   T   T
  0.1548364877460031  0.4462233935029332  0.4749927473992557   T   T   T
  0.1612106832334277  0.3754783954950938  0.4731749448282443   T   T   T
  0.1693753224913124  0.3453880002452081  0.4419974304372687   T   T   T
  0.1973484842347304  0.2901932815340729  0.4401584257090789   T   T   T
  0.2140739807588048  0.2717000008835910  0.4089616181546418   T   T   T
  0.2558013448718697  0.2490163751698304  0.4071383607358499   T   T   T
  0.2761875539472669  0.2482073854166558  0.3760152900945855   T   T   T
  0.3188881828371990  0.2655118834059280  0.3742585860979375   T   T   T
  0.3366259269587033  0.2822162426073902  0.3431995221241593   T   T   T
  0.3673803898945920  0.3334023088048355  0.3415014846104469   T   T   T
  0.3773655808132972  0.3622915694214299  0.3103828547323459   T   T   T
  0.3872909424221831  0.4319631476007828  0.3085881243184758   T   T   T
  0.3865970998846322  0.4648025748577638  0.2773979840549714   T   T   T
  0.3726388438877990  0.5326093299608345  0.2755233336980965   T   T   T
  0.3559125117979676  0.5696034405085300  0.6983758649657688   T   T   T
  0.3407000567368570  0.5918128657439823  0.6672931221805882   T   T   T
  0.3011796668429625  0.6232616317044588  0.6655631287657329   T   T   T
  0.2811327910220953  0.6294349958597110  0.6344555304885375   T   T   T
  0.2373718487624643  0.6220018231715301  0.6326442592667973   T   T   T
  0.2185340346371376  0.6099175854225791  0.6014719105328652   T   T   T
  0.1838487410664200  0.5659272231347217  0.5996121623296062   T   T   T
  0.1719301640924016  0.5394119462041402  0.5684229734183219   T   T   T
  0.1564199445975163  0.4725026178002381  0.5666038782896905   T   T   T
  0.1546993170286228  0.4396859802984565  0.5354427428024735   T   T   T
  0.1625629734476917  0.3693363788573620  0.5336346026770471   T   T   T
  0.1713960962500991  0.3396564143901344  0.5024724736730235   T   T   T
  0.2004670053680258  0.2859771070110497  0.5006696981465595   T   T   T
  0.2174956344824039  0.2681699530599246  0.4694687834191669   T   T   T
  0.2596394736145697  0.2476068807460976  0.4676465682891049   T   T   T
  0.2799579372064471  0.2477110690274529  0.4364772551965572   T   T   T
  0.3222163033240406  0.2676435289719095  0.4346897232762146   T   T   T
  0.3395144458659090  0.2856260939214792  0.4036345182275269   T   T   T
  0.3689065607829818  0.3388733101505252  0.4019192892168633   T   T   T
  0.3783022693910638  0.3683947951999542  0.3708444950702869   T   T   T
  0.3867039203943037  0.4386264863270597  0.3690429926384837   T   T   T
  0.3854533097041823  0.4713867750790826  0.3378611590841487   T   T   T
  0.3533327346954991  0.5741326755435381  0.7588268025788452   T   T   T
  0.3376579761828395  0.5952903064169561  0.7277149168296191   T   T   T
  0.2974500476043787  0.6243480193799513  0.7259813747069828   T   T   T
  0.2772876944391172  0.6292112354895281  0.6948737048043441   T   T   T
  0.2336979587005032  0.6195151735764739  0.6930720690829020   T   T   T
  0.2150724977503629  0.6064404881872818  0.6619214569389982   T   T   T
  0.1811918888208766  0.5608291105339944  0.6600741704250552   T   T   T
  0.1697442592550331  0.5337431037043316  0.6288890846019370   T   T   T
  0.1555518283684307  0.4660651186332814  0.6270658120322423   T   T   T
  0.1545407469669655  0.4331783632726598  0.5959007551323054   T   T   T
  0.1639633155088021  0.3633348785103649  0.5941009033928424   T   T   T
  0.1734822596985595  0.3341760870859289  0.5629529533262385   T   T   T
  0.2037587285412741  0.2822826288083817  0.5611810178123449   T   T   T
  0.2211191763646454  0.2652876852465695  0.5300010217142699   T   T   T
  0.2636791798749130  0.2471488983287031  0.5281937876972691   T   T   T
  0.2838716195161481  0.2480016217774903  0.4969859761554147   T   T   T
  0.3256128880692302  0.2704672261498331  0.4951734500439642   T   T   T
  0.3422810612469220  0.2892568154664090  0.4640397419060420   T   T   T
  0.3699412563832496  0.3447406517243792  0.4622761435483795   T   T   T
  0.3787969749651907  0.3746449342000346  0.4312497912851967   T   T   T
  0.3857271182194779  0.4453335381212611  0.4294386395532541   T   T   T
  0.3840252872957635  0.4780191490741288  0.3982689260463559   T   T   T
  0.3505577247525196  0.5786044050970887  0.8192801312181004   T   T   T
  0.3344712673002945  0.5987895764976514  0.7881456823941306   T   T   T
  0.2936576093752450  0.6255158887878878  0.7863981834660621   T   T   T
  0.2734275841852352  0.6291082276362516  0.7552817344090315   T   T   T
  0.2300578820925878  0.6170577300595852  0.7534873955330994   T   T   T
  0.2117028303649633  0.6029357692865958  0.7223518200585204   T   T   T
  0.1787082575474273  0.5556403613488712  0.7205268641368576   T   T   T
  0.1677371613556247  0.5279734731779868  0.6893557842783338   T   T   T
  0.1548999377312725  0.4595870283894214  0.6875344335938394   T   T   T
  0.1545277033790100  0.4266721173878096  0.6563689822289405   T   T   T
  0.1655250771813002  0.3574397643501115  0.6545711886067309   T   T   T
  0.1757001533482310  0.3289040922432847  0.6234265738089206   T   T   T
  0.2072311073602435  0.2790318578387740  0.6216606032487633   T   T   T
  0.2249397766165373  0.2630614559584714  0.5905023082879097   T   T   T
  0.2678979825720447  0.2476235504637501  0.5886861837189770   T   T   T
  0.2879918606846346  0.2493362338430103  0.5574838785325724   T   T   T
  0.3292621532025635  0.2740680700648426  0.5556412516538742   T   T   T
  0.3453165538791581  0.2936012078552324  0.5244404873455863   T   T   T
  0.3717206406493645  0.3506035605243696  0.5226233191428378   T   T   T
  0.3788503801322136  0.3812248597065846  0.4915303238447351   T   T   T
  0.3842040149972092  0.4519898285497774  0.4897136314849462   T   T   T
  0.3820503059701323  0.4845459059075594  0.4586150751409264   T   T   T
  0.3476345882922161  0.5829751448052036  0.8797385335646482   T   T   T
  0.3311592820762712  0.6022214342952310  0.8485884153813075   T   T   T
  0.2898013064809675  0.6266360087821425  0.8468235772917296   T   T   T
  0.2695326251655175  0.6290229466897088  0.8156953166667549   T   T   T
  0.2264412928489108  0.6145613053461858  0.8139011908272948   T   T   T
  0.2083962942208615  0.5993885827365801  0.7827712118847359   T   T   T
  0.1763780771167518  0.5503494279024395  0.7809667426020397   T   T   T
  0.1659448201504503  0.5221028245650459  0.7498099088272241   T   T   T
  0.1545216376802969  0.4530574812676633  0.7479929021057217   T   T   T
  0.1547849210155690  0.4201509713789733  0.7168311541012287   T   T   T
  0.1673251645378642  0.3516188938922085  0.7150319025756460   T   T   T
  0.1781171549743021  0.3237576090816816  0.6838801838355693   T   T   T
  0.2108422797873288  0.2759676966612474  0.6820987096647784   T   T   T
  0.2289144828859193  0.2612184763439913  0.6509501244149689   T   T   T
  0.2722032051544474  0.2484940127764332  0.6491110830173312   T   T   T
  0.2922232936039322  0.2514148919633641  0.6179160313800338   T   T   T
  0.3330081047133078  0.2782022061127094  0.6160299165834147   T   T   T
  0.3487368609794359  0.2983167634404538  0.5848002474210006   T   T   T
  0.3745060584759301  0.3562571023133714  0.5829068029311699   T   T   T
  0.3810016962874201  0.3872571927502335  0.5517582782125530   T   T   T
  0.3849513011431185  0.4584228235741179  0.5499532259003814   T   T   T
  0.3809436314845840  0.4909093050848554  0.5189417960068781   T   T   T
  0.3445735870063089  0.5871699471308318  0.9401977946549422   T   T   T
  0.3277219463077685  0.6054924080665387  0.9090399761233101   T   T   T
  0.2858743623356830  0.6275871211398325  0.9072554212795225   T   T   T
  0.2655920167522225  0.6288213132594294  0.8761162730331051   T   T   T
  0.2228369699690447  0.6119381511793449  0.8743176082650450   T   T   T
  0.2051454108206414  0.5957413708177768  0.8431858223156610   T   T   T
  0.1741751015870960  0.5449519783492605  0.8413912693793577   T   T   T
  0.1643248718715640  0.5161343599963431  0.8102478893184113   T   T   T
  0.1543627590629697  0.4464945000902532  0.8084308246137795   T   T   T
  0.1552945041785421  0.4136204119498217  0.7772765919176479   T   T   T
  0.1693223863887710  0.3458559347864707  0.7754731002099788   T   T   T
  0.1807142048207453  0.3186856609316564  0.7443152579279442   T   T   T
  0.2145139717719502  0.2729164826384576  0.7425127895080195   T   T   T
  0.2329353344933907  0.2594143779907867  0.7113613346636853   T   T   T
  0.2764829368892379  0.2492767226087835  0.7095079018560924   T   T   T
  0.2964449512987173  0.2534906076465901  0.6783241163631288   T   T   T
  0.3367125746829842  0.2822700758824226  0.6764276164566141   T   T   T
  0.3521027300238444  0.3031757530111818  0.6452041509809092   T   T   T
  0.3769675803761317  0.3621665136301147  0.6432945066883562   T   T   T
  0.3830648353922825  0.3934070391250657  0.6121097924477823   T   T   T
  0.3855308659089758  0.4648164150071707  0.6103130246357509   T   T   T
  0.3808517578309676  0.4971268244094205  0.5792346793647170   T   T   T
  0.3413944437460614  0.5911683689440892  0.0006576042740463   T   T   T
  0.3241859505803717  0.6085574699988996  0.9694952942955410   T   T   T
  0.2818956515442963  0.6283053342170675  0.9676905335932844   T   T   T
  0.2616174844654111  0.6284158826983415  0.9365447983798703   T   T   T
  0.2192464194331336  0.6091376203684007  0.9347382193619111   T   T   T
  0.2019319850142693  0.5919491177511134  0.9036001973512811   T   T   T
  0.1720684242758850  0.5394383577390300  0.9018058904121204   T   T   T
  0.1628507249116211  0.5100813373842001  0.8706687833977114   T   T   T
  0.1543730101831358  0.4399267599039618  0.8688503859580976   T   T   T
  0.1559964667568821  0.4071152584957289  0.8377039365965402   T   T   T
  0.1714646058437879  0.3401836241555287  0.8358972328287777   T   T   T
  0.1834397617666852  0.3136933051574502  0.8047396299437537   T   T   T
  0.2182271608567135  0.2699178269034874  0.8029202015898491   T   T   T
  0.2369525568773554  0.2575875109162951  0.7717614140053684   T   T   T
  0.2806958595624351  0.2499551601471452  0.7699094218328426   T   T   T
  0.3005831351718768  0.2554271608836345  0.7387306414220447   T   T   T
  0.3402712735087903  0.2862735982520945  0.7368467354293955   T   T   T
  0.3553223624796900  0.3080098963891444  0.7056407005833236   T   T   T
  0.3791120833405941  0.3681624075877394  0.7037449363585537   T   T   T
  0.3847337217954063  0.3996854126101539  0.6725503753432989   T   T   T
  0.3856658567559705  0.4711883968149237  0.6707581546309314   T   T   T
  0.3803178770210209  0.5031543400764207  0.6396409348384466   T   T   T
  0.2576197610417879  0.6277539596747772  0.9969741204745617   T   T   T
  0.2156837940788137  0.6061143293240434  0.9951598855527521   T   T   T
  0.1987628463723041  0.5879760823964801  0.9640155013934901   T   T   T
  0.1700362815010266  0.5338160730846582  0.9622132828643828   T   T   T
  0.1614709812350199  0.5039514485312182  0.9310781793074767   T   T   T
  0.1544939532111300  0.4333608628641485  0.9292589092353012   T   T   T
  0.1568361374259766  0.4006582571736317  0.8981180584920807   T   T   T
  0.1737137951638985  0.3346314375635089  0.8963104277456466   T   T   T
  0.1862615686304849  0.3088343905378395  0.8651574792110068   T   T   T
  0.2219585380730393  0.2670377108587161  0.8633282008705194   T   T   T
  0.2409634187928944  0.2558196679871685  0.8321686614056816   T   T   T
  0.2848447531247444  0.2506455639295098  0.8303259120061739   T   T   T
  0.3046304980002716  0.2573036748904585  0.7991493232788258   T   T   T
  0.3436666817160443  0.2902868937185445  0.7972880991341924   T   T   T
  0.3583217515356125  0.3128665162085298  0.7660957052045276   T   T   T
  0.3808972988135011  0.3742443501026713  0.7642258691011961   T   T   T
  0.3859999107062961  0.4060499790743393  0.7330335832734534   T   T   T
  0.3854018675632815  0.4775604249402292  0.7312448194466512   T   T   T
  0.3794374683570538  0.5091567820333722  0.7001005868225789   T   T   T
  0.1601764286499616  0.4977521208324163  0.9914810992722494   T   T   T
  0.1547072994854730  0.4268083469937523  0.9896630838874287   T   T   T
  0.1577680361397356  0.3942462370600879  0.9585248367916748   T   T   T
  0.1760356838344848  0.3292033278988526  0.9567195255075944   T   T   T
  0.1891427858864247  0.3041127308157030  0.9255732991624370   T   T   T
  0.2257028150342322  0.2643264508861805  0.9237432042433156   T   T   T
  0.2449549848693167  0.2541858149330452  0.8925875772014322   T   T   T
  0.2889229049872029  0.2514785823518721  0.8907575324497969   T   T   T
  0.3085787998034064  0.2592651023048518  0.8595867575473548   T   T   T
  0.3468949739526579  0.2944203702874901  0.8577417640735447   T   T   T
  0.3611057377521334  0.3178217298412491  0.8265608992155791   T   T   T
  0.3823741293447114  0.3804179391029194  0.8247149588227458   T   T   T
  0.3868905924850878  0.4124877176541872  0.7935274862688644   T   T   T
  0.3847676198200602  0.4839164207887592  0.7917364268066507   T   T   T
  0.3782143663390372  0.5151416230494519  0.7605779735371101   T   T   T
  0.1920873090735924  0.2995795113000597  0.9859890599111765   T   T   T
  0.2294658218730490  0.2618557724790804  0.9841674760814456   T   T   T
  0.2489358859664534  0.2527755643143053  0.9530162459136875   T   T   T
  0.2929380685753316  0.2525405679656885  0.9512017012643099   T   T   T
  0.3124321913928938  0.2614344101318125  0.9200363342134281   T   T   T
  0.3499682106723867  0.2987407729630220  0.9182017810981336   T   T   T
  0.3636970279288576  0.3229217218742662  0.8870292907266659   T   T   T
  0.3836135344348577  0.3866777714288077  0.8851994494458069   T   T   T
  0.3874878031185887  0.4189814438644746  0.8540182150618065   T   T   T
  0.3838445275110942  0.4902410390972420  0.8522209462359029   T   T   T
  0.3766858508579602  0.5210633322462712  0.8210552057472214   T   T   T
  0.3162095340229740  0.2638199180400278  0.9804892503137594   T   T   T
  0.3529293491823324  0.3032216065675613  0.9786642418762170   T   T   T
  0.3661402985566369  0.3281660594850351  0.9474960612747267   T   T   T
  0.3846931184626428  0.3929986220590749  0.9456788854910982   T   T   T
  0.3878879078139903  0.4255034939326237  0.9145032741256287   T   T   T
  0.3827412474575169  0.4965148562441328  0.9126956800370039   T   T   T
  0.3749556627866824  0.5269223538451158  0.8815302021104259   T   T   T
  0.3881318371823781  0.4320400804104167  0.9749821602094499   T   T   T
  0.3814761384254126  0.5027193661091687  0.9731650086148491   T   T   T
  0.3730633517946558  0.5326735937470204  0.9420009569294905   T   T   T
  0.4858960552996286  0.4061877205046334  0.4770699108986012   T   T   T
  0.4763622460772162  0.3445774347432782  0.4945288913878455   T   T   T
  0.4876467722362078  0.4684507857218990  0.4954099689267939   T   T   T
 
  0.00000000E+00  0.00000000E+00  0.00000000E+00
  0.00000000E+00  0.00000000E+00  0.00000000E+00
  0.00000000E+00  0.00000000E+00  0.00000000E+00
  0.00000000E+00  0.00000000E+00  0.00000000E+00
  0.00000000E+00  0.00000000E+00  0.00000000E+00
  0.00000000E+00  0.00000000E+00  0.00000000E+00
  0.00000000E+00  0.00000000E+00  0.00000000E+00
  0.00000000E+00  0.00000000E+00  0.00000000E+00
  0.00000000E+00  0.00000000E+00  0.00000000E+00
  0.00000000E+00  0.00000000E+00  0.00000000E+00
  0.00000000E+00  0.00000000E+00  0.00000000E+00
  0.00000000E+00  0.00000000E+00  0.00000000E+00
  0.00000000E+00  0.00000000E+00  0.00000000E+00
  0.00000000E+00  0.00000000E+00  0.00000000E+00
  0.00000000E+00  0.00000000E+00  0.00000000E+00
  0.00000000E+00  0.00000000E+00  0.00000000E+00
  0.00000000E+00  0.00000000E+00  0.00000000E+00
  0.00000000E+00  0.00000000E+00  0.00000000E+00
  0.00000000E+00  0.00000000E+00  0.00000000E+00
  0.00000000E+00  0.00000000E+00  0.00000000E+00
  0.00000000E+00  0.00000000E+00  0.00000000E+00
  0.00000000E+00  0.00000000E+00  0.00000000E+00
  0.00000000E+00  0.00000000E+00  0.00000000E+00
  0.00000000E+00  0.00000000E+00  0.00000000E+00
  0.00000000E+00  0.00000000E+00  0.00000000E+00
  0.00000000E+00  0.00000000E+00  0.00000000E+00
  0.00000000E+00  0.00000000E+00  0.00000000E+00
  0.00000000E+00  0.00000000E+00  0.00000000E+00
  0.00000000E+00  0.00000000E+00  0.00000000E+00
  0.00000000E+00  0.00000000E+00  0.00000000E+00
  0.00000000E+00  0.00000000E+00  0.00000000E+00
  0.00000000E+00  0.00000000E+00  0.00000000E+00
  0.00000000E+00  0.00000000E+00  0.00000000E+00
  0.00000000E+00  0.00000000E+00  0.00000000E+00
  0.00000000E+00  0.00000000E+00  0.00000000E+00
  0.00000000E+00  0.00000000E+00  0.00000000E+00
  0.00000000E+00  0.00000000E+00  0.00000000E+00
  0.00000000E+00  0.00000000E+00  0.00000000E+00
  0.00000000E+00  0.00000000E+00  0.00000000E+00
  0.00000000E+00  0.00000000E+00  0.00000000E+00
  0.00000000E+00  0.00000000E+00  0.00000000E+00
  0.00000000E+00  0.00000000E+00  0.00000000E+00
  0.00000000E+00  0.00000000E+00  0.00000000E+00
  0.00000000E+00  0.00000000E+00  0.00000000E+00
  0.00000000E+00  0.00000000E+00  0.00000000E+00
  0.00000000E+00  0.00000000E+00  0.00000000E+00
  0.00000000E+00  0.00000000E+00  0.00000000E+00
  0.00000000E+00  0.00000000E+00  0.00000000E+00
  0.00000000E+00  0.00000000E+00  0.00000000E+00
  0.00000000E+00  0.00000000E+00  0.00000000E+00
  0.00000000E+00  0.00000000E+00  0.00000000E+00
  0.00000000E+00  0.00000000E+00  0.00000000E+00
  0.00000000E+00  0.00000000E+00  0.00000000E+00
  0.00000000E+00  0.00000000E+00  0.00000000E+00
  0.00000000E+00  0.00000000E+00  0.00000000E+00
  0.00000000E+00  0.00000000E+00  0.00000000E+00
  0.00000000E+00  0.00000000E+00  0.00000000E+00
  0.00000000E+00  0.00000000E+00  0.00000000E+00