 C  S  O                                
    1.000000000000000     
    32.3722991942999982    0.0000000000000000    0.0000000000000000
     0.0000000000000000   19.9214134216000005    0.0000000000000000
     0.0000000000000000    0.0000000000000000   40.4480476378999967
   C    S    O 
   364     1     2
Selective Dynamics
Direct
  0.3710232351116582  0.5383055132404698  0.0024678434257258  F  F  F
  0.3688496735822059  0.5438254772871174  0.0629328291550400  F  F  F
  0.3381056308039381  0.5949807613793113  0.0611141629178957  F  F  F
  0.3205495353054142  0.6113900159477866  0.0299486679375544  F  F  F
  0.2778675142078438  0.6287585316512381  0.0281256078685230  F  F  F
  0.3665278409802666  0.5492239695650171  0.1233968854113866  F  F  F
  0.3347082493702174  0.5986115831956459  0.1215632663124809  F  F  F
  0.3168269924035614  0.6140209607168569  0.0903939657410727  F  F  F
  0.2738001412372297  0.6289713023255360  0.0885547019424432  F  F  F
  0.2535992953516883  0.6268431082280735  0.0573989185492320  F  F  F
  0.2121423625786058  0.6028900951518097  0.0555797125115295  F  F  F
  0.1956349652976505  0.5838232605578303  0.0244299142246953  F  F  F
  0.1680727040761660  0.5280873504148075  0.0226179034534910  F  F  F
  0.3640275319855747  0.5545071716860565  0.1838600557305980  F  F  F
  0.3311796348542155  0.6020774973538120  0.1820027385781695  F  F  F
  0.3130114160743921  0.6164497801952306  0.1508280350223363  F  F  F
  0.2696945164119016  0.6289787558222798  0.1489759717641247  F  F  F
  0.2495708735926093  0.6257045738843273  0.1178160047682917  F  F  F
  0.2086466055941190  0.5994541280580199  0.1159975932853768  F  F  F
  0.1925679791939074  0.5794806985764466  0.0848438858557007  F  F  F
  0.1662016773072634  0.5222424087259880  0.0830253478460768  F  F  F
  0.1589648238767711  0.4914941635699061  0.0518840527096514  F  F  F
  0.1550155659243892  0.4202831883523366  0.0500705523714355  F  F  F
  0.1587899588713610  0.3879103842336651  0.0189317322154224  F  F  F
  0.1784343771714786  0.3239315759354850  0.0171290898367445  F  F  F
  0.3613446723111771  0.5597198863216765  0.2443127391419240  F  F  F
  0.3275331908600210  0.6054649535591986  0.2424273927532358  F  F  F
  0.3090929154406565  0.6187476682148865  0.2112469561722086  F  F  F
  0.2655409516871041  0.6288497851708883  0.2093863545259989  F  F  F
  0.2455230481586200  0.6243937953228220  0.1782252837533091  F  F  F
  0.2051808193870783  0.5958643021910754  0.1764121258789753  F  F  F
  0.1895551255824907  0.5749868367159792  0.1452570604600911  F  F  F
  0.1644169941739723  0.5163081552594915  0.1434386511208990  F  F  F
  0.1578608337765983  0.4851670879284411  0.1122920251938239  F  F  F
  0.1554275469826726  0.4137775369462698  0.1104838783919515  F  F  F
  0.1599084472340853  0.3816379571028264  0.0793414084418168  F  F  F
  0.1809006244883066  0.3187997791733171  0.0775408129246423  F  F  F
  0.1950819230133759  0.2952265914397134  0.0464043155714504  F  F  F
  0.2332418370087341  0.2596276558801269  0.0445958607399505  F  F  F
  0.2529142710119918  0.2516333639142089  0.0134486893581468  F  F  F
  0.2968941665513370  0.2538665495754686  0.0116483771041167  F  F  F
  0.3702235467041621  0.5384697639860707  0.3359719332513582  F  F  F
  0.3584749881620146  0.5649346979477105  0.3047467271236626  F  F  F
  0.3237960555524366  0.6089179361522208  0.3028388942272749  F  F  F
  0.3050984856964887  0.6210330882383707  0.2716514395793614  F  F  F
  0.2613582878588922  0.6286736757364112  0.2697912367665715  F  F  F
  0.2414640714094945  0.6229710169070899  0.2386332451916882  F  F  F
  0.2017672174392900  0.5921454528400323  0.2368298082958037  F  F  F
  0.1866173691721264  0.5703515420201257  0.2056772776252883  F  F  F
  0.1627595290655725  0.5102797511798286  0.2038630856902784  F  F  F
  0.1568709678780849  0.4787906241124229  0.1727113720532979  F  F  F
  0.1559577460806934  0.4073091800949784  0.1709070939771923  F  F  F
  0.1611219000943653  0.3754417148664083  0.1397601378562273  F  F  F
  0.1834440730573548  0.3138260973706929  0.1379542075974210  F  F  F
  0.1981401710887566  0.2910679267865612  0.1068208651389739  F  F  F
  0.2370380873731431  0.2576464437901563  0.1050245674505294  F  F  F
  0.2568832068376251  0.2507489262684334  0.0738821255551824  F  F  F
  0.3007906599929803  0.2554457199623624  0.0720973404976719  F  F  F
  0.3198917057177995  0.2664687248949058  0.0409416461680211  F  F  F
  0.3557570689099807  0.3078908245164731  0.0391298560344748  F  F  F
  0.3684499931087259  0.3335484381657600  0.0079623489922900  F  F  F
  0.3856188451010666  0.3993805409429551  0.0061557913842483  F  F  F
  0.3676694502991376  0.5443963938384384  0.3963850631506916  F  F  F
  0.3554629972961000  0.5702155878040454  0.3651599250410197  F  F  F
  0.3199946577457649  0.6125108006293589  0.3632504202772460  F  F  F
  0.3010566590890407  0.6234355889499767  0.3320515734521756  F  F  F
  0.2571765036805906  0.6285232248502703  0.3302074592412068  F  F  F
  0.2374288664584230  0.6214936414208251  0.2990497804540216  F  F  F
  0.1984657965699194  0.5882895260943415  0.2972598484144015  F  F  F
  0.1837903850288542  0.5655985756390434  0.2661128209195947  F  F  F
  0.1612673088909792  0.5041751120688978  0.2643081149064518  F  F  F
  0.1560318265489584  0.4723776226112456  0.2331502591534555  F  F  F
  0.1566377273607834  0.4008866055242665  0.2313435115590399  F  F  F
  0.1624618169507808  0.3693300189392436  0.2001896498994251  F  F  F
  0.1860692366546109  0.3089967707708404  0.1983714021598315  F  F  F
  0.2012483224096711  0.2870828937879991  0.1672381649242461  F  F  F
  0.2408306749467337  0.2558581428469450  0.1654495465958845  F  F  F
  0.2608340047619233  0.2500939111967480  0.1343159006134100  F  F  F
  0.3046153830126561  0.2572384272302921  0.1325425465522921  F  F  F
  0.3234970786397697  0.2693148308595114  0.1013954070861105  F  F  F
  0.3584734112423125  0.3127018570938568  0.0996011326542101  F  F  F
  0.3706264082889809  0.3390522261221653  0.0684319972055600  F  F  F
  0.3863973050779679  0.4058013469757924  0.0666347688292205  F  F  F
  0.3882218883090949  0.4385861160975232  0.0354600004338653  F  F  F
  0.3800630422249210  0.5088455368964820  0.0336354280843393  F  F  F
  0.3650095557284607  0.5503573108075227  0.4567562937029055  F  F  F
  0.3524070971960678  0.5756326730069073  0.4255536846918321  F  F  F
  0.3161771455731929  0.6161725438474702  0.4236755334783807  F  F  F
  0.2969879367046809  0.6259326899450849  0.3924703019157726  F  F  F
  0.2530187549790553  0.6283272964326770  0.3906527421511833  F  F  F
  0.2334401198004454  0.6199745493297183  0.3594882212987643  F  F  F
  0.1953132356676632  0.5842900189598340  0.3577092547813713  F  F  F
  0.1811514292524729  0.5606793259227544  0.3265652618482772  F  F  F
  0.1600272774600228  0.4979580962660229  0.3247705544102978  F  F  F
  0.1554134377996021  0.4659034688731610  0.2936059707497284  F  F  F
  0.1575029237740453  0.3944841597636368  0.2917923079011677  F  F  F
  0.1639372534647907  0.3632768844240989  0.2606278878230387  F  F  F
  0.1887599888550199  0.3042451765393224  0.2587907649756934  F  F  F
  0.2044045080892293  0.2832166783136422  0.2276538480620346  F  F  F
  0.2446128635416617  0.2541883137900718  0.2258651519520214  F  F  F
  0.2647541600721501  0.2496005675661835  0.1947428937416509  F  F  F
  0.3083588149640304  0.2591978639853126  0.1929814513589359  F  F  F
  0.3269963776249957  0.2723584068486540  0.1618486862236626  F  F  F
  0.3610423890290549  0.3176675875835548  0.1600774410233792  F  F  F
  0.3726613912779950  0.3446764256102027  0.1289101282461027  F  F  F
  0.3870084050698283  0.4122708220573284  0.1271167599576600  F  F  F
  0.3881556700665890  0.4451354016972963  0.0959387824157455  F  F  F
  0.3785048846011888  0.5148947320597853  0.0941062022570956  F  F  F
  0.3626000213985756  0.5557332790871001  0.5171417634157786  F  F  F
  0.3493575313124901  0.5806332065518759  0.4859988710081386  F  F  F
  0.3123500445498519  0.6192359383629767  0.4841608238913891  F  F  F
  0.2929399709095270  0.6281463171668966  0.4529546520188833  F  F  F
  0.2489373441270289  0.6277705020889358  0.4511494180513876  F  F  F
  0.2295522299583861  0.6182408730618834  0.4199678207722951  F  F  F
  0.1923394110191654  0.5800839456617781  0.4181807667937428  F  F  F
  0.1787176143413959  0.5556104548251551  0.3870308208108473  F  F  F
  0.1590298696612991  0.4916649227435181  0.3852412852872967  F  F  F
  0.1550531744480243  0.4593723393273674  0.3540755014969477  F  F  F
  0.1585815236174032  0.3880994687129680  0.3522547330171764  F  F  F
  0.1655787294380815  0.3572648285633685  0.3210761349604266  F  F  F
  0.1915231823937255  0.2995196385083148  0.3192226491325754  F  F  F
  0.2075789312787694  0.2793882534079687  0.2880703558383658  F  F  F
  0.2483570261262308  0.2525408303417954  0.2862751874239912  F  F  F
  0.2686208068825872  0.2491882817744518  0.2551654581732413  F  F  F
  0.3119928788219236  0.2612762055769819  0.2534144060564665  F  F  F
  0.3303742383391021  0.2755476854113172  0.2223007992627901  F  F  F
  0.3634250241896403  0.3227697634812494  0.2205582650333132  F  F  F
  0.3745080416179809  0.3504180995961151  0.1893987358966496  F  F  F
  0.3874107926009964  0.4187855075342111  0.1876067325481361  F  F  F
  0.3878971939934641  0.4516848764450608  0.1564234417042963  F  F  F
  0.3767587468956378  0.5208579267325651  0.1545809680581381  F  F  F
  0.3605300617117732  0.5605649716492945  0.5775168284407129  F  F  F
  0.3464989189645597  0.5848941717651500  0.5464659787696279  F  F  F
  0.3085992607014795  0.6212211795236999  0.5446698163705558  F  F  F
  0.2889344326009149  0.6294435068137368  0.5134957723470970  F  F  F
  0.2449705872179190  0.6264757594850794  0.5116782651833335  F  F  F
  0.2257732564595548  0.6160361543365858  0.4804801171154802  F  F  F
  0.1894682225168401  0.5756247580446320  0.4786635471719296  F  F  F
  0.1764311369935910  0.5503718488965438  0.4475011268815814  F  F  F
  0.1581886512949087  0.4853040685963297  0.4457056715044508  F  F  F
  0.1549165650370003  0.4527983638319538  0.4145406585767659  F  F  F
  0.1598666049318899  0.3817537479968371  0.4127174540729157  F  F  F
  0.1674072125365247  0.3512856272051237  0.3815307636521862  F  F  F
  0.1943784866016323  0.2947976390239889  0.3796728885439993  F  F  F
  0.2107929295514592  0.2755351567797674  0.3484997250912719  F  F  F
  0.2520771576987209  0.2508095647661813  0.3466915177113721  F  F  F
  0.2724274445563390  0.2487540629937098  0.3155847981482966  F  F  F
  0.3154978322856459  0.2633987401849106  0.3138390479554911  F  F  F
  0.3335876412065827  0.2788487174266304  0.2827513210680018  F  F  F
  0.3655484777962293  0.3280221271737235  0.2810374198659005  F  F  F
  0.3761030165747534  0.3562867153941527  0.2498941443550005  F  F  F
  0.3875299848126523  0.4253473029261104  0.2481020036650400  F  F  F
  0.3874033696716587  0.4582351198370981  0.2169129724683093  F  F  F
  0.3748156763079539  0.5267513018732808  0.2150556520751064  F  F  F
  0.3583000074490360  0.5650917091364049  0.6379349251427826  F  F  F
  0.3436348642429312  0.5883991035809888  0.6068775147751168  F  F  F
  0.3048866734483319  0.6223041781833969  0.6051300135400109  F  F  F
  0.2849996586577321  0.6297004075497673  0.5740045203471199  F  F  F
  0.2411147951876712  0.6244513883350671  0.5721826306141433  F  F  F
  0.2220956382562033  0.6132208563845071  0.5409913204592781  F  F  F
  0.1866348101704404  0.5708831254631569  0.5391423092441783  F  F  F
  0.1741852578412053  0.5449577773877716  0.5079626110991871  F  F  F
  0.1573413525872863  0.4789089689257479  0.5061542788222445  F  F  F
  0.1548364877460009  0.4462233935029308  0.4749927473992545  F  F  F
  0.1612106832334284  0.3754783954950948  0.4731749448282430  F  F  F
  0.1693753224913120  0.3453880002452073  0.4419974304372652  F  F  F
  0.1973484842347294  0.2901932815340744  0.4401584257090779  F  F  F
  0.2140739807588083  0.2717000008835888  0.4089616181546397  F  F  F
  0.2558013448718697  0.2490163751698328  0.4071383607358490  F  F  F
  0.2761875539472692  0.2482073854166543  0.3760152900945875  F  F  F
  0.3188881828371967  0.2655118834059290  0.3742585860979373  F  F  F
  0.3366259269587040  0.2822162426073911  0.3431995221241588  F  F  F
  0.3673803898945948  0.3334023088048388  0.3415014846104489  F  F  F
  0.3773655808132947  0.3622915694214297  0.3103828547323441  F  F  F
  0.3872909424221804  0.4319631476007795  0.3085881243184790  F  F  F
  0.3865970998846320  0.4648025748577610  0.2773979840549743  F  F  F
  0.3726388438877991  0.5326093299608357  0.2755233336980962  F  F  F
  0.3559125117979689  0.5696034405085322  0.6983758649657694  F  F  F
  0.3407000567368569  0.5918128657439844  0.6672931221805906  F  F  F
  0.3011796668429633  0.6232616317044600  0.6655631287657314  F  F  F
  0.2811327910220973  0.6294349958597127  0.6344555304885388  F  F  F
  0.2373718487624631  0.6220018231715284  0.6326442592667985  F  F  F
  0.2185340346371352  0.6099175854225792  0.6014719105328684  F  F  F
  0.1838487410664198  0.5659272231347233  0.5996121623296063  F  F  F
  0.1719301640924003  0.5394119462041407  0.5684229734183240  F  F  F
  0.1564199445975149  0.4725026178002395  0.5666038782896931  F  F  F
  0.1546993170286243  0.4396859802984555  0.5354427428024737  F  F  F
  0.1625629734476885  0.3693363788573611  0.5336346026770442  F  F  F
  0.1713960962501020  0.3396564143901345  0.5024724736730207  F  F  F
  0.2004670053680292  0.2859771070110468  0.5006696981465614  F  F  F
  0.2174956344824038  0.2681699530599273  0.4694687834191638  F  F  F
  0.2596394736145691  0.2476068807460983  0.4676465682891055  F  F  F
  0.2799579372064471  0.2477110690274518  0.4364772551965549  F  F  F
  0.3222163033240439  0.2676435289719070  0.4346897232762150  F  F  F
  0.3395144458659087  0.2856260939214815  0.4036345182275266  F  F  F
  0.3689065607829801  0.3388733101505251  0.4019192892168620  F  F  F
  0.3783022693910652  0.3683947951999563  0.3708444950702896  F  F  F
  0.3867039203943048  0.4386264863270612  0.3690429926384853  F  F  F
  0.3854533097041850  0.4713867750790820  0.3378611590841510  F  F  F
  0.3533327346955022  0.5741326755435350  0.7588268025788469  F  F  F
  0.3376579761828375  0.5952903064169581  0.7277149168296208  F  F  F
  0.2974500476043784  0.6243480193799541  0.7259813747069844  F  F  F
  0.2772876944391158  0.6292112354895274  0.6948737048043468  F  F  F
  0.2336979587005047  0.6195151735764729  0.6930720690828998  F  F  F
  0.2150724977503612  0.6064404881872821  0.6619214569389968  F  F  F
  0.1811918888208737  0.5608291105339955  0.6600741704250527  F  F  F
  0.1697442592550343  0.5337431037043316  0.6288890846019380  F  F  F
  0.1555518283684306  0.4660651186332809  0.6270658120322395  F  F  F
  0.1545407469669674  0.4331783632726577  0.5959007551323029  F  F  F
  0.1639633155088033  0.3633348785103676  0.5941009033928393  F  F  F
  0.1734822596985581  0.3341760870859260  0.5629529533262414  F  F  F
  0.2037587285412741  0.2822826288083793  0.5611810178123440  F  F  F
  0.2211191763646439  0.2652876852465685  0.5300010217142730  F  F  F
  0.2636791798749123  0.2471488983287002  0.5281937876972705  F  F  F
  0.2838716195161468  0.2480016217774925  0.4969859761554170  F  F  F
  0.3256128880692271  0.2704672261498310  0.4951734500439622  F  F  F
  0.3422810612469232  0.2892568154664084  0.4640397419060447  F  F  F
  0.3699412563832478  0.3447406517243770  0.4622761435483822  F  F  F
  0.3787969749651934  0.3746449342000360  0.4312497912851934  F  F  F
  0.3857271182194781  0.4453335381212635  0.4294386395532545  F  F  F
  0.3840252872957646  0.4780191490741305  0.3982689260463567  F  F  F
  0.3505577247525204  0.5786044050970859  0.8192801312180983  F  F  F
  0.3344712673002934  0.5987895764976500  0.7881456823941281  F  F  F
  0.2936576093752429  0.6255158887878857  0.7863981834660623  F  F  F
  0.2734275841852338  0.6291082276362484  0.7552817344090325  F  F  F
  0.2300578820925883  0.6170577300595862  0.7534873955330981  F  F  F
  0.2117028303649645  0.6029357692865949  0.7223518200585183  F  F  F
  0.1787082575474262  0.5556403613488728  0.7205268641368590  F  F  F
  0.1677371613556266  0.5279734731779844  0.6893557842783312  F  F  F
  0.1548999377312731  0.4595870283894206  0.6875344335938374  F  F  F
  0.1545277033790067  0.4266721173878062  0.6563689822289389  F  F  F
  0.1655250771813035  0.3574397643501149  0.6545711886067297  F  F  F
  0.1757001533482287  0.3289040922432814  0.6234265738089196  F  F  F
  0.2072311073602447  0.2790318578387720  0.6216606032487626  F  F  F
  0.2249397766165342  0.2630614559584681  0.5905023082879070  F  F  F
  0.2678979825720459  0.2476235504637495  0.5886861837189752  F  F  F
  0.2879918606846329  0.2493362338430134  0.5574838785325701  F  F  F
  0.3292621532025626  0.2740680700648392  0.5556412516538750  F  F  F
  0.3453165538791555  0.2936012078552355  0.5244404873455842  F  F  F
  0.3717206406493656  0.3506035605243665  0.5226233191428368  F  F  F
  0.3788503801322149  0.3812248597065853  0.4915303238447332  F  F  F
  0.3842040149972121  0.4519898285497808  0.4897136314849440  F  F  F
  0.3820503059701357  0.4845459059075570  0.4586150751409258  F  F  F
  0.3476345882922128  0.5829751448052057  0.8797385335646452  F  F  F
  0.3311592820762683  0.6022214342952326  0.8485884153813046  F  F  F
  0.2898013064809672  0.6266360087821414  0.8468235772917276  F  F  F
  0.2695326251655177  0.6290229466897076  0.8156953166667555  F  F  F
  0.2264412928489127  0.6145613053461875  0.8139011908272915  F  F  F
  0.2083962942208612  0.5993885827365778  0.7827712118847373  F  F  F
  0.1763780771167542  0.5503494279024370  0.7809667426020374  F  F  F
  0.1659448201504499  0.5221028245650490  0.7498099088272251  F  F  F
  0.1545216376802988  0.4530574812676669  0.7479929021057182  F  F  F
  0.1547849210155713  0.4201509713789749  0.7168311541012290  F  F  F
  0.1673251645378662  0.3516188938922081  0.7150319025756430  F  F  F
  0.1781171549743013  0.3237576090816836  0.6838801838355678  F  F  F
  0.2108422797873280  0.2759676966612466  0.6820987096647791  F  F  F
  0.2289144828859221  0.2612184763439939  0.6509501244149702  F  F  F
  0.2722032051544474  0.2484940127764327  0.6491110830173280  F  F  F
  0.2922232936039351  0.2514148919633606  0.6179160313800311  F  F  F
  0.3330081047133058  0.2782022061127124  0.6160299165834180  F  F  F
  0.3487368609794355  0.2983167634404547  0.5848002474210010  F  F  F
  0.3745060584759313  0.3562571023133685  0.5829068029311680  F  F  F
  0.3810016962874236  0.3872571927502327  0.5517582782125530  F  F  F
  0.3849513011431185  0.4584228235741159  0.5499532259003784  F  F  F
  0.3809436314845827  0.4909093050848525  0.5189417960068763  F  F  F
  0.3445735870063072  0.5871699471308343  0.9401977946549394  F  F  F
  0.3277219463077651  0.6054924080665376  0.9090399761233120  F  F  F
  0.2858743623356815  0.6275871211398306  0.9072554212795235  F  F  F
  0.2655920167522203  0.6288213132594295  0.8761162730331025  F  F  F
  0.2228369699690474  0.6119381511793436  0.8743176082650446  F  F  F
  0.2051454108206429  0.5957413708177788  0.8431858223156641  F  F  F
  0.1741751015870927  0.5449519783492632  0.8413912693793602  F  F  F
  0.1643248718715647  0.5161343599963437  0.8102478893184096  F  F  F
  0.1543627590629730  0.4464945000902565  0.8084308246137766  F  F  F
  0.1552945041785410  0.4136204119498232  0.7772765919176456  F  F  F
  0.1693223863887739  0.3458559347864714  0.7754731002099756  F  F  F
  0.1807142048207477  0.3186856609316560  0.7443152579279432  F  F  F
  0.2145139717719492  0.2729164826384559  0.7425127895080199  F  F  F
  0.2329353344933884  0.2594143779907866  0.7113613346636837  F  F  F
  0.2764829368892414  0.2492767226087822  0.7095079018560951  F  F  F
  0.2964449512987206  0.2534906076465930  0.6783241163631258  F  F  F
  0.3367125746829871  0.2822700758824218  0.6764276164566106  F  F  F
  0.3521027300238441  0.3031757530111828  0.6452041509809064  F  F  F
  0.3769675803761291  0.3621665136301131  0.6432945066883591  F  F  F
  0.3830648353922830  0.3934070391250667  0.6121097924477787  F  F  F
  0.3855308659089756  0.4648164150071697  0.6103130246357528  F  F  F
  0.3808517578309703  0.4971268244094195  0.5792346793647146  F  F  F
  0.3413944437460649  0.5911683689440917  0.0006576042740441  F  F  F
  0.3241859505803705  0.6085574699988980  0.9694952942955423  F  F  F
  0.2818956515442989  0.6283053342170695  0.9676905335932811  F  F  F
  0.2616174844654112  0.6284158826983447  0.9365447983798716  F  F  F
  0.2192464194331329  0.6091376203684002  0.9347382193619139  F  F  F
  0.2019319850142709  0.5919491177511126  0.9036001973512797  F  F  F
  0.1720684242758881  0.5394383577390304  0.9018058904121209  F  F  F
  0.1628507249116190  0.5100813373842006  0.8706687833977096  F  F  F
  0.1543730101831353  0.4399267599039607  0.8688503859580977  F  F  F
  0.1559964667568832  0.4071152584957262  0.8377039365965437  F  F  F
  0.1714646058437907  0.3401836241555263  0.8358972328287799  F  F  F
  0.1834397617666824  0.3136933051574529  0.8047396299437566  F  F  F
  0.2182271608567161  0.2699178269034905  0.8029202015898518  F  F  F
  0.2369525568773536  0.2575875109162978  0.7717614140053697  F  F  F
  0.2806958595624371  0.2499551601471428  0.7699094218328451  F  F  F
  0.3005831351718744  0.2554271608836311  0.7387306414220467  F  F  F
  0.3402712735087874  0.2862735982520965  0.7368467354293987  F  F  F
  0.3553223624796877  0.3080098963891411  0.7056407005833232  F  F  F
  0.3791120833405975  0.3681624075877419  0.7037449363585560  F  F  F
  0.3847337217954075  0.3996854126101559  0.6725503753432978  F  F  F
  0.3856658567559716  0.4711883968149232  0.6707581546309331  F  F  F
  0.3803178770210235  0.5031543400764218  0.6396409348384485  F  F  F
  0.2576197610417859  0.6277539596747808  0.9969741204745649  F  F  F
  0.2156837940788116  0.6061143293240433  0.9951598855527556  F  F  F
  0.1987628463723028  0.5879760823964785  0.9640155013934916  F  F  F
  0.1700362815010276  0.5338160730846607  0.9622132828643800  F  F  F
  0.1614709812350179  0.5039514485312183  0.9310781793074752  F  F  F
  0.1544939532111274  0.4333608628641498  0.9292589092352983  F  F  F
  0.1568361374259735  0.4006582571736300  0.8981180584920814  F  F  F
  0.1737137951639013  0.3346314375635075  0.8963104277456493  F  F  F
  0.1862615686304860  0.3088343905378390  0.8651574792110051  F  F  F
  0.2219585380730403  0.2670377108587190  0.8633282008705165  F  F  F
  0.2409634187928941  0.2558196679871703  0.8321686614056804  F  F  F
  0.2848447531247438  0.2506455639295084  0.8303259120061770  F  F  F
  0.3046304980002713  0.2573036748904613  0.7991493232788229  F  F  F
  0.3436666817160413  0.2902868937185455  0.7972880991341929  F  F  F
  0.3583217515356151  0.3128665162085282  0.7660957052045263  F  F  F
  0.3808972988135000  0.3742443501026726  0.7642258691011945  F  F  F
  0.3859999107062974  0.4060499790743415  0.7330335832734546  F  F  F
  0.3854018675632809  0.4775604249402258  0.7312448194466545  F  F  F
  0.3794374683570562  0.5091567820333706  0.7001005868225784  F  F  F
  0.1601764286499648  0.4977521208324132  0.9914810992722463  F  F  F
  0.1547072994854712  0.4268083469937511  0.9896630838874314  F  F  F
  0.1577680361397353  0.3942462370600878  0.9585248367916759  F  F  F
  0.1760356838344836  0.3292033278988560  0.9567195255075963  F  F  F
  0.1891427858864269  0.3041127308157061  0.9255732991624377  F  F  F
  0.2257028150342318  0.2643264508861776  0.9237432042433165  F  F  F
  0.2449549848693156  0.2541858149330443  0.8925875772014296  F  F  F
  0.2889229049872012  0.2514785823518740  0.8907575324497948  F  F  F
  0.3085787998034065  0.2592651023048537  0.8595867575473559  F  F  F
  0.3468949739526595  0.2944203702874877  0.8577417640735462  F  F  F
  0.3611057377521320  0.3178217298412518  0.8265608992155781  F  F  F
  0.3823741293447138  0.3804179391029222  0.8247149588227464  F  F  F
  0.3868905924850908  0.4124877176541888  0.7935274862688677  F  F  F
  0.3847676198200604  0.4839164207887605  0.7917364268066516  F  F  F
  0.3782143663390399  0.5151416230494491  0.7605779735371102  F  F  F
  0.1920873090735957  0.2995795113000590  0.9859890599111760  F  F  F
  0.2294658218730459  0.2618557724790825  0.9841674760814462  F  F  F
  0.2489358859664500  0.2527755643143083  0.9530162459136878  F  F  F
  0.2929380685753294  0.2525405679656905  0.9512017012643087  F  F  F
  0.3124321913928960  0.2614344101318132  0.9200363342134248  F  F  F
  0.3499682106723832  0.2987407729630201  0.9182017810981317  F  F  F
  0.3636970279288596  0.3229217218742676  0.8870292907266650  F  F  F
  0.3836135344348546  0.3866777714288099  0.8851994494458082  F  F  F
  0.3874878031185873  0.4189814438644769  0.8540182150618074  F  F  F
  0.3838445275110920  0.4902410390972451  0.8522209462358997  F  F  F
  0.3766858508579590  0.5210633322462734  0.8210552057472245  F  F  F
  0.3162095340229774  0.2638199180400292  0.9804892503137593  F  F  F
  0.3529293491823331  0.3032216065675628  0.9786642418762170  F  F  F
  0.3661402985566337  0.3281660594850382  0.9474960612747277  F  F  F
  0.3846931184626436  0.3929986220590738  0.9456788854911006  F  F  F
  0.3878879078139871  0.4255034939326231  0.9145032741256319  F  F  F
  0.3827412474575181  0.4965148562441316  0.9126956800370069  F  F  F
  0.3749556627866852  0.5269223538451157  0.8815302021104250  F  F  F
  0.3881318371823749  0.4320400804104134  0.9749821602094465  F  F  F
  0.3814761384254091  0.5027193661091679  0.9731650086148491  F  F  F
  0.3730633517946580  0.5326735937470183  0.9420009569294903  F  F  F
  0.4840489981675884  0.4030124871207253  0.4792470974574445  T  T  T
  0.4680793040038568  0.3432656065856124  0.4951985192652392  T  T  T
  0.4779312430663561  0.4673593839451153  0.4952320750342240  T  T  T
  
  0.00000000E+00  0.00000000E+00  0.00000000E+00
  0.00000000E+00  0.00000000E+00  0.00000000E+00
  0.00000000E+00  0.00000000E+00  0.00000000E+00
  0.00000000E+00  0.00000000E+00  0.00000000E+00
  0.00000000E+00  0.00000000E+00  0.00000000E+00
  0.00000000E+00  0.00000000E+00  0.00000000E+00
  0.00000000E+00  0.00000000E+00  0.00000000E+00
  0.00000000E+00  0.00000000E+00  0.00000000E+00
  0.00000000E+00  0.00000000E+00  0.00000000E+00
  0.00000000E+00  0.00000000E+00  0.00000000E+00
  0.00000000E+00  0.00000000E+00  0.00000000E+00
  0.00000000E+00  0.00000000E+00  0.00000000E+00
  0.00000000E+00  0.00000000E+00  0.00000000E+00
  0.00000000E+00  0.00000000E+00  0.00000000E+00
  0.00000000E+00  0.00000000E+00  0.00000000E+00
  0.00000000E+00  0.00000000E+00  0.00000000E+00
  0.00000000E+00  0.00000000E+00  0.00000000E+00
  0.00000000E+00  0.00000000E+00  0.00000000E+00
  0.00000000E+00  0.00000000E+00  0.00000000E+00
  0.00000000E+00  0.00000000E+00  0.00000000E+00
  0.00000000E+00  0.00000000E+00  0.00000000E+00
  0.00000000E+00  0.00000000E+00  0.00000000E+00
  0.00000000E+00  0.00000000E+00  0.00000000E+00
  0.00000000E+00  0.00000000E+00  0.00000000E+00
  0.00000000E+00  0.00000000E+00  0.00000000E+00
  0.00000000E+00  0.00000000E+00  0.00000000E+00
  0.00000000E+00  0.00000000E+00  0.00000000E+00
  0.00000000E+00  0.00000000E+00  0.00000000E+00
  0.00000000E+00  0.00000000E+00  0.00000000E+00
  0.00000000E+00  0.00000000E+00  0.00000000E+00
  0.00000000E+00  0.00000000E+00  0.00000000E+00
  0.00000000E+00  0.00000000E+00  0.00000000E+00
  0.00000000E+00  0.00000000E+00  0.00000000E+00
  0.00000000E+00  0.00000000E+00  0.00000000E+00
  0.00000000E+00  0.00000000E+00  0.00000000E+00
  0.00000000E+00  0.00000000E+00  0.00000000E+00
  0.00000000E+00  0.00000000E+00  0.00000000E+00
  0.00000000E+00  0.00000000E+00  0.00000000E+00
  0.00000000E+00  0.00000000E+00  0.00000000E+00
  0.00000000E+00  0.00000000E+00  0.00000000E+00
  0.00000000E+00  0.00000000E+00  0.00000000E+00
  0.00000000E+00  0.00000000E+00  0.00000000E+00
  0.00000000E+00  0.00000000E+00  0.00000000E+00
  0.00000000E+00  0.00000000E+00  0.00000000E+00
  0.00000000E+00  0.00000000E+00  0.00000000E+00
  0.00000000E+00  0.00000000E+00  0.00000000E+00
  0.00000000E+00  0.00000000E+00  0.00000000E+00
  0.00000000E+00  0.00000000E+00  0.00000000E+00
  0.00000000E+00  0.00000000E+00  0.00000000E+00
  0.00000000E+00  0.00000000E+00  0.00000000E+00
  0.00000000E+00  0.00000000E+00  0.00000000E+00
  0.00000000E+00  0.00000000E+00  0.00000000E+00
  0.00000000E+00  0.00000000E+00  0.00000000E+00
  0.00000000E+00  0.00000000E+00  0.00000000E+00
  0.00000000E+00  0.00000000E+00  0.00000000E+00
  0.00000000E+00  0.00000000E+00  0.00000000E+00
  0.00000000E+00  0.00000000E+00  0.00000000E+00
  0.00000000E+00  0.00000000E+00  0.00000000E+00
  0.00000000E+00  0.00000000E+00  0.00000000E+00
  0.00000000E+00  0.00000000E+00  0.00000000E+00
  0.00000000E+00  0.00000000E+00  0.00000000E+00
  0.00000000E+00  0.00000000E+00  0.00000000E+00
  0.00000000E+00  0.00000000E+00  0.00000000E+00
  0.00000000E+00  0.00000000E+00  0.00000000E+00
  0.00000000E+00  0.00000000E+00  0.00000000E+00
  0.00000000E+00  0.00000000E+00  0.00000000E+00
  0.00000000E+00  0.00000000E+00  0.00000000E+00
  0.00000000E+00  0.00000000E+00  0.00000000E+00
  0.00000000E+00  0.00000000E+00  0.00000000E+00
  0.00000000E+00  0.00000000E+00  0.00000000E+00
  0.00000000E+00  0.00000000E+00  0.00000000E+00
  0.00000000E+00  0.00000000E+00  0.00000000E+00
  0.00000000E+00  0.00000000E+00  0.00000000E+00
  0.00000000E+00  0.00000000E+00  0.00000000E+00
  0.00000000E+00  0.00000000E+00  0.00000000E+00
  0.00000000E+00  0.00000000E+00  0.00000000E+00
  0.00000000E+00  0.00000000E+00  0.00000000E+00
  0.00000000E+00  0.00000000E+00  0.00000000E+00
  0.00000000E+00  0.00000000E+00  0.00000000E+00
  0.00000000E+00  0.00000000E+00  0.00000000E+00
  0.00000000E+00  0.00000000E+00  0.00000000E+00