 running  256 mpi-ranks, with    1 threads/rank, on   14 nodes
 distrk:  each k-point on  128 cores,    2 groups
 distr:  one band on    4 cores,   32 groups
 vasp.6.4.1 05Apr23 (build Jun 14 2024 13:38:54) complex                         
 POSCAR found type information on POSCAR C Se
 POSCAR found :  2 types and     365 ions
 Reading from existing POTCAR
 -----------------------------------------------------------------------------
|                                                                             |
|           W    W    AA    RRRRR   N    N  II  N    N   GGGG   !!!           |
|           W    W   A  A   R    R  NN   N  II  NN   N  G    G  !!!           |
|           W    W  A    A  R    R  N N  N  II  N N  N  G       !!!           |
|           W WW W  AAAAAA  RRRRR   N  N N  II  N  N N  G  GGG   !            |
|           WW  WW  A    A  R   R   N   NN  II  N   NN  G    G                |
|           W    W  A    A  R    R  N    N  II  N    N   GGGG   !!!           |
|                                                                             |
|     You use a magnetic or noncollinear calculation, but did not specify     |
|     the initial magnetic moment with the MAGMOM tag. Note that a            |
|     default of 1 will be used for all atoms. This ferromagnetic setup       |
|     may break the symmetry of the crystal, in particular it may rule        |
|     out finding an antiferromagnetic solution. Thence, we recommend         |
|     setting the initial magnetic moment manually or verifying carefully     |
|     that this magnetic setup is desired.                                    |
|                                                                             |
 -----------------------------------------------------------------------------

 scaLAPACK will be used
 Reading from existing POTCAR
 -----------------------------------------------------------------------------
|                                                                             |
|               ----> ADVICE to this user running VASP <----                  |
|                                                                             |
|     You have a (more or less) 'large supercell' and for larger cells it     |
|     might be more efficient to use real-space projection operators.         |
|     Therefore, try LREAL= Auto in the INCAR file.                           |
|     Mind: If you want to do very accurate calculations, keep the            |
|     reciprocal projection scheme (i.e. LREAL=.FALSE.).                      |
|                                                                             |
 -----------------------------------------------------------------------------

 LDA part: xc-table for Pade appr. of Perdew
 found WAVECAR, reading the header
 POSCAR, INCAR and KPOINTS ok, starting setup
 FFT: planning ... GRIDC
 FFT: planning ... GRID_SOFT
 FFT: planning ... GRID
 reading WAVECAR
 reading wavefunctions of collinear run, up
 reading wavefunctions of collinear run, down
 the WAVECAR file was read successfully
 reading imaginary part of occupancies ...
 charge-density read from file: 02_SCF                                  
 reading imaginary part of occupancies ...
 magnetization density read from file 1
 entering main loop
       N       E                     dE             d eps       ncg     rms          rms(c)
DAV:   1    -0.331020606906E+04   -0.33102E+04   -0.16306E-01  7424   0.249E-01    0.808E-02
DAV:   2    -0.331020625287E+04   -0.18380E-03   -0.27820E-03  8224   0.329E-02    0.487E-02
DAV:   3    -0.331020624580E+04    0.70710E-05   -0.10362E-04  9600   0.699E-03    0.231E-02
DAV:   4    -0.331020623011E+04    0.15686E-04   -0.27405E-06  7936   0.293E-03    0.252E-03
DAV:   5    -0.331020622918E+04    0.93586E-06    0.19709E-06  6016   0.130E-03
   1 F= -.33242847E+04 E0= -.33242847E+04  d E =-.234188E-16  mag=    -0.0000    -0.0000     0.0000
 writing wavefunctions
 PROFILE, used timers:     336
