Ge Se                                   
    1.000000000000000     
    12.4527802936423040   -0.0000052904176652   -0.0000042754982329
    -0.0000053183866111   12.5186141562579998    0.0000018393317073
    -0.0000048981739446    0.0000020961269676   11.0826621624643931
   Ge   Se
    36    36
Direct
  0.0688777835044831  0.0491144833680934  0.1286143605684416
  0.2327157052428532  0.8763855449311180  0.3934027611844613
  0.5941036685319858  0.1885526648147220  0.3507516377768738
  0.5745182966203117  0.5208018255872915  0.3735914218367142
  0.5603959712964652  0.8850091297603981  0.3460534905631221
  0.8927895092640057  0.1996222280646620  0.3955232319887045
  0.8917127525114310  0.5461035489231492  0.3958519680799455
  0.9171757133261735  0.8394147103601668  0.3604691755208407
  0.0842078940819064  0.1558347522754602  0.6229302783989894
  0.0622712658661513  0.4697546686919551  0.6171431729202723
  0.0826896122722900  0.8169067334268973  0.6189243216945286
  0.4037139689867359  0.1501263817827621  0.6289635679156902
  0.4305047209434463  0.5053948023558235  0.6406284270342084
  0.4151954019700668  0.8154814863438915  0.6192998481030756
  0.7485073141587932  0.1472588164555191  0.6299462103438458
  0.7395679969759499  0.4956860229085791  0.6422468617290846
  0.2788411982474273  0.5239584783816866  0.3881684143677404
  0.2314054609337433  0.2187766173203940  0.3709603658808760
  0.7515533218700838  0.8422158144910057  0.6225233578243206
  0.9264807695978021  0.6559815779626845  0.8922929315886847
  0.9301140822486076  0.0007367456553808  0.8745549904489494
  0.0554138336613619  0.3751633574548308  0.1439133530821621
  0.1077568694831967  0.6971832881544486  0.1149249110885577
  0.3965508738431112  0.0615578796471681  0.1132650968868205
  0.4224268267888291  0.3672350369718274  0.1338080109551498
  0.7650446412959298  0.0166346139807274  0.1150264356999600
  0.7551411417189513  0.3718652282118740  0.1246534535157977
  0.4007474033511400  0.6984792620625200  0.1370708126146738
  0.2632174553471316  0.3458096901728069  0.8639112196501841
  0.2439883601065844  0.6484985145606501  0.8752104481093994
  0.2431192508804472  0.9911477153243666  0.8827361483745335
  0.5760380607219702  0.3199034839369475  0.8890639378663820
  0.6039166297488165  0.6807651714262519  0.8635242587231247
  0.5534626279397585  0.9810976065452195  0.8569197512731463
  0.8992087840700833  0.3035338478743270  0.8874419589975560
  0.7328033636878430  0.6956721517448585  0.1362419110718207
  0.8985555207922786  0.0117026894740206  0.6465361019218108
  0.2036972705532776  0.3360678999388185  0.6355183376399509
  0.2408775156982443  0.6661074657285937  0.6461785369238413
  0.5505283529830649  0.0049059209539806  0.6231067402429815
  0.5688438400507749  0.3537867859341475  0.6592023378080469
  0.5743721008218472  0.6784170737753783  0.6378549422494189
  0.8887099607951754  0.3459327128967686  0.6469025114442672
  0.7248168964722552  0.0235696133162335  0.3485417775004009
  0.0661899328448072  0.9942665547447902  0.3545052389113579
  0.0624469559497243  0.3481011604945792  0.3732436813720028
  0.0377172286351026  0.6843118831436072  0.3439686406732676
  0.4038096062279308  0.0226084246029643  0.3457209039242173
  0.3984624432962534  0.3473279761598462  0.3709372060024165
  0.4171560656329945  0.6719532968229274  0.3639435377284599
  0.2393738041765232  0.0181210556723883  0.6461933987634723
  0.9018814307966707  0.7060038560405602  0.6516707587796944
  0.8694096865786776  0.8454684296155293  0.1358796091680077
  0.2171660069109080  0.1919898549747145  0.1366439890950488
  0.8996359818200261  0.1773868660014415  0.1675906863382082
  0.7444396670977369  0.3481112550000844  0.3487568266748795
  0.0587906545429249  0.1659326534217413  0.8606793309738521
  0.0648576992215055  0.5206850311236479  0.8659817631177802
  0.0819383682067141  0.8600439493264886  0.8437717953133870
  0.4030979789274269  0.1946066423396005  0.8472414627600244
  0.3942978016204464  0.5012341035459613  0.8724138087596671
  0.3961076879608854  0.8324085571035980  0.8474408736673311
  0.7263987367031106  0.1777525724922100  0.8618536457795898
  0.7509586048889503  0.5313627671438397  0.8581574999623669
  0.7172439877455332  0.8615262461465392  0.8529216150874035
  0.2311506893387616  0.5114536310256952  0.1548941839809643
  0.2382969780642554  0.8420985300099559  0.1480788686329078
  0.5496928099590335  0.1889800903580010  0.1358120110636278
  0.5785693323043475  0.5105302704264858  0.1431356778490382
  0.5629719409520888  0.8252265139451893  0.1270581486903382
  0.8883493320546521  0.5160280371162500  0.1654236351963547
  0.7181764396540586  0.6723902069690268  0.3787294474212359
 
  0.00000000E+00  0.00000000E+00  0.00000000E+00
  0.00000000E+00  0.00000000E+00  0.00000000E+00
  0.00000000E+00  0.00000000E+00  0.00000000E+00
  0.00000000E+00  0.00000000E+00  0.00000000E+00
  0.00000000E+00  0.00000000E+00  0.00000000E+00
  0.00000000E+00  0.00000000E+00  0.00000000E+00
  0.00000000E+00  0.00000000E+00  0.00000000E+00
  0.00000000E+00  0.00000000E+00  0.00000000E+00
  0.00000000E+00  0.00000000E+00  0.00000000E+00
  0.00000000E+00  0.00000000E+00  0.00000000E+00
  0.00000000E+00  0.00000000E+00  0.00000000E+00
  0.00000000E+00  0.00000000E+00  0.00000000E+00
  0.00000000E+00  0.00000000E+00  0.00000000E+00
  0.00000000E+00  0.00000000E+00  0.00000000E+00
  0.00000000E+00  0.00000000E+00  0.00000000E+00
  0.00000000E+00  0.00000000E+00  0.00000000E+00
  0.00000000E+00  0.00000000E+00  0.00000000E+00
  0.00000000E+00  0.00000000E+00  0.00000000E+00
  0.00000000E+00  0.00000000E+00  0.00000000E+00
  0.00000000E+00  0.00000000E+00  0.00000000E+00
  0.00000000E+00  0.00000000E+00  0.00000000E+00
  0.00000000E+00  0.00000000E+00  0.00000000E+00
  0.00000000E+00  0.00000000E+00  0.00000000E+00
  0.00000000E+00  0.00000000E+00  0.00000000E+00
  0.00000000E+00  0.00000000E+00  0.00000000E+00
  0.00000000E+00  0.00000000E+00  0.00000000E+00
  0.00000000E+00  0.00000000E+00  0.00000000E+00
  0.00000000E+00  0.00000000E+00  0.00000000E+00
  0.00000000E+00  0.00000000E+00  0.00000000E+00
  0.00000000E+00  0.00000000E+00  0.00000000E+00
  0.00000000E+00  0.00000000E+00  0.00000000E+00
  0.00000000E+00  0.00000000E+00  0.00000000E+00
  0.00000000E+00  0.00000000E+00  0.00000000E+00
  0.00000000E+00  0.00000000E+00  0.00000000E+00
  0.00000000E+00  0.00000000E+00  0.00000000E+00
  0.00000000E+00  0.00000000E+00  0.00000000E+00
  0.00000000E+00  0.00000000E+00  0.00000000E+00
  0.00000000E+00  0.00000000E+00  0.00000000E+00
  0.00000000E+00  0.00000000E+00  0.00000000E+00
  0.00000000E+00  0.00000000E+00  0.00000000E+00
  0.00000000E+00  0.00000000E+00  0.00000000E+00
  0.00000000E+00  0.00000000E+00  0.00000000E+00
  0.00000000E+00  0.00000000E+00  0.00000000E+00
  0.00000000E+00  0.00000000E+00  0.00000000E+00
  0.00000000E+00  0.00000000E+00  0.00000000E+00
  0.00000000E+00  0.00000000E+00  0.00000000E+00
  0.00000000E+00  0.00000000E+00  0.00000000E+00
  0.00000000E+00  0.00000000E+00  0.00000000E+00
  0.00000000E+00  0.00000000E+00  0.00000000E+00
  0.00000000E+00  0.00000000E+00  0.00000000E+00
  0.00000000E+00  0.00000000E+00  0.00000000E+00
  0.00000000E+00  0.00000000E+00  0.00000000E+00
  0.00000000E+00  0.00000000E+00  0.00000000E+00
  0.00000000E+00  0.00000000E+00  0.00000000E+00
  0.00000000E+00  0.00000000E+00  0.00000000E+00
  0.00000000E+00  0.00000000E+00  0.00000000E+00
  0.00000000E+00  0.00000000E+00  0.00000000E+00
  0.00000000E+00  0.00000000E+00  0.00000000E+00
  0.00000000E+00  0.00000000E+00  0.00000000E+00
  0.00000000E+00  0.00000000E+00  0.00000000E+00
  0.00000000E+00  0.00000000E+00  0.00000000E+00
  0.00000000E+00  0.00000000E+00  0.00000000E+00
  0.00000000E+00  0.00000000E+00  0.00000000E+00
  0.00000000E+00  0.00000000E+00  0.00000000E+00
  0.00000000E+00  0.00000000E+00  0.00000000E+00
  0.00000000E+00  0.00000000E+00  0.00000000E+00
  0.00000000E+00  0.00000000E+00  0.00000000E+00
  0.00000000E+00  0.00000000E+00  0.00000000E+00
  0.00000000E+00  0.00000000E+00  0.00000000E+00
  0.00000000E+00  0.00000000E+00  0.00000000E+00
  0.00000000E+00  0.00000000E+00  0.00000000E+00
  0.00000000E+00  0.00000000E+00  0.00000000E+00
