Ge Se 
 1.0000000000000000
    12.4487240659793272   -0.0000007626168375   -0.0000008179909888
    -0.0000007669410479   12.5193065244741533    0.0000021565320821
    -0.0000009383110575    0.0000024597934764   11.0931111940274896
 Ge  Se 
  36  36
Cartesian
  1.0563999211314636  0.1511491416548841  1.3084754014772368
  3.0786556019011564 10.9307055217255922  4.1015068871318556
  6.9956107863783963  2.4890827140428082  4.1028277255705650
  7.2254587520855473  6.6708382679741138  4.1324510024822461
  6.9800510615210163 10.9637067332842015  4.2297527420233694
 11.4903235089091442  2.3643738656013311  4.2049698292227786
 11.1662450070645285  6.7260576201006925  3.9638588665070462
 11.2384328399070981 10.9032564228371811  4.3221097381170202
  0.6681942049328984  1.9051463277003595  7.0765926454987573
  0.9157236965175253  6.1675994971353987  6.6895017268667960
  1.0455758184288140 10.5556176127060244  7.1768699326407814
  5.3784991932709989  2.2634294145654876  7.0017695272218763
  5.0411268528839148  6.1538985135261575  7.0363369083992895
  5.0192939969422534 10.3045523669332137  6.8631246327561222
  9.3711755221349957  2.0470593671418320  6.7262078063102297
  9.5907277058963007  6.2189283414829744  6.9800417531373968
  2.7115333345066674  6.8446939982124944  4.1230965424131503
  3.1220979673840703  2.3892435473500138  4.0535904564388057
  9.2042719162713311 10.0002855710723999  6.9452938664208137
 11.6774216553546921  8.1846163619111483  9.4898572480155643
 11.2108886300860870 12.1910179942874528  9.9385739167869183
  0.7999123150488430  4.5155845162993051  1.4103775785100574
  0.5953116771288153  8.7512080076792813  1.4331797770941321
  5.1360954804380548  0.3052202055804996  1.4719279904800886
  4.7517251544446841  4.7670392335205696  1.2297792088870458
  9.0615241330026297  0.5822687698436657  1.2586385704353824
  9.2574154155279285  4.3630647646767251  1.5769107518165391
  5.0619563640451188  8.6517231571111743  1.5218530204978180
  2.8971484058010257  4.1691627335813726  9.4094933355534440
  2.9214835525089802  8.4168083267188099  9.5557234126744692
  3.0668777597168453 12.6097456311298721  9.5712588519291888
  7.3238387724774556  4.3267725056557884  9.5951798419453382
  7.1425497986798652  8.1447908532393480  9.5202010116309150
  7.2376932579195099 12.4533463985580450  9.5258881021956743
 11.2994679894182255  3.9933064362066646  9.7744331587365103
  9.2490677165768371  8.8748740598068689  1.2288833577290434
 11.2132896752690421  0.1923508423550143  7.1791237909332226
  3.1160302088396996  4.3255416525836363  6.8573702660947724
  2.9223054400779644  8.6425478726631884  7.0039480055189216
  7.2276103819609885  0.3947951123117786  6.9982027326838496
  6.9718841159529825  4.3379200869335257  7.1471362631204132
  7.0436487400895995  8.4502032769867608  7.0307341621163797
 11.4114735035620569  4.5080249956014571  7.1485384748617014
  8.9998921711992761  0.1878733864404699  3.8638876956370316
  0.6373404008084774  0.0168253124409491  3.8813662834056228
  0.8622128819205358  4.2682458233214557  3.9554842956411393
  0.5117416676496850  8.4754155910677653  4.0715911046159174
  4.9892555735468145  0.0938580441734946  4.1001874583056725
  4.8431469804976857  4.2415061298748959  3.7126013755919609
  4.8681650810729247  8.5528526853786175  3.9919593336738006
  2.7309920077863650  0.0277681128785781  7.0342853313218141
 11.1673399278627077  8.4328130198042786  7.1429964413937652
 11.0222377137061063 10.6060266459508412  1.6792649633089425
  2.9168077554233243  2.0766781375109713  1.5659475360224453
 11.0099789270984676  2.3450513906904034  1.6207265014919350
  8.8319830417710303  4.2609919157751444  3.9121379651505390
  0.9256579586513221  2.3960814319051735  9.5611399507721782
  1.0750437354568538  6.5108127631292234  9.1955215502227752
  0.6820027433198403 10.5347649860713659  9.6048257459138267
  4.7648776322337474  2.3137280845799921  9.4800773632830495
  4.9661240250474128  6.6583551604324027  9.5395271555708110
  5.1212627136781235 10.8796415844320453  9.2402772911380069
  9.2468725894604322  2.4879399239194697  9.4186742711609863
  9.2718626862238605  6.3676754323647939  9.5587821257643739
  9.1779373211025241 10.6191317853321845  9.4290541991577772
  2.5488217433061968  6.3470598983553463  1.7029466724186291
  2.6298237273014875 10.6586822891531394  1.6516270588247424
  7.0346432473795737  2.0947338353141549  1.4076826704030061
  6.6149241295276902  6.4861654988160700  1.5334017718227069
  7.0072038430995072 10.4136017312739053  1.6319242000922762
 11.2228154567319560  6.2394532483721523  1.4916881055712936
  9.0812088680394680  8.3413434120621428  3.7609538764359045
