 C  S  O 
 1.0000000000000000
    32.3722991942999982    0.0000000000000000    0.0000000000000000
     0.0000000000000000   19.9214134216000005    0.0000000000000000
     0.0000000000000000    0.0000000000000000   40.4480476378999967
 C   S   O  
 364   1   1
Cartesian
 12.0044860180756601 10.7200690437463653  0.0956712626647951
 11.9336200310217322 10.8302638718424049  2.5397554155644975
 10.9408350074444183 11.8517879074644075  2.4665969896267255
 10.3730540435383443 12.1795401036030064  1.2063988299058337
  8.9919570228837884 12.5278049386992478  1.1328059445161627
 11.8589824697899093 10.9380371730793868  4.9836573568488793
 10.8319212648010694 11.9250504906856847  4.9109286245087223
 10.2530494261898433 12.2330836122272597  3.6508019754963459
  8.8607485774241148 12.5334586544933497  3.5772647193013634
  8.2064543546225561 12.4910730485226438  2.3170660632659628
  6.8641861949522065 12.0144128949372746  2.2437438319294420
  6.3298945108533706 11.6340550668375808  0.9834031195592478
  5.4377350850779376 10.5236188371730108  0.9102415144493554
 11.7807828800101664 11.0430555869836837  7.4272175870660151
 10.7207489319636693 11.9943185647732413  7.3550794700908195
 10.1316344613379474 12.2825695451169281  6.0951874930960992
  8.7297318655110221 12.5348856353137759  6.0220166765497654
  8.0771852143017249 12.4697481557746350  4.7618616611061997
  6.7523030032581977 11.9468723592095731  4.6888451348503155
  6.2312847778305427 11.5484587744312694  3.4283752829094851
  5.3781403062464843 10.4078795592393494  3.3549469745370368
  5.1431781277981541  9.7952706433781600  2.0948695885193040
  5.0143322674360746  8.3766130790462050  2.0214971903573109
  5.1354015378282725  7.7314654080776180  0.7614474232562977
  5.7690106967953314  6.4557335683778101  0.6886164961760425
 11.7010154510642703 11.1455509598296398  9.8705864386445636
 10.6085547012820101 12.0598019406274908  9.7993276187672045
 10.0089949527474609 12.3274627996430066  8.5398784860266730
  8.5993204830039414 12.5310489333464776  8.4672659199270761
  7.9491075499160013 12.4437610103655185  7.2068215469325674
  6.6432634182818679 11.8751766330515309  7.1340239005072235
  6.1359270879234131 11.4594493483284996  5.8735698756741277
  5.3226692272977214 10.2899188940133222  5.7998182033102816
  5.1091634666254153  9.6696092116452448  4.5396899147429286
  5.0291444845372828  8.2474142274926123  4.4662854075990399
  5.1721131509673368  7.6069273706375098  3.2060362607051283
  5.8488738959238979  6.3535443861170666  3.1329532347006421
  6.3064473737238780  5.8828984255622352  1.8731153007530106
  7.5401102549773853  5.1708306176537775  1.7996793397173789
  8.1768209176178406  5.0104455405633290  0.5398573593616486
  9.6005183292710718  5.0529550854392582  0.4670301783668413
 12.0117487143589603 10.7163089674600265 13.5721548321995336
 11.6200495691044132 11.2453656900105337 12.3141203440133147
 10.4960452710502778 12.1201134493159906 12.2442134311247131
  9.8862122271091124 12.3668648997986654 10.9845985604602596
  8.4705577993310133 12.5204545393883926 10.9127339259582250
  7.8229898103814666 12.4122330111893060  9.6524511358839256
  6.5372746302103524 11.7987650694400550  9.5795129167414874
  6.0445140372192583 11.3661883931145553  8.3190607524986167
  5.2720190759244074 10.1694082018343650  8.2448149290924437
  5.0797932752178969  9.5424591531925866  6.9843713610617844
  5.0485093557197711  8.1184545812259206  6.9109043780680040
  5.2130210835559794  7.4834228418219491  5.6507455263535231
  5.9322495446382852  6.2537468600659816  5.5774488978295622
  6.4057991951465381  5.7994124083970826  4.3174929213199773
  7.6631065396934819  5.1301453963319910  4.2441291000815893
  8.3049214428464317  4.9918923338061187  2.9841673506316013
  9.7263843620684032  5.0835391691530081  2.9112306691059908
 10.3451026063535050  5.3032171699888986  1.6514959332190620
 11.5062348789404627  6.1282409486989682  1.5778845338338305
 11.9176226463387049  6.6397491035956078  0.3180557041333995
 12.4737599660336471  7.9510505083187937  0.2450337553400248
 11.9497533483090113 10.8229413882597729 16.0157558079670039
 11.5379769957320146 11.3405975232527574 14.7568398074101239
 10.3834079047121328 12.1712611131253006 14.6889827464274028
  9.7644938991892065 12.3998511380907477 13.4304331308975282
  8.3435072300543638 12.5022235083680666 13.3589011859170910
  7.6996941836192034 12.3729785118026552 12.0990381486060823
  6.4356410670518125 11.7159807146291683 12.0253694279728585
  5.9570722884264153 11.2684420522524782 10.7643581991573569
  5.2252176094899445 10.0466447405884445 10.6895711390889492
  5.0541422964304221  9.4140388777265205  9.4290200655973724
  5.0712920093071121  7.9896110204051727  9.3554197327414084
  5.2582863386300378  7.3609539527759669  8.0954046632495622
  6.0191196684639738  6.1566873888850271  8.0219916591518796
  6.5077407833162439  5.7188913680513060  6.7618658206504740
  7.7872455887054182  5.0929464260202950  6.6888413997524054
  8.4334522875034423  4.9771736221838783  5.4287677479605314
  9.8508821258568542  5.1179231475785745  5.3556326789896698
 10.4618227920218629  5.3589689509428569  4.0957969160166474
 11.5937069610016721  6.2235799822754956  4.0220215864990543
 11.9873923989704565  6.7491160357467264  2.7622401085653454
 12.4979816199315188  8.0788588102095247  2.6892017811883431
 12.5580807091615885  8.7323839427850771  1.4293705297073689
 12.2957904739181121 10.1324282904912621  1.3556747688576269
 11.8925461527446377 10.9063462040876153 18.4601356957438334
 11.4559372336792418 11.4189051155667869 17.2049333626216416
 10.2681430642330920 12.2047007526231361 17.1360757207681367
  9.6428886137448995 12.4178215122933917 15.8793645205312561
  8.2187577734598083 12.4712734276025969 15.8060869476976382
  7.5791116400148324 12.3242928430691077 14.5450549028288059
  6.3374636881532131 11.6271928992481026 14.4703965076026169
  5.8732551323806570 11.1658407465825249 13.2093030029673884
  5.1808269274539587  9.9208701813490823 13.1341981358865070
  5.0318127667493595  9.2836467992167684 11.8736040903450419
  5.0965028943595980  7.8606330548843317 11.7998033248144765
  5.3061033844245102  7.2392553960319752 10.5395767633549333
  6.1083040378129532  6.0622935854381357 10.4661464755997944
  6.6122952535304931  5.6416358015040808  9.2065243120250777
  7.9129976581671633  5.0600394688735362  9.1340751442312449
  8.5625704315230262  4.9667233693610706  7.8735579805761384
  9.9741241088471515  5.1565336749269841  7.8001681047911253
 10.5762336193651834  5.4184923918085248  6.5401070783227597
 11.6776242881025833  6.3218299146785526  6.4661385174289974
 12.0529912894400795  6.8607331325683436  5.2063701599808221
 12.5170856605046765  8.2073624740078213  5.1330693252630688
 12.5548959269259228  8.8627171863150682  3.8733637340357356
 12.2448404539485196 10.2528889725454704  3.7996193370941116
 11.8371930579425957 11.0551569718363218 20.9164754441407084
 11.3678792145205669 11.4948450899003891 19.6671136747277018
 10.1447942544812406 12.2237338651543901 19.5852718095256080
  9.5145586089671834 12.4135782078388068 18.3245166431378088
  8.0939279103310486 12.4297472664142852 18.2499469107136179
  7.4589777726533226 12.2682935955523504 16.9892863899244588
  6.2374654644805396 11.5354548808347541 16.9143871966397512
  5.7903458554892708 11.0593156111372011 15.6540634910512466
  5.1376953238801271  9.7930890326032269 15.5790461038660126
  5.0113871517838335  9.1514910166837566 14.3178198876078753
  5.1237600845082820  7.7318719447596553 14.2438748873147407
  5.3551703637436434  7.1183280615942230 12.9839085921082251
  6.1990583932471903  5.9702369228204777 12.9106156609544360
  6.7189513460813242  5.5685633735512141 11.6513593059335854
  8.0394326407064725  5.0338115225491400 11.5794180620421194
  8.6918376024663164  4.9615428589413737 10.3187064514345046
 10.0963083832046117  5.2002212736298299 10.2451270313344338
 10.6887148534281344  5.4822843527172802  8.9847778624833570
 11.7581111627386932  6.4232761482549909  8.9103802536487766
 12.1144241717669541  6.9746733501280787  7.6501926318842219
 12.5318092230597653  8.3363176202147180  7.5763079988144968
 12.5470070532704057  8.9926958999223672  6.3168593437930705
 12.1896296899004586 10.3715191212929927  6.2433093494361946
 11.7338724878089380 11.1520457588381117 23.3669392951696651
 11.2662112198312059 11.5923482406082332 22.0939182149409774
 10.0181580140157198 12.2815016362742302 22.0215685690196814
  9.3844242334024699 12.4371194099834828 20.7653536438154731
  7.9572649951540120 12.4101359135916223 20.6914827949012121
  7.3339416295427045 12.2140887544091239 19.4340302156616573
  6.1369291217565909 11.4436893533482404 19.3588705481771832
  5.7079194164371092 10.9505858701069965 18.0977090252832049
  5.0987575811242030  9.6645841599354565 18.0234178541493932
  4.9928621772574839  9.0188995354945565 16.7625714643573431
  5.1539577611278968  7.6031661712217415 16.6887274720306884
  5.4074159760187195  6.9985655327801366 15.4288683645811862
  6.2915597560119609  5.8814142417780193 15.3555291885211052
  6.8267910401218872  5.4993799677975677 14.0957914112393556
  8.1660851774392409  5.0144440189794262 14.0238410527901891
  8.8209946772929602  4.9637513857836373 12.7645056423140044
 10.2174943490799119  5.2505449367655403 12.6912588294032815
 10.7991755951882329  5.5517194639060143 11.4293997227283466
 11.8354738842480938  6.5281461272329446 11.3541632939571553
 12.1728597381328232  7.0907781676952641 10.0937456617068051
 12.5440771989824569  8.4659431678720960 10.0189211785058454
 12.5356496404603917  9.1223731068048561  8.7598382175772400
 12.1314183663037074 10.4881425987505885  8.6867257315058719
 11.6318662146883884 11.2448812435076402 25.8077232928302429
 11.1651508001405180 11.6989925833886108 24.5417554316974353
  9.8959678527704344 12.3547093790803988 24.4667675980342985
  9.2536481287040697 12.4723261730169064 23.2068847852951770
  7.8326841047241791 12.3845328835088111 23.1339558302990334
  7.2117633744037066 12.1676260150869631 21.8748613114299921
  6.0428867275172875 11.3526646660895025 21.8015199871764054
  5.6272033503566758 10.8453907676158234 20.5429321506420273
  5.0626757978684829  9.5356231367509494 20.4692218891024211
  4.9809634139946910  8.8862192637456783 19.2091534794322705
  5.1916116519842141  7.4773970353510499 19.1349563663038573
  5.4648122483639865  6.8813952589288387 17.8738786574729680
  6.3875397240477465  5.7967358192966172 17.8002134753687393
  6.9344781756511429  5.4327215229897785 16.5407244426577655
  8.2923279168655455  4.9984607831124039 16.4682124891512842
  8.9499054852526374  4.9751976993117202 15.2099788850922000
 10.3347634495221339  5.3116731652404372 15.1371187048695202
 10.9079607516348318  5.6260540423849790 13.8740178122116724
 11.9138394072030138  6.6354938168789923 13.7983334250877672
 12.2292105493036711  7.2093215165107392 12.5374086444113022
 12.5539339412089106  8.5959078854946913 12.4609166490252647
 12.5219862881051629  9.2519779909115840 11.2016769764857873
 12.0716023683091436 10.6028239077422075 11.1294631983372856
 11.5371564556003605 11.3393792977407166 28.2499463901159586
 11.0508450295755019 11.7778213475306508 26.9893090120523205
  9.7685135005084387 12.3986843052129281 26.9131462196306899
  9.1242211094636758 12.5058867244831227 25.6494946254385141
  7.7062819244148342 12.3603410967848788 25.5769790549757126
  7.0949042695305513 12.1179486390911286 24.3188687572312219
  5.9566544912872885 11.2596241117968159 24.2462157949314587
  5.5591163419755949 10.7350403965575243 22.9874813833674025
  5.0420358617765650  9.4083718943431638 22.9147039288680574
  4.9775525818578990  8.7552333546673857 21.6540949489318812
  5.2384333080444492  7.3544685325113797 21.5799247129224021
  5.5274669721756640  6.7673722690514015 20.3200625782635989
  6.4899277361154448  5.7146372588925596 20.2461345738944516
  7.0482288413220076  5.3722934294629896 18.9864561263998937
  8.4202448007894368  4.9891134922924367 18.9132224851165063
  9.0765400261830624  4.9906890852687775 17.6530408016785074
 10.4447363531147239  5.3838515594841798 17.5790457302324263
 11.0114237805298938  5.7111813652744452 16.3204655630580540
 11.9935996108788530  6.7491973343240375 16.2465499542421981
 12.2870789198672092  7.3299804837964277 14.9795842507320955
 12.5625671034290818  8.7247984547680648 14.9000972268354097
 12.5076710729569527  9.3805996687796700 13.6426056884602254
 11.4438966406940352 11.4326297756367570 30.6936618802122219
 10.9405489518601797 11.8526552095487450 29.4331919390898165
  9.6398061388950236 12.4318938360042157 29.3577915452610476
  8.9917769161925865 12.5234508854064863 28.0956353717463010
  7.5793731931346091 12.3299769436687772 28.0223125284213914
  6.9792938940536420 12.0638045088368155 26.7627484111660188
  5.8755706064097764 11.1635039467353003 26.6904766085000986
  5.4962315014676264 10.6256068415125888 25.4312526848608904
  5.0262741052166913  9.2805513121211582 25.3591849648991037
  4.9845515834930501  8.6251752687350933 24.1000185551470878
  5.2945992313662229  7.2346342478759080 24.0262205420909112
  5.6051666607058168  6.6581968829204889 22.7656015130565805
  6.6023020501609277  5.6427541667582197 22.6915425627375242
  7.1684596717951985  5.3173457758222815 21.4300496649273633
  8.5533968334040882  4.9845901804213932 21.3548621237828371
  9.2050647724157137  5.0066593213486827 20.0968429510308688
 10.5603343279407706  5.4559386623278927 20.0225063356878756
 11.1020571242332267  5.8169475201008982 18.7644461373481128
 12.0489927259509599  6.8805998453425445 18.6927215150427877
 12.3533394996019439  7.4508281025712124 17.4212172775579006
 12.5898507142028162  8.8595399243186552 17.3389339778860787
 12.4921413079406793  9.5086342464693701 16.0822772701572987
 11.3488371886736896 11.5232091803330476 33.1372641266254462
 10.8312899835112812 11.9259357192816573 31.8769180213013463
  9.5110634148157374 12.4606096468597620 31.8024956039192830
  8.8593333120666795 12.5304370761662796 30.5417860774363845
  7.4552744583285238 12.2901698760739464 30.4678180310372326
  6.8644466100142356 12.0055920623405736 29.2070018860202012
  5.7943018972266342 11.0649960717284674 29.1347909298530716
  5.4364493965958332 10.5135532565903116 27.8757765868386720
  5.0151478364960331  9.1525164016326030 27.8036842013888297
  4.9976946112452989  8.4958108286141680 26.5443479213868194
  5.3560652024069215  7.1176377395883108 26.4705320890094988
  5.6852804305474427  6.5515636486109052 25.2099631770676815
  6.7175490478117714  5.5695703231793114 25.1357246444935782
  7.2959278955145379  5.2661203219408552 23.8751687153959473
  8.6907333345238200  4.9776451834594493 23.7999388233761096
  9.3425955490410768  5.0335104282011285 22.5385592429916812
 10.6782025935368807  5.5191041494180553 22.4630331465852073
 11.2091466276094547  5.9045403617644636 21.2022689309078238
 12.1208984413037015  7.0022713508042669 21.1218258244176731
 12.4100317047504252  7.5699205322276377 19.8724072153122968
 12.7945426370013493  8.9861649901221252 19.7825942097216121
 12.5068115281653416  9.6422489968631826 18.5117637464317824
 11.2515757668285037 11.6110064079161006 35.5813457702469123
 10.7202536823694103 11.9955161911164598 34.3211610824465225
  9.3823794866515513 12.4842307860863873 34.2473234034042733
  8.7282518267351321 12.5317761375714181 32.9868032076264655
  7.3333794283138118 12.2438013073738521 32.9126589566448402
  6.7518223519714962 11.9404187314691193 31.6522042911149022
  5.7153293977910451 10.9627415807330575 31.5797263742420462
  5.3789060250741763 10.3988689865006467 30.3200882724950453
  5.0070608014372571  9.0239649717517434 30.2476285942068692
  5.0131307910824825  8.3672912844927065 28.9880939881504034
  5.4189734913183454  7.0017705719288674 28.9145120879104915
  5.7689353630748395  6.4475631805589204 27.6545481362506145
  6.8326574080166242  5.5000457246695076 27.5804631027279292
  7.4223397796894277  5.2159648469467523 26.3193932433742113
  8.8245811790837241  4.9687371357754175 26.2441089832321275
  9.4756299310731578  5.0397557788711556 24.9828641513052681
 10.8012569832194600  5.5631653261055289 24.9089167756669134
 11.3194256524393992  5.9700091204759760 23.6513344453865244
 12.1783733987994900  7.1053744980590734 23.5821855863534893
 12.4192306041901155  7.7320809821088474 22.3272626537298962
 12.5758067523425954  9.1278988350243679 22.2728567577368501
 12.6351963850086175  9.8288334462320197 21.0059691914964546
 11.1510894924049744 11.6948888246006035 38.0257939240017464
 10.6068083201090211 12.0608979155368488 36.7654452626122961
  9.2529234179265547 12.5032334002734178 36.6918478212668262
  8.5975442887752180 12.5284940850802986 35.4314676921475780
  7.2133560324650530 12.1925443598235592 35.3574485795051601
  6.6424897498928672 11.8693587124449280 34.0972407119660659
  5.6405256500240695 10.8568474678436608 34.0245218582920259
  5.3236374399100042 10.2820401471189609 32.7644012421782662
  5.0006050608101162  8.8945966006506385 32.6915619003660964
  5.0308891768662267  8.2386955931279751 31.4321318105056058
  5.4831271941058652  6.8878827032234913 31.3589479034769276
  5.8528940376436038  6.3459985805003614 30.0988027691098985
  6.9467855828300511  5.4340199301902246 30.0249714847654836
  7.5458372102723841  5.1680973633749421 28.7643375201520648
  8.9560892765907987  4.9664197120696976 28.6898739693092431
  9.6056620157706654  5.0563972670941935 27.4298600839641757
 10.9121534437647369  5.6240740504418296 27.3578445970935000
 11.4191740422037640  6.0433625842619669 26.0982032512362032
 12.2348378345734723  7.2086397578957513 26.0292402427917224
 12.4505712892334977  7.8320465968147150 24.7701262305398053
 12.5334367153161015  9.2513662367657439 24.7033543720980404
 12.4082458356178549  9.8959007647408246 23.4472209271859349
 11.0474139407789504 11.7749947124622096  0.0222089234412265
 10.4912234099380264 12.1223302353016980 39.2098881660590877
  9.1228390762251941 12.5178543452602504 39.1363158508750431
  8.4669926736411654 12.5205071527344565 37.8760964711100456
  7.0952282936837383 12.1370877172816289 37.8022394695791064
  6.5358202742040303 11.7944346515160046 36.5419227847873316
  5.5693991008663826 10.7480304881605715 36.4690972398613269
  5.2725830401133829 10.1627982844380167 35.2090227670732432
  4.9977262607961288  8.7650670881877311 35.1358850285827486
  5.0513027263245833  8.1106389685056381 33.8762134639935297
  5.5496241462742466  6.7763541678316255 33.8033237675912872
  5.9376996896111773  6.2470144103228291 32.5432297979950818
  7.0622096464135780  5.3725048027706661 32.4697466026755137
  7.6701713377405829  5.1264876859199502 31.2096890202778923
  9.0863195165565021  4.9729699338228359 31.1360223702290746
  9.7328640386760625  5.0841939387554813 29.8755993648155176
 11.0180329401763935  5.6971935669177185 29.8035759194246985
 11.5112538192146427  6.1307728071694712 28.5434196794373136
 12.2847418614602457  7.3267772176244073 28.4723474619814638
 12.4793058800388792  7.9544592569624131 27.2139307724179105
 12.5108143236260521  9.3787970878074916 27.1437641485130960
 12.3473594669779434 10.0158263518837654 25.8857647464333382
  8.3366588263928385 12.5079197362035988 40.3205762315402580
  6.9789108421208930 12.0775399792256763 40.2469430079174089
  6.4316894232606341 11.7159375319116332 38.9866112740115014
  5.5017596926278749 10.6369131188654347 38.9136706240784989
  5.2253877579555104 10.0417069760406399 37.6536720275592671
  4.9989406628923767  8.6354763711164679 37.5803421316801405
  5.0752560860716525  7.9834736909943897 36.3204209802378983
  5.6194054414768866  6.6670975973356921 36.2477638473800070
  6.0256722220183141  6.1514941836638757 34.9878737069519801
  7.1793667456086823  5.3160594962785259 34.9145556751326467
  7.7957472619541281  5.0908160880883768 33.6545232177985838
  9.2160638589568613  4.9860469050959662 33.5813167907476426
  9.8585444869829573  5.1181116676489671 32.3208626217854160
 11.1221028331080216  5.7755481253489851 32.2484221676693252
 11.5994128094916729  6.2255538431777548 30.9886788457214699
 12.3302297258074720  7.4482853881344422 30.9164510277039142
 12.5012171156433567  8.0821122138227324 29.6571601747791362
 12.4838523323530861  9.5060771634299943 29.5854557034460797
 12.2987252713490776 10.1357502902725720 28.3259298879918724
  5.1822363013328445  9.9191670890659314 40.0982222267558797
  5.0043780243130120  8.5059103199498693 40.0248162337879165
  5.1031440381699653  7.8568955711712318 38.7648686152532136
  5.6923938193413344  6.5600486292888736 38.6922441125056196
  6.1164688921506132  6.0588364121028526 37.4323865165467922
  7.2982152263850635  5.2636873216084963 37.3590347426289355
  7.9219808189744434  5.0595617338791365 36.0990605472940445
  9.3452566101192964  5.0039287688993905 36.0261178800041009
  9.9828787353390336  5.1579415392254528 34.7659816358756828
 11.2230738159266270  5.8585975689794658 34.6931734416697850
 11.6843963190318281  6.3248202105336935 33.4332089369262988
 12.3723379418370314  7.5719378967747604 33.3603696828018030
 12.5211712967763908  8.2108009116888763 32.1005337795016672
 12.4543011608880168  9.6336868595037615 32.0280192873523575
 12.2469250431091403 10.2561102482376771 30.7686254979402811
  6.2100940691563418  5.9694227704333001 39.8767942925916685
  7.4185557174962300  5.2153761396962235 39.8033676038561808
  8.0490688923131941  5.0328041305933660 38.5435553291208990
  9.4734693631400457  5.0262577115112759 38.4707861700867895
 10.1055023115836402  5.2025657579325255 37.2107173205798105
 11.3206402214606801  5.9456250414542193 37.1375485711817248
 11.7659756371477915  6.4271296120389998 35.8775111778349469
 12.4106249444581689  7.6973014293641127 35.8044784914621914
 12.5371089573246461  8.3408069633546713 34.5445171242502056
 12.4208261733977139  9.7604828726391766 34.4715766282058880
 12.1914668195310032 10.3749396103248159 33.2117378022303953
 10.2265091638490961  5.2507064915769490 39.6551785189745800
 11.4153623481720636  6.0353711786264430 39.5817497239118126
 11.8437228114625874  6.5322998722303796 38.3218579290414496
 12.4445450830408149  7.8237429251728159 38.2488288935549718
 12.5488226123737014  8.4713534907106496 36.9886705107783627
 12.3839313395333797  9.8861681960442542 36.9154209595172702
 12.1334574060471940 10.4923843966160888 35.6554001952861626
 12.5560501103382212  8.6019123858318753 39.4329845849840055
 12.3423215970023410 10.0102402059213258 39.3594971967856324
 12.0712945315004596 10.6075323133249562 38.0995187431290745
 14.6238743344514610  9.5629879930721824 20.3838562561185661
 15.2473696439033795  8.5404528984695975 21.2665100094018769
