Ge Se
 1.0000000000000000
     4.4500000000000002    0.0000000000000000    0.0000000000000000
     0.0000000000000000    4.2000000000000002    0.0000000000000000
     0.0000000000000000    0.0000000000000000   11.1422210000000010
 Ge  Se 
   4   4
Selective dynamics
Cartesian
  0.4699222041208335  1.0499999999999998  1.4513264164724133   T   T   T
  2.6949222041208336  3.1500000000000004  4.1197840835275858   T   T   T
  3.9800777958791662  3.1500000000000004  9.6908945835275908   T   T   T
  1.7550777958791666  1.0499999999999998  7.0224369164724161   T   T   T
 -0.0986228017563135  1.0499999999999998  3.9466764826737233   T   T   T
  2.1263771982436870  3.1500000000000004  1.6244340173262792   T   T   T
  4.5486228017563155  3.1500000000000004  7.1955445173262786   T   T   T
  2.3236228017563132  1.0499999999999998  9.5177869826737229   T   T   T
