Ge Se                                   
    1.000000000000000     
     4.0999999999999988    0.0000000000000000    0.0000000000000000
     0.0000000000000000    4.0499999999999998    0.0000000000000000
     0.0000000000000000    0.0000000000000000   11.1422209999999993
   Ge   Se
     4     4
Selective dynamics
Direct
  0.0969714227738905  0.2500000000000000  0.1305323071556757   T   T   T
  0.5969714227738905  0.7500000000000000  0.3694676928443243   T   T   T
  0.9030285772261095  0.7500000000000000  0.8694676928443243   T   T   T
  0.4030285772261095  0.2500000000000000  0.6305323071556757   T   T   T
  0.0101812491534972  0.2500000000000000  0.3592507180196520   T   T   T
  0.5101812491534972  0.7500000000000000  0.1407492819803480   T   T   T
  0.9898187508465028  0.7500000000000000  0.6407492819803480   T   T   T
  0.4898187508465028  0.2500000000000000  0.8592507180196520   T   T   T
 
  0.00000000E+00  0.00000000E+00  0.00000000E+00
  0.00000000E+00  0.00000000E+00  0.00000000E+00
  0.00000000E+00  0.00000000E+00  0.00000000E+00
  0.00000000E+00  0.00000000E+00  0.00000000E+00
  0.00000000E+00  0.00000000E+00  0.00000000E+00
  0.00000000E+00  0.00000000E+00  0.00000000E+00
  0.00000000E+00  0.00000000E+00  0.00000000E+00
  0.00000000E+00  0.00000000E+00  0.00000000E+00
