 C Se 
 1.0000000000000000
    32.3722991942999982    0.0000000000000000    0.0000000000000000
     0.0000000000000000   19.9214134216000005    0.0000000000000000
     0.0000000000000000    0.0000000000000000   40.4480476378999967
 C   Se 
 364   1
Cartesian
 12.0089880780452347 10.7241538795262024  0.0998590238055448
 11.9385343994301412 10.8340502737179012  2.5442796198904669
 10.9437793164351387 11.8536499342184332  2.4712210496646674
 10.3752036884581766 12.1805610041824721  1.2110548179549332
  8.9936504000364792 12.5267335053820901  1.1375948692493330
 11.8634390412460942 10.9415642955374235  4.9883386613626213
 10.8345573927525116 11.9264920432698514  4.9154785893267485
 10.2553414641091063 12.2336144873747958  3.6553398014578744
  8.8625302625270415 12.5318348469991623  3.5817448677087764
  8.2081901253189979 12.4888776705399120  2.3218470681984695
  6.8662033299390730 12.0115933409939437  2.2487041325454853
  6.3317810081084449 11.6314664097315408  0.9885906457546831
  5.4396623158743509 10.5210238577608219  0.9154712798859272
 11.7837292695726106 11.0465634167465794  7.4322190082801978
 10.7223068171397546 11.9966102815346201  7.3597363406936198
 10.1332864610708633 12.2831665302493107  6.0996492726386728
  8.7311548476270602 12.5334000042487173  6.0261225648726198
  8.0788613484185241 12.4671635397742300  4.7659765048104710
  6.7544436700839121 11.9436732127594354  4.6930663945031528
  6.2333021659574861 11.5453890379390263  3.4330095839421455
  5.3800865719950428 10.4047615596311260  3.3597516199942845
  5.1453284403787869  9.7922656441678821  2.0999183026569272
  5.0173467611434575  8.3735603101361882  2.0266424835056656
  5.1389508814489595  7.7287872340036792  0.7666123209213443
  5.7744400433897507  6.4539621852298579  0.6936468762587966
 11.7005508185464233 11.1490716469183386  9.8761534933946020
 10.6079746748050390 12.0628754439793031  9.8045666519805170
 10.0092235599045960 12.3291385668009568  8.5440101080523938
  8.5997734454053525 12.5308551474574124  8.4707249245192546
  7.9501862752082344 12.4422599711583217  7.2104353415322384
  6.6446686011962646 11.8725554589621378  7.1376033927365841
  6.1378313224012722 11.4561335082974214  5.8777004610531254
  5.3246271139213874 10.2866294649923908  5.8042422981377033
  5.1113112228887445  9.6662055682535861  4.5442051495694935
  5.0322948771016796  8.2440674767679756  4.4710504636334711
  5.1759755316703995  7.6038330354862724  3.2109964732478082
  5.8548598788280488  6.3514817078006587  3.1378978906322104
  6.3131767470187832  5.8818997406068130  1.8779749073820484
  7.5481149124648335  5.1721464574591467  1.8044084758842354
  8.1847923237052242  5.0127653948305984  0.5444717396661832
  9.6085240837456816  5.0568538624676860  0.4714485984069279
 12.0021924492397378 10.7130871892428257 13.5779014806299454
 11.6143302631420813 11.2466593950928697 12.3190713854956133
 10.4918894243377263 12.1203732770758243 12.2493768294730891
  9.8846788804686092 12.3701972572500605 10.9893230820818157
  8.4683522638536779 12.5233238963911013 10.9161822488928717
  7.8224696208677402 12.4126995380587690  9.6560106937419690
  6.5374207654527066 11.7976952822011683  9.5826826045027964
  6.0458976910555977 11.3634684980993690  8.3223501052431743
  5.2742314082317057 10.1665141418275482  8.2486330901756606
  5.0818756320906173  9.5392206265074204  6.9886324242193201
  5.0518791546678390  8.1150160558559605  6.9155954622239593
  5.2173533743413438  7.4801977279590455  5.6555759140388036
  5.9388301080202375  6.2519683804055655  5.5822495782368318
  6.4130335476194453  5.7984078853225398  4.3221335482188721
  7.6715904878858003  5.1315070650358328  4.2487393578503569
  8.3134751948860082  4.9943508846018112  2.9887462468182666
  9.7348723463922813  5.0875775645473214  2.9157219090787225
 10.3532139926120976  5.3076566115558030  1.6557665006047697
 11.5141693266930005  6.1328416989844046  1.5820723292499805
 11.9253505866343765  6.6443782533927394  0.3221010278288264
 12.4811814221026278  7.9558217487915943  0.2490069277439044
 11.9312090326556515 10.7895343393261740 16.0209839922840551
 11.5214856413953406 11.3207947578619592 14.7662634115854861
 10.3706216884343512 12.1579422489240070 14.6958925072374083
  9.7585962425038630 12.3974112527362976 13.4378164384656991
  8.3375654855564552 12.5057932262254283 13.3633807335033552
  7.6960249569709411 12.3760433762095907 12.1017419012428107
  6.4331452526931221 11.7181179747423574 12.0275838288355974
  5.9565273388648770 11.2682381689913260 10.7670433119313955
  5.2268574768620413 10.0446563046203625 10.6931661867183205
  5.0570638847049425  9.4111648406982855  9.4333187740838156
  5.0760692214956427  7.9867555652783935  9.3602555866956454
  5.2634193988560707  7.3580780766498286  8.1000442261236536
  6.0263730322968909  6.1554072739261487  8.0264567760056256
  6.5154235633069186  5.7181717865312915  6.7666016303630698
  7.7961999714004007  5.0942253047115349  6.6936220894049470
  8.4424210374134621  4.9797584499328424  5.4331864134824590
  9.8595244933333266  5.1218148117886688  5.3599844009177939
 10.4703174540822079  5.3632539105529728  4.1000633413362717
 11.6022194811554247  6.2279678302526733  4.0263910963115750
 11.9956538553591727  6.7536753620666818  2.7665294281896911
 12.5059867317003182  8.0834849191435403  2.6935399394177204
 12.5653143540817247  8.7371657060213082  1.4335003416584133
 12.3014636138437350 10.1368236573647295  1.3598811218996358
 11.8952756458182733 10.9496192060002144 18.4726071498738058
 11.4357076915700340 11.3987230735144340 17.2249953230064001
 10.2471608461385397 12.1860146164496843 17.1443165135156725
  9.6266485874513190 12.4018455650314507 15.8837506180967409
  8.2076808316921781 12.4752888772870314 15.8083540816754766
  7.5693624249810769 12.3326465620924637 14.5466341215292143
  6.3272654678470435 11.6351559200103463 14.4721928064383594
  5.8686547091805270 11.1689043138512911 13.2120427262631388
  5.1823633587433706  9.9203921060657017 13.1380893489600084
  5.0360403371953515  9.2816753392132316 11.8775907252257298
  5.1040167154089788  7.8592240575946333 11.8043915160576738
  5.3124439759289146  7.2372683443050905 10.5444298425619341
  6.1162400008468421  6.0608583748436562 10.4707492052424040
  6.6209657211499353  5.6414172648452334  9.2111850245068361
  7.9220948638722435  5.0612928378356115  9.1386197943950886
  8.5715812076396443  4.9683388541512645  7.8778024782309828
  9.9833011589905656  5.1586572417032945  7.8046006847662115
 10.5849438074237465  5.4220207394482722  6.5446363561746130
 11.6859706232034277  6.3258840066935127  6.4708840719479728
 12.0612959815924761  6.8651984232205745  5.2108758669488520
 12.5248836442434648  8.2118689606769859  5.1376841855338977
 12.5626036488731128  8.8673256217342864  3.8778395264831471
 12.2508573135692629 10.2572233296355453  3.8042093844782836
 11.8003908134180602 11.0496191411747322 20.9251842973387348
 11.3452800334582520 11.5046230285643460 19.6516116275364006
 10.1270031029814440 12.2447824171942425 19.5808057357644536
  9.4990354376531503 12.4302865599879766 18.3248014694488326
  8.0712779082285415 12.4602464965780086 18.2511388402154928
  7.4416181118390243 12.2861325045443248 16.9930373766046934
  6.2232016701181312 11.5486320901818384 16.9178919159690579
  5.7825411464233127 11.0656753206003060 15.6565747233628851
  5.1418950552027560  9.7948167656876848 15.5827574913313995
  5.0172229344034367  9.1516050318434470 14.3222541898989757
  5.1343454238814177  7.7315861806600026 14.2489465648255038
  5.3648856837866470  7.1177591565415437 12.9891987980297934
  6.2073568969743071  5.9687896303685717 12.9153814172802477
  6.7273973521872481  5.5674283634860062 11.6553826422061615
  8.0478766115670695  5.0333457758877183 11.5829867332119782
  8.7006010173050274  4.9615940603220841 10.3234689812475597
 10.1062612383489725  5.2000875943483802 10.2507315617357566
 10.6977393059694297  5.4841300443616436  8.9893278677558985
 11.7655828730975660  6.4261618640948486  8.9151071623624798
 12.1220811176757959  6.9784338833417197  7.6550966690473707
 12.5383531120165923  8.3408004852353486  7.5812242679548323
 12.5536591751539355  8.9972359034955183  6.3218695567358392
 12.1943737651532906 10.3756217060247984  6.2485463980047955
 11.7033843214589623 11.1468245077660697 23.3662885866710006
 11.2527869589492884 11.6174634916317778 22.0995462604563180
 10.0098151816242780 12.3226525382003693 22.0259560869847739
  9.3717252766206283 12.4668690671616211 20.7669942114321273
  7.9482607794715152 12.4342694895111148 20.6948077720993702
  7.3191468550959478 12.2406589790345706 19.4352925462281441
  6.1280225959161516 11.4589961714183097 19.3616786320500260
  5.6998465043748157 10.9629044646738176 18.1022410059264871
  5.1036525984593499  9.6671666392826889 18.0284628260947031
  5.0038384868372594  9.0202369820422934 16.7684568646897283
  5.1697319636346695  7.6052318614996963 16.6946388376077017
  5.4206183465687081  6.9994857451122687 15.4337123148452147
  6.2999563818671485  5.8795281427014174 15.3596076370149266
  6.8327834881839822  5.4951323286797367 14.1000693369589225
  8.1730504748126513  5.0090483752586570 14.0275604345789464
  8.8295555918377637  4.9635793091460059 12.7692318041067221
 10.2253527820939532  5.2520931038944010 12.6972411564218799
 10.8085227583768120  5.5502711875913482 11.4343296719764833
 11.8448941211528957  6.5284315295005326 11.3597470539630585
 12.1791732821484722  7.0935114141797806 10.0994916988216321
 12.5463537957952713  8.4697356530144532 10.0239329450495163
 12.5388757181920312  9.1266572814150333  8.7646503053675193
 12.1330239999746805 10.4917275865621722  8.6920672348089525
 11.6164499841365494 11.2454385971422841 25.8085481285753602
 11.1448942919830927 11.7016955680538377 24.5484000624450793
  9.8865079510269407 12.3701308478468608 24.4732559248586874
  9.2456063890073388 12.5024769308674149 23.2099771182503218
  7.8233998170080055 12.4089799256534548 23.1384974711879501
  7.2031854032251363 12.1900610370753864 21.8800684193937798
  6.0401425498419297 11.3654418085323243 21.8068760912661190
  5.6288031979530162 10.8528836236363322 20.5475130326595092
  5.0780399017857292  9.5399210306275855 20.4740493754630535
  4.9965190800545551  8.8890922106211434 19.2131472035021389
  5.2117047302517250  7.4807638492826802 19.1391805247861306
  5.4793230591728950  6.8833997964219282 17.8793172303414885
  6.3974544204705790  5.7917495028702319 17.8053121908218195
  6.9419708680924881  5.4273895290549588 16.5455372542131620
  8.2978912337705779  4.9900788929589064 16.4724612372495649
  8.9560192778629215  4.9713948176286138 15.2129936244347945
 10.3367087878100765  5.3191720204458823 15.1402969379501311
 10.9137533001586160  5.6282949496645225 13.8815510337324373
 11.9254644641507817  6.6376758312732962 13.8089025913133678
 12.2361768005222533  7.2109216982729496 12.5421770637747123
 12.5514736674050962  8.5972881302205622 12.4630392540353743
 12.5205967112719172  9.2550686129741955 11.2058141608329258
 12.0698318096036932 10.6066933964413082 11.1349628531748372
 11.5307946291738155 11.3421733094887980 28.2526241908517797
 11.0407166405341624 11.7797036106236490 26.9927505073404390
  9.7614359017922165 12.4049612724865757 26.9184012896389753
  9.1160907138112730 12.5213724442327337 25.6566883813399187
  7.6976804843447857 12.3771812124078835 25.5842359198080160
  7.0880085014187308 12.1341622545223391 24.3246271591072336
  5.9566665021955316 11.2687240594743958 24.2516395528558810
  5.5624268061114970 10.7431940500481744 22.9916183199487243
  5.0550471861324713  9.4119998395360422 22.9186642477867935
  4.9961037825445436  8.7585376851787089 21.6590076709942032
  5.2597748428803532  7.3583996427658613 21.5853270099391175
  5.5501727690621943  6.7707753840000890 20.3250315074031569
  6.5045437384823011  5.7148864647299655 20.2514575995616042
  7.0572484573225962  5.3656160101431016 18.9898135917260937
  8.4277107188380889  4.9776664327960249 18.9149700561154646
  9.0811415051304749  4.9777739061349999 17.6568107155298364
 10.4493843279691223  5.3868016930593576 17.5827607072099639
 11.0055618050190240  5.7334189391431547 16.3268123753731977
 11.9841732765709761  6.7700054786971684 16.2571179513173014
 12.3031980008159074  7.3295719797471355 14.9836513050279905
 12.5778431296041902  8.7299757303338374 14.9002879470068912
 12.5017607185794688  9.3822293840907172 13.6450120407450424
 11.4422843800660559 11.4363321045356088 30.6966715707580313
 10.9372972818551144 11.8561857988997694 29.4367115000400403
  9.6359256233233310 12.4356586123734569 29.3633112977951143
  8.9860363354644459 12.5293071880729396 28.1031042407730283
  7.5744912249910241 12.3373316467393668 28.0298385568625221
  6.9733265356002612 12.0745818351100382 26.7690668972303065
  5.8729955950620081 11.1696476151523196 26.6962126852057438
  5.4981233031680992 10.6310041630515606 25.4364338478547296
  5.0353788354978697  9.2835058232478644 25.3635492258434532
  4.9999213413735060  8.6281697613033739 24.1036885587467076
  5.3121446842120559  7.2388114930261231 24.0299969557588753
  5.6226703484221661  6.6612351281587143 22.7697196342409534
  6.6152534916762962  5.6391008822406254 22.6964423226166048
  7.1809244977937539  5.3106696383977319 21.4360824815002502
  8.5633312818656595  4.9669301788227758 21.3615730858973620
  9.2165469003003562  4.9986408861510503 20.0997943330151543
 10.5648054454876679  5.4469184183214336 20.0243065903431479
 11.1054922773448741  5.8205464087471688 18.7635956659572116
 12.0422809327682572  6.8953100800635543 18.6839219300979735
 12.3671074525615179  7.4503444613966980 17.4365571773752315
 12.8019077427800223  8.8550660087410975 17.3454422278314908
 12.5196824856107778  9.5145681513274258 16.0729464836183666
 11.3495624875941967 11.5271693408446385 33.1409564678315434
 10.8304690577281253 11.9291154624933444 31.8810598542188615
  9.5095402220051390 12.4622229903472821 31.8081043261705219
  8.8566500249937175 12.5325062885699516 30.5480152984103448
  7.4527136007802364 12.2924409784906246 30.4745806264034798
  6.8604986667651442 12.0102010396672956 29.2141658701250186
  5.7915842288256547 11.0680650521598540 29.1412703798371844
  5.4362354909560198 10.5165395578895779 27.8812191761636647
  5.0196794875056057  9.1545067328964080 27.8081468568424093
  5.0061870609445211  8.4984754521698171 26.5480149784780934
  5.3663781530109844  7.1202262315953462 26.4744607516316997
  5.6984240465275633  6.5543058073086797 25.2147203053769502
  6.7262765299598684  5.5677906331822591 25.1417551794931811
  7.3049200880216452  5.2594482690043742 23.8811858804677932
  8.6968646247858654  4.9592614959675005 23.8066663843947417
  9.3498518875229788  5.0039686994732167 22.5450434364507579
 10.6908433715764009  5.4863082993317258 22.4707785080440416
 11.2171213448799811  5.8798334894587319 21.2123783373041448
 12.1037112415236461  6.9930428289239446 21.1425497926228871
 12.3580072557433809  7.6140591854012589 19.8881156954002201
 12.5877021201561607  8.9993607388729213 19.8359423616349169
 12.6861549289407165  9.7100277795522310 18.5634890091787099
 11.2532447181201949 11.6145413634824681 35.5855827366003936
 10.7207293208941561 11.9982347510379359 34.3254397037133501
  9.3822024018637489 12.4850652969925449 34.2525871885215665
  8.7273745839461085 12.5325145334090440 32.9925828372227699
  7.3324407085342171 12.2439417548839309 32.9191025975186946
  6.7500655376070604 11.9411201781611052 31.6591384506450808
  5.7140248607251047 10.9634831956431800 31.5862579231250145
  5.3776838191279168 10.4003216709176129 30.3258222718505834
  5.0078482424145259  9.0246636441642885 30.2526629825020095
  5.0166898700691283  8.3687111493185569 28.9927804928926278
  5.4237518657906856  7.0035290344110006 28.9194585336526870
  5.7759202576071340  6.4497680512952735 27.6594191812734813
  6.8374826589046886  5.5002734377139806 27.5865531022283292
  7.4265390018780684  5.2115271950567896 26.3263471538040079
  8.8285402228230190  4.9589372484984304 26.2525056319993304
  9.4805922720846709  5.0228696512037372 24.9923475318249402
 10.8051738500666925  5.5470132392933884 24.9197072631454297
 11.3239825044407212  5.9488805085414365 23.6593072354963105
 12.1733529895288495  7.0897898196685807 23.5895298440441579
 12.4054137820935715  7.7069530707554170 22.3308770643996191
 12.5338896996942193  9.1226090798550956 22.2637076576046233
 12.4351666025006278  9.7715899961221560 21.0083372424744326
 11.1532759729497926 11.6979163198780558 38.0301571709361994
 10.6081167438633930 12.0633119087369280 36.7700020737512858
  9.2535635501936770 12.5037297899938569 36.6969846573238598
  8.5976400171744736 12.5284318576438221 35.4370610315216936
  7.2137126732030783 12.1917047722175216 35.3635435277943841
  6.6422583131606654 11.8687246202991314 34.1035892746334568
  5.6402124640828140 10.8563804167601816 34.0307939545885958
  5.3228104723138498 10.2820559271456311 32.7706257407486206
  5.0005144003099886  8.8944211355603215 32.6973245336392111
  5.0319754891647124  8.2391279787566187 31.4373748067559404
  5.4856853291646672  6.8889826674094703 31.3643139677160114
  5.8560719925329181  6.3475729748996237 30.1041028129226120
  6.9503579374608364  5.4355917241922365 30.0312349462246324
  7.5495090052403429  5.1682869984285498 28.7715015890794525
  8.9594360040804641  4.9655676649917453 28.6981137311255914
  9.6092639553293875  5.0519367409974212 27.4378574835194620
 10.9143978628690093  5.6211459415569474 27.3652061282544246
 11.4207665257131072  6.0361425742866084 26.1043778292644824
 12.2308841977275193  7.2076465367362879 26.0322386782084756
 12.4423238367829594  7.8282540292636948 24.7734716817250096
 12.5180541476136096  9.2510174346965783 24.7027257412137260
 12.3737889450796690  9.8931737059925631 23.4453895220340058
 11.0500894515793355 11.7774986713604601  0.0267101967820976
 10.4929941755218934 12.1241189479835541 39.2146248261753101
  9.1240768058211472 12.5176812929561780 39.1413688608484520
  8.4678327920091867 12.5199121713965571 37.8814400428549618
  7.0963400790429967 12.1357168803686672 37.8079390783308895
  6.5365048029485351 11.7932216254664741 36.5479700991114171
  5.5700501670016029 10.7467996622390896 36.4751733593963721
  5.2727933811270482 10.1618409292188456 35.2152588250494816
  4.9984475573401390  8.7641679336532956 35.1418124259579869
  5.0520714023499425  8.1102486386136601 33.8818053022012577
  5.5520774415793070  6.7765474690287526 33.8089510517480676
  5.9406829825339198  6.2481675505985557 32.5489262150788647
  7.0662450048607788  5.3751171005752072 32.4758780118948138
  7.6741689886039355  5.1293365155138195 31.2159743192307246
  9.0901250344381168  4.9766873100520526 31.1427217624202832
  9.7363784210284443  5.0857604124226166 29.8824209995836370
 11.0214609781163606  5.6998490596111235 29.8094301332778642
 11.5132423721739876  6.1319921651434859 28.5492707089235935
 12.2841243302948389  7.3299045944830201 28.4759521553297930
 12.4733255122796969  7.9569169827413750 27.2160424530660841
 12.5019904400616824  9.3807405660216325 27.1437797619217669
 12.3348155564328081 10.0155728799752026 25.8843862157748070
  8.3380826918534527 12.5066541364971116 40.3257067870745516
  6.9805347937250417 12.0754966132992720 40.2523361848042995
  6.4330854549092500 11.7140477083864383 38.9923503680898733
  5.5032692915059824 10.6349674129302691 38.9194231529886139
  5.2265840135956934 10.0400503307041422 37.6595577720165835
  5.0006646716533902  8.6337322690840761 37.5860914003599405
  5.0770176585488223  7.9821892014682856 36.3261863565753202
  5.6228370510884851  6.6665439411967959 36.2534325891343414
  6.0295524411651815  6.1520407129538501 34.9934312746348297
  7.1845193140947003  5.3186374603010540 34.9200964033866370
  7.8006105194061401  5.0942245368773866 33.6601242998259167
  9.2211117244014016  4.9908697240477302 33.5869134748268863
  9.8630555728342557  5.1230429618025468 32.3267720345171625
 11.1264437616881633  5.7807130017231119 32.2535507901217500
 11.6028465317764464  6.2303970454049109 30.9933765228311309
 12.3330557593250152  7.4532583010048619 30.9196616652956386
 12.5018819288225433  8.0862582640485154 29.6593981518072631
 12.4823676745636334  9.5106688104267345 29.5865815801671630
 12.2932957582919649 10.1388277488072340 28.3270366548383841
  5.1840497121001228  9.9168261479623734 40.1037197468884941
  5.0069004375400992  8.5034025607361059 40.0303177394268275
  5.1060269049206966  7.8548375366913570 38.7704199342001274
  5.6970237269915716  6.5588637757207202 38.6976128995923929
  6.1213810412575373  6.0586799827161455 37.4376700981161292
  7.3045195586040466  5.2655293129715508 37.3641490721810214
  7.9281352883612772  5.0627364510538673 36.1042303537943425
  9.3514597945623290  5.0085554755881061 36.0311358250714449
  9.9885494275039104  5.1633101183793277 34.7709725223779955
 11.2285197765772864  5.8640891637151080 34.6975534387730633
 11.6894567961781899  6.3302588578252692 33.4374237595144237
 12.3773662165174443  7.5775083110555688 33.3637139430897562
 12.5249329693296563  8.2162404541583616 32.1035700627624792
 12.4566749625779121  9.6391164627333481 32.0305077279121662
 12.2465717366242473 10.2607239316067034 30.7705722943956808
  6.2160747275645676  5.9687201067264768 39.8818911814790269
  7.4258721504304157  5.2167199968540503 39.8082784197502662
  8.0562676873038956  5.0354493358397177 38.5483617387764923
  9.4806665287107386  5.0304518336510551 38.4753646433582048
 10.1121847657002188  5.2073305349736732 37.2152461341551515
 11.3271923241142574  5.9506807590559108 37.1416597500662533
 11.7720056634229842  6.4325497691236144 35.8816142713605046
 12.4164704706420697  7.7027587220115343 35.8081363207581802
 12.5421860390534547  8.3464952611033105 34.5478779801308420
 12.4248134191266448  9.7659938736478225 34.4747204095715958
 12.1941842214577090 10.3801446053496118 33.2146133296822299
 10.2340520614855315  5.2551479476263614 39.6595864469260420
 11.4227866728512595  6.0400646125705073 39.5858720518932259
 11.8506725968652891  6.5372777542821545 38.3258596018980668
 12.4512077211811842  7.8287864363387838 38.2525748213584222
 12.5548073393445581  8.4766732242648413 36.9923648051547715
 12.3885750715445635  9.8913463292113235 36.9190336131365910
 12.1369472192976833 10.4974069416355373 35.6590659998942456
 12.5626619935042338  8.6068994840036765 39.4369760584353628
 12.3474371641498486 10.0149583606551342 39.3634889287242871
 12.0751683987380982 10.6120439620882383 38.1035000651679354
 14.6783884833444080  9.5431234694672558 17.9551690690244001
