Ge Se                                   
    1.000000000000000     
    12.4514084387701978   -0.0000007627812839   -0.0000008181673758
    -0.0000007655988078   12.4973962161407552    0.0000021527578888
    -0.0000009357449654    0.0000024530664359   11.0627737660352192
   Ge   Se
    36    36
Direct
  0.0777023954344926  0.0438945425711452  0.1267026200066823
  0.2512394676401257  0.8677070289711253  0.3633941599043453
  0.5686422274520879  0.2233516350894362  0.3520581763262385
  0.5848585952566481  0.5297407064248532  0.3674243602565923
  0.5954541886098710  0.8654280825232306  0.3715969056003772
  0.9283981348163692  0.1990161188616284  0.3586994364869014
  0.9021684571545521  0.5605675315859386  0.3703923938653446
  0.9052613015450675  0.8828274807545640  0.3495788958814714
  0.0482709116927325  0.1376634730187973  0.6159046280333840
  0.0670382747380387  0.4839821647243454  0.6196902986949198
  0.0861775662186304  0.8427508572677240  0.6379365870834448
  0.4213015787030940  0.1705124571140360  0.6043941876618248
  0.3787241116105662  0.4827236036126195  0.6208294076621428
  0.4080574039244809  0.8085440855207864  0.6368280830679680
  0.7351969340199176  0.1433614008430197  0.6269197956942989
  0.7474512451539397  0.4921026659319807  0.6335966561703401
  0.2368964396919608  0.5721259726390713  0.3909611097090675
  0.2392045243619449  0.2099715694854964  0.3580761607423071
  0.7492888278036318  0.8061139654830498  0.6182060475599442
  0.9174949470373335  0.6438936285324246  0.8717396851449735
  0.8769986708289323  0.9582593863204636  0.8837587898480024
  0.0838044336534765  0.3747521379116847  0.1273968064356552
  0.0805962335372143  0.7214708196220130  0.1330659897039084
  0.4229314846113112  0.0289173323675982  0.1311479055367144
  0.4052430076421274  0.3852055386348354  0.1161479607507658
  0.7308032318632414  0.0661572996317688  0.1239879237639698
  0.7443144456042319  0.3738841738148864  0.1079080320539916
  0.4079120111690742  0.6993462749782751  0.1466206589276595
  0.2326303466467152  0.3085271266648419  0.8739405909595561
  0.2120135502575806  0.6638401773811324  0.8648495559645824
  0.2558547075212232  0.0039260556903571  0.8590707543225307
  0.5961087381458654  0.3257505460212329  0.8536416326409579
  0.5641036236378483  0.6357901707890008  0.8753252735878689
  0.5659152829259284  0.9974368328212790  0.8596404391300894
  0.9163185833861860  0.3093011157633967  0.8750183331657766
  0.7446078808048711  0.7134731414998683  0.1178843456744261
  0.8826481300559550  0.0065983863577372  0.6619405641032685
  0.2145601473488057  0.3430531753836945  0.6517017378113295
  0.2368671411684318  0.6940778809759180  0.6469412168080027
  0.5692485013885928  0.0197154472079575  0.6331888838518935
  0.5540925742573819  0.3362059192066909  0.6247004493557355
  0.5512704106025836  0.6646648202576131  0.6499962291061365
  0.8985355358277545  0.3463307949277095  0.6305398358901613
  0.7280416889870907  0.0311636237691104  0.3551179496629473
  0.0547919856850427  0.0197421952891048  0.3536417718400386
  0.0903676742202109  0.3446738852980573  0.3466634011709999
  0.0666754012589763  0.7051068163056797  0.3671815442415038
  0.4185807242203978  0.0070925399549324  0.3547960695085877
  0.3961043234355941  0.3509653641204977  0.3427831900678484
  0.3927448198085699  0.6865350001404096  0.3774808740305176
  0.2050242119194579  0.0012048210016502  0.6405357873326381
  0.8871045723230679  0.6628816132829698  0.6520012252364680
  0.8923113358514385  0.8541766531831172  0.1300226000232811
  0.2429299396448243  0.1797217198919228  0.1243362176734664
  0.9113524036526286  0.1949112234018884  0.1329009438863906
  0.7200696815519976  0.3589744064704377  0.3523348028394722
  0.0630716583525768  0.1628800866611826  0.8494803200672933
  0.0636208322795966  0.5142997123136723  0.8631619154086607
  0.0413256243298576  0.8158335822595717  0.8770980237419934
  0.3863567275088897  0.1602414793720115  0.8347749870538337
  0.3787399141874346  0.5124299976395079  0.8578293858111294
  0.4011074324623607  0.8625660714995433  0.8607325459871902
  0.7421474721276695  0.1812355551443048  0.8557713085880962
  0.7148609777345243  0.4944599457914691  0.8511663204991535
  0.7151420679999845  0.8467319301658733  0.8384965417463803
  0.2366537135473763  0.5221656472694747  0.1632112120611708
  0.2330268312229222  0.8528408089811919  0.1303686903304637
  0.5631980752251806  0.1895889141581932  0.1290411159926279
  0.5557162014940644  0.5119203635537630  0.1383045948734818
  0.5720260845981215  0.8340455394600141  0.1334378321246916
  0.9080062104699351  0.4916070242123212  0.1417500718484206
  0.7399729143575797  0.6697597141060143  0.3548564971086279
 
  0.00000000E+00  0.00000000E+00  0.00000000E+00
  0.00000000E+00  0.00000000E+00  0.00000000E+00
  0.00000000E+00  0.00000000E+00  0.00000000E+00
  0.00000000E+00  0.00000000E+00  0.00000000E+00
  0.00000000E+00  0.00000000E+00  0.00000000E+00
  0.00000000E+00  0.00000000E+00  0.00000000E+00
  0.00000000E+00  0.00000000E+00  0.00000000E+00
  0.00000000E+00  0.00000000E+00  0.00000000E+00
  0.00000000E+00  0.00000000E+00  0.00000000E+00
  0.00000000E+00  0.00000000E+00  0.00000000E+00
  0.00000000E+00  0.00000000E+00  0.00000000E+00
  0.00000000E+00  0.00000000E+00  0.00000000E+00
  0.00000000E+00  0.00000000E+00  0.00000000E+00
  0.00000000E+00  0.00000000E+00  0.00000000E+00
  0.00000000E+00  0.00000000E+00  0.00000000E+00
  0.00000000E+00  0.00000000E+00  0.00000000E+00
  0.00000000E+00  0.00000000E+00  0.00000000E+00
  0.00000000E+00  0.00000000E+00  0.00000000E+00
  0.00000000E+00  0.00000000E+00  0.00000000E+00
  0.00000000E+00  0.00000000E+00  0.00000000E+00
  0.00000000E+00  0.00000000E+00  0.00000000E+00
  0.00000000E+00  0.00000000E+00  0.00000000E+00
  0.00000000E+00  0.00000000E+00  0.00000000E+00
  0.00000000E+00  0.00000000E+00  0.00000000E+00
  0.00000000E+00  0.00000000E+00  0.00000000E+00
  0.00000000E+00  0.00000000E+00  0.00000000E+00
  0.00000000E+00  0.00000000E+00  0.00000000E+00
  0.00000000E+00  0.00000000E+00  0.00000000E+00
  0.00000000E+00  0.00000000E+00  0.00000000E+00
  0.00000000E+00  0.00000000E+00  0.00000000E+00
  0.00000000E+00  0.00000000E+00  0.00000000E+00
  0.00000000E+00  0.00000000E+00  0.00000000E+00
  0.00000000E+00  0.00000000E+00  0.00000000E+00
  0.00000000E+00  0.00000000E+00  0.00000000E+00
  0.00000000E+00  0.00000000E+00  0.00000000E+00
  0.00000000E+00  0.00000000E+00  0.00000000E+00
  0.00000000E+00  0.00000000E+00  0.00000000E+00
  0.00000000E+00  0.00000000E+00  0.00000000E+00
  0.00000000E+00  0.00000000E+00  0.00000000E+00
  0.00000000E+00  0.00000000E+00  0.00000000E+00
  0.00000000E+00  0.00000000E+00  0.00000000E+00
  0.00000000E+00  0.00000000E+00  0.00000000E+00
  0.00000000E+00  0.00000000E+00  0.00000000E+00
  0.00000000E+00  0.00000000E+00  0.00000000E+00
  0.00000000E+00  0.00000000E+00  0.00000000E+00
  0.00000000E+00  0.00000000E+00  0.00000000E+00
  0.00000000E+00  0.00000000E+00  0.00000000E+00
  0.00000000E+00  0.00000000E+00  0.00000000E+00
  0.00000000E+00  0.00000000E+00  0.00000000E+00
  0.00000000E+00  0.00000000E+00  0.00000000E+00
  0.00000000E+00  0.00000000E+00  0.00000000E+00
  0.00000000E+00  0.00000000E+00  0.00000000E+00
  0.00000000E+00  0.00000000E+00  0.00000000E+00
  0.00000000E+00  0.00000000E+00  0.00000000E+00
  0.00000000E+00  0.00000000E+00  0.00000000E+00
  0.00000000E+00  0.00000000E+00  0.00000000E+00
  0.00000000E+00  0.00000000E+00  0.00000000E+00
  0.00000000E+00  0.00000000E+00  0.00000000E+00
  0.00000000E+00  0.00000000E+00  0.00000000E+00
  0.00000000E+00  0.00000000E+00  0.00000000E+00
  0.00000000E+00  0.00000000E+00  0.00000000E+00
  0.00000000E+00  0.00000000E+00  0.00000000E+00
  0.00000000E+00  0.00000000E+00  0.00000000E+00
  0.00000000E+00  0.00000000E+00  0.00000000E+00
  0.00000000E+00  0.00000000E+00  0.00000000E+00
  0.00000000E+00  0.00000000E+00  0.00000000E+00
  0.00000000E+00  0.00000000E+00  0.00000000E+00
  0.00000000E+00  0.00000000E+00  0.00000000E+00
  0.00000000E+00  0.00000000E+00  0.00000000E+00
  0.00000000E+00  0.00000000E+00  0.00000000E+00
  0.00000000E+00  0.00000000E+00  0.00000000E+00
  0.00000000E+00  0.00000000E+00  0.00000000E+00
