Ge Se
 1.0000000000000000
     3.8999999999999995    0.0000000000000000    0.0000000000000000
     0.0000000000000000    4.2500000000000000    0.0000000000000000
     0.0000000000000000    0.0000000000000000   11.1422209999999993
 Ge  Se 
   4   4
Selective dynamics
Cartesian
  0.9750000000000000  0.4360491511142520  1.4029684526051187   T   T   T
  2.9249999999999998  2.5610491511142519  4.1681420473948787   T   T   T
  2.9249999999999998  3.8139508488857485  9.7392525473948801   T   T   T
  0.9750000000000000  1.6889508488857483  6.9740789526051188   T   T   T
  0.9750000000000000  0.0238513574652428  3.9609690274384661   T   T   T
  2.9249999999999998  2.1488513574652428  1.6101414725615333   T   T   T
  2.9249999999999998  4.2261486425347563  7.1812519725615314   T   T   T
  0.9750000000000000  2.1011486425347572  9.5320795274384640   T   T   T
