Ge Se                                   
    1.000000000000000     
     3.8581001759000002    0.0000000000000000    0.0000000000000000
     0.0000000000000000    4.5265750884999996    0.0000000000000000
     0.0000000000000000    0.0000000000000000   10.5851764679000002
   Ge   Se
     4     4
Direct
  0.5253620277521875  0.4960077171063872  0.1162932343646688
  0.0253620757839244  0.9960077425205895  0.3837066632165786
  0.7499995288418759  0.8808035479327430  0.8837066983297674
  0.2499989129793434  0.3808035900050939  0.6162933008206437
  0.5253620996059070  0.3717528043496330  0.3545217537523442
  0.0253619783818451  0.8717529050430244  0.1454782560698860
  0.7499991188041832  0.0050583627741787  0.6454782049300576
  0.2499994226354758  0.5050584457094658  0.8545217376194714
 
  0.00000000E+00  0.00000000E+00  0.00000000E+00
  0.00000000E+00  0.00000000E+00  0.00000000E+00
  0.00000000E+00  0.00000000E+00  0.00000000E+00
  0.00000000E+00  0.00000000E+00  0.00000000E+00
  0.00000000E+00  0.00000000E+00  0.00000000E+00
  0.00000000E+00  0.00000000E+00  0.00000000E+00
  0.00000000E+00  0.00000000E+00  0.00000000E+00
  0.00000000E+00  0.00000000E+00  0.00000000E+00
