Ge Se
 1.0000000000000000
     3.6999999999999997    0.0000000000000000    0.0000000000000000
     0.0000000000000000    3.8500000000000010    0.0000000000000000
     0.0000000000000000    0.0000000000000000   11.1422210000000010
 Ge  Se 
   4   4
Selective dynamics
Cartesian
  0.9249999999999998  0.2107273275179988  1.2814826779932444   T   T   T
  2.7749999999999999  2.1357273275179987  4.2896278220067554   T   T   T
  2.7749999999999999  3.6392726724820021  9.8607383220067568   T   T   T
  0.9249999999999998  1.7142726724820017  6.8525931779932456   T   T   T
  0.9249999999999998  0.0575673185004426  3.9090624254597870   T   T   T
  2.7749999999999999  1.9825673185004427  1.6620480745402140   T   T   T
  2.7749999999999999  3.7924326814995575  7.2331585745402140   T   T   T
  0.9249999999999998  1.8674326814995583  9.4801729254597884   T   T   T
