Ge Se 
 1.0000000000000000
    12.3815654517054909   -0.0000046752078525   -0.0000023058934467
    -0.0000047326871360   12.5337820581504662    0.0000023410558459
    -0.0000026578805208    0.0000026656376961   11.0866926851881065
 Ge  Se 
  36  36
Cartesian
  0.9213297393549214  0.6091999266536102  1.3796069340950052
  2.9870863214602310 11.0778354101348899  4.2952065036100890
  7.2492769319858592  2.6469904076626056  4.1797010501776874
  7.2834606435255411  6.8668873013227456  4.2039820484086077
  6.8571493260780025 11.1820702541812107  4.0636402555647395
 11.0938913031368678  2.8576245223516281  4.0114327927851727
 11.2035355448285738  6.6149650860439264  4.2503654942645390
 11.4643352734546937 10.9965922222124881  4.1802312685268213
  0.9389866594179084  2.0201190472362969  6.9582071909665686
  0.8282163723580936  6.0716357488639208  7.0637417013643669
  0.9692888788257872 10.3144963219108181  7.0708597852684889
  5.1260829226734828  1.8607798633973196  6.9488344131177051
  4.8087064634994192  6.1618128904989815  7.0454411052213413
  5.2145447488513508  9.9816627876944235  6.6520453917082545
  8.8437153728521452  1.8505898883673029  6.7101010225113775
  9.2549876870872350  5.9396318527186311  6.9021980149393816
  2.9142441894533055  6.7580452477936870  4.1583985364096403
  2.9846228299928343  2.5453903244950182  3.9980149536338132
  9.3143238343523702 10.2576702437447569  6.7854601764082449
 11.1079882707446540  8.2260753843235932  9.6983108109839815
 10.8397344228918868 12.3877825707361087  9.5699682760571125
  0.9103565090083655  4.7408469488369995  1.4164498528150176
  0.9323283562371760  8.8055954189985055  1.5054714170982777
  5.2019272456802614  0.6470919759008790  1.3770257805893267
  5.0880301252852469  4.8699381764043528  1.4504623056324886
  9.3641547405983392  0.5295970783246231  1.3534920364805818
  8.9283560873500694  4.7439378872005165  1.2157262085064504
  5.0131093585897553  8.9362730705923674  1.5320142384330513
  2.7635730029686285  3.9543746073988393  9.7420172876416888
  2.8300599824744213  8.1960590159578182  9.7129206338314837
  2.8490312893784817 12.2126884528936479  9.6732419168319570
  6.9629601043087508  3.9515208935008559  9.5846857851168679
  7.0988310759570652  8.0315100764758078  9.5077051855885308
  6.8150963077720395 12.2093691108362528  9.7586676533535126
 10.9634010866169209  3.7600773699688981  9.6705560252513276
  9.3601639572713697  8.7453571159885737  1.6241970106067456
 11.2232058831297508  0.1202376738029893  7.0872643595665918
  2.9320908942592729  4.2678393033975892  7.1768712788562121
  2.9387423663535293  8.3971927851747523  7.1053130252690053
  6.9461591861919461  0.1518567950593431  7.1899387319437924
  7.0719546019055990  4.3545984071774235  6.9517108309509714
  7.2193000283492825  8.4713701584151107  6.8786912395623565
 11.0543248554618003  4.1221881825222821  7.0376549048598847
  9.1327939406660299  0.0801848700961031  3.9783998840567403
  1.0130831488777519  0.1571134773237074  4.0136679162836169
  0.9633466620037131  4.2976015938423906  4.0181446663259148
  0.8076841587061067  8.3895506053355344  3.9906736115100085
  4.9530315932436482  0.3341670039494256  3.9754494001400280
  5.0219099496446216  4.1278273521903923  4.0401098852878601
  5.1039325357188305  8.4006195555514918  3.9839836732130971
  2.9892374088037648  0.1375539110835927  7.1587323205239812
 11.3162856652817787  8.6157158560208202  7.2362774623736392
 11.3106446647603551 10.4444884592230931  1.7955042297051067
  3.0012671386932017  2.2168295347261946  1.4579158735034368
 11.2273450279690739  2.1721174263145913  1.5208587882883660
  9.0245389769451378  4.3108681633802259  3.8089560550379864
  0.8738422593669558  2.2574464978530839  9.5307512705710238
  0.9285920104666511  6.3319510648090578  9.6426201281621733
  1.0600649192320140 10.4556356835112290  9.5957288246602541
  5.0693437723890620  2.3144215490545399  9.5444946526792762
  5.1002870318655207  6.4214292104694426  9.5869062670842897
  4.9837606477638738 10.3728755934837800  9.3670492101237723
  9.0232854753033109  2.0512766004624767  9.3779634024694545
  9.2050940837375190  6.4301003785989632  9.4917104506162495
  9.1366852162752661 10.5754681706027753  9.4210352140602271
  2.8332365223872187  6.4153476199157682  1.6168052398755932
  2.9872986466965847 10.6831777996737873  1.5602563939078560
  7.1648680415954891  2.2301843679816482  1.5250773349900884
  7.1539855867075319  6.5419388361514219  1.5669115538558416
  6.9494757012422577 10.6766229869083755  1.5130871208542529
 11.1828841952294198  6.3475911146952484  1.7671596410896409
  9.0630136418630531  8.6588455855910773  4.0428022181759440
