Ge Se                                   
    1.000000000000000     
     3.7500000000000000    0.0000000000000000    0.0000000000000000
     0.0000000000000000    4.0999999999999988    0.0000000000000000
     0.0000000000000000    0.0000000000000000   11.1422209999999993
   Ge   Se
     4     4
Selective dynamics
Direct
  0.2500000000000000  0.0982432929836037  0.1223092440594797   T   T   T
  0.7500000000000000  0.5982432929836037  0.3776907559405203   T   T   T
  0.7500000000000000  0.9017567070163963  0.8776907559405203   T   T   T
  0.2500000000000000  0.4017567070163963  0.6223092440594797   T   T   T
  0.2500000000000000  0.0234002872573456  0.3553898064208099   T   T   T
  0.7500000000000000  0.5234002872573456  0.1446101935791901   T   T   T
  0.7500000000000000  0.9765997127426544  0.6446101935791901   T   T   T
  0.2500000000000000  0.4765997127426544  0.8553898064208099   T   T   T
 
  0.00000000E+00  0.00000000E+00  0.00000000E+00
  0.00000000E+00  0.00000000E+00  0.00000000E+00
  0.00000000E+00  0.00000000E+00  0.00000000E+00
  0.00000000E+00  0.00000000E+00  0.00000000E+00
  0.00000000E+00  0.00000000E+00  0.00000000E+00
  0.00000000E+00  0.00000000E+00  0.00000000E+00
  0.00000000E+00  0.00000000E+00  0.00000000E+00
  0.00000000E+00  0.00000000E+00  0.00000000E+00
