Ge Se
 1.0000000000000000
     4.7500000000000000    0.0000000000000000    0.0000000000000000
     0.0000000000000000    4.0999999999999988    0.0000000000000000
     0.0000000000000000    0.0000000000000000   11.1422209999999993
 Ge  Se 
   4   4
Selective dynamics
Cartesian
  0.5497583675205306  1.0249999999999995  1.4220148020049694   T   T   T
  2.9247583675205298  3.0749999999999993  4.1490956979950298   T   T   T
  4.2002416324794707  3.0749999999999993  9.7202061979950312   T   T   T
  1.8252416324794700  1.0249999999999995  6.9931253020049695   T   T   T
 -0.1585929349520945  1.0249999999999995  3.8994801776006884   T   T   T
  2.2164070650479055  3.0749999999999993  1.6716303223993123   T   T   T
  4.9085929349520949  3.0749999999999993  7.2427408223993108   T   T   T
  2.5335929349520945  1.0249999999999995  9.4705906776006863   T   T   T
