Ge Se                                   
    1.000000000000000     
     3.8581001759000002    0.0000000000000000    0.0000000000000000
     0.0000000000000000    4.5265750884999996    0.0000000000000000
     0.0000000000000000    0.0000000000000000   17.0851764678999984
   Ge   Se
     4     4
Direct
  0.2500000000064801  0.1156418993976018  0.0801552005958470
  0.7500000000194404  0.8843581080031413  0.7442539830882353
  0.7500000000194404  0.6156418920520892  0.2442539830853079
  0.2500000000064801  0.3843581080583647  0.5801552054567907
  0.2500000000064801  0.5049489736306185  0.7287928754142072
  0.7500000000194404  0.4950509668320962  0.0956162937543681
  0.7500000000194404  0.0049490225086330  0.5956163131308188
  0.2500000000064801  0.9950510264246120  0.2287928947848030
 
  0.00000000E+00  0.00000000E+00  0.00000000E+00
  0.00000000E+00  0.00000000E+00  0.00000000E+00
  0.00000000E+00  0.00000000E+00  0.00000000E+00
  0.00000000E+00  0.00000000E+00  0.00000000E+00
  0.00000000E+00  0.00000000E+00  0.00000000E+00
  0.00000000E+00  0.00000000E+00  0.00000000E+00
  0.00000000E+00  0.00000000E+00  0.00000000E+00
  0.00000000E+00  0.00000000E+00  0.00000000E+00
