Ge Se 
 1.0000000000000000
    12.4601047779207939   -0.0000011097075022   -0.0000005254472809
    -0.0000011097075022   12.4601047200145061   -0.0000026626837537
    -0.0000005961616116   -0.0000030210258867   10.9821344323491843
 Ge  Se 
  36  36
Cartesian
  1.1659572999003411  0.5186911523883286  1.3561919554570461
  3.2538114470815924 11.0415849246266671  4.1157851834934815
  7.0461617387298210  2.8691331867340932  4.1425019250551660
  6.8816306216677665  6.3323507602341813  3.5403141114333425
  7.2300020856967411 10.9189212595661136  4.3662776406211430
 11.3538361976814208  2.4109936588790988  4.1347310699984883
 11.4902092403968528  6.6384177132073967  3.9749039224860407
 11.6000339867839504 10.6228593839377776  3.8585941255772984
  1.0871654801224755  1.8588857242087446  6.6769677616373606
  0.5861080545219775  6.0651457057025606  7.1483189510797356
  1.0424736693948116 10.2080598126275195  7.2045588044773758
  5.0927543564388689  1.6525907581254118  7.3118418349772911
  4.7837146063818006  5.9455466813163831  6.8908514065412687
  5.3167523145932378  9.9730817297380749  6.8501199578088388
  8.8278128965425715  1.8865927981340178  6.9944980796465597
  9.3140292700182012  5.7871072479828030  6.9527372155466276
  3.2472363558742146  6.5857573690145772  4.0097899276522115
  2.8812745953220071  2.2855816093619108  4.1765157303638327
  9.0070644709195804 10.0299982356293640  6.8897478191808599
 11.5825876793564468  7.9626099023213825  9.7640588830786346
 11.1739200541824317 11.9487306427072983  9.3143477435421005
  1.2804467737984004  4.4824072556939498  1.5598596856758040
  0.6134424406488950  8.9431993720041429  1.8371827424344491
  5.0841018903761945  0.4348465622465806  1.8908710292162803
  4.9210660405476396  4.7013401804848778  1.4749013418813444
  9.3349518594598493  0.6552829521194907  1.3841681046413776
  9.3605454430421542  4.1125634545116707  1.3890727022476121
  4.7613169060821647  9.1189675010262885  1.7377910540599841
  2.9202725453584404  3.8883813319245162  9.5883968223429878
  3.0608005752512932  8.1402553985169579  9.3606472909013902
  2.9223804070747401 12.1656112178500049  9.5758012881661010
  6.9809234812916099  4.0892649388103282  9.8290280737746514
  7.4034813260850756  8.4297929750937808  9.8667736439111451
  7.0071546729266636 12.0791551384477636  9.4885888382058514
 11.3641974602975182  3.8693276575470206  9.7663369406018692
  9.2344231026662218  8.4988414356196653  1.4992593347439189
 11.2747134329276602 -0.0548864796468784  7.0085595468357660
  2.7726213739930943  3.9762851279993208  6.7938701678414413
  2.9667204869575765  8.2677430932906191  7.6859296430857516
  6.9326487995281001  0.2290815162604371  6.7287207894749343
  7.0421374115343616  4.1809933007420099  7.0148231902208495
  7.3635587995879508  8.4109589472685204  6.7891091628954827
 11.5726299600705662  4.4853000902242153  7.2525855465924334
  9.5259074793370306 -0.1192361215494062  4.0404469065861441
  0.7740220389558083  0.0771002732709632  4.0782211274553202
  1.0698551537885446  4.4343118949098388  3.7830836956733513
  1.2410457702513025  8.7759437464136116  3.8994702035655799
  5.0637442979594356  0.3132941043556086  3.9637795829429154
  5.0046138949592631  4.4374904292244581  3.9450816475213486
  5.0651829153034633  8.1697044394038265  3.6214816826940117
  2.7606004759888290 -0.0369792873082362  6.8328208054870228
 11.3622786666666169  8.4462963804545872  6.7275645693346071
 11.0203003031754356 10.4710983261273629  1.5974943917488746
  3.2623713790547630  2.2099849603401083  1.5080838393523115
 11.4106860411772235  1.9482630975278696  1.4145330636882572
  9.2417651608200604  4.3831078593266497  3.8042793079484354
  1.1300394735955772  2.1342880072173323  9.4691515240290975
  0.7020229612407359  6.2610553974930916  9.2933183885542547
  0.8388998032096482 10.6814551364999630  9.2120946328961484
  5.1674250474752821  2.0305567898016879  9.4997582725338052
  4.9127037212143794  6.3132635509403912  9.3539220352375487
  5.2422898102256177 10.5769738754967619  9.6455524500835104
  9.1015666064774958  2.1706914772088641  9.7528303362529538
  8.8441540177948426  6.1954179037200383  9.3940597799430243
  9.5377904675916483 10.4024003722987608  9.5883430434497896
  3.2799408014464313  6.2997708154410423  1.3320280720817625
  3.1112988698302315 10.4605189584217140  1.8021939335730410
  7.2067847006685497  1.9061775208623850  1.5984236229284332
  7.1012320622972833  6.2776614911022319  1.7634741626618164
  6.7445094266068919 10.3128920544150020  1.4430715689948985
 11.1084176913128250  6.1070274585767299  1.4637851526400298
  9.3808449372502469  8.5621777274435669  3.8745671401749888
