Ge Se
 1.0000000000000000
     4.0000000000000000    0.0000000000000000    0.0000000000000000
     0.0000000000000000    3.8000000000000003    0.0000000000000000
     0.0000000000000000    0.0000000000000000   11.1422209999999993
 Ge  Se 
   4   4
Cartesian
  0.0965615183368057  0.9500000000000001  1.5340904512671838
  2.0965615183368058  2.8500000000000001  4.0370200487328161
  3.9034384816631942  2.8500000000000001  9.6081305487328148
  1.9034384816631942  0.9500000000000001  7.1052009512671832
  0.0000000000000000  0.9500000000000001  4.0922686845371983
  2.0000000000000000  2.8500000000000001  1.4788418154628014
  4.0000000000000000  2.8500000000000001  7.0499523154628001
  2.0000000000000000  0.9500000000000001  9.6633791845371988
