Ge Se
 1.0000000000000000
     4.6499999999999995    0.0000000000000000    0.0000000000000000
     0.0000000000000000    3.8999999999999999    0.0000000000000000
     0.0000000000000000    0.0000000000000000   11.1422209999999993
 Ge  Se 
   4   4
Cartesian
  0.3667907115140526  0.9750000000000000  1.4769041792975388
  2.6917907115140522  2.9249999999999998  4.0942063207024608
  4.2832092884859465  2.9249999999999998  9.6653168207024596
  1.9582092884859470  0.9750000000000000  7.0480146792975393
  0.0000000000000000  0.9750000000000000  4.0104914728295800
  2.3249999999999997  2.9249999999999998  1.5606190271704192
  4.6499999999999995  2.9249999999999998  7.1317295271704193
  2.3249999999999997  0.9750000000000000  9.5816019728295796
