Ge Se
 1.0000000000000000
     3.8999999999999999    0.0000000000000000    0.0000000000000000
     0.0000000000000000    4.0999999999999996    0.0000000000000000
     0.0000000000000000    0.0000000000000000   11.1422209999999993
 Ge  Se 
   4   4
Cartesian
  0.9750000000000000  0.0940525167900163  1.5693900966846670
  2.9249999999999998  2.1440525167900160  4.0017204033153320
  2.9249999999999998  4.0059474832099831  9.5728309033153316
  0.9750000000000000  1.9559474832099835  7.1405005966846673
  0.9750000000000000  0.0000000000000000  4.1276618031469541
  2.9249999999999998  2.0499999999999998  1.4434486968530453
  2.9249999999999998  4.0999999999999996  7.0145591968530452
  0.9750000000000000  2.0499999999999998  9.6987723031469546
