Ge Se
 1.0000000000000000
     4.6499999999999995    0.0000000000000000    0.0000000000000000
     0.0000000000000000    3.9500000000000002    0.0000000000000000
     0.0000000000000000    0.0000000000000000   11.1422209999999993
 Ge  Se 
   4   4
Cartesian
  0.3365000455528881  0.9875000000000000  1.5023837673465699
  2.6615000455528879  2.9625000000000004  4.0687267326534293
  4.3134999544471118  2.9625000000000004  9.6398372326534290
  1.9884999544471118  0.9875000000000000  7.0734942673465699
  0.0000000000000000  0.9875000000000000  4.0401717252624607
  2.3249999999999997  2.9625000000000004  1.5309387747375391
  4.6499999999999995  2.9625000000000004  7.1020492747375386
  2.3249999999999997  0.9875000000000000  9.6112822252624603
