Ge Se
 1.0000000000000000
     4.0000000000000000    0.0000000000000000    0.0000000000000000
     0.0000000000000000    4.3499999999999996    0.0000000000000000
     0.0000000000000000    0.0000000000000000   11.1422209999999993
 Ge  Se 
   4   4
Cartesian
  1.0000000000000000  0.1620209697897056  1.5787764279738727
  3.0000000000000000  2.3370209697897053  3.9923340720261269
  3.0000000000000000  4.1879790302102942  9.5634445720261265
  1.0000000000000000  2.0129790302102943  7.1498869279738724
  1.0000000000000000  0.0000000000000000  4.1336441751084294
  3.0000000000000000  2.1749999999999998  1.4374663248915702
  3.0000000000000000  4.3499999999999996  7.0085768248915707
  1.0000000000000000  2.1749999999999998  9.7047546751084290
