Ge Se
 1.0000000000000000
     4.1500000000000004    0.0000000000000000    0.0000000000000000
     0.0000000000000000    3.8000000000000003    0.0000000000000000
     0.0000000000000000    0.0000000000000000   11.1422209999999993
 Ge  Se 
   4   4
Cartesian
  0.1707598720047712  0.9500000000000001  1.5083995104208054
  2.2457598720047711  2.8500000000000001  4.0627109895791946
  3.9792401279952290  2.8500000000000001  9.6338214895791943
  1.9042401279952292  0.9500000000000001  7.0795100104208046
  0.0000000000000000  0.9500000000000001  4.0626980572067746
  2.0750000000000002  2.8500000000000001  1.5084124427932253
  4.1500000000000004  2.8500000000000001  7.0795229427932247
  2.0750000000000002  0.9500000000000001  9.6338085572067751
