Ge Se
 1.0000000000000000
     3.8999999999999999    0.0000000000000000    0.0000000000000000
     0.0000000000000000    4.5999999999999996    0.0000000000000000
     0.0000000000000000    0.0000000000000000   11.1422209999999993
 Ge  Se 
   4   4
Cartesian
  0.9750000000000000  0.3410415161990745  1.4850526286569987
  2.9249999999999998  2.6410415161990746  4.0860578713430007
  2.9249999999999998  4.2589584838009253  9.6571683713429994
  0.9750000000000000  1.9589584838009253  7.0561631286569986
  0.9750000000000000  0.0000000000000000  4.0222342706031631
  2.9249999999999998  2.2999999999999998  1.5488762293968363
  2.9249999999999998  4.5999999999999996  7.1199867293968353
  0.9750000000000000  2.2999999999999998  9.5933447706031636
