Ge Se
 1.0000000000000000
     4.5000000000000000    0.0000000000000000    0.0000000000000000
     0.0000000000000000    4.2000000000000002    0.0000000000000000
     0.0000000000000000    0.0000000000000000   11.1422209999999993
 Ge  Se 
   4   4
Cartesian
  0.1316964298568395  1.0500000000000000  1.6578869006068409
  2.3816964298568393  3.1500000000000004  3.9132235993931590
  4.3683035701431603  3.1500000000000004  9.4843340993931591
  2.1183035701431607  1.0500000000000000  7.2289974006068398
  0.0000000000000000  1.0500000000000000  4.2144971662443238
  2.2500000000000000  3.1500000000000004  1.3566133337556758
  4.5000000000000000  3.1500000000000004  6.9277238337556755
  2.2500000000000000  1.0500000000000000  9.7856076662443243
