Ge Se
 1.0000000000000000
     4.5999999999999996    0.0000000000000000    0.0000000000000000
     0.0000000000000000    4.5000000000000000    0.0000000000000000
     0.0000000000000000    0.0000000000000000   11.1422209999999993
 Ge  Se 
   4   4
Cartesian
  0.0404525321899593  1.1250000000000000  1.7988895024404228
  2.3404525321899592  3.3750000000000000  3.7722209975595766
  4.5595474678100407  3.3750000000000000  9.3433314975595767
  2.2595474678100405  1.1250000000000000  7.3700000024404222
  0.0000000000000000  1.1250000000000000  4.3585698716739376
  2.2999999999999998  3.3750000000000000  1.2125406283260625
  4.5999999999999996  3.3750000000000000  6.7836511283260617
  2.2999999999999998  1.1250000000000000  9.9296803716739372
