Ge Se
 1.0000000000000000
     4.5999999999999996    0.0000000000000000    0.0000000000000000
     0.0000000000000000    4.2000000000000002    0.0000000000000000
     0.0000000000000000    0.0000000000000000   11.1422209999999993
 Ge  Se 
   4   4
Cartesian
  0.1767174634614019  1.0500000000000000  1.6405622400862998
  2.4767174634614015  3.1500000000000004  3.9305482599136989
  4.4232825365385979  3.1500000000000004  9.5016587599137008
  2.1232825365385981  1.0500000000000000  7.2116727400862999
  0.0000000000000000  1.0500000000000000  4.1944555303605364
  2.2999999999999998  3.1500000000000004  1.3766549696394625
  4.5999999999999996  3.1500000000000004  6.9477654696394628
  2.2999999999999998  1.0500000000000000  9.7655660303605369
