Ge Se
 1.0000000000000000
     4.6499999999999995    0.0000000000000000    0.0000000000000000
     0.0000000000000000    4.5499999999999998    0.0000000000000000
     0.0000000000000000    0.0000000000000000   11.1422209999999993
 Ge  Se 
   4   4
Cartesian
  0.0400055147462930  1.1375000000000000  1.8165634578190182
  2.3650055147462927  3.4124999999999996  3.7545470421809810
  4.6099944852537069  3.4124999999999996  9.3256575421809806
  2.2849944852537067  1.1375000000000000  7.3876739578190183
  0.0000000000000000  1.1375000000000000  4.3762508525588295
  2.3249999999999997  3.4124999999999996  1.1948596474411695
  4.6499999999999995  3.4124999999999996  6.7659701474411698
  2.3249999999999997  1.1375000000000000  9.9473613525588291
