Ge Se
 1.0000000000000000
     3.7500000000000000    0.0000000000000000    0.0000000000000000
     0.0000000000000000    4.2999999999999998    0.0000000000000000
     0.0000000000000000    0.0000000000000000   11.1422209999999993
 Ge  Se 
   4   4
Cartesian
  0.9375000000000000  0.2760500365380361  1.4574842404175787
  2.8125000000000000  2.4260500365380362  4.1136262595824205
  2.8125000000000000  4.0239499634619635  9.6847367595824192
  0.9375000000000000  1.8739499634619636  7.0285947404175788
  0.9375000000000000  0.0000000000000000  4.0025572015185666
  2.8125000000000000  2.1499999999999999  1.5685532984814330
  2.8125000000000000  4.2999999999999998  7.1396637984814326
  0.9375000000000000  2.1499999999999999  9.5736677015185663
