Ge Se
 1.0000000000000000
     3.9500000000000002    0.0000000000000000    0.0000000000000000
     0.0000000000000000    3.8999999999999999    0.0000000000000000
     0.0000000000000000    0.0000000000000000   11.1422209999999993
 Ge  Se 
   4   4
Cartesian
  0.0232824727635521  0.9750000000000000  1.5955949746951725
  1.9982824727635524  2.9249999999999998  3.9755155253048269
  3.9267175272364478  2.9249999999999998  9.5466260253048265
  1.9517175272364478  0.9750000000000000  7.1667054746951724
  0.0000000000000000  0.9750000000000000  4.1554890987678883
  1.9750000000000001  2.9249999999999998  1.4156214012321116
  3.9500000000000002  2.9249999999999998  6.9867319012321110
  1.9750000000000001  0.9750000000000000  9.7265995987678870
