Ge Se
 1.0000000000000000
     4.7500000000000000    0.0000000000000000    0.0000000000000000
     0.0000000000000000    4.0999999999999996    0.0000000000000000
     0.0000000000000000    0.0000000000000000   11.1422209999999993
 Ge  Se 
   4   4
Cartesian
  0.2994048456126804  1.0249999999999999  1.5628659102984712
  2.6744048456126803  3.0749999999999997  4.0082445897015289
  4.4505951543873197  3.0749999999999997  9.5793550897015276
  2.0755951543873197  1.0249999999999999  7.1339764102984704
  0.0000000000000000  1.0249999999999999  4.1052971755293814
  2.3750000000000000  3.0749999999999997  1.4658133244706184
  4.7500000000000000  3.0749999999999997  7.0369238244706178
  2.3750000000000000  1.0249999999999999  9.6764076755293811
