Ge Se
 1.0000000000000000
     4.2500000000000000    0.0000000000000000    0.0000000000000000
     0.0000000000000000    4.7999999999999998    0.0000000000000000
     0.0000000000000000    0.0000000000000000   11.1422209999999993
 Ge  Se 
   4   4
Cartesian
  1.0625000000000000  0.2423929603742551  1.6323051780946991
  3.1875000000000000  2.6423929603742553  3.9388053219053005
  3.1875000000000000  4.5576070396257444  9.5099158219053006
  1.0625000000000000  2.1576070396257445  7.2034156780946992
  1.0625000000000000  0.0000000000000000  4.1808038837567221
  3.1875000000000000  2.3999999999999999  1.3903066162432776
  3.1875000000000000  4.7999999999999998  6.9614171162432772
  1.0625000000000000  2.3999999999999999  9.7519143837567217
