Ge Se
 1.0000000000000000
     3.7500000000000000    0.0000000000000000    0.0000000000000000
     0.0000000000000000    4.0499999999999998    0.0000000000000000
     0.0000000000000000    0.0000000000000000   11.1422209999999993
 Ge  Se 
   4   4
Cartesian
  0.9375000000000000  0.1478363963546299  1.4993008027228891
  2.8125000000000000  2.1728363963546298  4.0718096972771107
  2.8125000000000000  3.9021636036453700  9.6429201972771104
  0.9375000000000000  1.8771636036453700  7.0704113027228876
  0.9375000000000000  0.0000000000000000  4.0550285659858067
  2.8125000000000000  2.0249999999999999  1.5160819340141929
  2.8125000000000000  4.0499999999999998  7.0871924340141916
  0.9375000000000000  2.0249999999999999  9.6261390659858073
