Ge Se
 1.0000000000000000
     4.4500000000000002    0.0000000000000000    0.0000000000000000
     0.0000000000000000    4.2999999999999998    0.0000000000000000
     0.0000000000000000    0.0000000000000000   11.1422209999999993
 Ge  Se 
   4   4
Cartesian
  0.0637068824571302  1.0750000000000000  1.7194049091506463
  2.2887068824571304  3.2249999999999996  3.8517055908493534
  4.3862931175428699  3.2249999999999996  9.4228160908493521
  2.1612931175428698  1.0750000000000000  7.2905154091506468
  0.0000000000000000  1.0750000000000000  4.2786120975446602
  2.2250000000000001  3.2249999999999996  1.2924984024553394
  4.4500000000000002  3.2249999999999996  6.8636089024553391
  2.2250000000000001  1.0750000000000000  9.8497225975446607
