Ge Se
 1.0000000000000000
     4.0999999999999996    0.0000000000000000    0.0000000000000000
     0.0000000000000000    4.5999999999999996    0.0000000000000000
     0.0000000000000000    0.0000000000000000   11.1422209999999993
 Ge  Se 
   4   4
Cartesian
  1.0249999999999999  0.2279454780413183  1.5882676140488288
  3.0749999999999997  2.5279454780413180  3.9828428859511709
  3.0749999999999997  4.3720545219586819  9.5539533859511714
  1.0249999999999999  2.0720545219586817  7.1593781140488275
  1.0249999999999999  0.0000000000000000  4.1380991494723975
  3.0749999999999997  2.2999999999999998  1.4330113505276021
  3.0749999999999997  4.5999999999999996  7.0041218505276017
  1.0249999999999999  2.2999999999999998  9.7092096494723972
