Ge Se
 1.0000000000000000
     3.7000000000000002    0.0000000000000000    0.0000000000000000
     0.0000000000000000    3.8999999999999999    0.0000000000000000
     0.0000000000000000    0.0000000000000000   11.1422209999999993
 Ge  Se 
   4   4
Cartesian
  0.9250000000000000  0.0992080811170876  1.4987964989435294
  2.7750000000000004  2.0492080811170879  4.0723140010564709
  2.7750000000000004  3.8007919188829122  9.6434245010564705
  0.9250000000000000  1.8507919188829121  7.0699069989435284
  0.9250000000000000  0.0000000000000000  4.0568734635091124
  2.7750000000000004  1.9500000000000000  1.5142370364908875
  2.7750000000000004  3.8999999999999999  7.0853475364908878
  0.9250000000000000  1.9500000000000000  9.6279839635091111
