Ge Se
 1.0000000000000000
     4.4500000000000002    0.0000000000000000    0.0000000000000000
     0.0000000000000000    4.7000000000000002    0.0000000000000000
     0.0000000000000000    0.0000000000000000   11.1422209999999993
 Ge  Se 
   4   4
Cartesian
  1.1125000000000000  0.1031667770820101  1.7548361607365452
  3.3375000000000004  2.4531667770820107  3.8162743392634551
  3.3375000000000004  4.5968332229179900  9.3873848392634542
  1.1125000000000000  2.2468332229179895  7.3259466607365447
  1.1125000000000000  0.0000000000000000  4.3127565301199455
  3.3375000000000004  2.3500000000000001  1.2583539698800541
  3.3375000000000004  4.7000000000000002  6.8294644698800537
  1.1125000000000000  2.3500000000000001  9.8838670301199461
