Ge Se
 1.0000000000000000
     4.7999999999999998    0.0000000000000000    0.0000000000000000
     0.0000000000000000    4.4000000000000004    0.0000000000000000
     0.0000000000000000    0.0000000000000000   11.1422209999999993
 Ge  Se 
   4   4
Cartesian
  0.1684878864700818  1.1000000000000001  1.7109706901091697
  2.5684878864700820  3.3000000000000003  3.8601398098908302
  4.6315121135299178  3.3000000000000003  9.4312503098908298
  2.2315121135299179  1.1000000000000001  7.2820811901091682
  0.0000000000000000  1.1000000000000001  4.2654201086948742
  2.3999999999999999  3.3000000000000003  1.3056903913051254
  4.7999999999999998  3.3000000000000003  6.8768008913051251
  2.3999999999999999  1.1000000000000001  9.8365306086948738
