Ge Se
 1.0000000000000000
     3.9500000000000002    0.0000000000000000    0.0000000000000000
     0.0000000000000000    4.4500000000000002    0.0000000000000000
     0.0000000000000000    0.0000000000000000   11.1422209999999993
 Ge  Se 
   4   4
Cartesian
  0.9875000000000000  0.2369062512124912  1.5356990319789552
  2.9625000000000004  2.4619062512124912  4.0354114680210449
  2.9625000000000004  4.2130937487875091  9.6065219680210436
  0.9875000000000000  1.9880937487875090  7.1068095319789544
  0.9875000000000000  0.0000000000000000  4.0847136314146759
  2.9625000000000004  2.2250000000000001  1.4863968685853242
  2.9625000000000004  4.4500000000000002  7.0575073685853233
  0.9875000000000000  2.2250000000000001  9.6558241314146755
