Ge Se
 1.0000000000000000
     4.0999999999999996    0.0000000000000000    0.0000000000000000
     0.0000000000000000    4.5499999999999998    0.0000000000000000
     0.0000000000000000    0.0000000000000000   11.1422209999999993
 Ge  Se 
   4   4
Cartesian
  1.0249999999999999  0.2044625406392425  1.5968066121056721
  3.0749999999999997  2.4794625406392421  3.9743038878943273
  3.0749999999999997  4.3455374593607567  9.5454143878943274
  1.0249999999999999  2.0705374593607577  7.1679171121056715
  1.0249999999999999  0.0000000000000000  4.1486285238924934
  3.0749999999999997  2.2749999999999999  1.4224819761075067
  3.0749999999999997  4.5499999999999998  6.9935924761075059
  1.0249999999999999  2.2749999999999999  9.7197390238924921
