Ge Se
 1.0000000000000000
     4.4500000000000002    0.0000000000000000    0.0000000000000000
     0.0000000000000000    4.0499999999999998    0.0000000000000000
     0.0000000000000000    0.0000000000000000   11.1422209999999993
 Ge  Se 
   4   4
Cartesian
  0.1834377203411835  1.0125000000000000  1.5877952894181486
  2.4084377203411838  3.0374999999999996  3.9833152105818508
  4.2665622796588165  3.0374999999999996  9.5544257105818513
  2.0415622796588164  1.0125000000000000  7.1589057894181485
  0.0000000000000000  1.0125000000000000  4.1412146836336836
  2.2250000000000001  3.0374999999999996  1.4298958163663162
  4.4500000000000002  3.0374999999999996  7.0010063163663157
  2.2250000000000001  1.0125000000000000  9.7123251836336824
