Ge Se
 1.0000000000000000
     3.7500000000000000    0.0000000000000000    0.0000000000000000
     0.0000000000000000    4.6499999999999995    0.0000000000000000
     0.0000000000000000    0.0000000000000000   11.1422209999999993
 Ge  Se 
   4   4
Cartesian
  0.9375000000000000  0.4644928006111227  1.4017635025862347
  2.8125000000000000  2.7894928006111228  4.1693469974137649
  2.8125000000000000  4.1855071993888773  9.7404574974137645
  0.9375000000000000  1.8605071993888769  6.9728740025862344
  0.9375000000000000  0.0000000000000000  3.9192714843373229
  2.8125000000000000  2.3249999999999997  1.6518390156626765
  2.8125000000000000  4.6499999999999995  7.2229495156626760
  0.9375000000000000  2.3249999999999997  9.4903819843373221
