Ge Se
 1.0000000000000000
     4.1500000000000004    0.0000000000000000    0.0000000000000000
     0.0000000000000000    4.7999999999999998    0.0000000000000000
     0.0000000000000000    0.0000000000000000   11.1422209999999993
 Ge  Se 
   4   4
Cartesian
  1.0375000000000001  0.2956353449796665  1.5802997262938967
  3.1125000000000003  2.6956353449796659  3.9908107737061029
  3.1125000000000003  4.5043646550203338  9.5619212737061012
  1.0375000000000001  2.1043646550203339  7.1514102262938968
  1.0375000000000001  0.0000000000000000  4.1231720673284906
  3.1125000000000003  2.3999999999999999  1.4479384326715095
  3.1125000000000003  4.7999999999999998  7.0190489326715086
  1.0375000000000001  2.3999999999999999  9.6942825673284894
