Ge Se
 1.0000000000000000
     4.5499999999999998    0.0000000000000000    0.0000000000000000
     0.0000000000000000    4.6499999999999995    0.0000000000000000
     0.0000000000000000    0.0000000000000000   11.1422209999999993
 Ge  Se 
   4   4
Cartesian
  1.1375000000000000  0.0400055147462930  1.8165634578190182
  3.4124999999999996  2.3650055147462927  3.7545470421809810
  3.4124999999999996  4.6099944852537069  9.3256575421809806
  1.1375000000000000  2.2849944852537067  7.3876739578190183
  1.1375000000000000  0.0000000000000000  4.3762508525588295
  3.4124999999999996  2.3249999999999997  1.1948596474411695
  3.4124999999999996  4.6499999999999995  6.7659701474411698
  1.1375000000000000  2.3249999999999997  9.9473613525588291
