Ge Se
 1.0000000000000000
     4.2999999999999998    0.0000000000000000    0.0000000000000000
     0.0000000000000000    4.7999999999999998    0.0000000000000000
     0.0000000000000000    0.0000000000000000   11.1422209999999993
 Ge  Se 
   4   4
Cartesian
  1.0750000000000000  0.2170028034836474  1.6584527416452910
  3.2249999999999996  2.6170028034836470  3.9126577583547086
  3.2249999999999996  4.5829971965163523  9.4837682583547078
  1.0750000000000000  2.1829971965163528  7.2295632416452911
  1.0750000000000000  0.0000000000000000  4.2092388524903850
  3.2249999999999996  2.3999999999999999  1.3618716475096151
  3.2249999999999996  4.7999999999999998  6.9329821475096143
  1.0750000000000000  2.3999999999999999  9.7803493524903846
