Ge Se
 1.0000000000000000
     4.0499999999999998    0.0000000000000000    0.0000000000000000
     0.0000000000000000    3.8999999999999999    0.0000000000000000
     0.0000000000000000    0.0000000000000000   11.1422209999999993
 Ge  Se 
   4   4
Cartesian
  0.0703055951489105  0.9750000000000000  1.5780824345292703
  2.0953055951489103  2.9249999999999998  3.9930280654707291
  3.9796944048510894  2.9249999999999998  9.5641385654707278
  1.9546944048510895  0.9750000000000000  7.1491929345292702
  0.0000000000000000  0.9750000000000000  4.1371168468205077
  2.0249999999999999  2.9249999999999998  1.4339936531794921
  4.0499999999999998  2.9249999999999998  7.0051041531794915
  2.0249999999999999  0.9750000000000000  9.7082273468205074
