Ge Se
 1.0000000000000000
     3.8000000000000003    0.0000000000000000    0.0000000000000000
     0.0000000000000000    4.7000000000000002    0.0000000000000000
     0.0000000000000000    0.0000000000000000   11.1422209999999993
 Ge  Se 
   4   4
Cartesian
  0.9500000000000001  0.4579259126456677  1.4187451001027231
  2.8500000000000001  2.8079259126456679  4.1523653998972767
  2.8500000000000001  4.2420740873543332  9.7234758998972772
  0.9500000000000001  1.8920740873543322  6.9898556001027217
  0.9500000000000001  0.0000000000000000  3.9374558533508273
  2.8500000000000001  2.3500000000000001  1.6336546466491724
  2.8500000000000001  4.7000000000000002  7.2047651466491720
  0.9500000000000001  2.3500000000000001  9.5085663533508278
