Ge Se
 1.0000000000000000
     4.4500000000000002    0.0000000000000000    0.0000000000000000
     0.0000000000000000    3.8500000000000001    0.0000000000000000
     0.0000000000000000    0.0000000000000000   11.1422209999999993
 Ge  Se 
   4   4
Cartesian
  0.2940926527888437  0.9625000000000000  1.4841007833911273
  2.5190926527888440  2.8875000000000002  4.0870097166088719
  4.1559073472111567  2.8875000000000002  9.6581202166088715
  1.9309073472111562  0.9625000000000000  7.0552112833911274
  0.0000000000000000  0.9625000000000000  4.0271520041839013
  2.2250000000000001  2.8875000000000002  1.5439584958160981
  4.4500000000000002  2.8875000000000002  7.1150689958160980
  2.2250000000000001  0.9625000000000000  9.5982625041839018
