Ge Se
 1.0000000000000000
     4.5999999999999996    0.0000000000000000    0.0000000000000000
     0.0000000000000000    4.4500000000000002    0.0000000000000000
     0.0000000000000000    0.0000000000000000   11.1422209999999993
 Ge  Se 
   4   4
Cartesian
  0.0615408783462048  1.1125000000000000  1.7724091404918498
  2.3615408783462044  3.3375000000000004  3.7987013595081494
  4.5384591216537951  3.3375000000000004  9.3698118595081485
  2.2384591216537952  1.1125000000000000  7.3435196404918495
  0.0000000000000000  1.1125000000000000  4.3316693305257541
  2.2999999999999998  3.3375000000000004  1.2394411694742449
  4.5999999999999996  3.3375000000000004  6.8105516694742452
  2.2999999999999998  1.1125000000000000  9.9027798305257537
