Ge Se
 1.0000000000000000
     3.9500000000000002    0.0000000000000000    0.0000000000000000
     0.0000000000000000    4.2000000000000002    0.0000000000000000
     0.0000000000000000    0.0000000000000000   11.1422209999999993
 Ge  Se 
   4   4
Cartesian
  0.9875000000000000  0.1164427476080071  1.5783784464008153
  2.9625000000000004  2.2164427476080073  3.9927320535991844
  2.9625000000000004  4.0835572523919925  9.5638425535991836
  0.9875000000000000  1.9835572523919929  7.1494889464008153
  0.9875000000000000  0.0000000000000000  4.1357288499492801
  2.9625000000000004  2.1000000000000001  1.4353816500507193
  2.9625000000000004  4.2000000000000002  7.0064921500507191
  0.9875000000000000  2.1000000000000001  9.7068393499492789
