Ge Se
 1.0000000000000000
     4.0499999999999998    0.0000000000000000    0.0000000000000000
     0.0000000000000000    4.5000000000000000    0.0000000000000000
     0.0000000000000000    0.0000000000000000   11.1422209999999993
 Ge  Se 
   4   4
Cartesian
  1.0125000000000000  0.2070636923856171  1.5792474212012528
  3.0374999999999996  2.4570636923856175  3.9918630787987470
  3.0374999999999996  4.2929363076143829  9.5629735787987471
  1.0125000000000000  2.0429363076143825  7.1503579212012518
  1.0125000000000000  0.0000000000000000  4.1308595835989070
  3.0374999999999996  2.2500000000000000  1.4402509164010924
  3.0374999999999996  4.5000000000000000  7.0113614164010922
  1.0125000000000000  2.2500000000000000  9.7019700835989067
