Ge Se
 1.0000000000000000
     3.9500000000000002    0.0000000000000000    0.0000000000000000
     0.0000000000000000    4.5000000000000000    0.0000000000000000
     0.0000000000000000    0.0000000000000000   11.1422209999999993
 Ge  Se 
   4   4
Cartesian
  0.9875000000000000  0.2615227069539279  1.5272977473259808
  2.9625000000000004  2.5115227069539281  4.0438127526740182
  2.9625000000000004  4.2384772930460723  9.6149232526740178
  0.9875000000000000  1.9884772930460719  7.0984082473259811
  0.9875000000000000  0.0000000000000000  4.0739044844857428
  2.9625000000000004  2.2500000000000000  1.4972060155142566
  2.9625000000000004  4.5000000000000000  7.0683165155142573
  0.9875000000000000  2.2500000000000000  9.6450149844857425
