Ge Se
 1.0000000000000000
     4.5499999999999998    0.0000000000000000    0.0000000000000000
     0.0000000000000000    3.8999999999999999    0.0000000000000000
     0.0000000000000000    0.0000000000000000   11.1422209999999993
 Ge  Se 
   4   4
Cartesian
  0.3154985512879017  0.9750000000000000  1.4932570975023953
  2.5904985512879013  2.9249999999999998  4.0778534024976043
  4.2345014487120975  2.9249999999999998  9.6489639024976039
  1.9595014487120983  0.9750000000000000  7.0643675975023950
  0.0000000000000000  0.9750000000000000  4.0337414340286477
  2.2749999999999999  2.9249999999999998  1.5373690659713513
  4.5499999999999998  2.9249999999999998  7.1084795659713516
  2.2749999999999999  0.9750000000000000  9.6048519340286482
