Ge Se
 1.0000000000000000
     4.5999999999999996    0.0000000000000000    0.0000000000000000
     0.0000000000000000    4.0000000000000000    0.0000000000000000
     0.0000000000000000    0.0000000000000000   11.1422209999999993
 Ge  Se 
   4   4
Cartesian
  0.2825917542657685  1.0000000000000000  1.5363837261963165
  2.5825917542657684  3.0000000000000000  4.0347267738036834
  4.3174082457342315  3.0000000000000000  9.6058372738036830
  2.0174082457342313  1.0000000000000000  7.1074942261963159
  0.0000000000000000  1.0000000000000000  4.0807386346988617
  2.2999999999999998  3.0000000000000000  1.4903718653011377
  4.5999999999999996  3.0000000000000000  7.0614823653011376
  2.2999999999999998  1.0000000000000000  9.6518491346988604
