Ge Se
 1.0000000000000000
     3.9500000000000002    0.0000000000000000    0.0000000000000000
     0.0000000000000000    4.2500000000000000    0.0000000000000000
     0.0000000000000000    0.0000000000000000   11.1422209999999993
 Ge  Se 
   4   4
Cartesian
  0.9875000000000000  0.1401996995254715  1.5697562804387384
  2.9625000000000004  2.2651996995254717  4.0013542195612617
  2.9625000000000004  4.1098003004745287  9.5724647195612604
  0.9875000000000000  1.9848003004745285  7.1408667804387376
  0.9875000000000000  0.0000000000000000  4.1259143436760191
  2.9625000000000004  2.1250000000000000  1.4451961563239801
  2.9625000000000004  4.2500000000000000  7.0163066563239802
  0.9875000000000000  2.1250000000000000  9.6970248436760187
