Ge Se
 1.0000000000000000
     4.4000000000000004    0.0000000000000000    0.0000000000000000
     0.0000000000000000    4.0499999999999998    0.0000000000000000
     0.0000000000000000    0.0000000000000000   11.1422209999999993
 Ge  Se 
   4   4
Cartesian
  0.1599743194702516  1.0125000000000000  1.5963801734858394
  2.3599743194702518  3.0374999999999996  3.9747303265141598
  4.2400256805297492  3.0374999999999996  9.5458408265141603
  2.0400256805297485  1.0125000000000000  7.1674906734858395
  0.0000000000000000  1.0125000000000000  4.1513768891608382
  2.2000000000000002  3.0374999999999996  1.4197336108391614
  4.4000000000000004  3.0374999999999996  6.9908441108391610
  2.2000000000000002  1.0125000000000000  9.7224873891608379
