Ge Se
 1.0000000000000000
     4.2000000000000002    0.0000000000000000    0.0000000000000000
     0.0000000000000000    4.7000000000000002    0.0000000000000000
     0.0000000000000000    0.0000000000000000   11.1422209999999993
 Ge  Se 
   4   4
Cartesian
  1.0500000000000000  0.2223394170702935  1.6233479954992061
  3.1500000000000004  2.5723394170702938  3.9477625045007940
  3.1500000000000004  4.4776605829297065  9.5188730045007937
  1.0500000000000000  2.1276605829297064  7.1944584954992052
  1.0500000000000000  0.0000000000000000  4.1736744811901740
  3.1500000000000004  2.3500000000000001  1.3974360188098258
  3.1500000000000004  4.7000000000000002  6.9685465188098252
  1.0500000000000000  2.3500000000000001  9.7447849811901737
