Ge Se
 1.0000000000000000
     3.8500000000000001    0.0000000000000000    0.0000000000000000
     0.0000000000000000    4.0999999999999996    0.0000000000000000
     0.0000000000000000    0.0000000000000000   11.1422209999999993
 Ge  Se 
   4   4
Cartesian
  0.9625000000000000  0.1195189237825949  1.5431067258197995
  2.8875000000000002  2.1695189237825949  4.0280037741801999
  2.8875000000000002  3.9804810762174045  9.5991142741802005
  0.9625000000000000  1.9304810762174047  7.1142172258197993
  0.9625000000000000  0.0000000000000000  4.1003152090799837
  2.8875000000000002  2.0499999999999998  1.4707952909200164
  2.8875000000000002  4.0999999999999996  7.0419057909200156
  0.9625000000000000  2.0499999999999998  9.6714257090799833
