Ge Se
 1.0000000000000000
     4.2000000000000002    0.0000000000000000    0.0000000000000000
     0.0000000000000000    4.2000000000000002    0.0000000000000000
     0.0000000000000000    0.0000000000000000   11.1422209999999993
 Ge  Se 
   4   4
Cartesian
  0.0000000000000000  1.0500000000000000  1.7104794904917502
  2.1000000000000001  3.1500000000000004  3.8606310095082503
  4.2000000000000002  3.1500000000000004  9.4317415095082495
  2.1000000000000001  1.0500000000000000  7.2815899904917494
  0.0000000000000000  1.0500000000000000  4.2704794904917502
  2.1000000000000001  3.1500000000000004  1.3006310095082498
  4.2000000000000002  3.1500000000000004  6.8717415095082490
  2.1000000000000001  1.0500000000000000  9.8415899904917499
