Ge Se
 1.0000000000000000
     4.5499999999999998    0.0000000000000000    0.0000000000000000
     0.0000000000000000    4.7999999999999998    0.0000000000000000
     0.0000000000000000    0.0000000000000000   11.1422209999999993
 Ge  Se 
   4   4
Cartesian
  1.1375000000000000  0.1008668342275823  1.7901431510991486
  3.4124999999999996  2.5008668342275819  3.7809673489008508
  3.4124999999999996  4.6991331657724178  9.3520778489008514
  1.1375000000000000  2.2991331657724179  7.3612536510991493
  1.1375000000000000  0.0000000000000000  4.3481552468002036
  3.4124999999999996  2.3999999999999999  1.2229552531997954
  3.4124999999999996  4.7999999999999998  6.7940657531997957
  1.1375000000000000  2.3999999999999999  9.9192657468002032
