Ge Se
 1.0000000000000000
     3.8999999999999999    0.0000000000000000    0.0000000000000000
     0.0000000000000000    3.8999999999999999    0.0000000000000000
     0.0000000000000000    0.0000000000000000   11.1422209999999993
 Ge  Se 
   4   4
Cartesian
  0.0000000000000000  0.9750000000000000  1.6044134733137678
  1.9500000000000000  2.9249999999999998  3.9666970266862318
  3.8999999999999999  2.9249999999999998  9.5378075266862314
  1.9500000000000000  0.9750000000000000  7.1755239733137666
  0.0000000000000000  0.9750000000000000  4.1644134733137674
  1.9500000000000000  2.9249999999999998  1.4066970266862318
  3.8999999999999999  2.9249999999999998  6.9778075266862318
  1.9500000000000000  0.9750000000000000  9.7355239733137680
