Ge Se
 1.0000000000000000
     4.0999999999999996    0.0000000000000000    0.0000000000000000
     0.0000000000000000    3.9500000000000002    0.0000000000000000
     0.0000000000000000    0.0000000000000000   11.1422209999999993
 Ge  Se 
   4   4
Cartesian
  0.0694069475192016  0.9875000000000000  1.5957456447723140
  2.1194069475192014  2.9625000000000004  3.9753648552276859
  4.0305930524807980  2.9625000000000004  9.5464753552276864
  1.9805930524807980  0.9875000000000000  7.1668561447723134
  0.0000000000000000  0.9875000000000000  4.1548045881411584
  2.0499999999999998  2.9625000000000004  1.4163059118588412
  4.0999999999999996  2.9625000000000004  6.9874164118588418
  2.0499999999999998  0.9875000000000000  9.7259150881411571
