Ge Se
 1.0000000000000000
     4.4500000000000002    0.0000000000000000    0.0000000000000000
     0.0000000000000000    4.5499999999999998    0.0000000000000000
     0.0000000000000000    0.0000000000000000   11.1422209999999993
 Ge  Se 
   4   4
Cartesian
  1.1125000000000000  0.0409096527120717  1.7812157113190861
  3.3375000000000004  2.3159096527120715  3.7898947886809142
  3.3375000000000004  4.5090903472879278  9.3610052886809125
  1.1125000000000000  2.2340903472879283  7.3523262113190855
  1.1125000000000000  0.0000000000000000  4.3408888155093415
  3.3375000000000004  2.2749999999999999  1.2302216844906586
  3.3375000000000004  4.5499999999999998  6.8013321844906578
  1.1125000000000000  2.2749999999999999  9.9119993155093411
