Ge Se                                   
    1.000000000000000     
     4.5999999999999988    0.0000000000000000    0.0000000000000000
     0.0000000000000000    4.2999999999999998    0.0000000000000000
     0.0000000000000000    0.0000000000000000   11.1422209999999993
   Ge   Se
     4     4
Selective dynamics
Direct
  0.8906095311079127  0.2500000000000000  0.1310900179890737   T   T   T
  0.3906095311079127  0.7500000000000000  0.3689099820109263   T   T   T
  0.1093904688920873  0.7500000000000000  0.8689099820109263   T   T   T
  0.6093904688920873  0.2500000000000000  0.6310900179890737   T   T   T
  0.0364936426460289  0.2500000000000000  0.3522137602629272   T   T   T
  0.5364936426460289  0.7500000000000000  0.1477862397370728   T   T   T
  0.9635063573539711  0.7500000000000000  0.6477862397370728   T   T   T
  0.4635063573539711  0.2500000000000000  0.8522137602629272   T   T   T
 
  0.00000000E+00  0.00000000E+00  0.00000000E+00
  0.00000000E+00  0.00000000E+00  0.00000000E+00
  0.00000000E+00  0.00000000E+00  0.00000000E+00
  0.00000000E+00  0.00000000E+00  0.00000000E+00
  0.00000000E+00  0.00000000E+00  0.00000000E+00
  0.00000000E+00  0.00000000E+00  0.00000000E+00
  0.00000000E+00  0.00000000E+00  0.00000000E+00
  0.00000000E+00  0.00000000E+00  0.00000000E+00
