Ge Se
 1.0000000000000000
     3.8581001759000002    0.0000000000000000    0.0000000000000000
     0.0000000000000000    4.5265750884999996    0.0000000000000000
     0.0000000000000000    0.0000000000000000   11.5851764679000002
 Ge  Se 
   4   4
Cartesian
  0.9645250562112150  2.1413187591805669  1.5289159488927335
  2.8935750056747178  4.4046062459993331  4.2636719698814636
  2.8935745721801496  4.0909218782550072 10.0562604474579977
  0.9645242008595937  1.8276341213021121  7.3215043516953928
  0.9645249938058758  1.6127159457579752  4.0676704668023795
  2.8935751453622287  3.8760035837824169  1.7249174919497487
  2.8935742079256404  0.0929493801008354  7.5175060349394816
  0.9645244176642640  2.3562370331364004  9.8602589228854409
