Ge Se                                   
    1.000000000000000     
     3.8500000000000010    0.0000000000000000    0.0000000000000000
     0.0000000000000000    3.9499999999999997    0.0000000000000000
     0.0000000000000000    0.0000000000000000   11.1422209999999993
   Ge   Se
     4     4
Selective dynamics
Direct
  0.2500000000000000  0.0886395901115549  0.1249812345977475   T   T   T
  0.7500000000000000  0.5886395901115549  0.3750187654022525   T   T   T
  0.7500000000000000  0.9113604098884451  0.8750187654022525   T   T   T
  0.2500000000000000  0.4113604098884451  0.6249812345977475   T   T   T
  0.2500000000000000  0.0286740361739177  0.3575756760089348   T   T   T
  0.7500000000000000  0.5286740361739177  0.1424243239910652   T   T   T
  0.7500000000000000  0.9713259638260823  0.6424243239910652   T   T   T
  0.2500000000000000  0.4713259638260823  0.8575756760089348   T   T   T
 
  0.00000000E+00  0.00000000E+00  0.00000000E+00
  0.00000000E+00  0.00000000E+00  0.00000000E+00
  0.00000000E+00  0.00000000E+00  0.00000000E+00
  0.00000000E+00  0.00000000E+00  0.00000000E+00
  0.00000000E+00  0.00000000E+00  0.00000000E+00
  0.00000000E+00  0.00000000E+00  0.00000000E+00
  0.00000000E+00  0.00000000E+00  0.00000000E+00
  0.00000000E+00  0.00000000E+00  0.00000000E+00
