Ge Se                                   
    1.000000000000000     
     3.8581001759000002    0.0000000000000000    0.0000000000000000
     0.0000000000000000    4.5265750884999996    0.0000000000000000
     0.0000000000000000    0.0000000000000000   19.0851764678999984
   Ge   Se
     4     4
Direct
  0.2500000000064801  0.1156418993976018  0.0717554668306732
  0.7500000000194404  0.8843581080031413  0.7186577845412572
  0.7500000000194404  0.6156418920520892  0.2186577845386424
  0.2500000000064801  0.3843581080583647  0.5717554711822217
  0.2500000000064801  0.5049489736306185  0.7048168984774463
  0.7500000000194404  0.4950509668320962  0.0855963399001141
  0.7500000000194404  0.0049490225086330  0.5855963572460325
  0.2500000000064801  0.9950510264246120  0.2048169158181281
 
  0.00000000E+00  0.00000000E+00  0.00000000E+00
  0.00000000E+00  0.00000000E+00  0.00000000E+00
  0.00000000E+00  0.00000000E+00  0.00000000E+00
  0.00000000E+00  0.00000000E+00  0.00000000E+00
  0.00000000E+00  0.00000000E+00  0.00000000E+00
  0.00000000E+00  0.00000000E+00  0.00000000E+00
  0.00000000E+00  0.00000000E+00  0.00000000E+00
  0.00000000E+00  0.00000000E+00  0.00000000E+00
