Ge Se
 1.0000000000000000
     3.8581001759000002    0.0000000000000000    0.0000000000000000
     0.0000000000000000    4.5265750884999996    0.0000000000000000
     0.0000000000000000    0.0000000000000000   11.5851764679000002
 Ge  Se 
   4   4
Cartesian
  3.6484208307503443  1.1572806964631759  1.5289159488927335
  1.7193706043138477  3.4205681832819423  4.2636719698814636
  2.8935745721801496  4.0909218782550072 10.0562604474579977
  0.9645242008595937  1.8276341213021121  7.3215043516953928
  3.6484207683450065  0.6286778830405840  4.0676704668023795
  1.7193707440013586  2.8919655210650261  1.7249174919497487
  2.8935742079256404  0.0929493801008354  7.5175060349394816
  0.9645244176642640  2.3562370331364004  9.8602589228854409
