Ge Se                                   
    1.000000000000000     
    12.4661809418677834    0.0000029953633703    0.0000012507629348
     0.0000030063521985   12.5119140524096704    0.0000083672455940
     0.0000014319260551    0.0000095441611205   11.0868823274222716
   Ge   Se
    36    36
Direct
  0.0770575697486606  0.0402237183976837  0.1376855689670577
  0.2446155065477171  0.8798082025901977  0.3615696189661577
  0.5878182089319779  0.1654637773464884  0.3617462707400492
  0.5672595976672454  0.5475272521686776  0.3528390951850824
  0.5706938723969515  0.8597493324593444  0.3812378671657441
  0.8886000960906557  0.1952666040884594  0.3703107826914263
  0.9360605299071239  0.5376523938669280  0.3775863461418609
  0.9254310530307350  0.8386813930767829  0.3683752651784005
  0.0910766676735548  0.1765486832990319  0.6378445321208090
  0.0764803446432865  0.4943220536313362  0.6359213392483412
  0.0771735116836467  0.8168395137842595  0.6289607286472361
  0.3995226596518506  0.1478752361387308  0.6384400969281288
  0.4282364234560632  0.5060668714388257  0.6198837863543787
  0.4027588671103430  0.8274246937154786  0.6411156133494913
  0.7400234182993799  0.1581930783313226  0.6381360388760697
  0.7511511699612257  0.4866778217984375  0.5914970836078055
  0.2516951116495321  0.5136952359510332  0.3516618973683237
  0.2539653347511290  0.2039200625844089  0.3690142124889135
  0.7505060334587270  0.8400959791037366  0.6230400262663238
  0.8820978141026643  0.6477521866465210  0.8626451563830102
  0.9365453130764152  0.9953632167365640  0.8696156531211585
  0.0647562453394812  0.3435044889531582  0.1276329489539876
  0.0933795090891749  0.6720025879463876  0.1171763508948800
  0.4243890905501075  0.0215731828682664  0.1331115137220777
  0.4422001010902221  0.3417151478129270  0.1230904523734395
  0.7618498263233064  0.0124390781859631  0.1275152187318582
  0.7582635681455088  0.3766582803289893  0.1229089481614594
  0.4052284946003226  0.7072193453232032  0.1194992651152305
  0.2611491006623865  0.3518228810902215  0.8640128675552319
  0.2295228911096743  0.6457641378127121  0.8521954751621266
  0.2206088455264350  0.9916087413927386  0.8632584285204388
  0.5802668966142619  0.3089541313694468  0.8560369177391109
  0.5912306055656558  0.6706574286146960  0.8794140942112350
  0.5731134090384415  0.9842423409224565  0.8707445575121255
  0.8975078749973235  0.3231448501269440  0.8576227391901483
  0.7291999835834631  0.7024903375857576  0.1415336413488504
  0.8797049554667993  0.9972780776579953  0.6547500895904150
  0.2227570717039598  0.3518931349539542  0.6397858480177732
  0.2234987605931380  0.6717736339576916  0.6256326312058818
  0.5562806842812975  0.0087164040093199  0.6397993355107729
  0.5726953767454361  0.3641694860291693  0.6384784795177723
  0.5527462105171210  0.6800673520621814  0.6511314784800817
  0.8984224985198566  0.3295960170412258  0.6315256062398831
  0.7146504594756422  0.0070237830194202  0.3500744832608405
  0.0647054088631123  0.9911678788126892  0.3677567314030910
  0.0404082016333902  0.3627349570728313  0.3500784907873253
  0.0746017396590588  0.6871640885716985  0.3522725110886213
  0.3871412293201999  0.0356149265540679  0.3586868834484633
  0.3935978483681950  0.3507093371344681  0.3549229833196392
  0.4053234003174637  0.6612034774843423  0.3549817119335117
  0.2347405264363047  0.0166715686601009  0.6369238593906488
  0.9052953352189448  0.6958552348908285  0.6291975829090859
  0.9029005693430747  0.8509641342236307  0.1493313621953618
  0.2125852263090948  0.1920850470758211  0.1517214504873223
  0.9138953540790382  0.1643319722365462  0.1362698306649008
  0.7367211316643818  0.3189938759364992  0.3472545766432020
  0.0581797596322176  0.1763477089053183  0.8646473709730316
  0.0560726935862590  0.5054367234756896  0.8708492384884110
  0.0679791723786352  0.8445012185606302  0.8584559954396269
  0.3947565629391647  0.1987380392648888  0.8536714667477625
  0.3921813022904175  0.5103636330485344  0.8372315834107837
  0.3877227912286898  0.8473423478909865  0.8628078910429906
  0.7244303765303428  0.1685548055964858  0.8622312800817014
  0.7340016249172407  0.5157521036804482  0.8334337739581130
  0.7252101575976866  0.8326748233221153  0.8586345712016197
  0.2166301849505885  0.5121043182740053  0.1232598848728372
  0.2337147873191725  0.8323586768700153  0.1344337401626134
  0.5696420008103331  0.1742296766723541  0.1372187232734632
  0.5792369257671055  0.5058653177908425  0.1350948952610906
  0.5472998686464905  0.8522209915983652  0.1440007048798080
  0.8657471258838427  0.5415607481624036  0.1586566616357530
  0.7136621900710338  0.7027991333256693  0.3575125640233523
 
  0.00000000E+00  0.00000000E+00  0.00000000E+00
  0.00000000E+00  0.00000000E+00  0.00000000E+00
  0.00000000E+00  0.00000000E+00  0.00000000E+00
  0.00000000E+00  0.00000000E+00  0.00000000E+00
  0.00000000E+00  0.00000000E+00  0.00000000E+00
  0.00000000E+00  0.00000000E+00  0.00000000E+00
  0.00000000E+00  0.00000000E+00  0.00000000E+00
  0.00000000E+00  0.00000000E+00  0.00000000E+00
  0.00000000E+00  0.00000000E+00  0.00000000E+00
  0.00000000E+00  0.00000000E+00  0.00000000E+00
  0.00000000E+00  0.00000000E+00  0.00000000E+00
  0.00000000E+00  0.00000000E+00  0.00000000E+00
  0.00000000E+00  0.00000000E+00  0.00000000E+00
  0.00000000E+00  0.00000000E+00  0.00000000E+00
  0.00000000E+00  0.00000000E+00  0.00000000E+00
  0.00000000E+00  0.00000000E+00  0.00000000E+00
  0.00000000E+00  0.00000000E+00  0.00000000E+00
  0.00000000E+00  0.00000000E+00  0.00000000E+00
  0.00000000E+00  0.00000000E+00  0.00000000E+00
  0.00000000E+00  0.00000000E+00  0.00000000E+00
  0.00000000E+00  0.00000000E+00  0.00000000E+00
  0.00000000E+00  0.00000000E+00  0.00000000E+00
  0.00000000E+00  0.00000000E+00  0.00000000E+00
  0.00000000E+00  0.00000000E+00  0.00000000E+00
  0.00000000E+00  0.00000000E+00  0.00000000E+00
  0.00000000E+00  0.00000000E+00  0.00000000E+00
  0.00000000E+00  0.00000000E+00  0.00000000E+00
  0.00000000E+00  0.00000000E+00  0.00000000E+00
  0.00000000E+00  0.00000000E+00  0.00000000E+00
  0.00000000E+00  0.00000000E+00  0.00000000E+00
  0.00000000E+00  0.00000000E+00  0.00000000E+00
  0.00000000E+00  0.00000000E+00  0.00000000E+00
  0.00000000E+00  0.00000000E+00  0.00000000E+00
  0.00000000E+00  0.00000000E+00  0.00000000E+00
  0.00000000E+00  0.00000000E+00  0.00000000E+00
  0.00000000E+00  0.00000000E+00  0.00000000E+00
  0.00000000E+00  0.00000000E+00  0.00000000E+00
  0.00000000E+00  0.00000000E+00  0.00000000E+00
  0.00000000E+00  0.00000000E+00  0.00000000E+00
  0.00000000E+00  0.00000000E+00  0.00000000E+00
  0.00000000E+00  0.00000000E+00  0.00000000E+00
  0.00000000E+00  0.00000000E+00  0.00000000E+00
  0.00000000E+00  0.00000000E+00  0.00000000E+00
  0.00000000E+00  0.00000000E+00  0.00000000E+00
  0.00000000E+00  0.00000000E+00  0.00000000E+00
  0.00000000E+00  0.00000000E+00  0.00000000E+00
  0.00000000E+00  0.00000000E+00  0.00000000E+00
  0.00000000E+00  0.00000000E+00  0.00000000E+00
  0.00000000E+00  0.00000000E+00  0.00000000E+00
  0.00000000E+00  0.00000000E+00  0.00000000E+00
  0.00000000E+00  0.00000000E+00  0.00000000E+00
  0.00000000E+00  0.00000000E+00  0.00000000E+00
  0.00000000E+00  0.00000000E+00  0.00000000E+00
  0.00000000E+00  0.00000000E+00  0.00000000E+00
  0.00000000E+00  0.00000000E+00  0.00000000E+00
  0.00000000E+00  0.00000000E+00  0.00000000E+00
  0.00000000E+00  0.00000000E+00  0.00000000E+00
  0.00000000E+00  0.00000000E+00  0.00000000E+00
  0.00000000E+00  0.00000000E+00  0.00000000E+00
  0.00000000E+00  0.00000000E+00  0.00000000E+00
  0.00000000E+00  0.00000000E+00  0.00000000E+00
  0.00000000E+00  0.00000000E+00  0.00000000E+00
  0.00000000E+00  0.00000000E+00  0.00000000E+00
  0.00000000E+00  0.00000000E+00  0.00000000E+00
  0.00000000E+00  0.00000000E+00  0.00000000E+00
  0.00000000E+00  0.00000000E+00  0.00000000E+00
  0.00000000E+00  0.00000000E+00  0.00000000E+00
  0.00000000E+00  0.00000000E+00  0.00000000E+00
  0.00000000E+00  0.00000000E+00  0.00000000E+00
  0.00000000E+00  0.00000000E+00  0.00000000E+00
  0.00000000E+00  0.00000000E+00  0.00000000E+00
  0.00000000E+00  0.00000000E+00  0.00000000E+00
