Ge Se
 1.0000000000000000
     4.3499999999999988    0.0000000000000000    0.0000000000000000
     0.0000000000000000    4.6999999999999993    0.0000000000000000
     0.0000000000000000    0.0000000000000000   11.1422209999999993
 Ge  Se 
   4   4
Selective dynamics
Cartesian
  1.0874999999999997 -0.0028294562297579  1.6162244695957717   T   T   T
  3.2624999999999993  2.3471705437702415  3.9548860304042286   T   T   T
  3.2624999999999993  4.7028294562297566  9.5259965304042336   T   T   T
  1.0874999999999997  2.3528294562297569  7.1873349695957724   T   T   T
  1.0874999999999997 -0.0035592935886947  4.0494393446573520   T   T   T
  3.2624999999999993  2.3464407064113044  1.5216711553426499   T   T   T
  3.2624999999999993  4.7035592935886932  7.0927816553426482   T   T   T
  1.0874999999999997  2.3535592935886940  9.6205498446573490   T   T   T
