Ge Se                                   
    1.000000000000000     
     4.1500000000000004    0.0000000000000000    0.0000000000000000
     0.0000000000000000    3.7500000000000000    0.0000000000000000
     0.0000000000000000    0.0000000000000000   11.1422210000000010
   Ge   Se
     4     4
Selective dynamics
Direct
  0.1010838551949504  0.2500000000000000  0.1224256087272124   T   T   T
  0.6010838551949504  0.7500000000000000  0.3775743912727876   T   T   T
  0.8989161448050496  0.7500000000000000  0.8775743912727876   T   T   T
  0.3989161448050496  0.2500000000000000  0.6224256087272124   T   T   T
  0.0201652702536990  0.2500000000000000  0.3551099048250492   T   T   T
  0.5201652702536990  0.7500000000000000  0.1448900951749508   T   T   T
  0.9798347297463010  0.7500000000000000  0.6448900951749508   T   T   T
  0.4798347297463010  0.2500000000000000  0.8551099048250492   T   T   T
 
  0.00000000E+00  0.00000000E+00  0.00000000E+00
  0.00000000E+00  0.00000000E+00  0.00000000E+00
  0.00000000E+00  0.00000000E+00  0.00000000E+00
  0.00000000E+00  0.00000000E+00  0.00000000E+00
  0.00000000E+00  0.00000000E+00  0.00000000E+00
  0.00000000E+00  0.00000000E+00  0.00000000E+00
  0.00000000E+00  0.00000000E+00  0.00000000E+00
  0.00000000E+00  0.00000000E+00  0.00000000E+00
