Ge Se 
 1.0000000000000000
    12.4363392898859484   -0.0000010762064830   -0.0000024393187659
    -0.0000010824260091   12.5082102551133829    0.0000014462808866
    -0.0000027923094564    0.0000016460575753   11.0590534179657016
 Ge  Se 
  36  36
Cartesian
  0.4672600059116506  0.2246610926928189  1.1983394698472762
  3.0000481859448422 10.9903054855888609  4.2343018284907696
  7.1753621713952160  2.8222072435983674  3.9274706542796864
  6.5797076283507892  6.5399441326504393  4.2563121428214359
  7.0572179319874024 10.8919789117356007  4.0546505955053718
 11.1172112107723073  2.6670213428578977  4.2901760225374543
 11.3275814828908263  6.7677227894982739  4.0712800132575451
 10.9967543097044693 10.7152541162631199  3.9583379980522220
  1.2254278613000720  1.7427546111755110  6.9333085152326550
  1.1202295224207208  6.0250583682094669  6.9694742901384359
  1.1962547535486550 10.1424662431448986  6.8987419496854372
  5.0495141029805293  1.6663017836419416  6.8208462788152371
  5.0625767265649815  5.8707931638938025  6.8125955674382022
  5.2192794150250092 10.1847369469285134  7.1252180038040303
  9.3344229008425224  1.8098065181317322  6.9439545174266142
  9.2753624039754961  6.0093528462626464  6.8610228170927146
  2.9319824415596116  6.8144837695940836  4.4213691929893404
  2.3399191755061044  2.3277882060191781  4.0271678355703227
  9.3336446798840864 10.1425750684126417  7.0401963974826334
 11.2311930494571790  8.1629589413314445  9.7634290525955585
 11.1476441132488429 12.1940961609702825  9.6165643060762367
  0.8656151268621449  4.8050369456767408  1.3781991160053391
  0.9853320637888094  9.0592335597390470  1.2737970660454407
  5.2061929222966343  0.6612702457977716  1.3742483475319758
  4.7157222811772925  4.7558210382834627  1.4325693064993641
  9.1037011733823157  0.6532651169761360  1.4469360521853105
  9.0935497205477933  4.7034172989472820  1.4394021761932694
  5.0415970215152228  8.8949434062702011  1.3248734643430684
  2.8368894676054612  3.7901449250156349  9.6102222080591666
  2.9973065227506668  8.1175770385473811  9.9050462437590987
  3.0411522983618950 12.2892681007406086  9.8691559938239592
  6.8922161417204792  3.9592910418398155  9.4536414752053286
  7.1190494942480633  7.9331372036669272  9.6129905811135803
  7.1223476746194638 12.5213002141849081  9.6681081077634889
 11.2874172312704655  3.9177221615531805  9.6119780272297390
  8.9219953511566317  8.6244278019302332  1.3729438193240768
 11.3786222966565749  0.0629471859848666  7.2285664591274843
  3.0699358720583203  4.2393410304070747  7.1373339505530389
  3.2950970244160538  8.3166599887063200  7.5364491001538649
  7.1486932446395519  0.1393104962303738  7.1243604146526343
  7.1204020179430145  4.1522005038281504  6.8900940624644340
  7.3160352112906812  8.4395827104092742  7.0563222799380920
 11.4154314414934372  4.3040876819354841  7.1151296840541765
  9.0367702771068927 -0.0857590798510121  3.9916735071231471
  1.0114507789994780  0.1976636718812917  3.7186675146476058
  0.7079937387987374  4.1615401587398688  3.9825396558668209
  0.9115741887223688  8.6035020978107397  4.1043824249473904
  5.2200632481687075  0.1523090786077355  3.9429219117221832
  4.9953083562316518  4.3337546765151762  3.9365334747849041
  4.8767349200970660  8.3656770375659057  3.9141268517923518
  2.9848686536892690 -0.0560384422382149  7.2236147404390643
 11.3161126864996007  8.4327584761780852  7.2049991687967267
 11.3951911606139511 10.7523008723663640  1.4417712069998390
  3.2627050279004668  2.4093914876260065  1.4168586162758032
 11.2026238163086660  2.1292570123105019  1.6136337048679865
  9.2595599066203036  4.3298686965073818  4.1773959434203176
  0.9102087909795442  2.1081887967048543  9.3830051818017655
  0.9870992202879414  6.4502533212002753  9.3979560656422745
  1.0063408721002798 10.5890471991066839  9.6527005098758618
  5.1263866691911852  2.2305611458558361  9.5728649095670377
  5.2997398638060984  6.2338667922490094  9.3810773165733234
  5.1603025225638568 10.7016554125824097  9.6587186529819693
  9.2658776644736207  2.1395961610064620  9.4367096503590950
  9.1481733459065122  6.4535736250879658  9.4551551595911647
  9.1756259721381035 10.4776223822458796  9.4680575617289247
  2.7380490748972637  6.4238496902485842  1.8208798041077880
  2.9326789149454275 10.7510334865252375  1.7168349692576264
  7.1422521034755091  2.4054812863619111  1.3777350332996667
  7.2821518698006562  6.4104942461579837  1.7297235272859524
  6.9950405260964788 10.4169086678446110  1.5930465316649705
 11.3614853998610617  6.4299294884058407  1.5503222317614085
  9.3541627921792205  8.4734993310436479  3.7886306400526606
