Ge Se                                   
    1.000000000000000     
    12.4532974945852821    0.0000043876117365   -0.0000026677502692
     0.0000044147455624   12.5303014717192038    0.0000025530324186
    -0.0000030563482731    0.0000029069429517   11.0833863559792807
   Ge   Se
    36    36
Direct
  0.0933123107292886  0.0135503526705847  0.1295203627771144
  0.2563553559446916  0.8699021591094365  0.3742815467771550
  0.5655519621406171  0.2325743104748383  0.3740217459662887
  0.5990648820405866  0.5283491454493472  0.3556398603231585
  0.5745740069388816  0.8688600313681292  0.3667516529183743
  0.9051996216085740  0.1790941697478203  0.3527836604839578
  0.9172251028291925  0.5382143777883215  0.3709544148769197
  0.8927922421607377  0.8805343992139427  0.3734555454539290
  0.0812743941363294  0.1603673018026370  0.6469111771452916
  0.1092257723622225  0.5248910248007803  0.6379147057125607
  0.0534172915725222  0.8236210308556124  0.6398593771461805
  0.3872499887471790  0.1369941894440814  0.6229041452545303
  0.4199927163770241  0.4837417854115813  0.6056374246100731
  0.4331015471777917  0.8240896885034559  0.6253280212609411
  0.7617415248140347  0.1705471202335573  0.6348579703212565
  0.7340503997178729  0.4693112872293455  0.6208216318186217
  0.2404490690218068  0.5412013580288573  0.3817407410006695
  0.2285036128612603  0.2059552284342061  0.3872693963087812
  0.7170607688934041  0.8235270270947126  0.6320706667170342
  0.9144347305915588  0.6534684400386297  0.8661157729741831
  0.9056604505102968  0.9776791473026236  0.8878896775186860
  0.0833019166648228  0.3850061255652690  0.1054245898049189
  0.0655183532181240  0.7007668934863815  0.1580958324335313
  0.4224737998800734  0.0444643187300500  0.1268891648792660
  0.3974647934425377  0.3651331438315069  0.1383955654003373
  0.7292376537617145  0.0513107865911735  0.1275753312489201
  0.7639950984747159  0.3696491922098204  0.1202433798318339
  0.4185949762254353  0.6714256046429625  0.1410976861743904
  0.2525886435941729  0.3159028601492082  0.8668848825724282
  0.2525548211145647  0.6708427400311621  0.8566550079402333
  0.2460669034333947  0.9802656916525834  0.8820011950104742
  0.5642211997734634  0.3130505743012364  0.8703586881973351
  0.5698951302980220  0.6485981088222843  0.8709190069267763
  0.5764578442953336  0.9923669776488282  0.8639477558324344
  0.9256874432179885  0.3422958512328478  0.8556573535383478
  0.7382993675868406  0.7179421183084997  0.1324213394046438
  0.9119208354673916  0.0274640866139961  0.6517407135761388
  0.2486808035316344  0.3540393400092086  0.6455612561679089
  0.2220169400598948  0.6906910913765429  0.6493298616591332
  0.5575467439817103  0.9980380036706507  0.6358240001587987
  0.5636130616256523  0.3302128129087123  0.6328104548111639
  0.5801906831581931  0.6778102672432311  0.6469285688419220
  0.8924708739767837  0.3411857841037005  0.6373488243148770
  0.7284092170299488  0.0163543346633546  0.3587053774212947
  0.0602231883043700  0.0229816609615838  0.3645881560464730
  0.0690453574201655  0.3383609446770066  0.3428806935463982
  0.0607723797709880  0.6843293378972106  0.3863229341173309
  0.4152405297611779  0.0016910393491614  0.3560008109214721
  0.3830339422900622  0.3540728625215905  0.3679397486919314
  0.3790623240960684  0.6958280097714677  0.3714033888434045
  0.2264628555627084  0.0016243280077788  0.6516948653552461
  0.8985589784838623  0.6787952661902068  0.6392704316579483
  0.8951210649525194  0.8435332758779808  0.1451315827388484
  0.2400701701976189  0.1577292393861356  0.1574106995539637
  0.8765846862157574  0.1829160117673538  0.1315050581412507
  0.7398184673374288  0.3541234515470535  0.3617944070865917
  0.0654209261085938  0.1970343817622577  0.8695409000974763
  0.0573368875239026  0.5170484131352353  0.8558966823089946
  0.0543352454700354  0.8303409585172403  0.8628556543957018
  0.3781625451819863  0.1559260111813145  0.8501939219333821
  0.4052811982341211  0.5268532848850853  0.8392206120615953
  0.4008803587574690  0.8335620900863958  0.8505591734429885
  0.7115753957532363  0.1634615670916020  0.8527297919343368
  0.7221938121635816  0.4950853831807933  0.8543652025375508
  0.7321932925660093  0.8595203466036665  0.8570708935355995
  0.2290821681341768  0.5290809107630068  0.1456679906381027
  0.2167880083707985  0.8461389969599225  0.1469618458882422
  0.5675772092372355  0.1860737160804717  0.1366631203914963
  0.5460255214465874  0.5104809102624159  0.1349684874771668
  0.5638808384662966  0.8310425354232720  0.1361635514977166
  0.9119778799038372  0.5162262105934303  0.1431044284802994
  0.7472797238931506  0.6784289839121200  0.3667008630150832
 
  0.00000000E+00  0.00000000E+00  0.00000000E+00
  0.00000000E+00  0.00000000E+00  0.00000000E+00
  0.00000000E+00  0.00000000E+00  0.00000000E+00
  0.00000000E+00  0.00000000E+00  0.00000000E+00
  0.00000000E+00  0.00000000E+00  0.00000000E+00
  0.00000000E+00  0.00000000E+00  0.00000000E+00
  0.00000000E+00  0.00000000E+00  0.00000000E+00
  0.00000000E+00  0.00000000E+00  0.00000000E+00
  0.00000000E+00  0.00000000E+00  0.00000000E+00
  0.00000000E+00  0.00000000E+00  0.00000000E+00
  0.00000000E+00  0.00000000E+00  0.00000000E+00
  0.00000000E+00  0.00000000E+00  0.00000000E+00
  0.00000000E+00  0.00000000E+00  0.00000000E+00
  0.00000000E+00  0.00000000E+00  0.00000000E+00
  0.00000000E+00  0.00000000E+00  0.00000000E+00
  0.00000000E+00  0.00000000E+00  0.00000000E+00
  0.00000000E+00  0.00000000E+00  0.00000000E+00
  0.00000000E+00  0.00000000E+00  0.00000000E+00
  0.00000000E+00  0.00000000E+00  0.00000000E+00
  0.00000000E+00  0.00000000E+00  0.00000000E+00
  0.00000000E+00  0.00000000E+00  0.00000000E+00
  0.00000000E+00  0.00000000E+00  0.00000000E+00
  0.00000000E+00  0.00000000E+00  0.00000000E+00
  0.00000000E+00  0.00000000E+00  0.00000000E+00
  0.00000000E+00  0.00000000E+00  0.00000000E+00
  0.00000000E+00  0.00000000E+00  0.00000000E+00
  0.00000000E+00  0.00000000E+00  0.00000000E+00
  0.00000000E+00  0.00000000E+00  0.00000000E+00
  0.00000000E+00  0.00000000E+00  0.00000000E+00
  0.00000000E+00  0.00000000E+00  0.00000000E+00
  0.00000000E+00  0.00000000E+00  0.00000000E+00
  0.00000000E+00  0.00000000E+00  0.00000000E+00
  0.00000000E+00  0.00000000E+00  0.00000000E+00
  0.00000000E+00  0.00000000E+00  0.00000000E+00
  0.00000000E+00  0.00000000E+00  0.00000000E+00
  0.00000000E+00  0.00000000E+00  0.00000000E+00
  0.00000000E+00  0.00000000E+00  0.00000000E+00
  0.00000000E+00  0.00000000E+00  0.00000000E+00
  0.00000000E+00  0.00000000E+00  0.00000000E+00
  0.00000000E+00  0.00000000E+00  0.00000000E+00
  0.00000000E+00  0.00000000E+00  0.00000000E+00
  0.00000000E+00  0.00000000E+00  0.00000000E+00
  0.00000000E+00  0.00000000E+00  0.00000000E+00
  0.00000000E+00  0.00000000E+00  0.00000000E+00
  0.00000000E+00  0.00000000E+00  0.00000000E+00
  0.00000000E+00  0.00000000E+00  0.00000000E+00
  0.00000000E+00  0.00000000E+00  0.00000000E+00
  0.00000000E+00  0.00000000E+00  0.00000000E+00
  0.00000000E+00  0.00000000E+00  0.00000000E+00
  0.00000000E+00  0.00000000E+00  0.00000000E+00
  0.00000000E+00  0.00000000E+00  0.00000000E+00
  0.00000000E+00  0.00000000E+00  0.00000000E+00
  0.00000000E+00  0.00000000E+00  0.00000000E+00
  0.00000000E+00  0.00000000E+00  0.00000000E+00
  0.00000000E+00  0.00000000E+00  0.00000000E+00
  0.00000000E+00  0.00000000E+00  0.00000000E+00
  0.00000000E+00  0.00000000E+00  0.00000000E+00
  0.00000000E+00  0.00000000E+00  0.00000000E+00
  0.00000000E+00  0.00000000E+00  0.00000000E+00
  0.00000000E+00  0.00000000E+00  0.00000000E+00
  0.00000000E+00  0.00000000E+00  0.00000000E+00
  0.00000000E+00  0.00000000E+00  0.00000000E+00
  0.00000000E+00  0.00000000E+00  0.00000000E+00
  0.00000000E+00  0.00000000E+00  0.00000000E+00
  0.00000000E+00  0.00000000E+00  0.00000000E+00
  0.00000000E+00  0.00000000E+00  0.00000000E+00
  0.00000000E+00  0.00000000E+00  0.00000000E+00
  0.00000000E+00  0.00000000E+00  0.00000000E+00
  0.00000000E+00  0.00000000E+00  0.00000000E+00
  0.00000000E+00  0.00000000E+00  0.00000000E+00
  0.00000000E+00  0.00000000E+00  0.00000000E+00
  0.00000000E+00  0.00000000E+00  0.00000000E+00
