Ge Se
 1.0000000000000000
     4.2999999999999998    0.0000000000000000    0.0000000000000000
     0.0000000000000000    3.8999999999999995    0.0000000000000000
     0.0000000000000000    0.0000000000000000   11.1422209999999993
 Ge  Se 
   4   4
Selective dynamics
Cartesian
  0.4459371139112687  0.9750000000000001  1.4016174126719732   T   T   T
  2.5959371139112695  2.9249999999999998  4.1694930873280258   T   T   T
  3.8540628860887307  2.9249999999999998  9.7406035873280281   T   T   T
  1.7040628860887312  0.9750000000000001  6.9727279126719717   T   T   T
  0.0106341583109938  0.9750000000000001  3.9544433495014681   T   T   T
  2.1606341583109940  2.9249999999999998  1.6166671504985308   T   T   T
  4.2893658416890066  2.9249999999999998  7.1877776504985302   T   T   T
  2.1393658416890058  0.9750000000000001  9.5255538495014704   T   T   T
