Ge Se 
 1.0000000000000000
    12.4137423844262713   -0.0000046873576771   -0.0000023118859505
    -0.0000047235521707   12.5095895304010796    0.0000023365371732
    -0.0000026508426669    0.0000026585793019   11.0573360146649140
 Ge  Se 
  36  36
Cartesian
  0.8786134221908286  0.6188925980880357  1.4441416107582676
  2.7658674260966731 11.1245842500076879  4.1366840079047336
  7.1491329985723393  2.5496286705080582  3.9923238038553683
  7.0924182494701302  6.7940225533612217  4.3007235921955278
  7.1523389322311131 10.8938785475598507  4.0859469009829326
 11.2386200616397627  2.6867129036463417  3.7554653570825010
 11.2482398521701885  6.6231333633193445  4.1851135335438645
 11.1359062987492337 10.8596369692089123  4.1083434638730445
  1.0895216835265480  2.0175314096816321  6.8541103967614943
  1.0347850002929402  6.1257150500968605  7.1306591455867609
  0.7556392103579425 10.2923454119246802  7.0676039742519814
  5.1347069004515200  1.8769407067030763  6.8974164391076362
  4.6757098329950768  6.1489914068479523  7.1448045427750397
  5.1350894681077390 10.3994956027279368  7.0409804260742641
  9.1754966657439745  1.9608464091838549  6.8665318160870061
  9.1515879851890105  5.8523964498624972  6.8253966464702351
  3.1769057247168084  6.6320177551993842  4.0393318206965390
  2.8807630569267828  2.4827768731887385  3.9992906837489559
  9.2724316726738429 10.1463220288146889  7.0264287877423177
 11.3874109264757273  7.9674153345832659  9.8981656000687934
 11.2771945984446074 12.2544240584089383  9.7474997945361643
  0.5097301203321816  4.8583478698974165  1.2567357928333780
  0.7828280041384726  9.0418549687563274  1.4760092922273116
  5.1332633145545934  0.3330082180609915  1.3421432831746258
  4.8752959163481089  4.7618432473805550  1.3888060077619935
  9.0884103504200446  0.6599310693292550  1.3488526580737863
  8.7874793546115217  4.6378534465860568  1.2434376411208043
  4.8719044979457715  8.7883429050282729  1.5302702733438194
  3.0005172434114944  3.9623653806370887  9.7843600471983869
  3.0534928809688933  8.1345313560398864  9.6133225852770892
  2.9309987353750770 12.3121052526798316  9.6492233102424976
  7.1684961535250835  4.0385952245921954  9.4768089952572865
  7.1945396939709543  8.1336456646471120  9.5051326871269559
  7.1062744110338532 12.2198904638268839  9.5261483361636738
 11.1282516355355927  3.7548116061528769  9.5332915484167042
  9.1918318531578151  8.8708742213148408  1.5762229277657505
 11.2191731189481843  0.2529416027070413  7.0402228787227523
  3.0677510161444732  4.2839730605994548  7.3369275582300242
  2.9180104525404302  8.3898820083312806  7.0767339701858365
  7.0061424537400629  0.1277578364060991  7.0359464378962713
  7.0677034161442966  4.3168438232584272  7.0243727762056105
  7.3321482935608406  8.3833900636038727  7.0222362992291707
 11.2872005851151798  4.0913007966739325  7.0651124545603263
  9.2153900889294533  0.1144524225843282  3.9644684569477784
  0.7486352910343981  0.3103242235807792  4.1057652671164426
  0.8770765603912052  4.3718182832953278  3.7255121609639383
  0.9409691450081752  8.3315479965839732  3.9766098882083996
  5.1722753742359240  0.0289099314446452  3.8462272157044226
  4.9938758888457819  4.1380352016367308  4.0049035163710478
  5.0515060406378778  8.4059089635818651  4.0424254017519159
  3.0929769554108715  0.2389860471252253  7.1316807529176058
 11.4597740166842588  8.5560784103659397  7.3439396039249640
 11.0634731080047679 10.6070136459655533  1.5767074478599432
  3.1018864807875404  2.0788779292114352  1.5137415967522141
 11.2261746489241361  2.3238956082633595  1.3603889311823243
  9.0952046304522725  4.1688996463076382  3.7985252862317038
  1.0194315989281211  2.1482431079421946  9.4041601007598992
  0.8448597048969158  6.2811044530249776  9.6935477780548673
  0.9221244911764684 10.6602029362357715  9.5814088662194816
  5.1077802461496642  2.2027582661410956  9.4498201931597983
  5.1342977092010695  6.4282278478199713  9.5225904673788815
  4.9784318746953007 10.4981843843782965  9.5493337129215661
  9.0550241164191956  2.2457749117335322  9.4913274771208869
  9.2189727342101548  6.3499414151977476  9.2965076932132291
  9.2841164284897939 10.6439654215233226  9.4201378637636495
  2.9780970828547266  6.4084303318480860  1.4656212027400626
  2.7704476144353936 10.5151621666058546  1.6189284274624425
  7.0285446272084737  2.2996151254810990  1.5315922189501048
  6.9295765287333273  6.4990444006697370  1.6284722182907392
  7.2736845371097152 10.5147536659015657  1.6100022464022963
 10.9547075934431835  6.5979767011226862  1.5829759107552717
  9.2978181435523979  8.4241547376865480  4.1202650612462781
