 S  O                                   
    1.000000000000000     
    32.3722991942999982    0.0000000000000000    0.0000000000000000
     0.0000000000000000   19.9214134216000005    0.0000000000000000
     0.0000000000000000    0.0000000000000000   40.4480476378999967
   S    O 
     1     2
Direct
  0.4376320083713594  0.4517610635919022  0.4894719401418776
  0.4376320083713594  0.4154694516724150  0.4584737124284717
  0.4376320083713594  0.5244109500917776  0.4890521234987706
 
  0.00000000E+00  0.00000000E+00  0.00000000E+00
  0.00000000E+00  0.00000000E+00  0.00000000E+00
  0.00000000E+00  0.00000000E+00  0.00000000E+00
