 S  O 
 1.0000000000000000
    32.3722991942999982    0.0000000000000000    0.0000000000000000
     0.0000000000000000   19.9214134216000005    0.0000000000000000
     0.0000000000000000    0.0000000000000000   40.4480476378999967
 S   O  
   1   2
Cartesian
 14.1671543119999992  8.9947862629999999 19.8044891360000008
 14.1671543119999992  8.2763910289999991 18.5427589419999990
 14.1671543119999992 10.4522876740000008 19.7765064240000008
