Ge Se                                   
    1.000000000000000     
     4.5499999999999989    0.0000000000000000    0.0000000000000000
     0.0000000000000000    4.7500000000000000    0.0000000000000000
     0.0000000000000000    0.0000000000000000   11.1422210000000010
   Ge   Se
     4     4
Selective dynamics
Direct
  0.2500000000000000  0.1080950634235691  0.1355608789989873   T   T   T
  0.7500000000000000  0.6080950634235691  0.3644391210010127   T   T   T
  0.7500000000000000  0.8919049365764309  0.8644391210010127   T   T   T
  0.2500000000000000  0.3919049365764309  0.6355608789989873   T   T   T
  0.2500000000000000  0.9428502787768736  0.3508436609760679   T   T   T
  0.7500000000000000  0.4428502787768736  0.1491563390239321   T   T   T
  0.7500000000000000  0.0571497212231264  0.6491563390239321   T   T   T
  0.2500000000000000  0.5571497212231264  0.8508436609760679   T   T   T
 
  0.00000000E+00  0.00000000E+00  0.00000000E+00
  0.00000000E+00  0.00000000E+00  0.00000000E+00
  0.00000000E+00  0.00000000E+00  0.00000000E+00
  0.00000000E+00  0.00000000E+00  0.00000000E+00
  0.00000000E+00  0.00000000E+00  0.00000000E+00
  0.00000000E+00  0.00000000E+00  0.00000000E+00
  0.00000000E+00  0.00000000E+00  0.00000000E+00
  0.00000000E+00  0.00000000E+00  0.00000000E+00
