Ge Se 
 1.0000000000000000
    12.4609965777584986    0.0000005044658119    0.0000015326514137
     0.0000005060015747   12.4989348194183112    0.0000055439415574
     0.0000017508267535    0.0000063139087069   11.0581580707359191
 Ge  Se 
  36  36
Cartesian
  0.7135452992562873  0.5477175830153481  1.4164515417663792
  3.1391552607109374 10.8680145807784108  3.8755103246216787
  7.3850567637514475  2.4878791392425668  4.1162589670635299
  7.3256651374922237  7.0817128946720169  3.9377592079314576
  7.5016817591411487 10.8312849951450545  4.2904767050824093
 11.3034602044333496  2.6032284457781008  4.0793465245367413
 11.5751186190341517  6.4879328425965834  3.9774455361891898
 11.4922335698564613 10.8980828648952883  3.9728523861988432
  0.7538529422803830  1.7707260040862589  6.8712881123320830
  0.5093144625000071  5.9506192172980983  6.9730505135832823
  0.4022064294624904 10.3769894682394668  6.9611321850475125
  4.7139385341414890  1.9905331880967676  6.9830207969517630
  4.4326542857972422  6.2070921572170947  6.8481623557672533
  5.1127763146265668 10.1991522811951079  6.9316056243606701
  8.7199637329591635  2.1203617366580971  6.8788730248900043
  9.0785365644759377  5.9602928162593161  6.8672185687478455
  3.1204618916941937  6.7358872616980578  3.9408355177240368
  3.2833690786648586  2.5364114696629771  4.0939082209684710
  8.7699686047246850 10.1584357825918730  7.0802560385028350
 10.9738873806370467  8.2170952762898377  9.6983313815648380
 10.7027283710493322 12.5077527487983744  9.8180100823876497
  1.2092837734385071  4.5781606272947268  1.4477785476574292
  0.9406237279463872  8.7533344594522795  1.4424155536497936
  5.5589217836617610  0.3038901247815267  1.3661634049028109
  5.1380430698105588  4.5051777946668006  1.4220468028679421
  9.3300527686151078  0.5657023677901106  1.5170390299324101
  9.3419730863169068  4.8079181367472401  1.2841020327835755
  4.8901854663079343  8.8279576608384378  1.3209977603259102
  2.5936710891014467  4.1789427447213408  9.6696835473120242
  2.4101289528557674  8.3182358030468659  9.7809524556368803
  3.0227215380020844 12.3057868262342431  9.6613514882910305
  6.8178696524132398  4.0832266338623713  9.5219986389191629
  6.9299948047810442  8.0335225622516706  9.5736405452399129
  7.0259972552281624 12.2908163099068730  9.5763407770254254
 11.2049424701495735  3.7669665192592761  9.5155996208512850
  9.4647820383297958  8.9123858627745847  1.3557297000831496
 11.3484190096410487 -0.0070641335779918  7.3189987252178543
  2.7166496932525024  4.2730557876524911  6.9979304815591590
  3.2002030177329330  8.3841235229027635  7.3740720492830185
  6.8039693349201480  0.3166039485654574  7.1359176029765576
  7.0763690896455138  4.3060536985992615  7.0339144708089050
  6.9709765729334832  8.3487550214019386  7.1956246768170367
 11.0522610235304057  4.2024823820801531  6.9580877709873734
  9.3082377479185503  0.1501996380368033  4.0199389531364753
  0.9577434949437474  0.0825658447716777  3.9160903761826420
  0.7372807054446564  4.5197711248267565  4.0101222121225382
  0.9896523509424157  8.6108997505655687  3.8852200519689251
  4.8659980931189626  0.3926145894191356  3.8456897944104118
  5.2388442194292804  4.1163367049914275  3.9204981214747936
  5.0493278049117638  8.5295053092705082  3.8418734372844257
  2.8343649521844503  0.1491536714944991  7.0790831226139339
 11.0527803647428122  8.6176739381455327  7.1584780436895619
 11.4640994109465844 10.5803973920029311  1.3961462538483389
  2.7185281344135368  2.4265830468254466  1.6234410321072636
 11.2209230269569815  2.3271866060182660  1.5300358687439615
  9.4422429846032863  4.3051954796265157  3.7872963597960205
  0.7838120758359883  2.2098292893747460  9.4242947650979882
  0.5624348530046676  6.3494864648703091  9.5184724953702862
  1.1264723827384404 10.5669710474227116  9.4842609105275244
  4.6477540729142346  2.4782992491725082  9.4760282122276873
  5.0872320090654171  6.1023393812607765  9.4936092546383524
  4.9700945970063959 10.6974983593373238  9.4027239434689509
  9.2215767709579826  2.1452934160061075  9.3496200750313641
  9.1071235019484966  6.3687075492068184  9.4887581935312930
  9.0240665948541761 10.6995048588157911  9.5800850484795657
  3.1360801706646311  6.3521269972712302  1.5127638789510764
  2.8388552530718352 10.4491972006287632  1.4590962222517887
  7.3326789327220014  2.2297100030041395  1.4833220511871474
  7.1689065755601566  6.3177406648406018  1.5557386140294147
  6.9620235177866947 10.6699028067234565  1.6906281977583397
 10.9976321579554650  6.6764625074517152  1.5801133664607889
  9.2730612275954432  8.7260753735800929  3.9703918912925928
