 vasp.6.4.1 05Apr23 (build Jun 14 2024 13:23:31) complex                         
 executed on    LinuxNV_CrayMPICH date 2024.10.21  16:58:39
 running  256 mpi-ranks, with    1 threads/rank, on    7 nodes
 distrk:  each k-point on  128 cores,    2 groups
 distr:  one band on NCORE=   4 cores,   32 groups


--------------------------------------------------------------------------------------------------------


 INCAR:
   SIGMA = 0.010000
   EDIFF = 1.00e-06
   ALGO = N
   GGA = PE
   PREC = Accurate
   SYSTEM = 02_SCF
   ICHARG = 0
   ISMEAR = 0
   ISPIN = 2
   ISTART = 1
   KPAR = 2
   LORBIT = 11
   NBANDS = 896
   NELMIN = 5
   NPAR = 32
   IVDW = 11
   LCHARG = .TRUE.
   LWAVE = .TRUE.
   LREAL = .FALSE.

 POTCAR:   PAW_PBE C 08Apr2002                    
 POTCAR:   PAW_PBE Se 06Sep2000                   
 -----------------------------------------------------------------------------
|                                                                             |
|           W    W    AA    RRRRR   N    N  II  N    N   GGGG   !!!           |
|           W    W   A  A   R    R  NN   N  II  NN   N  G    G  !!!           |
|           W    W  A    A  R    R  N N  N  II  N N  N  G       !!!           |
|           W WW W  AAAAAA  RRRRR   N  N N  II  N  N N  G  GGG   !            |
|           WW  WW  A    A  R   R   N   NN  II  N   NN  G    G                |
|           W    W  A    A  R    R  N    N  II  N    N   GGGG   !!!           |
|                                                                             |
|     You use a magnetic or noncollinear calculation, but did not specify     |
|     the initial magnetic moment with the MAGMOM tag. Note that a            |
|     default of 1 will be used for all atoms. This ferromagnetic setup       |
|     may break the symmetry of the crystal, in particular it may rule        |
|     out finding an antiferromagnetic solution. Thence, we recommend         |
|     setting the initial magnetic moment manually or verifying carefully     |
|     that this magnetic setup is desired.                                    |
|                                                                             |
 -----------------------------------------------------------------------------

 POTCAR:   PAW_PBE C 08Apr2002                    
   VRHFIN =C: s2p2                                                                                  
   LEXCH  = PE                                                                                      
   EATOM  =   147.1560 eV,   10.8157 Ry                                                             
                                                                                                    
   TITEL  = PAW_PBE C 08Apr2002                                                                     
   LULTRA =        F    use ultrasoft PP ?                                                          
   IUNSCR =        0    unscreen: 0-lin 1-nonlin 2-no                                               
   RPACOR =     .000    partial core radius                                                         
   POMASS =   12.011; ZVAL   =    4.000    mass and valenz                                          
   RCORE  =    1.500    outmost cutoff radius                                                       
   RWIGS  =    1.630; RWIGS  =     .863    wigner-seitz radius (au A)                               
   ENMAX  =  400.000; ENMIN  =  300.000 eV                                                          
   ICORE  =        2    local potential                                                             
   LCOR   =        T    correct aug charges                                                         
   LPAW   =        T    paw PP                                                                      
   EAUG   =  644.873                                                                                
   DEXC   =     .000                                                                                
   RMAX   =    2.266    core radius for proj-oper                                                   
   RAUG   =    1.300    factor for augmentation sphere                                              
   RDEP   =    1.501    radius for radial grids                                                     
   RDEPT  =    1.300    core radius for aug-charge                                                  
   QCUT   =   -5.516; QGAM   =   11.032    optimization parameters                                  
                                                                                                    
   Description                                                                                      
     l     E      TYP  RCUT    TYP  RCUT                                                            
     0   .000     23  1.200                                                                         
     0   .000     23  1.200                                                                         
     1   .000     23  1.500                                                                         
     1  2.500     23  1.500                                                                         
     2   .000      7  1.500                                                                         
  local pseudopotential read in
  atomic valenz-charges read in
  non local Contribution for L=            0  read in
    real space projection operators read in
  non local Contribution for L=            0  read in
    real space projection operators read in
  non local Contribution for L=            1  read in
    real space projection operators read in
  non local Contribution for L=            1  read in
    real space projection operators read in
    PAW grid and wavefunctions read in
 
   number of l-projection  operators is LMAX  =            4
   number of lm-projection operators is LMMAX =            8
 
 POTCAR:   PAW_PBE Se 06Sep2000                   
   VRHFIN =Se: s2p4                                                                                 
   LEXCH  = PE                                                                                      
   EATOM  =   256.9644 eV,   18.8864 Ry                                                             
                                                                                                    
   TITEL  = PAW_PBE Se 06Sep2000                                                                    
   LULTRA =        F    use ultrasoft PP ?                                                          
   IUNSCR =        1    unscreen: 0-lin 1-nonlin 2-no                                               
   RPACOR =    1.900    partial core radius                                                         
   POMASS =   78.960; ZVAL   =    6.000    mass and valenz                                          
   RCORE  =    2.100    outmost cutoff radius                                                       
   RWIGS  =    2.200; RWIGS  =    1.164    wigner-seitz radius (au A)                               
   ENMAX  =  211.534; ENMIN  =  158.651 eV                                                          
   ICORE  =        3    local potential                                                             
   LCOR   =        T    correct aug charges                                                         
   LPAW   =        T    paw PP                                                                      
   EAUG   =  446.842                                                                                
   DEXC   =    -.031                                                                                
   RMAX   =    3.170    core radius for proj-oper                                                   
   RAUG   =    1.300    factor for augmentation sphere                                              
   RDEP   =    2.177    radius for radial grids                                                     
   QCUT   =   -3.943; QGAM   =    7.886    optimization parameters                                  
                                                                                                    
   Description                                                                                      
     l     E      TYP  RCUT    TYP  RCUT                                                            
     0   .000     23  2.100                                                                         
     0   .000     23  2.100                                                                         
     1   .000     23  2.100                                                                         
     1   .000     23  2.100                                                                         
     2   .000     23  2.100                                                                         
     3  -.100      7  2.100                                                                         
  local pseudopotential read in
  partial core-charges read in
  atomic valenz-charges read in
  non local Contribution for L=            0  read in
    real space projection operators read in
  non local Contribution for L=            0  read in
    real space projection operators read in
  non local Contribution for L=            1  read in
    real space projection operators read in
  non local Contribution for L=            1  read in
    real space projection operators read in
  non local Contribution for L=            2  read in
    real space projection operators read in
    PAW grid and wavefunctions read in
 
   number of l-projection  operators is LMAX  =            5
   number of lm-projection operators is LMMAX =           13
 
 -----------------------------------------------------------------------------
|                                                                             |
|               ----> ADVICE to this user running VASP <----                  |
|                                                                             |
|     You have a (more or less) 'large supercell' and for larger cells it     |
|     might be more efficient to use real-space projection operators.         |
|     Therefore, try LREAL= Auto in the INCAR file.                           |
|     Mind: If you want to do very accurate calculations, keep the            |
|     reciprocal projection scheme (i.e. LREAL=.FALSE.).                      |
|                                                                             |
 -----------------------------------------------------------------------------

 PAW_PBE C 08Apr2002                    :
 energy of atom  1       EATOM= -147.1560
 kinetic energy error for atom=    0.0288 (will be added to EATOM!!)
 PAW_PBE Se 06Sep2000                   :
 energy of atom  2       EATOM= -256.9644
 kinetic energy error for atom=    0.0020 (will be added to EATOM!!)
 
 
 POSCAR:  C Se
  positions in cartesian coordinates
  No initial velocities read in
 exchange correlation table for  LEXCH =        8
   RHO(1)=    0.500       N(1)  =     2000
   RHO(2)=  100.500       N(2)  =     4000
 


--------------------------------------------------------------------------------------------------------


 ion  position               nearest neighbor table
   1  0.371  0.538  0.002-  85 1.42 363 1.42 288 1.43
   2  0.369  0.544  0.063- 108 1.42  85 1.42   3 1.43
   3  0.338  0.595  0.061-   4 1.42   8 1.42   2 1.43
   4  0.320  0.611  0.030-   3 1.42 288 1.42   5 1.43
   5  0.278  0.629  0.028- 310 1.42  10 1.42   4 1.43
   6  0.366  0.549  0.123- 131 1.42 108 1.42   7 1.43
   7  0.335  0.599  0.122-   8 1.42  16 1.42   6 1.43
   8  0.317  0.614  0.090-   7 1.42   3 1.42   9 1.43
   9  0.274  0.629  0.089-  10 1.42  18 1.42   8 1.43
  10  0.254  0.627  0.057-   9 1.42   5 1.42  11 1.43
  11  0.212  0.603  0.056-  12 1.42  20 1.42  10 1.43
  12  0.196  0.584  0.024-  11 1.42 311 1.42  13 1.43
  13  0.168  0.528  0.023- 329 1.42  22 1.42  12 1.43
  14  0.364  0.555  0.184- 154 1.42 131 1.42  15 1.43
  15  0.331  0.602  0.182-  16 1.42  28 1.42  14 1.43
  16  0.313  0.617  0.151-  15 1.42   7 1.42  17 1.43
  17  0.270  0.629  0.149-  18 1.42  30 1.42  16 1.43
  18  0.250  0.626  0.118-  17 1.42   9 1.42  19 1.43
  19  0.209  0.600  0.116-  20 1.42  32 1.42  18 1.43
  20  0.193  0.580  0.085-  19 1.42  11 1.42  21 1.43
  21  0.166  0.522  0.083-  22 1.42  34 1.42  20 1.43
  22  0.159  0.492  0.052-  21 1.42  13 1.42  23 1.43
  23  0.155  0.420  0.050-  24 1.42  36 1.42  22 1.43
  24  0.159  0.388  0.019-  23 1.42 330 1.42  25 1.43
  25  0.178  0.324  0.017- 344 1.42  38 1.42  24 1.43
  26  0.361  0.560  0.244- 177 1.42 154 1.42  27 1.43
  27  0.328  0.606  0.242-  28 1.42  45 1.42  26 1.43
  28  0.309  0.619  0.211-  27 1.42  15 1.42  29 1.43
  29  0.266  0.629  0.209-  30 1.42  47 1.42  28 1.43
  30  0.246  0.625  0.178-  29 1.42  17 1.42  31 1.43
  31  0.205  0.596  0.176-  32 1.42  49 1.42  30 1.43
  32  0.190  0.575  0.145-  31 1.42  19 1.42  33 1.43
  33  0.164  0.516  0.143-  34 1.42  51 1.42  32 1.43
  34  0.158  0.485  0.112-  33 1.42  21 1.42  35 1.43
  35  0.155  0.414  0.111-  36 1.42  53 1.42  34 1.43
  36  0.160  0.382  0.079-  35 1.42  23 1.42  37 1.43
  37  0.181  0.319  0.078-  38 1.42  55 1.42  36 1.43
  38  0.195  0.295  0.046-  37 1.42  25 1.42  39 1.43
  39  0.233  0.260  0.045-  40 1.42  57 1.42  38 1.43
  40  0.253  0.252  0.013-  39 1.42 345 1.42  41 1.43
  41  0.297  0.254  0.012- 355 1.42  59 1.42  40 1.43
  42  0.371  0.538  0.336-  64 1.42  43 1.42 199 1.42
  43  0.359  0.565  0.305- 177 1.42  42 1.42  44 1.42
  44  0.324  0.608  0.303-  45 1.42  66 1.42  43 1.42
  45  0.305  0.621  0.272-  44 1.42  27 1.42  46 1.43
  46  0.262  0.629  0.270-  47 1.42  68 1.42  45 1.43
  47  0.242  0.623  0.239-  46 1.42  29 1.42  48 1.43
  48  0.202  0.592  0.237-  49 1.42  70 1.42  47 1.43
  49  0.187  0.570  0.206-  48 1.42  31 1.42  50 1.43
  50  0.163  0.510  0.204-  51 1.42  72 1.42  49 1.43
  51  0.157  0.479  0.173-  50 1.42  33 1.42  52 1.43
  52  0.156  0.407  0.171-  53 1.42  74 1.42  51 1.43
  53  0.161  0.375  0.140-  52 1.42  35 1.42  54 1.43
  54  0.183  0.314  0.138-  55 1.42  76 1.42  53 1.43
  55  0.198  0.291  0.107-  54 1.42  37 1.42  56 1.43
  56  0.237  0.258  0.105-  57 1.42  78 1.42  55 1.43
  57  0.257  0.251  0.074-  56 1.42  39 1.42  58 1.43
  58  0.301  0.255  0.072-  59 1.42  80 1.42  57 1.43
  59  0.320  0.266  0.041-  58 1.42  41 1.42  60 1.43
  60  0.356  0.308  0.039-  61 1.42  82 1.42  59 1.43
  61  0.368  0.334  0.008-  60 1.42 356 1.42  62 1.43
  62  0.386  0.399  0.006- 362 1.42  84 1.42  61 1.43
  63  0.369  0.542  0.396- 221 1.41  64 1.42  87 1.44
  64  0.356  0.568  0.365-  42 1.42  63 1.42  65 1.42
  65  0.320  0.610  0.363-  66 1.42  89 1.42  64 1.42
  66  0.301  0.622  0.332-  65 1.42  44 1.42  67 1.43
  67  0.258  0.628  0.330-  68 1.42  91 1.42  66 1.43
  68  0.238  0.621  0.299-  67 1.42  46 1.42  69 1.43
  69  0.199  0.588  0.297-  70 1.42  93 1.42  68 1.43
  70  0.184  0.566  0.266-  69 1.42  48 1.42  71 1.43
  71  0.161  0.504  0.264-  72 1.42  95 1.42  70 1.43
  72  0.156  0.472  0.233-  71 1.42  50 1.42  73 1.43
  73  0.157  0.401  0.231-  74 1.42  97 1.42  72 1.43
  74  0.163  0.369  0.200-  73 1.42  52 1.42  75 1.43
  75  0.186  0.309  0.198-  76 1.42  99 1.42  74 1.43
  76  0.201  0.287  0.167-  75 1.42  54 1.42  77 1.43
  77  0.241  0.256  0.165- 101 1.42  78 1.42  76 1.43
  78  0.261  0.250  0.134-  77 1.42  56 1.42  79 1.43
  79  0.305  0.257  0.133-  80 1.42 103 1.42  78 1.43
  80  0.323  0.269  0.101-  79 1.42  58 1.42  81 1.43
  81  0.358  0.313  0.100-  82 1.42 105 1.42  80 1.43
  82  0.371  0.339  0.068-  81 1.42  60 1.42  83 1.43
  83  0.386  0.406  0.067-  84 1.42 107 1.42  82 1.43
  84  0.388  0.439  0.035-  83 1.42  62 1.42  85 1.43
  85  0.380  0.509  0.034-   1 1.42   2 1.42  84 1.43
  86  0.367  0.550  0.457-  87 1.40 110 1.41 243 1.47
  87  0.353  0.572  0.426-  86 1.40  88 1.43  63 1.44
  88  0.317  0.612  0.424- 112 1.42  89 1.42  87 1.43
  89  0.297  0.623  0.393-  88 1.42  65 1.42  90 1.42
  90  0.254  0.626  0.391-  91 1.42  89 1.42 114 1.42
  91  0.234  0.619  0.360-  90 1.42  67 1.42  92 1.43
  92  0.195  0.584  0.358-  93 1.42 116 1.42  91 1.43
  93  0.181  0.561  0.327-  92 1.42  69 1.42  94 1.43
  94  0.160  0.498  0.325-  95 1.42 118 1.42  93 1.43
  95  0.156  0.466  0.294-  94 1.42  71 1.42  96 1.43
  96  0.158  0.395  0.292-  97 1.42 120 1.42  95 1.43
  97  0.164  0.363  0.261-  96 1.42  73 1.42  98 1.43
  98  0.189  0.304  0.259-  99 1.42 122 1.42  97 1.43
  99  0.205  0.283  0.228-  98 1.42  75 1.42 100 1.43
 100  0.245  0.254  0.226- 124 1.42 101 1.42  99 1.43
 101  0.265  0.249  0.195-  77 1.42 100 1.42 102 1.43
 102  0.308  0.259  0.193- 103 1.42 126 1.42 101 1.43
 103  0.327  0.272  0.162- 102 1.42  79 1.42 104 1.43
 104  0.361  0.318  0.160- 128 1.42 105 1.42 103 1.43
 105  0.373  0.345  0.129- 104 1.42  81 1.42 106 1.43
 106  0.387  0.412  0.127- 107 1.42 130 1.42 105 1.43
 107  0.388  0.445  0.096- 106 1.42  83 1.42 108 1.43
 108  0.378  0.515  0.094-   2 1.42   6 1.42 107 1.43
 109  0.365  0.555  0.517- 133 1.41 110 1.43 265 1.43
 110  0.350  0.578  0.486-  86 1.41 109 1.43 111 1.43
 111  0.313  0.615  0.484- 112 1.42 135 1.42 110 1.43
 112  0.293  0.624  0.453- 111 1.42  88 1.42 113 1.43
 113  0.249  0.625  0.451- 114 1.42 137 1.42 112 1.43
 114  0.230  0.617  0.420- 113 1.42  90 1.42 115 1.43
 115  0.192  0.580  0.418- 116 1.42 139 1.42 114 1.43
 116  0.179  0.555  0.387- 115 1.42  92 1.42 117 1.43
 117  0.159  0.492  0.385- 118 1.42 141 1.42 116 1.43
 118  0.155  0.459  0.354- 117 1.42  94 1.42 119 1.43
 119  0.159  0.388  0.352- 120 1.42 143 1.42 118 1.43
 120  0.166  0.357  0.321- 119 1.42  96 1.42 121 1.43
 121  0.192  0.300  0.319- 145 1.42 122 1.42 120 1.43
 122  0.208  0.279  0.288- 121 1.42  98 1.42 123 1.43
 123  0.249  0.253  0.286- 124 1.42 147 1.42 122 1.43
 124  0.269  0.249  0.255- 123 1.42 100 1.42 125 1.43
 125  0.312  0.261  0.253- 149 1.42 126 1.42 124 1.43
 126  0.330  0.275  0.222- 102 1.42 125 1.42 127 1.43
 127  0.363  0.323  0.220- 151 1.42 128 1.42 126 1.43
 128  0.374  0.350  0.189- 104 1.42 127 1.42 129 1.43
 129  0.387  0.419  0.187- 130 1.42 153 1.42 128 1.43
 130  0.388  0.452  0.156- 129 1.42 106 1.42 131 1.43
 131  0.377  0.521  0.154-   6 1.42  14 1.42 130 1.43
 132  0.362  0.560  0.578- 156 1.42 287 1.42 133 1.42
 133  0.348  0.583  0.546- 109 1.41 132 1.42 134 1.43
 134  0.309  0.619  0.545- 135 1.42 158 1.42 133 1.43
 135  0.289  0.626  0.513- 134 1.42 111 1.42 136 1.43
 136  0.246  0.624  0.512- 160 1.42 137 1.42 135 1.43
 137  0.226  0.614  0.481- 113 1.42 136 1.42 138 1.43
 138  0.189  0.575  0.479- 139 1.42 162 1.42 137 1.43
 139  0.176  0.550  0.448- 138 1.42 115 1.42 140 1.43
 140  0.158  0.485  0.446- 141 1.42 164 1.42 139 1.43
 141  0.155  0.453  0.415- 140 1.42 117 1.42 142 1.43
 142  0.160  0.382  0.413- 143 1.42 166 1.42 141 1.43
 143  0.167  0.351  0.382- 142 1.42 119 1.42 144 1.43
 144  0.195  0.295  0.380- 145 1.42 168 1.42 143 1.43
 145  0.211  0.276  0.349- 144 1.42 121 1.42 146 1.43
 146  0.252  0.251  0.347- 147 1.42 170 1.42 145 1.43
 147  0.273  0.249  0.316- 146 1.42 123 1.42 148 1.43
 148  0.316  0.264  0.314- 172 1.42 149 1.42 147 1.43
 149  0.334  0.279  0.283- 125 1.42 148 1.42 150 1.43
 150  0.366  0.328  0.281- 174 1.42 151 1.42 149 1.43
 151  0.376  0.356  0.250- 127 1.42 150 1.42 152 1.43
 152  0.388  0.425  0.248- 176 1.42 153 1.42 151 1.43
 153  0.387  0.458  0.217- 152 1.42 129 1.42 154 1.43
 154  0.375  0.527  0.215-  14 1.42  26 1.42 153 1.43
 155  0.359  0.564  0.638- 156 1.42 179 1.42 309 1.43
 156  0.344  0.587  0.607- 132 1.42 155 1.42 157 1.43
 157  0.305  0.621  0.605- 181 1.42 158 1.42 156 1.43
 158  0.286  0.628  0.574- 134 1.42 157 1.42 159 1.43
 159  0.242  0.623  0.572- 160 1.42 183 1.42 158 1.43
 160  0.223  0.612  0.541- 159 1.42 136 1.42 161 1.43
 161  0.187  0.571  0.539- 162 1.42 185 1.42 160 1.43
 162  0.174  0.545  0.508- 161 1.42 138 1.42 163 1.43
 163  0.157  0.479  0.506- 164 1.42 187 1.42 162 1.43
 164  0.154  0.446  0.475- 163 1.42 140 1.42 165 1.43
 165  0.161  0.376  0.473- 166 1.42 189 1.42 164 1.43
 166  0.169  0.346  0.442- 165 1.42 142 1.42 167 1.43
 167  0.198  0.291  0.440- 168 1.42 191 1.42 166 1.43
 168  0.214  0.272  0.409- 167 1.42 144 1.42 169 1.43
 169  0.256  0.250  0.407- 193 1.42 170 1.42 168 1.43
 170  0.277  0.250  0.376- 146 1.42 169 1.42 171 1.43
 171  0.319  0.267  0.374- 172 1.42 195 1.42 170 1.43
 172  0.337  0.283  0.343- 171 1.42 148 1.42 173 1.43
 173  0.368  0.333  0.341- 197 1.41 174 1.42 172 1.43
 174  0.378  0.362  0.310- 150 1.42 175 1.42 173 1.42
 175  0.388  0.432  0.308- 176 1.42 199 1.42 174 1.42
 176  0.387  0.465  0.277- 175 1.42 152 1.42 177 1.43
 177  0.373  0.532  0.275-  26 1.42  43 1.42 176 1.43
 178  0.356  0.569  0.698- 201 1.42 179 1.42 328 1.43
 179  0.341  0.591  0.667- 178 1.42 155 1.42 180 1.43
 180  0.302  0.623  0.666- 203 1.42 181 1.42 179 1.43
 181  0.282  0.629  0.634- 157 1.42 180 1.42 182 1.43
 182  0.238  0.621  0.633- 183 1.42 205 1.42 181 1.43
 183  0.219  0.609  0.601- 182 1.42 159 1.42 184 1.43
 184  0.184  0.566  0.600- 185 1.42 207 1.42 183 1.43
 185  0.172  0.539  0.568- 161 1.42 184 1.42 186 1.43
 186  0.156  0.472  0.567- 187 1.42 209 1.42 185 1.43
 187  0.154  0.440  0.535- 186 1.42 163 1.42 188 1.43
 188  0.162  0.369  0.534- 189 1.42 211 1.42 187 1.43
 189  0.171  0.340  0.502- 188 1.42 165 1.42 190 1.43
 190  0.201  0.287  0.501- 191 1.42 213 1.42 189 1.43
 191  0.218  0.269  0.469- 190 1.42 167 1.42 192 1.43
 192  0.260  0.250  0.468- 193 1.42 215 1.42 191 1.43
 193  0.281  0.250  0.437- 192 1.42 169 1.42 194 1.43
 194  0.323  0.270  0.435- 195 1.42 217 1.42 193 1.43
 195  0.340  0.288  0.404- 194 1.42 171 1.42 196 1.43
 196  0.370  0.340  0.402- 219 1.41 197 1.43 195 1.43
 197  0.380  0.368  0.370- 173 1.41 196 1.43 198 1.43
 198  0.389  0.438  0.368- 221 1.41 199 1.42 197 1.43
 199  0.386  0.471  0.337- 198 1.42 175 1.42  42 1.42
 200  0.353  0.574  0.759- 201 1.42 223 1.42 343 1.43
 201  0.338  0.595  0.728- 178 1.42 200 1.42 202 1.43
 202  0.298  0.624  0.726- 203 1.42 225 1.42 201 1.43
 203  0.278  0.629  0.695- 202 1.42 180 1.42 204 1.43
 204  0.234  0.619  0.693- 227 1.42 205 1.42 203 1.43
 205  0.215  0.606  0.662- 204 1.42 182 1.42 206 1.43
 206  0.181  0.561  0.660- 207 1.42 229 1.42 205 1.43
 207  0.170  0.534  0.629- 206 1.42 184 1.42 208 1.43
 208  0.156  0.466  0.627- 209 1.42 231 1.42 207 1.43
 209  0.154  0.433  0.596- 208 1.42 186 1.42 210 1.43
 210  0.164  0.363  0.594- 211 1.42 233 1.42 209 1.43
 211  0.174  0.334  0.563- 210 1.42 188 1.42 212 1.43
 212  0.204  0.283  0.561- 213 1.42 235 1.42 211 1.43
 213  0.222  0.267  0.530- 212 1.42 190 1.42 214 1.43
 214  0.265  0.249  0.528- 215 1.42 237 1.42 213 1.43
 215  0.285  0.251  0.497- 214 1.42 216 1.42 192 1.42
 216  0.326  0.273  0.495- 217 1.42 239 1.42 215 1.42
 217  0.343  0.292  0.464- 194 1.42 216 1.42 218 1.43
 218  0.372  0.346  0.462- 219 1.40 217 1.43 241 1.44
 219  0.382  0.374  0.431- 218 1.40 196 1.41 220 1.47
 220  0.395  0.444  0.429- 221 1.46 219 1.47 243 1.49 365 2.09
 221  0.387  0.478  0.397-  63 1.41 198 1.41 220 1.46
 222  0.351  0.579  0.819- 223 1.42 245 1.42 354 1.43
 223  0.335  0.599  0.788- 222 1.42 200 1.42 224 1.43
 224  0.294  0.626  0.786- 225 1.42 247 1.42 223 1.43
 225  0.274  0.629  0.755- 224 1.42 202 1.42 226 1.43
 226  0.230  0.617  0.753- 227 1.42 249 1.42 225 1.43
 227  0.212  0.603  0.722- 226 1.42 204 1.42 228 1.43
 228  0.179  0.556  0.720- 229 1.42 251 1.42 227 1.43
 229  0.168  0.528  0.689- 228 1.42 206 1.42 230 1.43
 230  0.155  0.460  0.688- 231 1.42 253 1.42 229 1.43
 231  0.155  0.427  0.656- 230 1.42 208 1.42 232 1.43
 232  0.166  0.357  0.655- 233 1.42 255 1.42 231 1.43
 233  0.176  0.329  0.623- 232 1.42 210 1.42 234 1.43
 234  0.208  0.279  0.622- 235 1.42 257 1.42 233 1.43
 235  0.226  0.264  0.590- 234 1.42 212 1.42 236 1.43
 236  0.269  0.249  0.589- 237 1.42 259 1.42 235 1.43
 237  0.289  0.251  0.557- 236 1.42 214 1.42 238 1.43
 238  0.330  0.275  0.556- 239 1.42 261 1.42 237 1.43
 239  0.347  0.295  0.524- 238 1.42 216 1.42 240 1.42
 240  0.374  0.351  0.523- 263 1.42 241 1.42 239 1.42
 241  0.382  0.382  0.492- 242 1.41 240 1.42 218 1.44
 242  0.389  0.452  0.490- 241 1.41 265 1.41 243 1.46
 243  0.392  0.487  0.459- 242 1.46  86 1.47 220 1.49 365 2.09
 244  0.348  0.583  0.880- 245 1.42 267 1.42 361 1.43
 245  0.331  0.602  0.849- 244 1.42 222 1.42 246 1.43
 246  0.290  0.627  0.847- 247 1.42 269 1.42 245 1.43
 247  0.270  0.629  0.816- 246 1.42 224 1.42 248 1.43
 248  0.227  0.615  0.814- 249 1.42 271 1.42 247 1.43
 249  0.209  0.599  0.783- 248 1.42 226 1.42 250 1.43
 250  0.177  0.550  0.781- 251 1.42 273 1.42 249 1.43
 251  0.166  0.522  0.750- 250 1.42 228 1.42 252 1.43
 252  0.155  0.453  0.748- 253 1.42 275 1.42 251 1.43
 253  0.155  0.420  0.717- 252 1.42 230 1.42 254 1.43
 254  0.168  0.352  0.715- 255 1.42 277 1.42 253 1.43
 255  0.178  0.324  0.684- 254 1.42 232 1.42 256 1.43
 256  0.211  0.276  0.682- 257 1.42 279 1.42 255 1.43
 257  0.229  0.262  0.651- 256 1.42 234 1.42 258 1.43
 258  0.273  0.249  0.649- 259 1.42 281 1.42 257 1.43
 259  0.293  0.252  0.618- 258 1.42 236 1.42 260 1.43
 260  0.334  0.278  0.616- 261 1.42 283 1.42 259 1.43
 261  0.350  0.299  0.585- 260 1.42 238 1.42 262 1.42
 262  0.376  0.356  0.583- 263 1.42 285 1.42 261 1.42
 263  0.383  0.387  0.552- 240 1.42 262 1.42 264 1.42
 264  0.387  0.458  0.550- 265 1.42 287 1.42 263 1.42
 265  0.384  0.491  0.519- 242 1.41 264 1.42 109 1.43
 266  0.345  0.587  0.940- 267 1.42 289 1.42 364 1.43
 267  0.328  0.606  0.909- 266 1.42 244 1.42 268 1.43
 268  0.286  0.628  0.907- 269 1.42 291 1.42 267 1.43
 269  0.266  0.629  0.876- 268 1.42 246 1.42 270 1.43
 270  0.223  0.612  0.874- 271 1.42 293 1.42 269 1.43
 271  0.205  0.596  0.843- 270 1.42 248 1.42 272 1.43
 272  0.174  0.545  0.841- 273 1.42 295 1.42 271 1.43
 273  0.164  0.516  0.810- 272 1.42 250 1.42 274 1.43
 274  0.154  0.446  0.808- 275 1.42 297 1.42 273 1.43
 275  0.155  0.414  0.777- 274 1.42 252 1.42 276 1.43
 276  0.169  0.346  0.775- 277 1.42 299 1.42 275 1.43
 277  0.181  0.319  0.744- 276 1.42 254 1.42 278 1.43
 278  0.215  0.273  0.742- 279 1.42 301 1.42 277 1.43
 279  0.233  0.259  0.711- 278 1.42 256 1.42 280 1.43
 280  0.277  0.249  0.710- 281 1.42 303 1.42 279 1.43
 281  0.297  0.254  0.678- 280 1.42 258 1.42 282 1.43
 282  0.337  0.282  0.677- 283 1.42 305 1.42 281 1.43
 283  0.353  0.303  0.645- 282 1.42 260 1.42 284 1.43
 284  0.378  0.362  0.644- 285 1.42 307 1.42 283 1.43
 285  0.384  0.393  0.612- 284 1.42 262 1.42 286 1.43
 286  0.387  0.464  0.611- 287 1.42 309 1.42 285 1.43
 287  0.382  0.497  0.580- 286 1.42 264 1.42 132 1.42
 288  0.341  0.591  0.001- 289 1.42   4 1.42   1 1.43
 289  0.324  0.609  0.970- 288 1.42 266 1.42 290 1.43
 290  0.282  0.628  0.968- 291 1.42 310 1.42 289 1.43
 291  0.262  0.628  0.937- 290 1.42 268 1.42 292 1.43
 292  0.219  0.609  0.935- 293 1.42 312 1.42 291 1.43
 293  0.202  0.592  0.904- 292 1.42 270 1.42 294 1.43
 294  0.172  0.539  0.902- 295 1.42 314 1.42 293 1.43
 295  0.163  0.510  0.871- 294 1.42 272 1.42 296 1.43
 296  0.154  0.440  0.869- 297 1.42 316 1.42 295 1.43
 297  0.156  0.407  0.838- 296 1.42 274 1.42 298 1.43
 298  0.172  0.340  0.836- 299 1.42 318 1.42 297 1.43
 299  0.184  0.314  0.805- 298 1.42 276 1.42 300 1.43
 300  0.218  0.270  0.803- 301 1.42 320 1.42 299 1.43
 301  0.237  0.257  0.772- 300 1.42 278 1.42 302 1.43
 302  0.281  0.250  0.770- 303 1.42 322 1.42 301 1.43
 303  0.301  0.255  0.739- 302 1.42 280 1.42 304 1.43
 304  0.340  0.286  0.737- 305 1.42 324 1.42 303 1.43
 305  0.356  0.308  0.706- 304 1.42 282 1.42 306 1.43
 306  0.379  0.368  0.704- 307 1.42 326 1.42 305 1.43
 307  0.385  0.399  0.673- 306 1.42 284 1.42 308 1.43
 308  0.386  0.471  0.671- 309 1.42 328 1.42 307 1.43
 309  0.381  0.503  0.640- 286 1.42 308 1.42 155 1.43
 310  0.258  0.628  0.997-   5 1.42 290 1.42 311 1.43
 311  0.216  0.606  0.995- 312 1.42  12 1.42 310 1.43
 312  0.199  0.588  0.964- 311 1.42 292 1.42 313 1.43
 313  0.170  0.534  0.962- 314 1.42 329 1.42 312 1.43
 314  0.161  0.504  0.931- 313 1.42 294 1.42 315 1.43
 315  0.154  0.433  0.929- 316 1.42 331 1.42 314 1.43
 316  0.157  0.401  0.898- 315 1.42 296 1.42 317 1.43
 317  0.174  0.335  0.896- 318 1.42 333 1.42 316 1.43
 318  0.186  0.309  0.865- 317 1.42 298 1.42 319 1.43
 319  0.222  0.267  0.863- 320 1.42 335 1.42 318 1.43
 320  0.241  0.256  0.832- 319 1.42 300 1.42 321 1.43
 321  0.285  0.251  0.830- 322 1.42 337 1.42 320 1.43
 322  0.305  0.257  0.799- 321 1.42 302 1.42 323 1.43
 323  0.344  0.290  0.797- 324 1.42 339 1.42 322 1.43
 324  0.358  0.313  0.766- 323 1.42 304 1.42 325 1.43
 325  0.381  0.374  0.764- 326 1.42 341 1.42 324 1.43
 326  0.386  0.406  0.733- 325 1.42 306 1.42 327 1.43
 327  0.386  0.477  0.731- 328 1.42 343 1.42 326 1.43
 328  0.380  0.509  0.700- 327 1.42 308 1.42 178 1.43
 329  0.160  0.498  0.991-  13 1.42 313 1.42 330 1.43
 330  0.155  0.427  0.990- 331 1.42  24 1.42 329 1.43
 331  0.158  0.394  0.959- 330 1.42 315 1.42 332 1.43
 332  0.176  0.329  0.957- 333 1.42 344 1.42 331 1.43
 333  0.189  0.304  0.926- 332 1.42 317 1.42 334 1.43
 334  0.226  0.264  0.924- 335 1.42 346 1.42 333 1.43
 335  0.245  0.254  0.893- 334 1.42 319 1.42 336 1.43
 336  0.289  0.251  0.891- 337 1.42 348 1.42 335 1.43
 337  0.309  0.259  0.860- 336 1.42 321 1.42 338 1.43
 338  0.347  0.294  0.858- 339 1.42 350 1.42 337 1.43
 339  0.361  0.318  0.827- 338 1.42 323 1.42 340 1.43
 340  0.382  0.380  0.825- 341 1.42 352 1.42 339 1.43
 341  0.387  0.412  0.794- 340 1.42 325 1.42 342 1.43
 342  0.385  0.484  0.792- 343 1.42 354 1.42 341 1.43
 343  0.378  0.515  0.761- 342 1.42 327 1.42 200 1.43
 344  0.192  0.300  0.986-  25 1.42 332 1.42 345 1.43
 345  0.229  0.262  0.984- 346 1.42  40 1.42 344 1.43
 346  0.249  0.253  0.953- 345 1.42 334 1.42 347 1.43
 347  0.293  0.253  0.951- 348 1.42 355 1.42 346 1.43
 348  0.312  0.261  0.920- 347 1.42 336 1.42 349 1.43
 349  0.350  0.299  0.918- 350 1.42 357 1.42 348 1.43
 350  0.364  0.323  0.887- 349 1.42 338 1.42 351 1.43
 351  0.384  0.387  0.885- 352 1.42 359 1.42 350 1.43
 352  0.387  0.419  0.854- 351 1.42 340 1.42 353 1.43
 353  0.384  0.490  0.852- 354 1.42 361 1.42 352 1.43
 354  0.377  0.521  0.821- 353 1.42 342 1.42 222 1.43
 355  0.316  0.264  0.981-  41 1.42 347 1.42 356 1.43
 356  0.353  0.303  0.979- 357 1.42  61 1.42 355 1.43
 357  0.366  0.328  0.948- 356 1.42 349 1.42 358 1.43
 358  0.385  0.393  0.946- 359 1.42 362 1.42 357 1.43
 359  0.388  0.426  0.915- 358 1.42 351 1.42 360 1.43
 360  0.383  0.497  0.913- 361 1.42 364 1.42 359 1.43
 361  0.375  0.527  0.882- 360 1.42 353 1.42 244 1.43
 362  0.388  0.432  0.975-  62 1.42 358 1.42 363 1.43
 363  0.381  0.503  0.973- 364 1.42   1 1.42 362 1.43
 364  0.373  0.533  0.942- 363 1.42 360 1.42 266 1.43
 365  0.453  0.479  0.444- 220 2.09 243 2.09
 
  LATTYP: Found a simple orthorhombic cell.
 ALAT       =    19.9214134216
 B/A-ratio  =     1.6250001197
 C/A-ratio  =     2.0303804144
  
  Lattice vectors:
  
 A1 = (   0.0000000000, -19.9214134216,   0.0000000000)
 A2 = (  32.3722991943,   0.0000000000,   0.0000000000)
 A3 = (   0.0000000000,   0.0000000000,  40.4480476379)


Analysis of symmetry for initial positions (statically):
=====================================================================
 Subroutine PRICEL returns:
 Original cell was already a primitive cell.
 

 Routine SETGRP: Setting up the symmetry group for a 
 simple orthorhombic supercell.


 Subroutine GETGRP returns: Found  1 space group operations
 (whereof  1 operations were pure point group operations)
 out of a pool of  8 trial point group operations.


The static configuration has the point symmetry C_1 .


Analysis of symmetry for dynamics (positions and initial velocities):
=====================================================================
 Subroutine PRICEL returns:
 Original cell was already a primitive cell.
 

 Routine SETGRP: Setting up the symmetry group for a 
 simple orthorhombic supercell.


 Subroutine GETGRP returns: Found  1 space group operations
 (whereof  1 operations were pure point group operations)
 out of a pool of  8 trial point group operations.


The dynamic configuration has the point symmetry C_1 .


Analysis of structural, dynamic, and magnetic symmetry:
=====================================================================
 Subroutine PRICEL returns:
 Original cell was already a primitive cell.
 

 Routine SETGRP: Setting up the symmetry group for a 
 simple orthorhombic supercell.


 Subroutine GETGRP returns: Found  1 space group operations
 (whereof  1 operations were pure point group operations)
 out of a pool of  8 trial point group operations.


The overall configuration has the point symmetry C_1 .


 Subroutine INISYM returns: Found  1 space group operations
 (whereof  1 operations are pure point group operations),
 and found     1 'primitive' translations


----------------------------------------------------------------------------------------

                                     Primitive cell                                     

  volume of cell :   26085.0250

  direct lattice vectors                    reciprocal lattice vectors
    32.372299194  0.000000000  0.000000000     0.030890608  0.000000000  0.000000000
     0.000000000 19.921413422  0.000000000     0.000000000  0.050197241  0.000000000
     0.000000000  0.000000000 40.448047638     0.000000000  0.000000000  0.024723072

  length of vectors
    32.372299194 19.921413422 40.448047638     0.030890608  0.050197241  0.024723072

  position of ions in fractional coordinates (direct lattice)
     0.370964942  0.538322942  0.002468822
     0.368788585  0.543839438  0.062902409
     0.338059995  0.595020528  0.061096176
     0.320496349  0.611430562  0.029940996
     0.277819328  0.628807467  0.028124840
     0.366468843  0.549236345  0.123327057
     0.334686064  0.598677001  0.121525732
     0.316793732  0.614093701  0.090371230
     0.273768947  0.629063540  0.088551737
     0.253555982  0.626907208  0.057403193
     0.212101195  0.602948851  0.055594875
     0.195592564  0.583867528  0.024440998
     0.168034476  0.528126375  0.022633263
     0.364006560  0.554507011  0.183747287
     0.331218575  0.602196743  0.181955293
     0.313023378  0.616581076  0.150802069
     0.269710681  0.629142106  0.148984263
     0.249560938  0.625817219  0.117829581
     0.208648871  0.599539448  0.116027019
     0.192550493  0.579546681  0.084874544
     0.166194145  0.522290328  0.083063382
     0.158942323  0.491544723  0.051916432
     0.154988891  0.420329629  0.050104828
     0.158745317  0.387963799  0.018953012
     0.178375963  0.323971098  0.017149082
     0.361437127  0.559652642  0.244168855
     0.327686786  0.605523072  0.242399009
     0.309191000  0.618888746  0.211234178
     0.265652229  0.629014362  0.209422343
     0.245586087  0.624567128  0.178264113
     0.205257852  0.595969533  0.176463484
     0.189601341  0.575066300  0.145314813
     0.164480968  0.516360423  0.143498701
     0.157891511  0.485216855  0.112346712
     0.155450648  0.413829446  0.110538103
     0.159889030  0.381691443  0.079385697
     0.180860181  0.318826861  0.077578476
     0.195017867  0.295255142  0.046429309
     0.233165858  0.259627485  0.044610521
     0.252833210  0.251626995  0.013461014
     0.296813150  0.253840114  0.011655658
     0.370755020  0.537767425  0.335687438
     0.358773722  0.564551277  0.304565291
     0.324100842  0.608409304  0.302842227
     0.305343739  0.620949779  0.271689827
     0.261592549  0.628636314  0.269881561
     0.241640842  0.623083276  0.238726249
     0.201944901  0.592211759  0.236913353
     0.186761455  0.570414772  0.205754062
     0.162924214  0.510330965  0.203931551
     0.156982227  0.478842561  0.172780464
     0.156055618  0.407351421  0.170974766
     0.161167217  0.375485292  0.139823211
     0.183454072  0.313831566  0.138010359
     0.198102505  0.291064081  0.106856420
     0.236980093  0.257587499  0.105041890
     0.256808302  0.250702637  0.073890989
     0.300716124  0.255382360  0.072085603
     0.319817074  0.266429721  0.040935635
     0.355679690  0.307851736  0.039113688
     0.368381329  0.333529460  0.007963327
     0.385551281  0.399360305  0.006156216
     0.368562300  0.541604861  0.396087943
     0.355905695  0.568272668  0.365067396
     0.320354808  0.610295163  0.363327611
     0.301448970  0.622315846  0.332224105
     0.257552466  0.627756322  0.330383826
     0.237734889  0.621243238  0.299192238
     0.198723767  0.588217198  0.297358823
     0.184000750  0.565634472  0.266194389
     0.161460805  0.504214038  0.264367919
     0.156215777  0.472414514  0.233220621
     0.156802864  0.400913098  0.231414274
     0.162590225  0.369355222  0.200257978
     0.186158326  0.308984465  0.198438670
     0.201265394  0.287036450  0.167291180
     0.240829356  0.255716058  0.165486902
     0.260791518  0.249970137  0.134325060
     0.304566705  0.257100975  0.132515281
     0.323434471  0.269220552  0.101366162
     0.358399612  0.312626805  0.099544758
     0.370553039  0.339015873  0.068397107
     0.386317532  0.405768644  0.066592582
     0.388150198  0.438581617  0.035440532
     0.379999689  0.508840585  0.033620439
     0.367452295  0.549640679  0.456699599
     0.353255962  0.572184455  0.425854802
     0.316541027  0.611704318  0.423860174
     0.297373027  0.622538437  0.392695113
     0.253540250  0.626225088  0.390831079
     0.233822206  0.619064837  0.359637485
     0.195453076  0.584052731  0.357797067
     0.181286311  0.560648187  0.326642286
     0.160086354  0.497976318  0.324813931
     0.155566347  0.465914498  0.293650532
     0.157666179  0.394511368  0.291840823
     0.164104624  0.363290907  0.260690700
     0.188934371  0.304238371  0.258869088
     0.204525656  0.283183585  0.227728792
     0.244718326  0.254062939  0.225934757
     0.264781354  0.249396905  0.194763479
     0.308390241  0.258950363  0.192953706
     0.326975348  0.272170484  0.161803517
     0.360986736  0.317541927  0.159980134
     0.372580764  0.344614023  0.128828860
     0.386901269  0.412213169  0.127019337
     0.388066463  0.445115285  0.095872106
     0.378436429  0.514884316  0.094051743
     0.364521245  0.554660400  0.517334841
     0.350462597  0.577500340  0.485848212
     0.312829282  0.614654300  0.484097673
     0.293430979  0.623966096  0.453045389
     0.249326681  0.625470002  0.451224222
     0.229876107  0.616729960  0.420120089
     0.192238482  0.579709474  0.418262262
     0.178626211  0.555466376  0.387078626
     0.158836264  0.491672782  0.385253638
     0.154985066  0.459385328  0.354090124
     0.158603051  0.388104298  0.352277734
     0.165724580  0.357291875  0.321132899
     0.191749028  0.299616774  0.319307907
     0.207813394  0.279469546  0.288156866
     0.248603801  0.252660073  0.286367017
     0.268766854  0.249058335  0.255227868
     0.312188553  0.261030053  0.253429576
     0.330459670  0.275288200  0.222243801
     0.363446007  0.322575599  0.220408838
     0.374458454  0.350298131  0.189257507
     0.387317349  0.418685176  0.187431155
     0.387790163  0.451636423  0.156296037
     0.376691618  0.520827588  0.154483263
     0.361524656  0.559539841  0.577686439
     0.347605429  0.583164620  0.546368677
     0.309209276  0.618563165  0.544549301
     0.289498291  0.625802437  0.513423896
     0.245526607  0.624166028  0.511639226
     0.226092895  0.614447315  0.480500140
     0.189298343  0.575209998  0.478680178
     0.176071723  0.550307563  0.447543010
     0.157654931  0.485265098  0.445718987
     0.154571613  0.452791014  0.414567769
     0.159696163  0.381761660  0.412742760
     0.167446196  0.351354876  0.381568783
     0.194609482  0.295136094  0.379736688
     0.211068835  0.275840484  0.348597032
     0.252470497  0.251440411  0.346804389
     0.272750339  0.249157989  0.315694639
     0.315867363  0.263640586  0.313914809
     0.333881838  0.278608303  0.282691757
     0.365895979  0.327709254  0.280847846
     0.376222066  0.356074705  0.249690462
     0.387564495  0.425157366  0.247822417
     0.387333493  0.458133019  0.216689082
     0.374796487  0.526655783  0.214894605
     0.358839201  0.564489997  0.638066597
     0.344272559  0.587392838  0.606911866
     0.305400240  0.620946445  0.605054072
     0.285602401  0.627589854  0.573821939
     0.241669576  0.622896562  0.572054742
     0.222510776  0.611907437  0.540942510
     0.186583675  0.570513827  0.539132971
     0.173877152  0.544784820  0.507997647
     0.156863739  0.478877720  0.506181400
     0.154345512  0.446207908  0.475008025
     0.160992727  0.375513709  0.473179341
     0.169259620  0.345527682  0.442031650
     0.197621256  0.290729848  0.440202018
     0.214441700  0.272439983  0.409056511
     0.256326904  0.250488195  0.407249848
     0.276656880  0.249550306  0.376111939
     0.319307218  0.267007762  0.374314654
     0.337132473  0.282524881  0.343194588
     0.368384846  0.333193017  0.341398495
     0.377982939  0.361968378  0.310081148
     0.387722651  0.431560148  0.308124619
     0.386768843  0.464578914  0.277042152
     0.372844441  0.532426750  0.275290490
     0.356193255  0.569345812  0.698491666
     0.341054448  0.591308627  0.667343718
     0.301536689  0.622694836  0.665505577
     0.281601583  0.628538356  0.634312158
     0.237786029  0.621300354  0.632520910
     0.218952891  0.609101473  0.601379512
     0.184005049  0.565658863  0.599575034
     0.171826745  0.539278706  0.568423439
     0.156153480  0.472456429  0.566619790
     0.154332683  0.439654431  0.535477209
     0.162477642  0.369371364  0.533655597
     0.171448211  0.339874247  0.502497220
     0.200929310  0.286871536  0.500678247
     0.218002695  0.269339123  0.469486532
     0.260337107  0.249865124  0.467636169
     0.280521981  0.249870519  0.436530605
     0.322787834  0.270402585  0.434699862
     0.339968494  0.287801815  0.403648960
     0.370198397  0.339835600  0.401925900
     0.380053265  0.367924295  0.370441892
     0.388537220  0.438220700  0.368380894
     0.386186988  0.470962034  0.337346617
     0.353459120  0.574072324  0.758916026
     0.337859761  0.595147821  0.727765942
     0.297659600  0.624235758  0.725951264
     0.277584125  0.628936658  0.694795074
     0.233980638  0.619300016  0.692983721
     0.215410296  0.606110700  0.661813572
     0.181420404  0.560685499  0.660012392
     0.169840371  0.533647083  0.628866789
     0.155545913  0.466006384  0.627064857
     0.154450609  0.433110321  0.595917231
     0.164095378  0.363368368  0.594095348
     0.173687705  0.334375628  0.562937421
     0.204349202  0.283067309  0.561125781
     0.221823123  0.266580966  0.529965814
     0.264526509  0.249326194  0.528123713
     0.284704736  0.250917984  0.496928665
     0.326353262  0.273420279  0.495062377
     0.343055407  0.292175374  0.463893729
     0.371993378  0.346125545  0.461923950
     0.382027467  0.373986740  0.431085261
     0.395458712  0.444499887  0.428832620
     0.386740602  0.477605075  0.397372616
     0.350594884  0.578632103  0.819346258
     0.334559773  0.598808689  0.788197743
     0.293755478  0.625569217  0.786394058
     0.273587303  0.629097244  0.755240786
     0.230218853  0.617046628  0.753425256
     0.211924974  0.602878962  0.722263931
     0.178905557  0.555586334  0.720461730
     0.167928619  0.527901276  0.689309393
     0.155060951  0.459530985  0.687502821
     0.154644161  0.426600024  0.656348490
     0.165770683  0.357415715  0.654530003
     0.176027783  0.329008071  0.623385349
     0.207778771  0.279487731  0.621581427
     0.225653422  0.264009795  0.590416282
     0.268651435  0.248941247  0.588573931
     0.288822608  0.251185425  0.557382735
     0.330246650  0.275397542  0.555546678
     0.346503697  0.295151421  0.524435160
     0.373890998  0.351031460  0.522708784
     0.381746356  0.382204768  0.491695319
     0.388841770  0.451743084  0.490405434
     0.391883037  0.487416609  0.458946478
     0.347619570  0.583017937  0.879784929
     0.331169845  0.602278287  0.848630322
     0.289821935  0.626715838  0.846829184
     0.269593906  0.629097658  0.815678006
     0.226503551  0.614612101  0.813861349
     0.208513628  0.599411293  0.782711164
     0.176509701  0.550336613  0.780909334
     0.166119922  0.522067458  0.749747492
     0.154695476  0.453013220  0.747938770
     0.154968600  0.420086214  0.716790604
     0.167542992  0.351557838  0.714977860
     0.178421688  0.323760564  0.683825816
     0.211213996  0.276098554  0.682024343
     0.229410304  0.261604289  0.650868180
     0.272718974  0.248924971  0.649042591
     0.292861258  0.252134201  0.617887611
     0.333778388  0.278444763  0.616091721
     0.349804703  0.298617391  0.584930760
     0.376042274  0.355887892  0.583205648
     0.383210773  0.386867784  0.552087885
     0.387179472  0.457929811  0.550427251
     0.384129855  0.490506863  0.519390637
     0.344531474  0.587203130  0.940222320
     0.327691174  0.605544981  0.909067414
     0.285848203  0.627652744  0.907262199
     0.265586326  0.628892719  0.876113017
     0.222835969  0.611989948  0.874295438
     0.205183397  0.595777236  0.843145498
     0.174229591  0.544960349  0.841345774
     0.164424851  0.516130844  0.810190545
     0.154468929  0.446475406  0.808378313
     0.155440782  0.413581497  0.777228485
     0.169456154  0.345807926  0.775422197
     0.180897624  0.318630653  0.744265906
     0.214700782  0.272851710  0.742464388
     0.233208922  0.259433750  0.711319910
     0.276762424  0.249257799  0.709505536
     0.296836005  0.253593288  0.678348130
     0.337152384  0.282166020  0.676551965
     0.352794420  0.302997706  0.645380416
     0.377819448  0.361803974  0.643596915
     0.384350947  0.392956758  0.612476328
     0.386690302  0.464375556  0.610727271
     0.382233862  0.496610029  0.579642057
     0.341343980  0.591197945  0.000660358
     0.324134968  0.608597326  0.969505999
     0.281848279  0.628353071  0.967694886
     0.261576502  0.628465054  0.936545575
     0.219210259  0.609179511  0.934728406
     0.201916607  0.591987194  0.903578102
     0.172062235  0.539459698  0.901778343
     0.162879793  0.510096383  0.870629385
     0.154405083  0.439937054  0.868813564
     0.156061557  0.407112109  0.837662317
     0.171507047  0.340163990  0.835861136
     0.183511308  0.313640775  0.804709451
     0.218280604  0.269816051  0.802903475
     0.237059745  0.257478544  0.771754785
     0.280799488  0.249815975  0.769943757
     0.300762648  0.255291143  0.738785250
     0.340459629  0.286116700  0.736980692
     0.355651055  0.307809091  0.705825680
     0.379464068  0.367940991  0.704013020
     0.385308607  0.399415283  0.672864181
     0.386194084  0.470887299  0.671077625
     0.381029950  0.502754130  0.639941548
     0.257568443  0.627799538  0.996975358
     0.215632963  0.606156619  0.995161412
     0.198721920  0.588012881  0.964010691
     0.169999334  0.533846027  0.962207707
     0.161452357  0.503982831  0.931059964
     0.154473571  0.433389544  0.929243649
     0.156832162  0.400683879  0.898094926
     0.173692854  0.334642116  0.896296230
     0.186256540  0.308815473  0.865145126
     0.221934169  0.266980929  0.863332063
     0.240965601  0.255716019  0.832181682
     0.284845746  0.250527893  0.830371685
     0.304675782  0.257162625  0.799217117
     0.343702611  0.290175846  0.797406863
     0.358418982  0.312748745  0.766251484
     0.380975589  0.374133007  0.764429026
     0.386190732  0.405907859  0.733271440
     0.385587925  0.477409339  0.731471191
     0.379747379  0.508941185  0.700331371
     0.160138447  0.497797317  0.991487157
     0.154666198  0.426847352  0.989672434
     0.157728275  0.394291177  0.958523889
     0.175984526  0.329236869  0.956723876
     0.189093181  0.304129022  0.925574219
     0.225641049  0.264315046  0.923756553
     0.244904918  0.254135404  0.892607492
     0.288872277  0.251415669  0.890800371
     0.308552363  0.259183925  0.859645262
     0.346855801  0.294361100  0.857830117
     0.361094426  0.317761532  0.826675840
     0.382344366  0.380370014  0.824853507
     0.386902793  0.412432606  0.793698879
     0.384794262  0.483857057  0.791892553
     0.378304045  0.515060037  0.760743079
     0.192018327  0.299613284  0.986002873
     0.229389705  0.261864953  0.984182939
     0.248863006  0.252765666  0.953033928
     0.292863552  0.252514805  0.951229216
     0.312371534  0.261393628  0.920075215
     0.349903856  0.298707759  0.918255934
     0.363644411  0.322896254  0.887103738
     0.383552320  0.386657240  0.885287138
     0.387435751  0.418971038  0.854129680
     0.383810039  0.490225953  0.852321000
     0.376685763  0.521054625  0.821167282
     0.316136089  0.263793931  0.980506817
     0.352856824  0.303194582  0.978684371
     0.366074480  0.328153310  0.947532992
     0.384625375  0.392983483  0.945721167
     0.387825630  0.425505613  0.914564904
     0.382690615  0.496518300  0.912751932
     0.374917677  0.526940871  0.881601661
     0.388068265  0.432042612  0.975003204
     0.381419840  0.502723283  0.973186377
     0.373009292  0.532695333  0.942035581
     0.453424343  0.479038473  0.443906940

  ion indices of the primitive-cell ions
   primitive index   ion index
                 1           1
                 2           2
                 3           3
                 4           4
                 5           5
                 6           6
                 7           7
                 8           8
                 9           9
                10          10
                11          11
                12          12
                13          13
                14          14
                15          15
                16          16
                17          17
                18          18
                19          19
                20          20
                21          21
                22          22
                23          23
                24          24
                25          25
                26          26
                27          27
                28          28
                29          29
                30          30
                31          31
                32          32
                33          33
                34          34
                35          35
                36          36
                37          37
                38          38
                39          39
                40          40
                41          41
                42          42
                43          43
                44          44
                45          45
                46          46
                47          47
                48          48
                49          49
                50          50
                51          51
                52          52
                53          53
                54          54
                55          55
                56          56
                57          57
                58          58
                59          59
                60          60
                61          61
                62          62
                63          63
                64          64
                65          65
                66          66
                67          67
                68          68
                69          69
                70          70
                71          71
                72          72
                73          73
                74          74
                75          75
                76          76
                77          77
                78          78
                79          79
                80          80
                81          81
                82          82
                83          83
                84          84
                85          85
                86          86
                87          87
                88          88
                89          89
                90          90
                91          91
                92          92
                93          93
                94          94
                95          95
                96          96
                97          97
                98          98
                99          99
               100         100
               101         101
               102         102
               103         103
               104         104
               105         105
               106         106
               107         107
               108         108
               109         109
               110         110
               111         111
               112         112
               113         113
               114         114
               115         115
               116         116
               117         117
               118         118
               119         119
               120         120
               121         121
               122         122
               123         123
               124         124
               125         125
               126         126
               127         127
               128         128
               129         129
               130         130
               131         131
               132         132
               133         133
               134         134
               135         135
               136         136
               137         137
               138         138
               139         139
               140         140
               141         141
               142         142
               143         143
               144         144
               145         145
               146         146
               147         147
               148         148
               149         149
               150         150
               151         151
               152         152
               153         153
               154         154
               155         155
               156         156
               157         157
               158         158
               159         159
               160         160
               161         161
               162         162
               163         163
               164         164
               165         165
               166         166
               167         167
               168         168
               169         169
               170         170
               171         171
               172         172
               173         173
               174         174
               175         175
               176         176
               177         177
               178         178
               179         179
               180         180
               181         181
               182         182
               183         183
               184         184
               185         185
               186         186
               187         187
               188         188
               189         189
               190         190
               191         191
               192         192
               193         193
               194         194
               195         195
               196         196
               197         197
               198         198
               199         199
               200         200
               201         201
               202         202
               203         203
               204         204
               205         205
               206         206
               207         207
               208         208
               209         209
               210         210
               211         211
               212         212
               213         213
               214         214
               215         215
               216         216
               217         217
               218         218
               219         219
               220         220
               221         221
               222         222
               223         223
               224         224
               225         225
               226         226
               227         227
               228         228
               229         229
               230         230
               231         231
               232         232
               233         233
               234         234
               235         235
               236         236
               237         237
               238         238
               239         239
               240         240
               241         241
               242         242
               243         243
               244         244
               245         245
               246         246
               247         247
               248         248
               249         249
               250         250
               251         251
               252         252
               253         253
               254         254
               255         255
               256         256
               257         257
               258         258
               259         259
               260         260
               261         261
               262         262
               263         263
               264         264
               265         265
               266         266
               267         267
               268         268
               269         269
               270         270
               271         271
               272         272
               273         273
               274         274
               275         275
               276         276
               277         277
               278         278
               279         279
               280         280
               281         281
               282         282
               283         283
               284         284
               285         285
               286         286
               287         287
               288         288
               289         289
               290         290
               291         291
               292         292
               293         293
               294         294
               295         295
               296         296
               297         297
               298         298
               299         299
               300         300
               301         301
               302         302
               303         303
               304         304
               305         305
               306         306
               307         307
               308         308
               309         309
               310         310
               311         311
               312         312
               313         313
               314         314
               315         315
               316         316
               317         317
               318         318
               319         319
               320         320
               321         321
               322         322
               323         323
               324         324
               325         325
               326         326
               327         327
               328         328
               329         329
               330         330
               331         331
               332         332
               333         333
               334         334
               335         335
               336         336
               337         337
               338         338
               339         339
               340         340
               341         341
               342         342
               343         343
               344         344
               345         345
               346         346
               347         347
               348         348
               349         349
               350         350
               351         351
               352         352
               353         353
               354         354
               355         355
               356         356
               357         357
               358         358
               359         359
               360         360
               361         361
               362         362
               363         363
               364         364
               365         365

----------------------------------------------------------------------------------------

 
 
 KPOINTS: KPOINTS created by Atomic Simulation Env

Automatic generation of k-mesh.
 Grid dimensions read from file:
 generate k-points for:    1    1    2

 Generating k-lattice:

  Cartesian coordinates                     Fractional coordinates (reciprocal lattice)
     0.030890608  0.000000000  0.000000000     1.000000000  0.000000000  0.000000000
     0.000000000  0.050197241  0.000000000     0.000000000  1.000000000  0.000000000
     0.000000000  0.000000000  0.012361536     0.000000000  0.000000000  0.500000000

  Length of vectors
     0.030890608  0.050197241  0.012361536

  Shift w.r.t. Gamma in fractional coordinates (k-lattice)
     0.000000000  0.000000000  0.000000000

 
 Subroutine IBZKPT returns following result:
 ===========================================
 
 Found      2 irreducible k-points:
 
 Following reciprocal coordinates:
            Coordinates               Weight
  0.000000  0.000000  0.000000      1.000000
  0.000000  0.000000  0.500000      1.000000
 
 Following cartesian coordinates:
            Coordinates               Weight
  0.000000  0.000000  0.000000      1.000000
  0.000000  0.000000  0.012362      1.000000
 


--------------------------------------------------------------------------------------------------------




 Dimension of arrays:
   k-points           NKPTS =      2   k-points in BZ     NKDIM =      2   number of bands    NBANDS=    896
   number of dos      NEDOS =    301   number of ions     NIONS =    365
   non local maximal  LDIM  =      5   non local SUM 2l+1 LMDIM =     13
   total plane-waves  NPLWV = ******
   max r-space proj   IRMAX =      1   max aug-charges    IRDMAX=  13848
   dimension x,y,z NGX =   216 NGY =  140 NGZ =  270
   dimension x,y,z NGXF=   432 NGYF=  280 NGZF=  540
   support grid    NGXF=   432 NGYF=  280 NGZF=  540
   ions per type =             364   1
   NGX,Y,Z   is equivalent  to a cutoff of  11.09, 11.68, 11.10 a.u.
   NGXF,Y,Z  is equivalent  to a cutoff of  22.19, 23.37, 22.19 a.u.

 SYSTEM =  02_SCF                                  
 POSCAR =   C Se                                   

 Startparameter for this run:
   NWRITE =      2    write-flag & timer
   PREC   = accura    normal or accurate (medium, high low for compatibility)
   ISTART =      0    job   : 0-new  1-cont  2-samecut
   ICHARG =      2    charge: 1-file 2-atom 10-const
   ISPIN  =      2    spin polarized calculation?
   LNONCOLLINEAR =      F non collinear calculations
   LSORBIT =      F    spin-orbit coupling
   INIWAV =      1    electr: 0-lowe 1-rand  2-diag
   LASPH  =      F    aspherical Exc in radial PAW
 Electronic Relaxation 1
   ENCUT  =  400.0 eV  29.40 Ry    5.42 a.u.  52.79 32.49 65.96*2*pi/ulx,y,z
   ENINI  =  400.0     initial cutoff
   ENAUG  =  644.9 eV  augmentation charge cutoff
   NELM   =     60;   NELMIN=  5; NELMDL=  0     # of ELM steps 
   EDIFF  = 0.1E-05   stopping-criterion for ELM
   LREAL  =      F    real-space projection
   NLSPLINE    = F    spline interpolate recip. space projectors
   LCOMPAT=      F    compatible to vasp.4.4
   GGA_COMPAT  = T    GGA compatible to vasp.4.4-vasp.4.6
   LMAXPAW     = -100 max onsite density
   LMAXMIX     =    2 max onsite mixed and CHGCAR
   VOSKOWN=      0    Vosko Wilk Nusair interpolation
   ROPT   =    0.00000   0.00000
 Ionic relaxation
   EDIFFG = 0.1E-04   stopping-criterion for IOM
   NSW    =      0    number of steps for IOM
   NBLOCK =      1;   KBLOCK =      1    inner block; outer block 
   IBRION =     -1    ionic relax: 0-MD 1-quasi-New 2-CG
   NFREE  =      0    steps in history (QN), initial steepest desc. (CG)
   ISIF   =      2    stress and relaxation
   IWAVPR =     10    prediction:  0-non 1-charg 2-wave 3-comb
   ISYM   =      2    0-nonsym 1-usesym 2-fastsym
   LCORR  =      T    Harris-Foulkes like correction to forces

   POTIM  = 0.5000    time-step for ionic-motion
   TEIN   =    0.0    initial temperature
   TEBEG  =    0.0;   TEEND  =   0.0 temperature during run
   SMASS  =  -3.00    Nose mass-parameter (am)
   estimated Nose-frequenzy (Omega)   =  0.10E-29 period in steps = 0.13E+47 mass=  -0.239E-25a.u.
   SCALEE = 1.0000    scale energy and forces
   NPACO  =    256;   APACO  = 10.0  distance and # of slots for P.C.
   PSTRESS=    0.0 pullay stress

  Mass of Ions in am
   POMASS =  12.01 78.96
  Ionic Valenz
   ZVAL   =   4.00  6.00
  Atomic Wigner-Seitz radii
   RWIGS  =  -1.00 -1.00
  virtual crystal weights 
   VCA    =   1.00  1.00
   NELECT =    1462.0000    total number of electrons
   NUPDOWN=      -1.0000    fix difference up-down

 DOS related values:
   EMIN   =  10.00;   EMAX   =-10.00  energy-range for DOS
   EFERMI =   0.00;   METHOD = LEGACY      
   ISMEAR =     0;   SIGMA  =   0.01  broadening in eV -4-tet -1-fermi 0-gaus

 Electronic relaxation 2 (details)
   IALGO  =     38    algorithm
   LDIAG  =      T    sub-space diagonalisation (order eigenvalues)
   LSUBROT=      F    optimize rotation matrix (better conditioning)
   TURBO    =      0    0=normal 1=particle mesh
   IRESTART =      0    0=no restart 2=restart with 2 vectors
   NREBOOT  =      0    no. of reboots
   NMIN     =      0    reboot dimension
   EREF     =   0.00    reference energy to select bands
   IMIX   =      4    mixing-type and parameters
     AMIX     =   0.40;   BMIX     =  1.00
     AMIX_MAG =   1.60;   BMIX_MAG =  1.00
     AMIN     =   0.10
     WC   =   100.;   INIMIX=   1;  MIXPRE=   1;  MAXMIX= -45

 Intra band minimization:
   WEIMIN = 0.0000     energy-eigenvalue tresh-hold
   EBREAK =  0.28E-09  absolut break condition
   DEPER  =   0.30     relativ break condition  

   TIME   =   0.40     timestep for ELM

  volume/ion in A,a.u.               =      71.47       482.28
  Fermi-wavevector in a.u.,A,eV,Ry     =   0.626508  1.183929  5.340460  0.392513
  Thomas-Fermi vector in A             =   1.687786
 
 Write flags
   LWAVE        =      T    write WAVECAR
   LDOWNSAMPLE  =      F    k-point downsampling of WAVECAR
   LCHARG       =      T    write CHGCAR
   LVTOT        =      F    write LOCPOT, total local potential
   LVHAR        =      F    write LOCPOT, Hartree potential only
   LELF         =      F    write electronic localiz. function (ELF)
   LORBIT       =     11    0 simple, 1 ext, 2 COOP (PROOUT), +10 PAW based schemes


 Dipole corrections
   LMONO  =      F    monopole corrections only (constant potential shift)
   LDIPOL =      F    correct potential (dipole corrections)
   IDIPOL =      0    1-x, 2-y, 3-z, 4-all directions 
   EPSILON=  1.0000000 bulk dielectric constant

 Exchange correlation treatment:
   GGA     =    PE    GGA type
   LEXCH   =     8    internal setting for exchange type
   LIBXC   =     F    Libxc                    
   VOSKOWN =     0    Vosko Wilk Nusair interpolation
   LHFCALC =     F    Hartree Fock is set to
   LHFONE  =     F    Hartree Fock one center treatment
   AEXX    =    0.0000 exact exchange contribution

 Linear response parameters
   LEPSILON=     F    determine dielectric tensor
   LRPA    =     F    only Hartree local field effects (RPA)
   LNABLA  =     F    use nabla operator in PAW spheres
   LVEL    =     F    velocity operator in full k-point grid
   CSHIFT  =0.1000    complex shift for real part using Kramers Kronig
   OMEGAMAX=  -1.0    maximum frequency
   DEG_THRESHOLD= 0.2000000E-02 threshold for treating states as degnerate
   RTIME   =   -0.100 relaxation time in fs
  (WPLASMAI=    0.000 imaginary part of plasma frequency in eV, 0.658/RTIME)
   DFIELD  = 0.0000000 0.0000000 0.0000000 field for delta impulse in time
 
  Optional k-point grid parameters
   LKPOINTS_OPT  =     F    use optional k-point grid
   KPOINTS_OPT_MODE=     1    mode for optional k-point grid
 
 Orbital magnetization related:
   ORBITALMAG=     F  switch on orbital magnetization
   LCHIMAG   =     F  perturbation theory with respect to B field
   DQ        =  0.001000  dq finite difference perturbation B field
   LLRAUG    =     F  two centre corrections for induced B field
   LBONE     =     F  B-component reconstruction in AE one-centre
   LVGVCALC  =     T  calculate vGv susceptibility
   LVGVAPPL  =     F  apply vGv susceptibility instead of pGv for G=0

 Random number generation:
   RANDOM_GENERATOR = DEFAULT
   PCG_SEED         = not used


--------------------------------------------------------------------------------------------------------


 Static calculation
 charge density and potential will be updated during run
 spin polarized calculation
 Variant of blocked Davidson
 Davidson routine will perform the subspace rotation
 perform sub-space diagonalisation
    after iterative eigenvector-optimisation
 modified Broyden-mixing scheme, WC =      100.0
 initial mixing is a Kerker type mixing with AMIX =  0.4000 and BMIX =      1.0000
 Hartree-type preconditioning will be used
 using additional bands           165
 reciprocal scheme for non local part
 use partial core corrections
 calculate Harris-corrections to forces 
   (improved forces if not selfconsistent)
 use gradient corrections 
 use of overlap-Matrix (Vanderbilt PP)
 Gauss-broadening in eV      SIGMA  =   0.01


--------------------------------------------------------------------------------------------------------


  energy-cutoff  :      400.00
  volume of cell :    26085.03
      direct lattice vectors                 reciprocal lattice vectors
    32.372299194  0.000000000  0.000000000     0.030890608  0.000000000  0.000000000
     0.000000000 19.921413422  0.000000000     0.000000000  0.050197241  0.000000000
     0.000000000  0.000000000 40.448047638     0.000000000  0.000000000  0.024723072

  length of vectors
    32.372299194 19.921413422 40.448047638     0.030890608  0.050197241  0.024723072


 
 k-points in units of 2pi/SCALE and weight: KPOINTS created by Atomic Simulation Env
   0.00000000  0.00000000  0.00000000       0.500
   0.00000000  0.00000000  0.01236154       0.500
 
 k-points in reciprocal lattice and weights: KPOINTS created by Atomic Simulation Env
   0.00000000  0.00000000  0.00000000       0.500
   0.00000000  0.00000000  0.50000000       0.500
 
 position of ions in fractional coordinates (direct lattice) 
   0.37096494  0.53832294  0.00246882
   0.36878858  0.54383944  0.06290241
   0.33806000  0.59502053  0.06109618
   0.32049635  0.61143056  0.02994100
   0.27781933  0.62880747  0.02812484
   0.36646884  0.54923635  0.12332706
   0.33468606  0.59867700  0.12152573
   0.31679373  0.61409370  0.09037123
   0.27376895  0.62906354  0.08855174
   0.25355598  0.62690721  0.05740319
   0.21210119  0.60294885  0.05559487
   0.19559256  0.58386753  0.02444100
   0.16803448  0.52812638  0.02263326
   0.36400656  0.55450701  0.18374729
   0.33121858  0.60219674  0.18195529
   0.31302338  0.61658108  0.15080207
   0.26971068  0.62914211  0.14898426
   0.24956094  0.62581722  0.11782958
   0.20864887  0.59953945  0.11602702
   0.19255049  0.57954668  0.08487454
   0.16619414  0.52229033  0.08306338
   0.15894232  0.49154472  0.05191643
   0.15498889  0.42032963  0.05010483
   0.15874532  0.38796380  0.01895301
   0.17837596  0.32397110  0.01714908
   0.36143713  0.55965264  0.24416886
   0.32768679  0.60552307  0.24239901
   0.30919100  0.61888875  0.21123418
   0.26565223  0.62901436  0.20942234
   0.24558609  0.62456713  0.17826411
   0.20525785  0.59596953  0.17646348
   0.18960134  0.57506630  0.14531481
   0.16448097  0.51636042  0.14349870
   0.15789151  0.48521686  0.11234671
   0.15545065  0.41382945  0.11053810
   0.15988903  0.38169144  0.07938570
   0.18086018  0.31882686  0.07757848
   0.19501787  0.29525514  0.04642931
   0.23316586  0.25962748  0.04461052
   0.25283321  0.25162699  0.01346101
   0.29681315  0.25384011  0.01165566
   0.37075502  0.53776742  0.33568744
   0.35877372  0.56455128  0.30456529
   0.32410084  0.60840930  0.30284223
   0.30534374  0.62094978  0.27168983
   0.26159255  0.62863631  0.26988156
   0.24164084  0.62308328  0.23872625
   0.20194490  0.59221176  0.23691335
   0.18676145  0.57041477  0.20575406
   0.16292421  0.51033097  0.20393155
   0.15698223  0.47884256  0.17278046
   0.15605562  0.40735142  0.17097477
   0.16116722  0.37548529  0.13982321
   0.18345407  0.31383157  0.13801036
   0.19810250  0.29106408  0.10685642
   0.23698009  0.25758750  0.10504189
   0.25680830  0.25070264  0.07389099
   0.30071612  0.25538236  0.07208560
   0.31981707  0.26642972  0.04093563
   0.35567969  0.30785174  0.03911369
   0.36838133  0.33352946  0.00796333
   0.38555128  0.39936031  0.00615622
   0.36856230  0.54160486  0.39608794
   0.35590569  0.56827267  0.36506740
   0.32035481  0.61029516  0.36332761
   0.30144897  0.62231585  0.33222411
   0.25755247  0.62775632  0.33038383
   0.23773489  0.62124324  0.29919224
   0.19872377  0.58821720  0.29735882
   0.18400075  0.56563447  0.26619439
   0.16146080  0.50421404  0.26436792
   0.15621578  0.47241451  0.23322062
   0.15680286  0.40091310  0.23141427
   0.16259022  0.36935522  0.20025798
   0.18615833  0.30898447  0.19843867
   0.20126539  0.28703645  0.16729118
   0.24082936  0.25571606  0.16548690
   0.26079152  0.24997014  0.13432506
   0.30456670  0.25710097  0.13251528
   0.32343447  0.26922055  0.10136616
   0.35839961  0.31262681  0.09954476
   0.37055304  0.33901587  0.06839711
   0.38631753  0.40576864  0.06659258
   0.38815020  0.43858162  0.03544053
   0.37999969  0.50884058  0.03362044
   0.36745230  0.54964068  0.45669960
   0.35325596  0.57218445  0.42585480
   0.31654103  0.61170432  0.42386017
   0.29737303  0.62253844  0.39269511
   0.25354025  0.62622509  0.39083108
   0.23382221  0.61906484  0.35963748
   0.19545308  0.58405273  0.35779707
   0.18128631  0.56064819  0.32664229
   0.16008635  0.49797632  0.32481393
   0.15556635  0.46591450  0.29365053
   0.15766618  0.39451137  0.29184082
   0.16410462  0.36329091  0.26069070
   0.18893437  0.30423837  0.25886909
   0.20452566  0.28318358  0.22772879
   0.24471833  0.25406294  0.22593476
   0.26478135  0.24939691  0.19476348
   0.30839024  0.25895036  0.19295371
   0.32697535  0.27217048  0.16180352
   0.36098674  0.31754193  0.15998013
   0.37258076  0.34461402  0.12882886
   0.38690127  0.41221317  0.12701934
   0.38806646  0.44511529  0.09587211
   0.37843643  0.51488432  0.09405174
   0.36452125  0.55466040  0.51733484
   0.35046260  0.57750034  0.48584821
   0.31282928  0.61465430  0.48409767
   0.29343098  0.62396610  0.45304539
   0.24932668  0.62547000  0.45122422
   0.22987611  0.61672996  0.42012009
   0.19223848  0.57970947  0.41826226
   0.17862621  0.55546638  0.38707863
   0.15883626  0.49167278  0.38525364
   0.15498507  0.45938533  0.35409012
   0.15860305  0.38810430  0.35227773
   0.16572458  0.35729188  0.32113290
   0.19174903  0.29961677  0.31930791
   0.20781339  0.27946955  0.28815687
   0.24860380  0.25266007  0.28636702
   0.26876685  0.24905834  0.25522787
   0.31218855  0.26103005  0.25342958
   0.33045967  0.27528820  0.22224380
   0.36344601  0.32257560  0.22040884
   0.37445845  0.35029813  0.18925751
   0.38731735  0.41868518  0.18743115
   0.38779016  0.45163642  0.15629604
   0.37669162  0.52082759  0.15448326
   0.36152466  0.55953984  0.57768644
   0.34760543  0.58316462  0.54636868
   0.30920928  0.61856317  0.54454930
   0.28949829  0.62580244  0.51342390
   0.24552661  0.62416603  0.51163923
   0.22609290  0.61444731  0.48050014
   0.18929834  0.57521000  0.47868018
   0.17607172  0.55030756  0.44754301
   0.15765493  0.48526510  0.44571899
   0.15457161  0.45279101  0.41456777
   0.15969616  0.38176166  0.41274276
   0.16744620  0.35135488  0.38156878
   0.19460948  0.29513609  0.37973669
   0.21106884  0.27584048  0.34859703
   0.25247050  0.25144041  0.34680439
   0.27275034  0.24915799  0.31569464
   0.31586736  0.26364059  0.31391481
   0.33388184  0.27860830  0.28269176
   0.36589598  0.32770925  0.28084785
   0.37622207  0.35607471  0.24969046
   0.38756450  0.42515737  0.24782242
   0.38733349  0.45813302  0.21668908
   0.37479649  0.52665578  0.21489461
   0.35883920  0.56449000  0.63806660
   0.34427256  0.58739284  0.60691187
   0.30540024  0.62094645  0.60505407
   0.28560240  0.62758985  0.57382194
   0.24166958  0.62289656  0.57205474
   0.22251078  0.61190744  0.54094251
   0.18658367  0.57051383  0.53913297
   0.17387715  0.54478482  0.50799765
   0.15686374  0.47887772  0.50618140
   0.15434551  0.44620791  0.47500802
   0.16099273  0.37551371  0.47317934
   0.16925962  0.34552768  0.44203165
   0.19762126  0.29072985  0.44020202
   0.21444170  0.27243998  0.40905651
   0.25632690  0.25048820  0.40724985
   0.27665688  0.24955031  0.37611194
   0.31930722  0.26700776  0.37431465
   0.33713247  0.28252488  0.34319459
   0.36838485  0.33319302  0.34139850
   0.37798294  0.36196838  0.31008115
   0.38772265  0.43156015  0.30812462
   0.38676884  0.46457891  0.27704215
   0.37284444  0.53242675  0.27529049
   0.35619326  0.56934581  0.69849167
   0.34105445  0.59130863  0.66734372
   0.30153669  0.62269484  0.66550558
   0.28160158  0.62853836  0.63431216
   0.23778603  0.62130035  0.63252091
   0.21895289  0.60910147  0.60137951
   0.18400505  0.56565886  0.59957503
   0.17182675  0.53927871  0.56842344
   0.15615348  0.47245643  0.56661979
   0.15433268  0.43965443  0.53547721
   0.16247764  0.36937136  0.53365560
   0.17144821  0.33987425  0.50249722
   0.20092931  0.28687154  0.50067825
   0.21800269  0.26933912  0.46948653
   0.26033711  0.24986512  0.46763617
   0.28052198  0.24987052  0.43653061
   0.32278783  0.27040259  0.43469986
   0.33996849  0.28780181  0.40364896
   0.37019840  0.33983560  0.40192590
   0.38005326  0.36792429  0.37044189
   0.38853722  0.43822070  0.36838089
   0.38618699  0.47096203  0.33734662
   0.35345912  0.57407232  0.75891603
   0.33785976  0.59514782  0.72776594
   0.29765960  0.62423576  0.72595126
   0.27758412  0.62893666  0.69479507
   0.23398064  0.61930002  0.69298372
   0.21541030  0.60611070  0.66181357
   0.18142040  0.56068550  0.66001239
   0.16984037  0.53364708  0.62886679
   0.15554591  0.46600638  0.62706486
   0.15445061  0.43311032  0.59591723
   0.16409538  0.36336837  0.59409535
   0.17368770  0.33437563  0.56293742
   0.20434920  0.28306731  0.56112578
   0.22182312  0.26658097  0.52996581
   0.26452651  0.24932619  0.52812371
   0.28470474  0.25091798  0.49692867
   0.32635326  0.27342028  0.49506238
   0.34305541  0.29217537  0.46389373
   0.37199338  0.34612555  0.46192395
   0.38202747  0.37398674  0.43108526
   0.39545871  0.44449989  0.42883262
   0.38674060  0.47760507  0.39737262
   0.35059488  0.57863210  0.81934626
   0.33455977  0.59880869  0.78819774
   0.29375548  0.62556922  0.78639406
   0.27358730  0.62909724  0.75524079
   0.23021885  0.61704663  0.75342526
   0.21192497  0.60287896  0.72226393
   0.17890556  0.55558633  0.72046173
   0.16792862  0.52790128  0.68930939
   0.15506095  0.45953099  0.68750282
   0.15464416  0.42660002  0.65634849
   0.16577068  0.35741572  0.65453000
   0.17602778  0.32900807  0.62338535
   0.20777877  0.27948773  0.62158143
   0.22565342  0.26400979  0.59041628
   0.26865143  0.24894125  0.58857393
   0.28882261  0.25118543  0.55738274
   0.33024665  0.27539754  0.55554668
   0.34650370  0.29515142  0.52443516
   0.37389100  0.35103146  0.52270878
   0.38174636  0.38220477  0.49169532
   0.38884177  0.45174308  0.49040543
   0.39188304  0.48741661  0.45894648
   0.34761957  0.58301794  0.87978493
   0.33116985  0.60227829  0.84863032
   0.28982194  0.62671584  0.84682918
   0.26959391  0.62909766  0.81567801
   0.22650355  0.61461210  0.81386135
   0.20851363  0.59941129  0.78271116
   0.17650970  0.55033661  0.78090933
   0.16611992  0.52206746  0.74974749
   0.15469548  0.45301322  0.74793877
   0.15496860  0.42008621  0.71679060
   0.16754299  0.35155784  0.71497786
   0.17842169  0.32376056  0.68382582
   0.21121400  0.27609855  0.68202434
   0.22941030  0.26160429  0.65086818
   0.27271897  0.24892497  0.64904259
   0.29286126  0.25213420  0.61788761
   0.33377839  0.27844476  0.61609172
   0.34980470  0.29861739  0.58493076
   0.37604227  0.35588789  0.58320565
   0.38321077  0.38686778  0.55208788
   0.38717947  0.45792981  0.55042725
   0.38412986  0.49050686  0.51939064
   0.34453147  0.58720313  0.94022232
   0.32769117  0.60554498  0.90906741
   0.28584820  0.62765274  0.90726220
   0.26558633  0.62889272  0.87611302
   0.22283597  0.61198995  0.87429544
   0.20518340  0.59577724  0.84314550
   0.17422959  0.54496035  0.84134577
   0.16442485  0.51613084  0.81019054
   0.15446893  0.44647541  0.80837831
   0.15544078  0.41358150  0.77722849
   0.16945615  0.34580793  0.77542220
   0.18089762  0.31863065  0.74426591
   0.21470078  0.27285171  0.74246439
   0.23320892  0.25943375  0.71131991
   0.27676242  0.24925780  0.70950554
   0.29683600  0.25359329  0.67834813
   0.33715238  0.28216602  0.67655197
   0.35279442  0.30299771  0.64538042
   0.37781945  0.36180397  0.64359692
   0.38435095  0.39295676  0.61247633
   0.38669030  0.46437556  0.61072727
   0.38223386  0.49661003  0.57964206
   0.34134398  0.59119794  0.00066036
   0.32413497  0.60859733  0.96950600
   0.28184828  0.62835307  0.96769489
   0.26157650  0.62846505  0.93654558
   0.21921026  0.60917951  0.93472841
   0.20191661  0.59198719  0.90357810
   0.17206224  0.53945970  0.90177834
   0.16287979  0.51009638  0.87062938
   0.15440508  0.43993705  0.86881356
   0.15606156  0.40711211  0.83766232
   0.17150705  0.34016399  0.83586114
   0.18351131  0.31364078  0.80470945
   0.21828060  0.26981605  0.80290348
   0.23705974  0.25747854  0.77175479
   0.28079949  0.24981597  0.76994376
   0.30076265  0.25529114  0.73878525
   0.34045963  0.28611670  0.73698069
   0.35565106  0.30780909  0.70582568
   0.37946407  0.36794099  0.70401302
   0.38530861  0.39941528  0.67286418
   0.38619408  0.47088730  0.67107763
   0.38102995  0.50275413  0.63994155
   0.25756844  0.62779954  0.99697536
   0.21563296  0.60615662  0.99516141
   0.19872192  0.58801288  0.96401069
   0.16999933  0.53384603  0.96220771
   0.16145236  0.50398283  0.93105996
   0.15447357  0.43338954  0.92924365
   0.15683216  0.40068388  0.89809493
   0.17369285  0.33464212  0.89629623
   0.18625654  0.30881547  0.86514513
   0.22193417  0.26698093  0.86333206
   0.24096560  0.25571602  0.83218168
   0.28484575  0.25052789  0.83037169
   0.30467578  0.25716262  0.79921712
   0.34370261  0.29017585  0.79740686
   0.35841898  0.31274874  0.76625148
   0.38097559  0.37413301  0.76442903
   0.38619073  0.40590786  0.73327144
   0.38558793  0.47740934  0.73147119
   0.37974738  0.50894118  0.70033137
   0.16013845  0.49779732  0.99148716
   0.15466620  0.42684735  0.98967243
   0.15772827  0.39429118  0.95852389
   0.17598453  0.32923687  0.95672388
   0.18909318  0.30412902  0.92557422
   0.22564105  0.26431505  0.92375655
   0.24490492  0.25413540  0.89260749
   0.28887228  0.25141567  0.89080037
   0.30855236  0.25918392  0.85964526
   0.34685580  0.29436110  0.85783012
   0.36109443  0.31776153  0.82667584
   0.38234437  0.38037001  0.82485351
   0.38690279  0.41243261  0.79369888
   0.38479426  0.48385706  0.79189255
   0.37830405  0.51506004  0.76074308
   0.19201833  0.29961328  0.98600287
   0.22938970  0.26186495  0.98418294
   0.24886301  0.25276567  0.95303393
   0.29286355  0.25251481  0.95122922
   0.31237153  0.26139363  0.92007522
   0.34990386  0.29870776  0.91825593
   0.36364441  0.32289625  0.88710374
   0.38355232  0.38665724  0.88528714
   0.38743575  0.41897104  0.85412968
   0.38381004  0.49022595  0.85232100
   0.37668576  0.52105463  0.82116728
   0.31613609  0.26379393  0.98050682
   0.35285682  0.30319458  0.97868437
   0.36607448  0.32815331  0.94753299
   0.38462538  0.39298348  0.94572117
   0.38782563  0.42550561  0.91456490
   0.38269061  0.49651830  0.91275193
   0.37491768  0.52694087  0.88160166
   0.38806827  0.43204261  0.97500320
   0.38141984  0.50272328  0.97318638
   0.37300929  0.53269533  0.94203558
   0.45342434  0.47903847  0.44390694
 
 position of ions in cartesian coordinates  (Angst):
  12.00898808 10.72415388  0.09985902
  11.93853440 10.83405027  2.54427962
  10.94377932 11.85364993  2.47122105
  10.37520369 12.18056100  1.21105482
   8.99365040 12.52673351  1.13759487
  11.86343904 10.94156430  4.98833866
  10.83455739 11.92649204  4.91547859
  10.25534146 12.23361449  3.65533980
   8.86253026 12.53183485  3.58174487
   8.20819013 12.48887767  2.32184707
   6.86620333 12.01159334  2.24870413
   6.33178101 11.63146641  0.98859065
   5.43966232 10.52102386  0.91547128
  11.78372927 11.04656342  7.43221901
  10.72230682 11.99661028  7.35973634
  10.13328646 12.28316653  6.09964927
   8.73115485 12.53340000  6.02612256
   8.07886135 12.46716354  4.76597650
   6.75444367 11.94367321  4.69306639
   6.23330217 11.54538904  3.43300958
   5.38008657 10.40476156  3.35975162
   5.14532844  9.79226564  2.09991830
   5.01734676  8.37356031  2.02664248
   5.13895088  7.72878723  0.76661232
   5.77444004  6.45396219  0.69364688
  11.70055082 11.14907165  9.87615349
  10.60797467 12.06287544  9.80456665
  10.00922356 12.32913857  8.54401011
   8.59977345 12.53085515  8.47072492
   7.95018628 12.44225997  7.21043534
   6.64466860 11.87255546  7.13760339
   6.13783132 11.45613351  5.87770046
   5.32462711 10.28662946  5.80424230
   5.11131122  9.66620557  4.54420515
   5.03229488  8.24406748  4.47105046
   5.17597553  7.60383304  3.21099647
   5.85485988  6.35148171  3.13789789
   6.31317675  5.88189974  1.87797491
   7.54811491  5.17214646  1.80440848
   8.18479232  5.01276539  0.54447174
   9.60852408  5.05685386  0.47144860
  12.00219245 10.71308719 13.57790148
  11.61433026 11.24665940 12.31907139
  10.49188942 12.12037328 12.24937683
   9.88467888 12.37019726 10.98932308
   8.46835226 12.52332390 10.91618225
   7.82246962 12.41269954  9.65601069
   6.53742077 11.79769528  9.58268260
   6.04589769 11.36346850  8.32235011
   5.27423141 10.16651414  8.24863309
   5.08187563  9.53922063  6.98863242
   5.05187915  8.11501606  6.91559546
   5.21735337  7.48019773  5.65557591
   5.93883011  6.25196838  5.58224958
   6.41303355  5.79840789  4.32213355
   7.67159049  5.13150707  4.24873936
   8.31347519  4.99435088  2.98874625
   9.73487235  5.08757756  2.91572191
  10.35321399  5.30765661  1.65576650
  11.51416933  6.13284170  1.58207233
  11.92535059  6.64437825  0.32210103
  12.48118142  7.95582175  0.24900693
  11.93120903 10.78953434 16.02098399
  11.52148564 11.32079476 14.76626341
  10.37062169 12.15794225 14.69589251
   9.75859624 12.39741125 13.43781644
   8.33756549 12.50579323 13.36338073
   7.69602496 12.37604338 12.10174190
   6.43314525 11.71811797 12.02758383
   5.95652734 11.26823817 10.76704331
   5.22685748 10.04465630 10.69316619
   5.05706388  9.41116484  9.43331877
   5.07606922  7.98675557  9.36025559
   5.26341940  7.35807808  8.10004423
   6.02637303  6.15540727  8.02645678
   6.51542356  5.71817179  6.76660163
   7.79619997  5.09422530  6.69362209
   8.44242104  4.97975845  5.43318641
   9.85952449  5.12181481  5.35998440
  10.47031745  5.36325391  4.10006334
  11.60221948  6.22796783  4.02639110
  11.99565386  6.75367536  2.76652943
  12.50598673  8.08348492  2.69353994
  12.56531435  8.73716571  1.43350034
  12.30146361 10.13682366  1.35988112
  11.89527565 10.94961921 18.47260715
  11.43570769 11.39872307 17.22499532
  10.24716085 12.18601462 17.14431651
   9.62664859 12.40184557 15.88375062
   8.20768083 12.47528888 15.80835408
   7.56936242 12.33264656 14.54663412
   6.32726547 11.63515592 14.47219281
   5.86865471 11.16890431 13.21204273
   5.18236336  9.92039211 13.13808935
   5.03604034  9.28167534 11.87759073
   5.10401672  7.85922406 11.80439152
   5.31244398  7.23726834 10.54442984
   6.11624000  6.06085837 10.47074921
   6.62096572  5.64141726  9.21118502
   7.92209486  5.06129284  9.13861979
   8.57158121  4.96833885  7.87780248
   9.98330116  5.15865724  7.80460068
  10.58494381  5.42202074  6.54463636
  11.68597062  6.32588401  6.47088407
  12.06129598  6.86519842  5.21087587
  12.52488364  8.21186896  5.13768419
  12.56260365  8.86732562  3.87783953
  12.25085731 10.25722333  3.80420938
  11.80039081 11.04961914 20.92518430
  11.34528003 11.50462303 19.65161163
  10.12700310 12.24478242 19.58080574
   9.49903544 12.43028656 18.32480147
   8.07127791 12.46024650 18.25113884
   7.44161811 12.28613250 16.99303738
   6.22320167 11.54863209 16.91789192
   5.78254115 11.06567532 15.65657472
   5.14189506  9.79481677 15.58275749
   5.01722293  9.15160503 14.32225419
   5.13434542  7.73158618 14.24894656
   5.36488568  7.11775916 12.98919880
   6.20735690  5.96878963 12.91538142
   6.72739735  5.56742836 11.65538264
   8.04787661  5.03334578 11.58298673
   8.70060102  4.96159406 10.32346898
  10.10626124  5.20008759 10.25073156
  10.69773931  5.48413004  8.98932787
  11.76558287  6.42616186  8.91510716
  12.12208112  6.97843388  7.65509667
  12.53835311  8.34080049  7.58122427
  12.55365918  8.99723590  6.32186956
  12.19437377 10.37562171  6.24854640
  11.70338432 11.14682451 23.36628859
  11.25278696 11.61746349 22.09954626
  10.00981518 12.32265254 22.02595609
   9.37172528 12.46686907 20.76699421
   7.94826078 12.43426949 20.69480777
   7.31914686 12.24065898 19.43529255
   6.12802260 11.45899617 19.36167863
   5.69984650 10.96290446 18.10224101
   5.10365260  9.66716664 18.02846283
   5.00383849  9.02023698 16.76845686
   5.16973196  7.60523186 16.69463884
   5.42061835  6.99948575 15.43371231
   6.29995638  5.87952814 15.35960764
   6.83278349  5.49513233 14.10006934
   8.17305047  5.00904838 14.02756043
   8.82955559  4.96357931 12.76923180
  10.22535278  5.25209310 12.69724116
  10.80852276  5.55027119 11.43432967
  11.84489412  6.52843153 11.35974705
  12.17917328  7.09351141 10.09949170
  12.54635380  8.46973565 10.02393295
  12.53887572  9.12665728  8.76465031
  12.13302400 10.49172759  8.69206723
  11.61644998 11.24543860 25.80854813
  11.14489429 11.70169557 24.54840006
   9.88650795 12.37013085 24.47325592
   9.24560639 12.50247693 23.20997712
   7.82339982 12.40897993 23.13849747
   7.20318540 12.19006104 21.88006842
   6.04014255 11.36544181 21.80687609
   5.62880320 10.85288362 20.54751303
   5.07803990  9.53992103 20.47404938
   4.99651908  8.88909221 19.21314720
   5.21170473  7.48076385 19.13918052
   5.47932306  6.88339980 17.87931723
   6.39745442  5.79174950 17.80531219
   6.94197087  5.42738953 16.54553725
   8.29789123  4.99007889 16.47246124
   8.95601928  4.97139482 15.21299362
  10.33670879  5.31917202 15.14029694
  10.91375330  5.62829495 13.88155103
  11.92546446  6.63767583 13.80890259
  12.23617680  7.21092170 12.54217706
  12.55147367  8.59728813 12.46303925
  12.52059671  9.25506861 11.20581416
  12.06983181 10.60669340 11.13496285
  11.53079463 11.34217331 28.25262419
  11.04071664 11.77970361 26.99275051
   9.76143590 12.40496127 26.91840129
   9.11609071 12.52137244 25.65668838
   7.69768048 12.37718121 25.58423592
   7.08800850 12.13416225 24.32462716
   5.95666650 11.26872406 24.25163955
   5.56242681 10.74319405 22.99161832
   5.05504719  9.41199984 22.91866425
   4.99610378  8.75853769 21.65900767
   5.25977484  7.35839964 21.58532701
   5.55017277  6.77077538 20.32503151
   6.50454374  5.71488646 20.25145760
   7.05724846  5.36561601 18.98981359
   8.42771072  4.97766643 18.91497006
   9.08114151  4.97777391 17.65681072
  10.44938433  5.38680169 17.58276071
  11.00556181  5.73341894 16.32681238
  11.98417328  6.77000548 16.25711795
  12.30319800  7.32957198 14.98365131
  12.57784313  8.72997573 14.90028795
  12.50176072  9.38222938 13.64501204
  11.44228438 11.43633210 30.69667157
  10.93729728 11.85618580 29.43671150
   9.63592562 12.43565861 29.36331130
   8.98603634 12.52930719 28.10310424
   7.57449122 12.33733165 28.02983856
   6.97332654 12.07458184 26.76906690
   5.87299560 11.16964762 26.69621269
   5.49812330 10.63100416 25.43643385
   5.03537884  9.28350582 25.36354923
   4.99992134  8.62816976 24.10368856
   5.31214468  7.23881149 24.02999696
   5.62267035  6.66123513 22.76971963
   6.61525349  5.63910088 22.69644232
   7.18092450  5.31066964 21.43608248
   8.56333128  4.96693018 21.36157309
   9.21654690  4.99864089 20.09979433
  10.56480545  5.44691842 20.02430659
  11.10549228  5.82054641 18.76359567
  12.04228093  6.89531008 18.68392193
  12.36710745  7.45034446 17.43655718
  12.80190774  8.85506601 17.34544223
  12.51968249  9.51456815 16.07294648
  11.34956249 11.52716934 33.14095647
  10.83046906 11.92911546 31.88105985
   9.50954022 12.46222299 31.80810433
   8.85665002 12.53250629 30.54801530
   7.45271360 12.29244098 30.47458063
   6.86049867 12.01020104 29.21416587
   5.79158423 11.06806505 29.14127038
   5.43623549 10.51653956 27.88121918
   5.01967949  9.15450673 27.80814686
   5.00618706  8.49847545 26.54801498
   5.36637815  7.12022623 26.47446075
   5.69842405  6.55430581 25.21472031
   6.72627653  5.56779063 25.14175518
   7.30492009  5.25944827 23.88118588
   8.69686462  4.95926150 23.80666638
   9.34985189  5.00396870 22.54504344
  10.69084337  5.48630830 22.47077851
  11.21712134  5.87983349 21.21237834
  12.10371124  6.99304283 21.14254979
  12.35800726  7.61405919 19.88811570
  12.58770212  8.99936074 19.83594236
  12.68615493  9.71002778 18.56348901
  11.25324472 11.61454136 35.58558274
  10.72072932 11.99823475 34.32543970
   9.38220240 12.48506530 34.25258719
   8.72737458 12.53251453 32.99258284
   7.33244071 12.24394175 32.91910260
   6.75006554 11.94112018 31.65913845
   5.71402486 10.96348320 31.58625792
   5.37768382 10.40032167 30.32582227
   5.00784824  9.02466364 30.25266298
   5.01668987  8.36871115 28.99278049
   5.42375187  7.00352903 28.91945853
   5.77592026  6.44976805 27.65941918
   6.83748266  5.50027344 27.58655310
   7.42653900  5.21152720 26.32634715
   8.82854022  4.95893725 26.25250563
   9.48059227  5.02286965 24.99234753
  10.80517385  5.54701324 24.91970726
  11.32398250  5.94888051 23.65930724
  12.17335299  7.08978982 23.58952984
  12.40541378  7.70695307 22.33087706
  12.53388970  9.12260908 22.26370766
  12.43516660  9.77159000 21.00833724
  11.15327597 11.69791632 38.03015717
  10.60811674 12.06331191 36.77000207
   9.25356355 12.50372979 36.69698466
   8.59764002 12.52843186 35.43706103
   7.21371267 12.19170477 35.36354353
   6.64225831 11.86872462 34.10358927
   5.64021246 10.85638042 34.03079395
   5.32281047 10.28205593 32.77062574
   5.00051440  8.89442114 32.69732453
   5.03197549  8.23912798 31.43737481
   5.48568533  6.88898267 31.36431397
   5.85607199  6.34757297 30.10410281
   6.95035794  5.43559172 30.03123495
   7.54950901  5.16828700 28.77150159
   8.95943600  4.96556766 28.69811373
   9.60926396  5.05193674 27.43785748
  10.91439786  5.62114594 27.36520613
  11.42076653  6.03614257 26.10437783
  12.23088420  7.20764654 26.03223868
  12.44232384  7.82825403 24.77347168
  12.51805415  9.25101743 24.70272574
  12.37378895  9.89317371 23.44538952
  11.05008945 11.77749867  0.02671020
  10.49299418 12.12411895 39.21462483
   9.12407681 12.51768129 39.14136886
   8.46783279 12.51991217 37.88144004
   7.09634008 12.13571688 37.80793908
   6.53650480 11.79322163 36.54797010
   5.57005017 10.74679966 36.47517336
   5.27279338 10.16184093 35.21525883
   4.99844756  8.76416793 35.14181243
   5.05207140  8.11024864 33.88180530
   5.55207744  6.77654747 33.80895105
   5.94068298  6.24816755 32.54892622
   7.06624500  5.37511710 32.47587801
   7.67416899  5.12933652 31.21597432
   9.09012503  4.97668731 31.14272176
   9.73637842  5.08576041 29.88242100
  11.02146098  5.69984906 29.80943013
  11.51324237  6.13199217 28.54927071
  12.28412433  7.32990459 28.47595216
  12.47332551  7.95691698 27.21604245
  12.50199044  9.38074057 27.14377976
  12.33481556 10.01557288 25.88438622
   8.33808269 12.50665414 40.32570679
   6.98053479 12.07549661 40.25233618
   6.43308545 11.71404771 38.99235037
   5.50326929 10.63496741 38.91942315
   5.22658401 10.04005033 37.65955777
   5.00066467  8.63373227 37.58609140
   5.07701766  7.98218920 36.32618636
   5.62283705  6.66654394 36.25343259
   6.02955244  6.15204071 34.99343127
   7.18451931  5.31863746 34.92009640
   7.80061052  5.09422454 33.66012430
   9.22111172  4.99086972 33.58691347
   9.86305557  5.12304296 32.32677203
  11.12644376  5.78071300 32.25355079
  11.60284653  6.23039705 30.99337652
  12.33305576  7.45325830 30.91966167
  12.50188193  8.08625826 29.65939815
  12.48236767  9.51066881 29.58658158
  12.29329576 10.13882775 28.32703665
   5.18404971  9.91682615 40.10371975
   5.00690044  8.50340256 40.03031774
   5.10602690  7.85483754 38.77041993
   5.69702373  6.55886378 38.69761290
   6.12138104  6.05867998 37.43767010
   7.30451956  5.26552931 37.36414907
   7.92813529  5.06273645 36.10423035
   9.35145979  5.00855548 36.03113583
   9.98854943  5.16331012 34.77097252
  11.22851978  5.86408916 34.69755344
  11.68945680  6.33025886 33.43742376
  12.37736622  7.57750831 33.36371394
  12.52493297  8.21624045 32.10357006
  12.45667496  9.63911646 32.03050773
  12.24657174 10.26072393 30.77057229
   6.21607473  5.96872011 39.88189118
   7.42587215  5.21672000 39.80827842
   8.05626769  5.03544934 38.54836174
   9.48066653  5.03045183 38.47536464
  10.11218477  5.20733053 37.21524613
  11.32719232  5.95068076 37.14165975
  11.77200566  6.43254977 35.88161427
  12.41647047  7.70275872 35.80813632
  12.54218604  8.34649526 34.54787798
  12.42481342  9.76599387 34.47472041
  12.19418422 10.38014461 33.21461333
  10.23405206  5.25514795 39.65958645
  11.42278667  6.04006461 39.58587205
  11.85067260  6.53727775 38.32585960
  12.45120772  7.82878644 38.25257482
  12.55480734  8.47667322 36.99236481
  12.38857507  9.89134633 36.91903361
  12.13694722 10.49740694 35.65906600
  12.56266199  8.60689948 39.43697606
  12.34743716 10.01495836 39.36348893
  12.07516840 10.61204396 38.10350007
  14.67838848  9.54312347 17.95516907
 


--------------------------------------------------------------------------------------------------------


 k-point   1 :   0.0000 0.0000 0.0000  plane waves:  473959
 k-point   2 :   0.0000 0.0000 0.5000  plane waves:  473680

 maximum and minimum number of plane-waves per node :    118517   118418

 maximum number of plane-waves:    473959
 maximum index in each direction: 
   IXMAX=   52   IYMAX=   32   IZMAX=   65
   IXMIN=  -52   IYMIN=  -32   IZMIN=  -66


 parallel 3D FFT for wavefunctions:
    minimum data exchange during FFTs selected (reduces bandwidth)
 parallel 3D FFT for charge:
    minimum data exchange during FFTs selected (reduces bandwidth)


 total amount of memory used by VASP MPI-rank0  1278540. kBytes
=======================================================================

   base      :      30000. kBytes
   nonl-proj :     741511. kBytes
   fftplans  :      79694. kBytes
   grid      :     212065. kBytes
   one-center:       1492. kBytes
   wavefun   :     213778. kBytes
 
     INWAV:  cpu time      0.0000: real time      0.0000
 Broyden mixing: mesh for mixing (old mesh)
   NGX =105   NGY = 65   NGZ =131
  (NGX  =432   NGY  =280   NGZ  =540)
  gives a total of 894075 points

 initial charge density was supplied:
 charge density of overlapping atoms calculated
 number of electron    1462.0000000 magnetization     365.0000000
 keeping initial charge density in first step


--------------------------------------------------------------------------------------------------------


 Maximum index for augmentation-charges           291 (set IRDMAX)


--------------------------------------------------------------------------------------------------------


 First call to EWALD:  gamma=   0.060
 Maximum number of real-space cells 3x 4x 2
 Maximum number of reciprocal cells 3x 2x 4

    FEWALD:  cpu time      0.1850: real time      0.1851


--------------------------------------- Ionic step        1  -------------------------------------------




--------------------------------------- Iteration      1(   1)  ---------------------------------------


    POTLOK:  cpu time      0.9091: real time      0.9092
    SETDIJ:  cpu time      0.0853: real time      0.0853
     EDDAV:  cpu time    252.5687: real time    252.5992
       DOS:  cpu time      0.0022: real time      0.0022
    --------------------------------------------
      LOOP:  cpu time    253.5653: real time    253.5959

 eigenvalue-minimisations  :  9152
 total energy-change (2. order) : 0.1305160E+05  (-0.4506533E+05)
 number of electron    1462.0000000 magnetization     365.0000000
 augmentation part     1462.0000000 magnetization     365.0000000

 Free energy of the ion-electron system (eV)
  ---------------------------------------------------
  alpha Z        PSCENC =       418.83067969
  Ewald energy   TEWEN  =    465413.64842331
  -Hartree energ DENC   =   -503383.33857877
  -exchange      EXHF   =         0.00000000
  -V(xc)+E(xc)   XCENC  =      5081.32456004
  PAW double counting   =     13841.88350303   -14243.59437371
  entropy T*S    EENTRO =        -0.00762832
  eigenvalues    EBANDS =     -7888.41962233
  atomic energy  EATOM  =     53811.27190059
  Solvation  Ediel_sol  =         0.00000000
  ---------------------------------------------------
  free energy    TOTEN  =     13051.59886354 eV

  energy without entropy =    13051.60649186  energy(sigma->0) =    13051.60267770


--------------------------------------------------------------------------------------------------------




--------------------------------------- Iteration      1(   2)  ---------------------------------------


     EDDAV:  cpu time    283.5278: real time    283.5438
       DOS:  cpu time      0.0011: real time      0.0011
    --------------------------------------------
      LOOP:  cpu time    283.5289: real time    283.5449

 eigenvalue-minimisations  : 10624
 total energy-change (2. order) :-0.1286461E+05  (-0.1209585E+05)
 number of electron    1462.0000000 magnetization     365.0000000
 augmentation part     1462.0000000 magnetization     365.0000000

 Free energy of the ion-electron system (eV)
  ---------------------------------------------------
  alpha Z        PSCENC =       418.83067969
  Ewald energy   TEWEN  =    465413.64842331
  -Hartree energ DENC   =   -503383.33857877
  -exchange      EXHF   =         0.00000000
  -V(xc)+E(xc)   XCENC  =      5081.32456004
  PAW double counting   =     13841.88350303   -14243.59437371
  entropy T*S    EENTRO =        -0.00058692
  eigenvalues    EBANDS =    -20753.03530949
  atomic energy  EATOM  =     53811.27190059
  Solvation  Ediel_sol  =         0.00000000
  ---------------------------------------------------
  free energy    TOTEN  =       186.99021778 eV

  energy without entropy =      186.99080469  energy(sigma->0) =      186.99051124


--------------------------------------------------------------------------------------------------------




--------------------------------------- Iteration      1(   3)  ---------------------------------------


     EDDAV:  cpu time    245.2206: real time    245.2369
       DOS:  cpu time      0.0012: real time      0.0012
    --------------------------------------------
      LOOP:  cpu time    245.2218: real time    245.2380

 eigenvalue-minimisations  :  8992
 total energy-change (2. order) :-0.3389782E+04  (-0.3343510E+04)
 number of electron    1462.0000000 magnetization     365.0000000
 augmentation part     1462.0000000 magnetization     365.0000000

 Free energy of the ion-electron system (eV)
  ---------------------------------------------------
  alpha Z        PSCENC =       418.83067969
  Ewald energy   TEWEN  =    465413.64842331
  -Hartree energ DENC   =   -503383.33857877
  -exchange      EXHF   =         0.00000000
  -V(xc)+E(xc)   XCENC  =      5081.32456004
  PAW double counting   =     13841.88350303   -14243.59437371
  entropy T*S    EENTRO =        -0.00274976
  eigenvalues    EBANDS =    -24142.81523309
  atomic energy  EATOM  =     53811.27190059
  Solvation  Ediel_sol  =         0.00000000
  ---------------------------------------------------
  free energy    TOTEN  =     -3202.79186866 eV

  energy without entropy =    -3202.78911890  energy(sigma->0) =    -3202.79049378


--------------------------------------------------------------------------------------------------------




--------------------------------------- Iteration      1(   4)  ---------------------------------------


     EDDAV:  cpu time    241.0129: real time    241.0316
       DOS:  cpu time      0.0011: real time      0.0011
    --------------------------------------------
      LOOP:  cpu time    241.0140: real time    241.0327

 eigenvalue-minimisations  :  8768
 total energy-change (2. order) :-0.1871874E+03  (-0.1838558E+03)
 number of electron    1462.0000000 magnetization     365.0000000
 augmentation part     1462.0000000 magnetization     365.0000000

 Free energy of the ion-electron system (eV)
  ---------------------------------------------------
  alpha Z        PSCENC =       418.83067969
  Ewald energy   TEWEN  =    465413.64842331
  -Hartree energ DENC   =   -503383.33857877
  -exchange      EXHF   =         0.00000000
  -V(xc)+E(xc)   XCENC  =      5081.32456004
  PAW double counting   =     13841.88350303   -14243.59437371
  entropy T*S    EENTRO =        -0.00159337
  eigenvalues    EBANDS =    -24330.00383568
  atomic energy  EATOM  =     53811.27190059
  Solvation  Ediel_sol  =         0.00000000
  ---------------------------------------------------
  free energy    TOTEN  =     -3389.97931487 eV

  energy without entropy =    -3389.97772150  energy(sigma->0) =    -3389.97851818


--------------------------------------------------------------------------------------------------------




--------------------------------------- Iteration      1(   5)  ---------------------------------------


     EDDAV:  cpu time    256.2996: real time    256.3124
       DOS:  cpu time      0.0011: real time      0.0011
    CHARGE:  cpu time      3.6323: real time      3.6328
    MIXING:  cpu time      0.0293: real time      0.0294
    --------------------------------------------
      LOOP:  cpu time    259.9624: real time    259.9757

 eigenvalue-minimisations  :  9504
 total energy-change (2. order) :-0.5113870E+01  (-0.5046904E+01)
 number of electron    1462.0000017 magnetization     351.5471652
 augmentation part       37.7287777 magnetization     344.0506020

 Broyden mixing:
  rms(total) = 0.11592E+02    rms(broyden)= 0.11589E+02
  rms(prec ) = 0.11711E+02
  weight for this iteration     100.00

 Free energy of the ion-electron system (eV)
  ---------------------------------------------------
  alpha Z        PSCENC =       418.83067969
  Ewald energy   TEWEN  =    465413.64842331
  -Hartree energ DENC   =   -503383.33857877
  -exchange      EXHF   =         0.00000000
  -V(xc)+E(xc)   XCENC  =      5081.32456004
  PAW double counting   =     13841.88350303   -14243.59437371
  entropy T*S    EENTRO =        -0.00205216
  eigenvalues    EBANDS =    -24335.11724708
  atomic energy  EATOM  =     53811.27190059
  Solvation  Ediel_sol  =         0.00000000
  ---------------------------------------------------
  free energy    TOTEN  =     -3395.09318505 eV

  energy without entropy =    -3395.09113289  energy(sigma->0) =    -3395.09215897


--------------------------------------------------------------------------------------------------------




--------------------------------------- Iteration      1(   6)  ---------------------------------------


    POTLOK:  cpu time      0.8360: real time      0.8459
    SETDIJ:  cpu time      0.0224: real time      0.0224
     EDDAV:  cpu time    216.6808: real time    216.6925
       DOS:  cpu time      0.0013: real time      0.0013
    CHARGE:  cpu time      3.5874: real time      3.5880
    MIXING:  cpu time      0.0336: real time      0.0348
    --------------------------------------------
      LOOP:  cpu time    221.1614: real time    221.1848

 eigenvalue-minimisations  :  7648
 total energy-change (2. order) : 0.1090418E+04  (-0.1757964E+03)
 number of electron    1462.0000017 magnetization     335.5118676
 augmentation part       36.7208011 magnetization     324.2364974

 Broyden mixing:
  rms(total) = 0.64287E+01    rms(broyden)= 0.64282E+01
  rms(prec ) = 0.65258E+01
  weight for this iteration     100.00

 eigenvalues of (default mixing * dielectric matrix)
  average eigenvalue GAMMA=   1.0357
  1.0357

 Free energy of the ion-electron system (eV)
  ---------------------------------------------------
  alpha Z        PSCENC =       418.83067969
  Ewald energy   TEWEN  =    465413.64842331
  -Hartree energ DENC   =   -505666.66344267
  -exchange      EXHF   =         0.00000000
  -V(xc)+E(xc)   XCENC  =      5866.48618470
  PAW double counting   =     18859.63855200   -19296.21642081
  entropy T*S    EENTRO =        -0.00300797
  eigenvalues    EBANDS =    -21711.66794203
  atomic energy  EATOM  =     53811.27190059
  Solvation  Ediel_sol  =         0.00000000
  ---------------------------------------------------
  free energy    TOTEN  =     -2304.67507319 eV

  energy without entropy =    -2304.67206522  energy(sigma->0) =    -2304.67356921


--------------------------------------------------------------------------------------------------------




--------------------------------------- Iteration      1(   7)  ---------------------------------------


    POTLOK:  cpu time      0.8084: real time      0.8121
    SETDIJ:  cpu time      0.0218: real time      0.0218
     EDDAV:  cpu time    221.6412: real time    221.6520
       DOS:  cpu time      0.0012: real time      0.0012
    CHARGE:  cpu time      3.5913: real time      3.5916
    MIXING:  cpu time      0.0273: real time      0.0273
    --------------------------------------------
      LOOP:  cpu time    226.0911: real time    226.1061

 eigenvalue-minimisations  :  7968
 total energy-change (2. order) :-0.1905667E+03  (-0.2107104E+02)
 number of electron    1462.0000016 magnetization     315.2142705
 augmentation part       35.8919216 magnetization     305.4669415

 Broyden mixing:
  rms(total) = 0.42828E+01    rms(broyden)= 0.42825E+01
  rms(prec ) = 0.43276E+01
  weight for this iteration     100.00

 eigenvalues of (default mixing * dielectric matrix)
  average eigenvalue GAMMA=   1.2502
  0.8385  1.6618

 Free energy of the ion-electron system (eV)
  ---------------------------------------------------
  alpha Z        PSCENC =       418.83067969
  Ewald energy   TEWEN  =    465413.64842331
  -Hartree energ DENC   =   -507692.84186451
  -exchange      EXHF   =         0.00000000
  -V(xc)+E(xc)   XCENC  =      5745.21089126
  PAW double counting   =     23031.95857852   -23489.31715693
  entropy T*S    EENTRO =        -0.00302118
  eigenvalues    EBANDS =    -19734.00018702
  atomic energy  EATOM  =     53811.27190059
  Solvation  Ediel_sol  =         0.00000000
  ---------------------------------------------------
  free energy    TOTEN  =     -2495.24175626 eV

  energy without entropy =    -2495.23873508  energy(sigma->0) =    -2495.24024567


--------------------------------------------------------------------------------------------------------




--------------------------------------- Iteration      1(   8)  ---------------------------------------


    POTLOK:  cpu time      0.8059: real time      0.8105
    SETDIJ:  cpu time      0.0190: real time      0.0190
     EDDAV:  cpu time    222.6487: real time    222.6596
       DOS:  cpu time      0.0011: real time      0.0011
    CHARGE:  cpu time      3.5737: real time      3.5740
    MIXING:  cpu time      0.0275: real time      0.0276
    --------------------------------------------
      LOOP:  cpu time    227.0759: real time    227.0917

 eigenvalue-minimisations  :  7872
 total energy-change (2. order) :-0.1414400E+03  (-0.1340486E+02)
 number of electron    1462.0000016 magnetization     299.1034497
 augmentation part       34.7004551 magnetization     291.5216451

 Broyden mixing:
  rms(total) = 0.32542E+01    rms(broyden)= 0.32539E+01
  rms(prec ) = 0.32742E+01
  weight for this iteration     100.00

 eigenvalues of (default mixing * dielectric matrix)
  average eigenvalue GAMMA=   1.2110
  1.9968  0.9876  0.6487

 Free energy of the ion-electron system (eV)
  ---------------------------------------------------
  alpha Z        PSCENC =       418.83067969
  Ewald energy   TEWEN  =    465413.64842331
  -Hartree energ DENC   =   -509398.46064633
  -exchange      EXHF   =         0.00000000
  -V(xc)+E(xc)   XCENC  =      5689.98670423
  PAW double counting   =     26029.73994775   -26496.58878351
  entropy T*S    EENTRO =        -0.00414201
  eigenvalues    EBANDS =    -18105.10579550
  atomic energy  EATOM  =     53811.27190059
  Solvation  Ediel_sol  =         0.00000000
  ---------------------------------------------------
  free energy    TOTEN  =     -2636.68171178 eV

  energy without entropy =    -2636.67756977  energy(sigma->0) =    -2636.67964078


--------------------------------------------------------------------------------------------------------




--------------------------------------- Iteration      1(   9)  ---------------------------------------


    POTLOK:  cpu time      0.8109: real time      0.8146
    SETDIJ:  cpu time      0.0235: real time      0.0235
     EDDAV:  cpu time    225.1936: real time    225.2055
       DOS:  cpu time      0.0011: real time      0.0011
    CHARGE:  cpu time      3.5655: real time      3.5657
    MIXING:  cpu time      0.0287: real time      0.0287
    --------------------------------------------
      LOOP:  cpu time    229.6235: real time    229.6393

 eigenvalue-minimisations  :  8064
 total energy-change (2. order) :-0.9943294E+02  (-0.5139215E+01)
 number of electron    1462.0000015 magnetization     266.6324080
 augmentation part       34.2870703 magnetization     262.3915704

 Broyden mixing:
  rms(total) = 0.27874E+01    rms(broyden)= 0.27873E+01
  rms(prec ) = 0.27919E+01
  weight for this iteration     100.00

 eigenvalues of (default mixing * dielectric matrix)
  average eigenvalue GAMMA=   1.3476
  2.4350  1.4249  0.8818  0.6489

 Free energy of the ion-electron system (eV)
  ---------------------------------------------------
  alpha Z        PSCENC =       418.83067969
  Ewald energy   TEWEN  =    465413.64842331
  -Hartree energ DENC   =   -509945.82620322
  -exchange      EXHF   =         0.00000000
  -V(xc)+E(xc)   XCENC  =      5639.59496959
  PAW double counting   =     26614.49109623   -27080.30931355
  entropy T*S    EENTRO =        -0.00276924
  eigenvalues    EBANDS =    -17607.81343049
  atomic energy  EATOM  =     53811.27190059
  Solvation  Ediel_sol  =         0.00000000
  ---------------------------------------------------
  free energy    TOTEN  =     -2736.11464709 eV

  energy without entropy =    -2736.11187785  energy(sigma->0) =    -2736.11326247


--------------------------------------------------------------------------------------------------------




--------------------------------------- Iteration      1(  10)  ---------------------------------------


    POTLOK:  cpu time      0.8141: real time      0.8205
    SETDIJ:  cpu time      0.0163: real time      0.0163
     EDDAV:  cpu time    227.8760: real time    227.8865
       DOS:  cpu time      0.0007: real time      0.0007
    CHARGE:  cpu time      3.5730: real time      3.5733
    MIXING:  cpu time      0.0292: real time      0.0292
    --------------------------------------------
      LOOP:  cpu time    232.3092: real time    232.3264

 eigenvalue-minimisations  :  8128
 total energy-change (2. order) :-0.2061170E+03  (-0.1192479E+02)
 number of electron    1462.0000015 magnetization     240.1784083
 augmentation part       34.1937885 magnetization     234.9341421

 Broyden mixing:
  rms(total) = 0.22198E+01    rms(broyden)= 0.22197E+01
  rms(prec ) = 0.22515E+01
  weight for this iteration     100.00

 eigenvalues of (default mixing * dielectric matrix)
  average eigenvalue GAMMA=   1.4100
  2.9494  1.8140  0.7598  0.7634  0.7634

 Free energy of the ion-electron system (eV)
  ---------------------------------------------------
  alpha Z        PSCENC =       418.83067969
  Ewald energy   TEWEN  =    465413.64842331
  -Hartree energ DENC   =   -510443.64094925
  -exchange      EXHF   =         0.00000000
  -V(xc)+E(xc)   XCENC  =      5518.61228776
  PAW double counting   =     26483.16019887   -26940.95991835
  entropy T*S    EENTRO =        -0.00000000
  eigenvalues    EBANDS =    -17203.15426795
  atomic energy  EATOM  =     53811.27190059
  Solvation  Ediel_sol  =         0.00000000
  ---------------------------------------------------
  free energy    TOTEN  =     -2942.23164534 eV

  energy without entropy =    -2942.23164534  energy(sigma->0) =    -2942.23164534


--------------------------------------------------------------------------------------------------------




--------------------------------------- Iteration      1(  11)  ---------------------------------------


    POTLOK:  cpu time      0.8166: real time      0.8216
    SETDIJ:  cpu time      0.0210: real time      0.0210
     EDDAV:  cpu time    217.5578: real time    217.5692
       DOS:  cpu time      0.0117: real time      0.0117
    CHARGE:  cpu time      3.5730: real time      3.5735
    MIXING:  cpu time      0.0293: real time      0.0293
    --------------------------------------------
      LOOP:  cpu time    222.0093: real time    222.0262

 eigenvalue-minimisations  :  7712
 total energy-change (2. order) :-0.1448161E+03  (-0.1096692E+02)
 number of electron    1462.0000015 magnetization     209.6675120
 augmentation part       33.7346367 magnetization     208.7504968

 Broyden mixing:
  rms(total) = 0.17752E+01    rms(broyden)= 0.17750E+01
  rms(prec ) = 0.17810E+01
  weight for this iteration     100.00

 eigenvalues of (default mixing * dielectric matrix)
  average eigenvalue GAMMA=   1.7019
  4.9868  2.1011  1.0021  0.8260  0.6478  0.6478

 Free energy of the ion-electron system (eV)
  ---------------------------------------------------
  alpha Z        PSCENC =       418.83067969
  Ewald energy   TEWEN  =    465413.64842331
  -Hartree energ DENC   =   -510654.63133146
  -exchange      EXHF   =         0.00000000
  -V(xc)+E(xc)   XCENC  =      5428.97721048
  PAW double counting   =     26051.14010581   -26503.77324668
  entropy T*S    EENTRO =        -0.00000000
  eigenvalues    EBANDS =    -17052.51150088
  atomic energy  EATOM  =     53811.27190059
  Solvation  Ediel_sol  =         0.00000000
  ---------------------------------------------------
  free energy    TOTEN  =     -3087.04775914 eV

  energy without entropy =    -3087.04775914  energy(sigma->0) =    -3087.04775914


--------------------------------------------------------------------------------------------------------




--------------------------------------- Iteration      1(  12)  ---------------------------------------


    POTLOK:  cpu time      0.8258: real time      0.8353
    SETDIJ:  cpu time      0.0169: real time      0.0169
     EDDAV:  cpu time    216.6501: real time    216.6606
       DOS:  cpu time      0.0009: real time      0.0009
    CHARGE:  cpu time      3.5805: real time      3.5808
    MIXING:  cpu time      0.0309: real time      0.0309
    --------------------------------------------
      LOOP:  cpu time    221.1050: real time    221.1254

 eigenvalue-minimisations  :  7744
 total energy-change (2. order) :-0.8925028E+02  (-0.6499448E+01)
 number of electron    1462.0000015 magnetization     186.5137013
 augmentation part       33.6172906 magnetization     186.0453401

 Broyden mixing:
  rms(total) = 0.14604E+01    rms(broyden)= 0.14603E+01
  rms(prec ) = 0.14667E+01
  weight for this iteration     100.00

 eigenvalues of (default mixing * dielectric matrix)
  average eigenvalue GAMMA=   1.7689
  6.0411  2.0925  1.1647  1.0105  0.7019  0.7019  0.6695

 Free energy of the ion-electron system (eV)
  ---------------------------------------------------
  alpha Z        PSCENC =       418.83067969
  Ewald energy   TEWEN  =    465413.64842331
  -Hartree energ DENC   =   -510710.03206926
  -exchange      EXHF   =         0.00000000
  -V(xc)+E(xc)   XCENC  =      5367.22673768
  PAW double counting   =     25619.37529030   -26068.93529196
  entropy T*S    EENTRO =        -0.00000000
  eigenvalues    EBANDS =    -17027.68370612
  atomic energy  EATOM  =     53811.27190059
  Solvation  Ediel_sol  =         0.00000000
  ---------------------------------------------------
  free energy    TOTEN  =     -3176.29803577 eV

  energy without entropy =    -3176.29803577  energy(sigma->0) =    -3176.29803577


--------------------------------------------------------------------------------------------------------




--------------------------------------- Iteration      1(  13)  ---------------------------------------


    POTLOK:  cpu time      0.8205: real time      0.8269
    SETDIJ:  cpu time      0.0183: real time      0.0183
     EDDAV:  cpu time    232.7464: real time    232.7587
       DOS:  cpu time      0.0010: real time      0.0010
    CHARGE:  cpu time      3.5729: real time      3.5732
    MIXING:  cpu time      0.0298: real time      0.0298
    --------------------------------------------
      LOOP:  cpu time    237.1890: real time    237.2080

 eigenvalue-minimisations  :  8352
 total energy-change (2. order) :-0.5985081E+02  (-0.1939630E+01)
 number of electron    1462.0000014 magnetization     152.5854969
 augmentation part       33.5513506 magnetization     152.2907762

 Broyden mixing:
  rms(total) = 0.12531E+01    rms(broyden)= 0.12530E+01
  rms(prec ) = 0.12571E+01
  weight for this iteration     100.00

 eigenvalues of (default mixing * dielectric matrix)
  average eigenvalue GAMMA=   1.8978
  6.9746  2.1206  2.1206  1.0729  0.8552  0.6947  0.6947  0.6494

 Free energy of the ion-electron system (eV)
  ---------------------------------------------------
  alpha Z        PSCENC =       418.83067969
  Ewald energy   TEWEN  =    465413.64842331
  -Hartree energ DENC   =   -510596.74209539
  -exchange      EXHF   =         0.00000000
  -V(xc)+E(xc)   XCENC  =      5315.46419283
  PAW double counting   =     25533.27333734   -25985.29259012
  entropy T*S    EENTRO =        -0.00000000
  eigenvalues    EBANDS =    -17146.60269204
  atomic energy  EATOM  =     53811.27190059
  Solvation  Ediel_sol  =         0.00000000
  ---------------------------------------------------
  free energy    TOTEN  =     -3236.14884379 eV

  energy without entropy =    -3236.14884379  energy(sigma->0) =    -3236.14884379


--------------------------------------------------------------------------------------------------------




--------------------------------------- Iteration      1(  14)  ---------------------------------------


    POTLOK:  cpu time      0.8295: real time      0.8326
    SETDIJ:  cpu time      0.0154: real time      0.0154
     EDDAV:  cpu time    224.7087: real time    224.7199
       DOS:  cpu time      0.0009: real time      0.0009
    CHARGE:  cpu time      3.5693: real time      3.5695
    MIXING:  cpu time      0.0310: real time      0.0310
    --------------------------------------------
      LOOP:  cpu time    229.1548: real time    229.1693

 eigenvalue-minimisations  :  7968
 total energy-change (2. order) :-0.3471050E+02  (-0.1144508E+01)
 number of electron    1462.0000014 magnetization     121.0835747
 augmentation part       33.5803172 magnetization     120.9349436

 Broyden mixing:
  rms(total) = 0.10061E+01    rms(broyden)= 0.10061E+01
  rms(prec ) = 0.10082E+01
  weight for this iteration     100.00

 eigenvalues of (default mixing * dielectric matrix)
  average eigenvalue GAMMA=   2.0813
  8.4084  3.1826  2.1612  1.0856  1.0856  0.6980  0.6980  0.7685  0.6441

 Free energy of the ion-electron system (eV)
  ---------------------------------------------------
  alpha Z        PSCENC =       418.83067969
  Ewald energy   TEWEN  =    465413.64842331
  -Hartree energ DENC   =   -510263.72831163
  -exchange      EXHF   =         0.00000000
  -V(xc)+E(xc)   XCENC  =      5275.52427386
  PAW double counting   =     25393.17573141   -25848.48511656
  entropy T*S    EENTRO =        -0.00000000
  eigenvalues    EBANDS =    -17471.09692560
  atomic energy  EATOM  =     53811.27190059
  Solvation  Ediel_sol  =         0.00000000
  ---------------------------------------------------
  free energy    TOTEN  =     -3270.85934493 eV

  energy without entropy =    -3270.85934493  energy(sigma->0) =    -3270.85934493


--------------------------------------------------------------------------------------------------------




--------------------------------------- Iteration      1(  15)  ---------------------------------------


    POTLOK:  cpu time      0.8062: real time      0.8120
    SETDIJ:  cpu time      0.0240: real time      0.0240
     EDDAV:  cpu time    216.4497: real time    216.4595
       DOS:  cpu time      0.0010: real time      0.0011
    CHARGE:  cpu time      3.5678: real time      3.5680
    MIXING:  cpu time      0.0312: real time      0.0312
    --------------------------------------------
      LOOP:  cpu time    220.8800: real time    220.8958

 eigenvalue-minimisations  :  7680
 total energy-change (2. order) :-0.7601252E+01  (-0.4703234E+00)
 number of electron    1462.0000014 magnetization      91.5714685
 augmentation part       33.6028233 magnetization      91.4561475

 Broyden mixing:
  rms(total) = 0.82971E+00    rms(broyden)= 0.82970E+00
  rms(prec ) = 0.83220E+00
  weight for this iteration     100.00

 eigenvalues of (default mixing * dielectric matrix)
  average eigenvalue GAMMA=   2.1760
  9.5341  3.8288  2.1682  1.3706  1.1213  0.9465  0.6964  0.6964  0.7665  0.6316

 Free energy of the ion-electron system (eV)
  ---------------------------------------------------
  alpha Z        PSCENC =       418.83067969
  Ewald energy   TEWEN  =    465413.64842331
  -Hartree energ DENC   =   -509995.76042783
  -exchange      EXHF   =         0.00000000
  -V(xc)+E(xc)   XCENC  =      5263.87519267
  PAW double counting   =     25380.67670304   -25837.20042949
  entropy T*S    EENTRO =        -0.00000000
  eigenvalues    EBANDS =    -17733.80263842
  atomic energy  EATOM  =     53811.27190059
  Solvation  Ediel_sol  =         0.00000000
  ---------------------------------------------------
  free energy    TOTEN  =     -3278.46059644 eV

  energy without entropy =    -3278.46059644  energy(sigma->0) =    -3278.46059644


--------------------------------------------------------------------------------------------------------




--------------------------------------- Iteration      1(  16)  ---------------------------------------


    POTLOK:  cpu time      0.8063: real time      0.8124
    SETDIJ:  cpu time      0.0292: real time      0.0292
     EDDAV:  cpu time    223.4295: real time    223.4420
       DOS:  cpu time      0.0007: real time      0.0007
    CHARGE:  cpu time      3.5684: real time      3.5689
    MIXING:  cpu time      0.0324: real time      0.0324
    --------------------------------------------
      LOOP:  cpu time    227.8665: real time    227.8855

 eigenvalue-minimisations  :  7872
 total energy-change (2. order) :-0.1085991E+02  (-0.3108658E+00)
 number of electron    1462.0000014 magnetization      59.3509176
 augmentation part       33.5772182 magnetization      59.3008575

 Broyden mixing:
  rms(total) = 0.65443E+00    rms(broyden)= 0.65442E+00
  rms(prec ) = 0.65671E+00
  weight for this iteration     100.00

 eigenvalues of (default mixing * dielectric matrix)
  average eigenvalue GAMMA=   2.4212
 11.5654  4.8882  2.1866  2.1866  1.1321  1.1321  0.7039  0.7039  0.7569  0.7569
  0.6204

 Free energy of the ion-electron system (eV)
  ---------------------------------------------------
  alpha Z        PSCENC =       418.83067969
  Ewald energy   TEWEN  =    465413.64842331
  -Hartree energ DENC   =   -509820.15704647
  -exchange      EXHF   =         0.00000000
  -V(xc)+E(xc)   XCENC  =      5253.86798532
  PAW double counting   =     25519.50951702   -25975.58561646
  entropy T*S    EENTRO =        -0.00000000
  eigenvalues    EBANDS =    -17910.70635293
  atomic energy  EATOM  =     53811.27190059
  Solvation  Ediel_sol  =         0.00000000
  ---------------------------------------------------
  free energy    TOTEN  =     -3289.32050993 eV

  energy without entropy =    -3289.32050993  energy(sigma->0) =    -3289.32050993


--------------------------------------------------------------------------------------------------------




--------------------------------------- Iteration      1(  17)  ---------------------------------------


    POTLOK:  cpu time      0.8258: real time      0.8314
    SETDIJ:  cpu time      0.0199: real time      0.0199
     EDDAV:  cpu time    222.8419: real time    222.8527
       DOS:  cpu time      0.0055: real time      0.0055
    CHARGE:  cpu time      3.5628: real time      3.5633
    MIXING:  cpu time      0.0323: real time      0.0323
    --------------------------------------------
      LOOP:  cpu time    227.2882: real time    227.3050

 eigenvalue-minimisations  :  7776
 total energy-change (2. order) :-0.1232379E+02  (-0.3191114E+00)
 number of electron    1462.0000014 magnetization      39.4735621
 augmentation part       33.5562055 magnetization      39.4400951

 Broyden mixing:
  rms(total) = 0.48591E+00    rms(broyden)= 0.48590E+00
  rms(prec ) = 0.48866E+00
  weight for this iteration     100.00

 eigenvalues of (default mixing * dielectric matrix)
  average eigenvalue GAMMA=   2.5894
 13.7783  5.6527  2.4071  2.4071  1.1354  1.1078  1.1078  0.7002  0.7002  0.7412
  0.7198  0.6147

 Free energy of the ion-electron system (eV)
  ---------------------------------------------------
  alpha Z        PSCENC =       418.83067969
  Ewald energy   TEWEN  =    465413.64842331
  -Hartree energ DENC   =   -509654.60926834
  -exchange      EXHF   =         0.00000000
  -V(xc)+E(xc)   XCENC  =      5242.53746318
  PAW double counting   =     25584.55292177   -26039.32756347
  entropy T*S    EENTRO =        -0.00000000
  eigenvalues    EBANDS =    -18078.54885452
  atomic energy  EATOM  =     53811.27190059
  Solvation  Ediel_sol  =         0.00000000
  ---------------------------------------------------
  free energy    TOTEN  =     -3301.64429778 eV

  energy without entropy =    -3301.64429778  energy(sigma->0) =    -3301.64429778


--------------------------------------------------------------------------------------------------------




--------------------------------------- Iteration      1(  18)  ---------------------------------------


    POTLOK:  cpu time      0.8176: real time      0.8229
    SETDIJ:  cpu time      0.0219: real time      0.0219
     EDDAV:  cpu time    220.3795: real time    220.3943
       DOS:  cpu time      0.0011: real time      0.0011
    CHARGE:  cpu time      3.5795: real time      3.5800
    MIXING:  cpu time      0.0321: real time      0.0321
    --------------------------------------------
      LOOP:  cpu time    224.8317: real time    224.8523

 eigenvalue-minimisations  :  7872
 total energy-change (2. order) :-0.4333114E+00  (-0.4997415E-01)
 number of electron    1462.0000014 magnetization      21.8994282
 augmentation part       33.5461525 magnetization      21.8794758

 Broyden mixing:
  rms(total) = 0.36538E+00    rms(broyden)= 0.36538E+00
  rms(prec ) = 0.36716E+00
  weight for this iteration     100.00

 eigenvalues of (default mixing * dielectric matrix)
  average eigenvalue GAMMA=   2.8016
 16.4643  6.3232  2.9807  2.3231  1.7471  1.1437  1.1437  0.7023  0.7023  0.8090
  0.7876  0.6802  0.6134

 Free energy of the ion-electron system (eV)
  ---------------------------------------------------
  alpha Z        PSCENC =       418.83067969
  Ewald energy   TEWEN  =    465413.64842331
  -Hartree energ DENC   =   -509603.45323919
  -exchange      EXHF   =         0.00000000
  -V(xc)+E(xc)   XCENC  =      5243.37806877
  PAW double counting   =     25568.28537140   -26022.10225990
  entropy T*S    EENTRO =        -0.00000000
  eigenvalues    EBANDS =    -18131.93655381
  atomic energy  EATOM  =     53811.27190059
  Solvation  Ediel_sol  =         0.00000000
  ---------------------------------------------------
  free energy    TOTEN  =     -3302.07760913 eV

  energy without entropy =    -3302.07760913  energy(sigma->0) =    -3302.07760913


--------------------------------------------------------------------------------------------------------




--------------------------------------- Iteration      1(  19)  ---------------------------------------


    POTLOK:  cpu time      0.8137: real time      0.8179
    SETDIJ:  cpu time      0.0166: real time      0.0165
     EDDAV:  cpu time    214.7427: real time    214.7539
       DOS:  cpu time      0.0009: real time      0.0009
    CHARGE:  cpu time      3.5543: real time      3.5545
    MIXING:  cpu time      0.0328: real time      0.0329
    --------------------------------------------
      LOOP:  cpu time    219.1610: real time    219.1766

 eigenvalue-minimisations  :  7648
 total energy-change (2. order) : 0.3156154E+01  (-0.8934178E-01)
 number of electron    1462.0000014 magnetization      13.5289055
 augmentation part       33.5395450 magnetization      13.5266390

 Broyden mixing:
  rms(total) = 0.25727E+00    rms(broyden)= 0.25725E+00
  rms(prec ) = 0.25916E+00
  weight for this iteration     100.00

 eigenvalues of (default mixing * dielectric matrix)
  average eigenvalue GAMMA=   2.9044
 18.4816  6.8521  3.3760  2.2355  2.0044  1.2585  1.1182  1.1182  0.7027  0.7027
  0.7699  0.7699  0.6568  0.6155

 Free energy of the ion-electron system (eV)
  ---------------------------------------------------
  alpha Z        PSCENC =       418.83067969
  Ewald energy   TEWEN  =    465413.64842331
  -Hartree energ DENC   =   -509582.80879628
  -exchange      EXHF   =         0.00000000
  -V(xc)+E(xc)   XCENC  =      5248.59892753
  PAW double counting   =     25552.24676645   -26005.88344962
  entropy T*S    EENTRO =        -0.00000000
  eigenvalues    EBANDS =    -18154.82590680
  atomic energy  EATOM  =     53811.27190059
  Solvation  Ediel_sol  =         0.00000000
  ---------------------------------------------------
  free energy    TOTEN  =     -3298.92145512 eV

  energy without entropy =    -3298.92145512  energy(sigma->0) =    -3298.92145512


--------------------------------------------------------------------------------------------------------




--------------------------------------- Iteration      1(  20)  ---------------------------------------


    POTLOK:  cpu time      0.8091: real time      0.8137
    SETDIJ:  cpu time      0.0241: real time      0.0241
     EDDAV:  cpu time    218.4435: real time    218.4553
       DOS:  cpu time      0.0006: real time      0.0006
    CHARGE:  cpu time      3.5701: real time      3.5704
    MIXING:  cpu time      0.0340: real time      0.0340
    --------------------------------------------
      LOOP:  cpu time    222.8813: real time    222.8980

 eigenvalue-minimisations  :  7840
 total energy-change (2. order) :-0.2335522E+01  (-0.2337809E-01)
 number of electron    1462.0000014 magnetization       4.5575835
 augmentation part       33.5390630 magnetization       4.5525529

 Broyden mixing:
  rms(total) = 0.17862E+00    rms(broyden)= 0.17862E+00
  rms(prec ) = 0.17956E+00
  weight for this iteration     100.00

 eigenvalues of (default mixing * dielectric matrix)
  average eigenvalue GAMMA=   3.1356
 21.3157  7.7640  4.1595  2.3521  2.3521  1.6362  1.1368  1.1368  0.9980  0.7019
  0.7019  0.7588  0.7588  0.6168  0.6446

 Free energy of the ion-electron system (eV)
  ---------------------------------------------------
  alpha Z        PSCENC =       418.83067969
  Ewald energy   TEWEN  =    465413.64842331
  -Hartree energ DENC   =   -509566.01406428
  -exchange      EXHF   =         0.00000000
  -V(xc)+E(xc)   XCENC  =      5246.58417850
  PAW double counting   =     25529.98652492   -25984.00604738
  entropy T*S    EENTRO =        -0.00000000
  eigenvalues    EBANDS =    -18171.55857200
  atomic energy  EATOM  =     53811.27190059
  Solvation  Ediel_sol  =         0.00000000
  ---------------------------------------------------
  free energy    TOTEN  =     -3301.25697665 eV

  energy without entropy =    -3301.25697665  energy(sigma->0) =    -3301.25697665


--------------------------------------------------------------------------------------------------------




--------------------------------------- Iteration      1(  21)  ---------------------------------------


    POTLOK:  cpu time      0.8107: real time      0.8175
    SETDIJ:  cpu time      0.0244: real time      0.0244
     EDDAV:  cpu time    218.3265: real time    218.3374
       DOS:  cpu time      0.0061: real time      0.0061
    CHARGE:  cpu time      3.5689: real time      3.5691
    MIXING:  cpu time      0.0349: real time      0.0349
    --------------------------------------------
      LOOP:  cpu time    222.7714: real time    222.7893

 eigenvalue-minimisations  :  7680
 total energy-change (2. order) :-0.3050790E+01  (-0.3556221E-01)
 number of electron    1462.0000014 magnetization       1.9711610
 augmentation part       33.5289243 magnetization       1.9747403

 Broyden mixing:
  rms(total) = 0.89738E-01    rms(broyden)= 0.89731E-01
  rms(prec ) = 0.91492E-01
  weight for this iteration     100.00

 eigenvalues of (default mixing * dielectric matrix)
  average eigenvalue GAMMA=   3.2998
 24.2243  8.7102  4.8802  2.4648  2.4648  1.4273  1.4273  1.1189  1.1189  0.7021
  0.7021  0.7935  0.7935  0.7175  0.6179  0.6332

 Free energy of the ion-electron system (eV)
  ---------------------------------------------------
  alpha Z        PSCENC =       418.83067969
  Ewald energy   TEWEN  =    465413.64842331
  -Hartree energ DENC   =   -509567.20069537
  -exchange      EXHF   =         0.00000000
  -V(xc)+E(xc)   XCENC  =      5244.03625902
  PAW double counting   =     25507.20987007   -25961.63190027
  entropy T*S    EENTRO =        -0.00000000
  eigenvalues    EBANDS =    -18170.47230393
  atomic energy  EATOM  =     53811.27190059
  Solvation  Ediel_sol  =         0.00000000
  ---------------------------------------------------
  free energy    TOTEN  =     -3304.30776689 eV

  energy without entropy =    -3304.30776689  energy(sigma->0) =    -3304.30776689


--------------------------------------------------------------------------------------------------------




--------------------------------------- Iteration      1(  22)  ---------------------------------------


    POTLOK:  cpu time      0.8215: real time      0.8221
    SETDIJ:  cpu time      0.0190: real time      0.0190
     EDDAV:  cpu time    210.8060: real time    210.8202
       DOS:  cpu time      0.0041: real time      0.0041
    CHARGE:  cpu time      3.5714: real time      3.5718
    MIXING:  cpu time      0.0334: real time      0.0334
    --------------------------------------------
      LOOP:  cpu time    215.2554: real time    215.2705

 eigenvalue-minimisations  :  7488
 total energy-change (2. order) :-0.7176906E+00  (-0.1332040E-01)
 number of electron    1462.0000014 magnetization       1.0850871
 augmentation part       33.5277554 magnetization       1.0841259

 Broyden mixing:
  rms(total) = 0.63004E-01    rms(broyden)= 0.62993E-01
  rms(prec ) = 0.64509E-01
  weight for this iteration     100.00

 eigenvalues of (default mixing * dielectric matrix)
  average eigenvalue GAMMA=   3.2651
 25.1293  9.0229  5.0619  2.5274  2.4539  1.5468  1.5468  1.1422  1.0912  1.0912
  0.7023  0.7023  0.7746  0.7746  0.6932  0.6188  0.6271

 Free energy of the ion-electron system (eV)
  ---------------------------------------------------
  alpha Z        PSCENC =       418.83067969
  Ewald energy   TEWEN  =    465413.64842331
  -Hartree energ DENC   =   -509571.20768710
  -exchange      EXHF   =         0.00000000
  -V(xc)+E(xc)   XCENC  =      5243.30459654
  PAW double counting   =     25504.68941203   -25959.15478293
  entropy T*S    EENTRO =        -0.00000000
  eigenvalues    EBANDS =    -18166.40799962
  atomic energy  EATOM  =     53811.27190059
  Solvation  Ediel_sol  =         0.00000000
  ---------------------------------------------------
  free energy    TOTEN  =     -3305.02545748 eV

  energy without entropy =    -3305.02545748  energy(sigma->0) =    -3305.02545748


--------------------------------------------------------------------------------------------------------




--------------------------------------- Iteration      1(  23)  ---------------------------------------


    POTLOK:  cpu time      0.8090: real time      0.8154
    SETDIJ:  cpu time      0.0196: real time      0.0196
     EDDAV:  cpu time    248.3855: real time    248.3990
       DOS:  cpu time      0.0010: real time      0.0010
    CHARGE:  cpu time      3.5675: real time      3.5678
    MIXING:  cpu time      0.0342: real time      0.0342
    --------------------------------------------
      LOOP:  cpu time    252.8168: real time    252.8370

 eigenvalue-minimisations  :  9248
 total energy-change (2. order) :-0.1580120E+01  (-0.3779810E-02)
 number of electron    1462.0000014 magnetization       0.3921736
 augmentation part       33.5316883 magnetization       0.3911042

 Broyden mixing:
  rms(total) = 0.44146E-01    rms(broyden)= 0.44143E-01
  rms(prec ) = 0.45222E-01
  weight for this iteration     100.00

 eigenvalues of (default mixing * dielectric matrix)
  average eigenvalue GAMMA=   3.2605
 25.8372  9.3301  5.2748  2.7193  2.4984  1.7741  1.7741  1.4571  1.1165  1.1165
  0.9388  0.7025  0.7025  0.7620  0.7620  0.6783  0.6193  0.6261

 Free energy of the ion-electron system (eV)
  ---------------------------------------------------
  alpha Z        PSCENC =       418.83067969
  Ewald energy   TEWEN  =    465413.64842331
  -Hartree energ DENC   =   -509573.00931294
  -exchange      EXHF   =         0.00000000
  -V(xc)+E(xc)   XCENC  =      5241.42851929
  PAW double counting   =     25508.59232487   -25963.05016821
  entropy T*S    EENTRO =        -0.00000000
  eigenvalues    EBANDS =    -18164.31794397
  atomic energy  EATOM  =     53811.27190059
  Solvation  Ediel_sol  =         0.00000000
  ---------------------------------------------------
  free energy    TOTEN  =     -3306.60557736 eV

  energy without entropy =    -3306.60557736  energy(sigma->0) =    -3306.60557736


--------------------------------------------------------------------------------------------------------




--------------------------------------- Iteration      1(  24)  ---------------------------------------


    POTLOK:  cpu time      0.8151: real time      0.8202
    SETDIJ:  cpu time      0.0186: real time      0.0186
     EDDAV:  cpu time    214.8910: real time    214.9026
       DOS:  cpu time      0.0010: real time      0.0010
    CHARGE:  cpu time      3.5618: real time      3.5621
    MIXING:  cpu time      0.0349: real time      0.0349
    --------------------------------------------
      LOOP:  cpu time    219.3224: real time    219.3393

 eigenvalue-minimisations  :  7680
 total energy-change (2. order) :-0.1772030E+01  (-0.7487217E-02)
 number of electron    1462.0000014 magnetization       0.1874092
 augmentation part       33.5356160 magnetization       0.1874423

 Broyden mixing:
  rms(total) = 0.26835E-01    rms(broyden)= 0.26831E-01
  rms(prec ) = 0.27552E-01
  weight for this iteration     100.00

 eigenvalues of (default mixing * dielectric matrix)
  average eigenvalue GAMMA=   3.2310
 26.2443  9.5842  5.5020  3.3934  2.6265  2.2278  1.4293  1.4293  1.1304  1.0923
  1.0923  0.7024  0.7024  0.8262  0.7526  0.7526  0.6594  0.6205  0.6205

 Free energy of the ion-electron system (eV)
  ---------------------------------------------------
  alpha Z        PSCENC =       418.83067969
  Ewald energy   TEWEN  =    465413.64842331
  -Hartree energ DENC   =   -509577.12712020
  -exchange      EXHF   =         0.00000000
  -V(xc)+E(xc)   XCENC  =      5239.26617884
  PAW double counting   =     25516.34661810   -25970.69493553
  entropy T*S    EENTRO =        -0.00000000
  eigenvalues    EBANDS =    -18159.91935174
  atomic energy  EATOM  =     53811.27190059
  Solvation  Ediel_sol  =         0.00000000
  ---------------------------------------------------
  free energy    TOTEN  =     -3308.37760694 eV

  energy without entropy =    -3308.37760694  energy(sigma->0) =    -3308.37760694


--------------------------------------------------------------------------------------------------------




--------------------------------------- Iteration      1(  25)  ---------------------------------------


    POTLOK:  cpu time      0.8148: real time      0.8192
    SETDIJ:  cpu time      0.0214: real time      0.0214
     EDDAV:  cpu time    223.5017: real time    223.5132
       DOS:  cpu time      0.0005: real time      0.0005
    CHARGE:  cpu time      3.5582: real time      3.5585
    MIXING:  cpu time      0.0372: real time      0.0372
    --------------------------------------------
      LOOP:  cpu time    227.9339: real time    227.9500

 eigenvalue-minimisations  :  8096
 total energy-change (2. order) :-0.7252603E+00  (-0.2427715E-02)
 number of electron    1462.0000014 magnetization       0.1293261
 augmentation part       33.5340317 magnetization       0.1293120

 Broyden mixing:
  rms(total) = 0.18228E-01    rms(broyden)= 0.18225E-01
  rms(prec ) = 0.18595E-01
  weight for this iteration     100.00

 eigenvalues of (default mixing * dielectric matrix)
  average eigenvalue GAMMA=   3.1731
 26.3615  9.6917  5.6288  3.7326  2.5537  2.3046  1.5223  1.5223  1.1555  1.1555
  1.1206  1.1206  0.7023  0.7023  0.7862  0.7862  0.7241  0.6522  0.6193  0.6193

 Free energy of the ion-electron system (eV)
  ---------------------------------------------------
  alpha Z        PSCENC =       418.83067969
  Ewald energy   TEWEN  =    465413.64842331
  -Hartree energ DENC   =   -509581.48518545
  -exchange      EXHF   =         0.00000000
  -V(xc)+E(xc)   XCENC  =      5238.45428296
  PAW double counting   =     25520.17925778   -25974.49654927
  entropy T*S    EENTRO =        -0.00000000
  eigenvalues    EBANDS =    -18155.50567688
  atomic energy  EATOM  =     53811.27190059
  Solvation  Ediel_sol  =         0.00000000
  ---------------------------------------------------
  free energy    TOTEN  =     -3309.10286728 eV

  energy without entropy =    -3309.10286728  energy(sigma->0) =    -3309.10286728


--------------------------------------------------------------------------------------------------------




--------------------------------------- Iteration      1(  26)  ---------------------------------------


    POTLOK:  cpu time      0.8236: real time      0.8242
    SETDIJ:  cpu time      0.0187: real time      0.0187
     EDDAV:  cpu time    229.8512: real time    229.8636
       DOS:  cpu time      0.0059: real time      0.0059
    CHARGE:  cpu time      3.5664: real time      3.5668
    MIXING:  cpu time      0.0345: real time      0.0345
    --------------------------------------------
      LOOP:  cpu time    234.3004: real time    234.3137

 eigenvalue-minimisations  :  8416
 total energy-change (2. order) :-0.5722482E+00  (-0.1265996E-02)
 number of electron    1462.0000014 magnetization       0.0510094
 augmentation part       33.5321374 magnetization       0.0514654

 Broyden mixing:
  rms(total) = 0.11601E-01    rms(broyden)= 0.11599E-01
  rms(prec ) = 0.11881E-01
  weight for this iteration     100.00

 eigenvalues of (default mixing * dielectric matrix)
  average eigenvalue GAMMA=   3.1652
 26.4849  9.8431  5.9904  4.3571  2.5315  2.5315  1.8937  1.4506  1.4506  1.2531
  1.1013  1.1013  0.9505  0.7025  0.7025  0.7659  0.7659  0.7073  0.6460  0.6195
  0.6195

 Free energy of the ion-electron system (eV)
  ---------------------------------------------------
  alpha Z        PSCENC =       418.83067969
  Ewald energy   TEWEN  =    465413.64842331
  -Hartree energ DENC   =   -509584.97786023
  -exchange      EXHF   =         0.00000000
  -V(xc)+E(xc)   XCENC  =      5237.81724111
  PAW double counting   =     25517.82281019   -25972.15513286
  entropy T*S    EENTRO =        -0.00000000
  eigenvalues    EBANDS =    -18151.93317727
  atomic energy  EATOM  =     53811.27190059
  Solvation  Ediel_sol  =         0.00000000
  ---------------------------------------------------
  free energy    TOTEN  =     -3309.67511547 eV

  energy without entropy =    -3309.67511547  energy(sigma->0) =    -3309.67511547


--------------------------------------------------------------------------------------------------------




--------------------------------------- Iteration      1(  27)  ---------------------------------------


    POTLOK:  cpu time      0.8177: real time      0.8214
    SETDIJ:  cpu time      0.0163: real time      0.0163
     EDDAV:  cpu time    221.5527: real time    221.5648
       DOS:  cpu time      0.0010: real time      0.0010
    CHARGE:  cpu time      3.5660: real time      3.5663
    MIXING:  cpu time      0.0343: real time      0.0343
    --------------------------------------------
      LOOP:  cpu time    225.9879: real time    226.0041

 eigenvalue-minimisations  :  8064
 total energy-change (2. order) :-0.4133007E+00  (-0.9881300E-03)
 number of electron    1462.0000014 magnetization       0.0127063
 augmentation part       33.5322528 magnetization       0.0126833

 Broyden mixing:
  rms(total) = 0.70924E-02    rms(broyden)= 0.70901E-02
  rms(prec ) = 0.72633E-02
  weight for this iteration     100.00

 eigenvalues of (default mixing * dielectric matrix)
  average eigenvalue GAMMA=   3.1251
 26.5542  9.9602  6.4475  4.7508  2.6418  2.6418  2.1274  1.3712  1.3712  1.1548
  1.1548  1.1240  1.1240  0.7024  0.7024  0.8281  0.7608  0.7608  0.6958  0.6399
  0.6150  0.6233

 Free energy of the ion-electron system (eV)
  ---------------------------------------------------
  alpha Z        PSCENC =       418.83067969
  Ewald energy   TEWEN  =    465413.64842331
  -Hartree energ DENC   =   -509589.77070256
  -exchange      EXHF   =         0.00000000
  -V(xc)+E(xc)   XCENC  =      5237.41830534
  PAW double counting   =     25516.57525712   -25970.92026099
  entropy T*S    EENTRO =        -0.00000000
  eigenvalues    EBANDS =    -18147.14201871
  atomic energy  EATOM  =     53811.27190059
  Solvation  Ediel_sol  =         0.00000000
  ---------------------------------------------------
  free energy    TOTEN  =     -3310.08841621 eV

  energy without entropy =    -3310.08841621  energy(sigma->0) =    -3310.08841621


--------------------------------------------------------------------------------------------------------




--------------------------------------- Iteration      1(  28)  ---------------------------------------


    POTLOK:  cpu time      0.8183: real time      0.8190
    SETDIJ:  cpu time      0.0165: real time      0.0165
     EDDAV:  cpu time    229.8882: real time    229.8984
       DOS:  cpu time      0.0011: real time      0.0011
    CHARGE:  cpu time      3.5757: real time      3.5759
    MIXING:  cpu time      0.0371: real time      0.0371
    --------------------------------------------
      LOOP:  cpu time    234.3369: real time    234.3481

 eigenvalue-minimisations  :  8384
 total energy-change (2. order) :-0.8290504E-01  (-0.1489714E-03)
 number of electron    1462.0000014 magnetization      -0.0010573
 augmentation part       33.5325703 magnetization      -0.0011797

 Broyden mixing:
  rms(total) = 0.38383E-02    rms(broyden)= 0.38376E-02
  rms(prec ) = 0.39533E-02
  weight for this iteration     100.00

 eigenvalues of (default mixing * dielectric matrix)
  average eigenvalue GAMMA=   3.0481
 26.5709  9.9792  6.5859  4.8077  2.6563  2.6563  2.1198  1.3903  1.3903  1.2497
  1.2497  1.1102  1.1102  0.9566  0.7025  0.7025  0.7768  0.7632  0.7632  0.6911
  0.6148  0.6352  0.6247

 Free energy of the ion-electron system (eV)
  ---------------------------------------------------
  alpha Z        PSCENC =       418.83067969
  Ewald energy   TEWEN  =    465413.64842331
  -Hartree energ DENC   =   -509591.64157548
  -exchange      EXHF   =         0.00000000
  -V(xc)+E(xc)   XCENC  =      5237.36242875
  PAW double counting   =     25516.90726044   -25971.25719223
  entropy T*S    EENTRO =        -0.00000000
  eigenvalues    EBANDS =    -18145.29324631
  atomic energy  EATOM  =     53811.27190059
  Solvation  Ediel_sol  =         0.00000000
  ---------------------------------------------------
  free energy    TOTEN  =     -3310.17132124 eV

  energy without entropy =    -3310.17132124  energy(sigma->0) =    -3310.17132124


--------------------------------------------------------------------------------------------------------




--------------------------------------- Iteration      1(  29)  ---------------------------------------


    POTLOK:  cpu time      0.8063: real time      0.8117
    SETDIJ:  cpu time      0.0184: real time      0.0184
     EDDAV:  cpu time    224.0225: real time    224.0327
       DOS:  cpu time      0.0223: real time      0.0223
    CHARGE:  cpu time      3.5751: real time      3.5754
    MIXING:  cpu time      0.0361: real time      0.0361
    --------------------------------------------
      LOOP:  cpu time    228.4807: real time    228.4966

 eigenvalue-minimisations  :  8256
 total energy-change (2. order) :-0.2508860E-01  (-0.4363057E-04)
 number of electron    1462.0000014 magnetization      -0.0017865
 augmentation part       33.5327968 magnetization      -0.0017440

 Broyden mixing:
  rms(total) = 0.20052E-02    rms(broyden)= 0.20042E-02
  rms(prec ) = 0.21020E-02
  weight for this iteration     100.00

 eigenvalues of (default mixing * dielectric matrix)
  average eigenvalue GAMMA=   3.0133
 26.5829 10.0100  6.7669  4.9034  2.7405  2.7405  2.0289  1.8010  1.4178  1.4178
  1.5201  1.1046  1.1046  1.0749  0.7024  0.7024  0.8870  0.7705  0.7705  0.7340
  0.6703  0.6150  0.6292  0.6244

 Free energy of the ion-electron system (eV)
  ---------------------------------------------------
  alpha Z        PSCENC =       418.83067969
  Ewald energy   TEWEN  =    465413.64842331
  -Hartree energ DENC   =   -509592.11495666
  -exchange      EXHF   =         0.00000000
  -V(xc)+E(xc)   XCENC  =      5237.34048067
  PAW double counting   =     25516.60498452   -25970.95673219
  entropy T*S    EENTRO =        -0.00000000
  eigenvalues    EBANDS =    -18144.82118978
  atomic energy  EATOM  =     53811.27190059
  Solvation  Ediel_sol  =         0.00000000
  ---------------------------------------------------
  free energy    TOTEN  =     -3310.19640984 eV

  energy without entropy =    -3310.19640984  energy(sigma->0) =    -3310.19640984


--------------------------------------------------------------------------------------------------------




--------------------------------------- Iteration      1(  30)  ---------------------------------------


    POTLOK:  cpu time      0.8030: real time      0.8036
    SETDIJ:  cpu time      0.0240: real time      0.0240
     EDDAV:  cpu time    217.7048: real time    217.7160
       DOS:  cpu time      0.0291: real time      0.0291
    CHARGE:  cpu time      3.5813: real time      3.5817
    MIXING:  cpu time      0.0371: real time      0.0371
    --------------------------------------------
      LOOP:  cpu time    222.1792: real time    222.1915

 eigenvalue-minimisations  :  7840
 total energy-change (2. order) :-0.2089091E-01  (-0.2404175E-04)
 number of electron    1462.0000014 magnetization      -0.0002602
 augmentation part       33.5326740 magnetization      -0.0002211

 Broyden mixing:
  rms(total) = 0.13302E-02    rms(broyden)= 0.13296E-02
  rms(prec ) = 0.14019E-02
  weight for this iteration     100.00

 eigenvalues of (default mixing * dielectric matrix)
  average eigenvalue GAMMA=   2.9558
 26.5843 10.0369  6.8579  4.9971  2.8701  2.8701  2.2180  1.9566  1.3947  1.3947
  1.3634  1.1111  1.1111  1.0382  1.0382  0.7024  0.7024  0.8693  0.7636  0.7636
  0.7257  0.6592  0.6299  0.6139  0.6222

 Free energy of the ion-electron system (eV)
  ---------------------------------------------------
  alpha Z        PSCENC =       418.83067969
  Ewald energy   TEWEN  =    465413.64842331
  -Hartree energ DENC   =   -509592.78103843
  -exchange      EXHF   =         0.00000000
  -V(xc)+E(xc)   XCENC  =      5237.33373203
  PAW double counting   =     25516.37714532   -25970.73123921
  entropy T*S    EENTRO =        -0.00000000
  eigenvalues    EBANDS =    -18144.16690407
  atomic energy  EATOM  =     53811.27190059
  Solvation  Ediel_sol  =         0.00000000
  ---------------------------------------------------
  free energy    TOTEN  =     -3310.21730075 eV

  energy without entropy =    -3310.21730075  energy(sigma->0) =    -3310.21730075


--------------------------------------------------------------------------------------------------------




--------------------------------------- Iteration      1(  31)  ---------------------------------------


    POTLOK:  cpu time      0.8057: real time      0.8117
    SETDIJ:  cpu time      0.0208: real time      0.0208
     EDDAV:  cpu time    229.1171: real time    229.1278
       DOS:  cpu time      0.0011: real time      0.0011
    CHARGE:  cpu time      3.5708: real time      3.5712
    MIXING:  cpu time      0.0386: real time      0.0386
    --------------------------------------------
      LOOP:  cpu time    233.5541: real time    233.5711

 eigenvalue-minimisations  :  8352
 total energy-change (2. order) :-0.5545619E-02  (-0.7189563E-05)
 number of electron    1462.0000014 magnetization      -0.0005230
 augmentation part       33.5324894 magnetization      -0.0005002

 Broyden mixing:
  rms(total) = 0.77315E-03    rms(broyden)= 0.77295E-03
  rms(prec ) = 0.82968E-03
  weight for this iteration     100.00

 eigenvalues of (default mixing * dielectric matrix)
  average eigenvalue GAMMA=   2.8904
 26.5849 10.0431  6.8961  5.0299  2.9478  2.9478  2.2300  1.8612  1.4067  1.4067
  1.2628  1.2628  1.1182  1.1182  1.0377  1.0377  0.7025  0.7025  0.8159  0.7628
  0.7628  0.7026  0.6511  0.6261  0.6174  0.6141

 Free energy of the ion-electron system (eV)
  ---------------------------------------------------
  alpha Z        PSCENC =       418.83067969
  Ewald energy   TEWEN  =    465413.64842331
  -Hartree energ DENC   =   -509593.12959734
  -exchange      EXHF   =         0.00000000
  -V(xc)+E(xc)   XCENC  =      5237.33869388
  PAW double counting   =     25516.35246264   -25970.70712288
  entropy T*S    EENTRO =        -0.00000000
  eigenvalues    EBANDS =    -18143.82828626
  atomic energy  EATOM  =     53811.27190059
  Solvation  Ediel_sol  =         0.00000000
  ---------------------------------------------------
  free energy    TOTEN  =     -3310.22284637 eV

  energy without entropy =    -3310.22284637  energy(sigma->0) =    -3310.22284637


--------------------------------------------------------------------------------------------------------




--------------------------------------- Iteration      1(  32)  ---------------------------------------


    POTLOK:  cpu time      0.7979: real time      0.8037
    SETDIJ:  cpu time      0.0304: real time      0.0304
     EDDAV:  cpu time    227.5425: real time    227.5546
       DOS:  cpu time      0.0190: real time      0.0190
    CHARGE:  cpu time      3.5551: real time      3.5553
    MIXING:  cpu time      0.0379: real time      0.0379
    --------------------------------------------
      LOOP:  cpu time    231.9828: real time    232.0008

 eigenvalue-minimisations  :  8192
 total energy-change (2. order) :-0.2393929E-02  (-0.2572786E-05)
 number of electron    1462.0000014 magnetization      -0.0000472
 augmentation part       33.5323946 magnetization      -0.0000403

 Broyden mixing:
  rms(total) = 0.42240E-03    rms(broyden)= 0.42223E-03
  rms(prec ) = 0.47328E-03
  weight for this iteration     100.00

 eigenvalues of (default mixing * dielectric matrix)
  average eigenvalue GAMMA=   2.8597
 26.5853 10.0493  6.9366  5.0731  3.3172  2.8870  2.2189  2.0168  1.4277  1.4277
  1.5198  1.5198  1.1098  1.1098  1.0946  1.0946  0.9251  0.7024  0.7024  0.7709
  0.7709  0.7592  0.6961  0.6428  0.6266  0.6161  0.6115

 Free energy of the ion-electron system (eV)
  ---------------------------------------------------
  alpha Z        PSCENC =       418.83067969
  Ewald energy   TEWEN  =    465413.64842331
  -Hartree energ DENC   =   -509593.20323657
  -exchange      EXHF   =         0.00000000
  -V(xc)+E(xc)   XCENC  =      5237.33725023
  PAW double counting   =     25516.23193860   -25970.58572271
  entropy T*S    EENTRO =        -0.00000000
  eigenvalues    EBANDS =    -18143.75647345
  atomic energy  EATOM  =     53811.27190059
  Solvation  Ediel_sol  =         0.00000000
  ---------------------------------------------------
  free energy    TOTEN  =     -3310.22524030 eV

  energy without entropy =    -3310.22524030  energy(sigma->0) =    -3310.22524030


--------------------------------------------------------------------------------------------------------




--------------------------------------- Iteration      1(  33)  ---------------------------------------


    POTLOK:  cpu time      0.8023: real time      0.8083
    SETDIJ:  cpu time      0.0188: real time      0.0188
     EDDAV:  cpu time    211.4273: real time    211.4382
       DOS:  cpu time      0.0012: real time      0.0012
    CHARGE:  cpu time      3.5692: real time      3.5694
    MIXING:  cpu time      0.0406: real time      0.0406
    --------------------------------------------
      LOOP:  cpu time    215.8594: real time    215.8766

 eigenvalue-minimisations  :  7392
 total energy-change (2. order) :-0.2052293E-02  (-0.2468683E-05)
 number of electron    1462.0000014 magnetization       0.0001923
 augmentation part       33.5323446 magnetization       0.0001896

 Broyden mixing:
  rms(total) = 0.23664E-03    rms(broyden)= 0.23655E-03
  rms(prec ) = 0.27183E-03
  weight for this iteration     100.00

 eigenvalues of (default mixing * dielectric matrix)
  average eigenvalue GAMMA=   2.8159
 26.5848 10.0542  6.9488  5.1143  3.6581  2.8312  2.4305  2.2129  1.4324  1.4324
  1.4776  1.4776  1.1719  1.0775  1.0775  1.0897  1.0897  0.7024  0.7024  0.8497
  0.7635  0.7635  0.7278  0.6869  0.6366  0.6273  0.6138  0.6101

 Free energy of the ion-electron system (eV)
  ---------------------------------------------------
  alpha Z        PSCENC =       418.83067969
  Ewald energy   TEWEN  =    465413.64842331
  -Hartree energ DENC   =   -509593.28365393
  -exchange      EXHF   =         0.00000000
  -V(xc)+E(xc)   XCENC  =      5237.33808349
  PAW double counting   =     25516.24629218   -25970.59845020
  entropy T*S    EENTRO =        -0.00000000
  eigenvalues    EBANDS =    -18143.68056773
  atomic energy  EATOM  =     53811.27190059
  Solvation  Ediel_sol  =         0.00000000
  ---------------------------------------------------
  free energy    TOTEN  =     -3310.22729259 eV

  energy without entropy =    -3310.22729259  energy(sigma->0) =    -3310.22729259


--------------------------------------------------------------------------------------------------------




--------------------------------------- Iteration      1(  34)  ---------------------------------------


    POTLOK:  cpu time      0.8021: real time      0.8027
    SETDIJ:  cpu time      0.0233: real time      0.0233
     EDDAV:  cpu time    195.6356: real time    195.6466
       DOS:  cpu time      0.0154: real time      0.0154
    CHARGE:  cpu time      3.5705: real time      3.5707
    MIXING:  cpu time      0.0392: real time      0.0393
    --------------------------------------------
      LOOP:  cpu time    200.0861: real time    200.0980

 eigenvalue-minimisations  :  6880
 total energy-change (2. order) :-0.6864284E-03  (-0.6012650E-06)
 number of electron    1462.0000014 magnetization       0.0000207
 augmentation part       33.5323275 magnetization       0.0000181

 Broyden mixing:
  rms(total) = 0.16071E-03    rms(broyden)= 0.16069E-03
  rms(prec ) = 0.18472E-03
  weight for this iteration     100.00

 eigenvalues of (default mixing * dielectric matrix)
  average eigenvalue GAMMA=   2.7825
 26.5848 10.0555  6.9612  5.1449  3.9306  2.8270  2.6077  2.2367  1.6564  1.4073
  1.4073  1.3927  1.3927  1.1879  1.1081  1.1081  1.0252  1.0252  0.7024  0.7024
  0.8375  0.7631  0.7631  0.7134  0.6714  0.6332  0.6255  0.6141  0.6065

 Free energy of the ion-electron system (eV)
  ---------------------------------------------------
  alpha Z        PSCENC =       418.83067969
  Ewald energy   TEWEN  =    465413.64842331
  -Hartree energ DENC   =   -509593.30798006
  -exchange      EXHF   =         0.00000000
  -V(xc)+E(xc)   XCENC  =      5237.33858316
  PAW double counting   =     25516.27721524   -25970.62861663
  entropy T*S    EENTRO =        -0.00000000
  eigenvalues    EBANDS =    -18143.65818432
  atomic energy  EATOM  =     53811.27190059
  Solvation  Ediel_sol  =         0.00000000
  ---------------------------------------------------
  free energy    TOTEN  =     -3310.22797902 eV

  energy without entropy =    -3310.22797902  energy(sigma->0) =    -3310.22797902


--------------------------------------------------------------------------------------------------------




--------------------------------------- Iteration      1(  35)  ---------------------------------------


    POTLOK:  cpu time      0.7978: real time      0.8015
    SETDIJ:  cpu time      0.0255: real time      0.0255
     EDDAV:  cpu time    187.9266: real time    187.9369
       DOS:  cpu time      0.0212: real time      0.0212
    CHARGE:  cpu time      3.5644: real time      3.5646
    MIXING:  cpu time      0.0407: real time      0.0407
    --------------------------------------------
      LOOP:  cpu time    192.3762: real time    192.3905

 eigenvalue-minimisations  :  6528
 total energy-change (2. order) :-0.3193265E-03  (-0.2780438E-06)
 number of electron    1462.0000014 magnetization       0.0000607
 augmentation part       33.5323222 magnetization       0.0000568

 Broyden mixing:
  rms(total) = 0.94315E-04    rms(broyden)= 0.94295E-04
  rms(prec ) = 0.10951E-03
  weight for this iteration     100.00

 eigenvalues of (default mixing * dielectric matrix)
  average eigenvalue GAMMA=   2.7731
 26.5849 10.0560  6.9851  5.2215  4.4745  2.8376  2.8376  2.2849  2.1416  1.4259
  1.4259  1.4540  1.4540  1.1657  1.0824  1.0824  1.1063  1.1063  0.7024  0.7024
  0.9068  0.7664  0.7664  0.7806  0.7071  0.6603  0.6311  0.6229  0.6161  0.6047

 Free energy of the ion-electron system (eV)
  ---------------------------------------------------
  alpha Z        PSCENC =       418.83067969
  Ewald energy   TEWEN  =    465413.64842331
  -Hartree energ DENC   =   -509593.30689243
  -exchange      EXHF   =         0.00000000
  -V(xc)+E(xc)   XCENC  =      5237.33829792
  PAW double counting   =     25516.27753805   -25970.62879396
  entropy T*S    EENTRO =        -0.00000000
  eigenvalues    EBANDS =    -18143.65945152
  atomic energy  EATOM  =     53811.27190059
  Solvation  Ediel_sol  =         0.00000000
  ---------------------------------------------------
  free energy    TOTEN  =     -3310.22829835 eV

  energy without entropy =    -3310.22829835  energy(sigma->0) =    -3310.22829835


--------------------------------------------------------------------------------------------------------




--------------------------------------- Iteration      1(  36)  ---------------------------------------


    POTLOK:  cpu time      0.8027: real time      0.8060
    SETDIJ:  cpu time      0.0228: real time      0.0228
     EDDAV:  cpu time    169.3701: real time    169.3786
       DOS:  cpu time      0.0013: real time      0.0013
    CHARGE:  cpu time      3.5641: real time      3.5644
    MIXING:  cpu time      0.0453: real time      0.0453
    --------------------------------------------
      LOOP:  cpu time    173.8062: real time    173.8184

 eigenvalue-minimisations  :  5760
 total energy-change (2. order) :-0.1007599E-03  (-0.7094897E-07)
 number of electron    1462.0000014 magnetization       0.0000258
 augmentation part       33.5323142 magnetization       0.0000222

 Broyden mixing:
  rms(total) = 0.69168E-04    rms(broyden)= 0.69157E-04
  rms(prec ) = 0.77641E-04
  weight for this iteration     100.00

 eigenvalues of (default mixing * dielectric matrix)
  average eigenvalue GAMMA=   2.7377
 26.5850 10.0560  6.9966  5.3222  4.7562  2.9189  2.9189  2.3093  2.2406  1.4283
  1.4283  1.3450  1.3450  1.2690  1.2690  1.1090  1.1090  1.0660  0.9943  0.7024
  0.7024  0.8821  0.7703  0.7703  0.7438  0.7014  0.6554  0.6327  0.6216  0.6161
  0.6043

 Free energy of the ion-electron system (eV)
  ---------------------------------------------------
  alpha Z        PSCENC =       418.83067969
  Ewald energy   TEWEN  =    465413.64842331
  -Hartree energ DENC   =   -509593.30754770
  -exchange      EXHF   =         0.00000000
  -V(xc)+E(xc)   XCENC  =      5237.33833937
  PAW double counting   =     25516.27878320   -25970.63011645
  entropy T*S    EENTRO =        -0.00000000
  eigenvalues    EBANDS =    -18143.65886113
  atomic energy  EATOM  =     53811.27190059
  Solvation  Ediel_sol  =         0.00000000
  ---------------------------------------------------
  free energy    TOTEN  =     -3310.22839911 eV

  energy without entropy =    -3310.22839911  energy(sigma->0) =    -3310.22839911


--------------------------------------------------------------------------------------------------------




--------------------------------------- Iteration      1(  37)  ---------------------------------------


    POTLOK:  cpu time      0.8177: real time      0.8188
    SETDIJ:  cpu time      0.0176: real time      0.0176
     EDDAV:  cpu time    157.7872: real time    157.7955
       DOS:  cpu time      0.0013: real time      0.0013
    CHARGE:  cpu time      3.5634: real time      3.5637
    MIXING:  cpu time      0.0423: real time      0.0423
    --------------------------------------------
      LOOP:  cpu time    162.2295: real time    162.2393

 eigenvalue-minimisations  :  5280
 total energy-change (2. order) :-0.4496623E-04  ( 0.3195576E-07)
 number of electron    1462.0000014 magnetization      -0.0000696
 augmentation part       33.5323134 magnetization      -0.0000719

 Broyden mixing:
  rms(total) = 0.46742E-04    rms(broyden)= 0.46737E-04
  rms(prec ) = 0.52309E-04
  weight for this iteration     100.00

 eigenvalues of (default mixing * dielectric matrix)
  average eigenvalue GAMMA=   2.7156
 26.5850 10.0554  7.0095  5.4487  4.9174  3.0004  3.0004  2.3210  2.3210  1.4063
  1.4063  1.5987  1.4968  1.4968  1.2810  1.1370  1.0690  1.0690  0.9921  0.9921
  0.7024  0.7024  0.8282  0.7669  0.7669  0.7207  0.6877  0.6494  0.6314  0.6207
  0.6156  0.6041

 Free energy of the ion-electron system (eV)
  ---------------------------------------------------
  alpha Z        PSCENC =       418.83067969
  Ewald energy   TEWEN  =    465413.64842331
  -Hartree energ DENC   =   -509593.30736835
  -exchange      EXHF   =         0.00000000
  -V(xc)+E(xc)   XCENC  =      5237.33824742
  PAW double counting   =     25516.28124353   -25970.63267073
  entropy T*S    EENTRO =        -0.00000000
  eigenvalues    EBANDS =    -18143.65889953
  atomic energy  EATOM  =     53811.27190059
  Solvation  Ediel_sol  =         0.00000000
  ---------------------------------------------------
  free energy    TOTEN  =     -3310.22844407 eV

  energy without entropy =    -3310.22844407  energy(sigma->0) =    -3310.22844407


--------------------------------------------------------------------------------------------------------




--------------------------------------- Iteration      1(  38)  ---------------------------------------


    POTLOK:  cpu time      0.8117: real time      0.8153
    SETDIJ:  cpu time      0.0214: real time      0.0214
     EDDAV:  cpu time    160.7835: real time    160.7926
       DOS:  cpu time      0.0014: real time      0.0014
    CHARGE:  cpu time      3.5573: real time      3.5576
    MIXING:  cpu time      0.0434: real time      0.0434
    --------------------------------------------
      LOOP:  cpu time    165.2187: real time    165.2317

 eigenvalue-minimisations  :  5344
 total energy-change (2. order) :-0.4900224E-04  ( 0.3976467E-07)
 number of electron    1462.0000014 magnetization      -0.0000340
 augmentation part       33.5323180 magnetization      -0.0000352

 Broyden mixing:
  rms(total) = 0.33547E-04    rms(broyden)= 0.33540E-04
  rms(prec ) = 0.36639E-04
  weight for this iteration     100.00

 eigenvalues of (default mixing * dielectric matrix)
  average eigenvalue GAMMA=   2.7051
 26.5851 10.0551  7.0272  5.7890  5.0455  3.4714  2.9356  2.5413  2.2833  1.9927
  1.4165  1.4165  1.4191  1.4191  1.3006  1.1131  1.0945  1.0945  1.0564  1.0564
  0.9354  0.7024  0.7024  0.7833  0.7682  0.7682  0.7125  0.6746  0.6413  0.6274
  0.6176  0.6176  0.6043

 Free energy of the ion-electron system (eV)
  ---------------------------------------------------
  alpha Z        PSCENC =       418.83067969
  Ewald energy   TEWEN  =    465413.64842331
  -Hartree energ DENC   =   -509593.30970335
  -exchange      EXHF   =         0.00000000
  -V(xc)+E(xc)   XCENC  =      5237.33799585
  PAW double counting   =     25516.28032481   -25970.63183239
  entropy T*S    EENTRO =        -0.00000000
  eigenvalues    EBANDS =    -18143.65628160
  atomic energy  EATOM  =     53811.27190059
  Solvation  Ediel_sol  =         0.00000000
  ---------------------------------------------------
  free energy    TOTEN  =     -3310.22849308 eV

  energy without entropy =    -3310.22849308  energy(sigma->0) =    -3310.22849308


--------------------------------------------------------------------------------------------------------




--------------------------------------- Iteration      1(  39)  ---------------------------------------


    POTLOK:  cpu time      0.8151: real time      0.8209
    SETDIJ:  cpu time      0.0220: real time      0.0220
     EDDAV:  cpu time    155.7247: real time    155.7323
       DOS:  cpu time      0.0013: real time      0.0013
    CHARGE:  cpu time      3.5739: real time      3.5743
    MIXING:  cpu time      0.0461: real time      0.0461
    --------------------------------------------
      LOOP:  cpu time    160.1831: real time    160.1969

 eigenvalue-minimisations  :  5216
 total energy-change (2. order) :-0.4098273E-04  ( 0.5181291E-07)
 number of electron    1462.0000014 magnetization       0.0000132
 augmentation part       33.5323209 magnetization       0.0000129

 Broyden mixing:
  rms(total) = 0.31352E-04    rms(broyden)= 0.31349E-04
  rms(prec ) = 0.33073E-04
  weight for this iteration     100.00

 eigenvalues of (default mixing * dielectric matrix)
  average eigenvalue GAMMA=   2.6827
 26.5850 10.0554  7.0390  6.1274  5.0853  3.7837  2.8988  2.6008  2.3016  2.0973
  1.4007  1.4007  1.4235  1.4235  1.4818  1.1558  1.1558  1.0784  1.0784  1.0176
  1.0176  0.7024  0.7024  0.8485  0.7639  0.7639  0.7554  0.7007  0.6672  0.6348
  0.6238  0.6182  0.6182  0.6041

 Free energy of the ion-electron system (eV)
  ---------------------------------------------------
  alpha Z        PSCENC =       418.83067969
  Ewald energy   TEWEN  =    465413.64842331
  -Hartree energ DENC   =   -509593.31753870
  -exchange      EXHF   =         0.00000000
  -V(xc)+E(xc)   XCENC  =      5237.33783116
  PAW double counting   =     25516.28040705   -25970.63193510
  entropy T*S    EENTRO =        -0.00000000
  eigenvalues    EBANDS =    -18143.64830206
  atomic energy  EATOM  =     53811.27190059
  Solvation  Ediel_sol  =         0.00000000
  ---------------------------------------------------
  free energy    TOTEN  =     -3310.22853406 eV

  energy without entropy =    -3310.22853406  energy(sigma->0) =    -3310.22853406


--------------------------------------------------------------------------------------------------------




--------------------------------------- Iteration      1(  40)  ---------------------------------------


    POTLOK:  cpu time      0.8113: real time      0.8155
    SETDIJ:  cpu time      0.0230: real time      0.0230
     EDDAV:  cpu time    156.1295: real time    156.1382
       DOS:  cpu time      0.0013: real time      0.0013
    CHARGE:  cpu time      3.5760: real time      3.5763
    MIXING:  cpu time      0.0442: real time      0.0442
    --------------------------------------------
      LOOP:  cpu time    160.5854: real time    160.5985

 eigenvalue-minimisations  :  5216
 total energy-change (2. order) :-0.2264034E-04  ( 0.6396817E-07)
 number of electron    1462.0000014 magnetization       0.0000217
 augmentation part       33.5323196 magnetization       0.0000211

 Broyden mixing:
  rms(total) = 0.15545E-04    rms(broyden)= 0.15543E-04
  rms(prec ) = 0.16783E-04
  weight for this iteration     100.00

 eigenvalues of (default mixing * dielectric matrix)
  average eigenvalue GAMMA=   2.6805
 26.5850 10.0558  7.0745  6.5664  5.1263  4.1510  2.7988  2.7988  2.4086  2.2093
  1.6508  1.4008  1.4008  1.4973  1.4973  1.2511  1.2511  1.0860  1.0860  1.0453
  1.0453  0.9115  0.7024  0.7024  0.8221  0.7656  0.7656  0.7251  0.6934  0.6582
  0.6338  0.6199  0.6199  0.6055  0.6055

 Free energy of the ion-electron system (eV)
  ---------------------------------------------------
  alpha Z        PSCENC =       418.83067969
  Ewald energy   TEWEN  =    465413.64842331
  -Hartree energ DENC   =   -509593.32649786
  -exchange      EXHF   =         0.00000000
  -V(xc)+E(xc)   XCENC  =      5237.33774517
  PAW double counting   =     25516.28165538   -25970.63317791
  entropy T*S    EENTRO =        -0.00000000
  eigenvalues    EBANDS =    -18143.63928507
  atomic energy  EATOM  =     53811.27190059
  Solvation  Ediel_sol  =         0.00000000
  ---------------------------------------------------
  free energy    TOTEN  =     -3310.22855670 eV

  energy without entropy =    -3310.22855670  energy(sigma->0) =    -3310.22855670


--------------------------------------------------------------------------------------------------------




--------------------------------------- Iteration      1(  41)  ---------------------------------------


    POTLOK:  cpu time      0.8102: real time      0.8154
    SETDIJ:  cpu time      0.0321: real time      0.0321
     EDDAV:  cpu time    157.7878: real time    157.7961
       DOS:  cpu time      0.0907: real time      0.0908
    CHARGE:  cpu time      3.5766: real time      3.5770
    MIXING:  cpu time      0.0443: real time      0.0443
    --------------------------------------------
      LOOP:  cpu time    162.3417: real time    162.3556

 eigenvalue-minimisations  :  5088
 total energy-change (2. order) :-0.1941354E-04  ( 0.6271846E-07)
 number of electron    1462.0000014 magnetization       0.0000063
 augmentation part       33.5323173 magnetization       0.0000057

 Broyden mixing:
  rms(total) = 0.14813E-04    rms(broyden)= 0.14810E-04
  rms(prec ) = 0.15505E-04
  weight for this iteration     100.00

 eigenvalues of (default mixing * dielectric matrix)
  average eigenvalue GAMMA=   2.6790
 26.5850 10.0559  7.4914  6.9366  5.1892  4.5494  2.9423  2.9423  2.3765  2.2376
  1.4026  1.4026  1.4751  1.4751  1.5527  1.5527  1.2086  1.1079  1.1079  1.0492
  1.0492  1.0146  0.7024  0.7024  0.8815  0.7980  0.7659  0.7659  0.7157  0.6866
  0.6502  0.6316  0.6216  0.6176  0.5996  0.5996

 Free energy of the ion-electron system (eV)
  ---------------------------------------------------
  alpha Z        PSCENC =       418.83067969
  Ewald energy   TEWEN  =    465413.64842331
  -Hartree energ DENC   =   -509593.33858335
  -exchange      EXHF   =         0.00000000
  -V(xc)+E(xc)   XCENC  =      5237.33765810
  PAW double counting   =     25516.28131938   -25970.63283523
  entropy T*S    EENTRO =        -0.00000000
  eigenvalues    EBANDS =    -18143.62713861
  atomic energy  EATOM  =     53811.27190059
  Solvation  Ediel_sol  =         0.00000000
  ---------------------------------------------------
  free energy    TOTEN  =     -3310.22857611 eV

  energy without entropy =    -3310.22857611  energy(sigma->0) =    -3310.22857611


--------------------------------------------------------------------------------------------------------




--------------------------------------- Iteration      1(  42)  ---------------------------------------


    POTLOK:  cpu time      0.8105: real time      0.8150
    SETDIJ:  cpu time      0.0227: real time      0.0227
     EDDAV:  cpu time    153.9827: real time    153.9904
       DOS:  cpu time      0.0017: real time      0.0017
    CHARGE:  cpu time      3.5587: real time      3.5593
    MIXING:  cpu time      0.0466: real time      0.0467
    --------------------------------------------
      LOOP:  cpu time    158.4228: real time    158.4357

 eigenvalue-minimisations  :  5120
 total energy-change (2. order) :-0.6086892E-05  ( 0.7003465E-07)
 number of electron    1462.0000014 magnetization      -0.0000072
 augmentation part       33.5323171 magnetization      -0.0000076

 Broyden mixing:
  rms(total) = 0.10141E-04    rms(broyden)= 0.10140E-04
  rms(prec ) = 0.10643E-04
  weight for this iteration     100.00

 eigenvalues of (default mixing * dielectric matrix)
  average eigenvalue GAMMA=   2.6629
 26.5850 10.0557  8.0016  6.9699  5.2341  4.6989  2.9947  2.9947  2.2809  2.2809
  1.7413  1.7413  1.4744  1.4744  1.3843  1.3843  1.2271  1.2271  1.0496  1.0496
  1.0578  1.0578  0.7024  0.7024  0.9069  0.8610  0.7677  0.7677  0.7524  0.7111
  0.6795  0.6469  0.6283  0.6242  0.6161  0.6001  0.5940

 Free energy of the ion-electron system (eV)
  ---------------------------------------------------
  alpha Z        PSCENC =       418.83067969
  Ewald energy   TEWEN  =    465413.64842331
  -Hartree energ DENC   =   -509593.34691117
  -exchange      EXHF   =         0.00000000
  -V(xc)+E(xc)   XCENC  =      5237.33764817
  PAW double counting   =     25516.28051007   -25970.63202614
  entropy T*S    EENTRO =        -0.00000000
  eigenvalues    EBANDS =    -18143.61880671
  atomic energy  EATOM  =     53811.27190059
  Solvation  Ediel_sol  =         0.00000000
  ---------------------------------------------------
  free energy    TOTEN  =     -3310.22858220 eV

  energy without entropy =    -3310.22858220  energy(sigma->0) =    -3310.22858220


--------------------------------------------------------------------------------------------------------




--------------------------------------- Iteration      1(  43)  ---------------------------------------


    POTLOK:  cpu time      0.8077: real time      0.8141
    SETDIJ:  cpu time      0.0254: real time      0.0254
     EDDAV:  cpu time    148.8699: real time    148.8772
       DOS:  cpu time      0.0457: real time      0.0457
    CHARGE:  cpu time      3.5690: real time      3.5695
    MIXING:  cpu time      0.0469: real time      0.0469
    --------------------------------------------
      LOOP:  cpu time    153.3647: real time    153.3788

 eigenvalue-minimisations  :  4896
 total energy-change (2. order) :-0.2380228E-05  ( 0.7274294E-07)
 number of electron    1462.0000014 magnetization      -0.0000089
 augmentation part       33.5323177 magnetization      -0.0000091

 Broyden mixing:
  rms(total) = 0.51834E-05    rms(broyden)= 0.51824E-05
  rms(prec ) = 0.55660E-05
  weight for this iteration     100.00

 eigenvalues of (default mixing * dielectric matrix)
  average eigenvalue GAMMA=   2.6538
 26.5850 10.0555  8.4609  6.9805  5.2835  4.8108  3.0627  3.0627  2.3145  2.3145
  2.0048  1.8467  1.5046  1.5046  1.3958  1.3958  1.2709  1.2709  1.0904  1.0904
  1.0513  1.0513  0.9511  0.9511  0.7024  0.7024  0.8010  0.7693  0.7693  0.7377
  0.6997  0.6646  0.6371  0.6302  0.6184  0.6184  0.6018  0.5824

 Free energy of the ion-electron system (eV)
  ---------------------------------------------------
  alpha Z        PSCENC =       418.83067969
  Ewald energy   TEWEN  =    465413.64842331
  -Hartree energ DENC   =   -509593.35303778
  -exchange      EXHF   =         0.00000000
  -V(xc)+E(xc)   XCENC  =      5237.33765967
  PAW double counting   =     25516.28021772   -25970.63172629
  entropy T*S    EENTRO =        -0.00000000
  eigenvalues    EBANDS =    -18143.61270149
  atomic energy  EATOM  =     53811.27190059
  Solvation  Ediel_sol  =         0.00000000
  ---------------------------------------------------
  free energy    TOTEN  =     -3310.22858458 eV

  energy without entropy =    -3310.22858458  energy(sigma->0) =    -3310.22858458


--------------------------------------------------------------------------------------------------------




--------------------------------------- Iteration      1(  44)  ---------------------------------------


    POTLOK:  cpu time      0.8075: real time      0.8120
    SETDIJ:  cpu time      0.0267: real time      0.0267
     EDDAV:  cpu time    147.6179: real time    147.6243
       DOS:  cpu time      0.0017: real time      0.0017
    CHARGE:  cpu time      3.5644: real time      3.5648
    MIXING:  cpu time      0.0490: real time      0.0490
    --------------------------------------------
      LOOP:  cpu time    152.0670: real time    152.0784

 eigenvalue-minimisations  :  4704
 total energy-change (2. order) :-0.1345878E-05  ( 0.7409758E-07)
 number of electron    1462.0000014 magnetization       0.0000004
 augmentation part       33.5323182 magnetization       0.0000003

 Broyden mixing:
  rms(total) = 0.59642E-05    rms(broyden)= 0.59635E-05
  rms(prec ) = 0.62213E-05
  weight for this iteration     100.00

 eigenvalues of (default mixing * dielectric matrix)
  average eigenvalue GAMMA=   2.6462
 26.5850 10.0563  8.8859  6.9898  5.3499  4.9346  3.4100  3.0224  2.5835  2.2598
  2.1116  1.7745  1.5249  1.5249  1.3947  1.3947  1.3300  1.3300  1.1765  1.0509
  1.0509  1.0869  1.0869  0.7024  0.7024  0.9134  0.9084  0.7883  0.7667  0.7667
  0.7152  0.6986  0.6558  0.6297  0.6273  0.6175  0.6175  0.6021  0.5760

 Free energy of the ion-electron system (eV)
  ---------------------------------------------------
  alpha Z        PSCENC =       418.83067969
  Ewald energy   TEWEN  =    465413.64842331
  -Hartree energ DENC   =   -509593.35863762
  -exchange      EXHF   =         0.00000000
  -V(xc)+E(xc)   XCENC  =      5237.33767829
  PAW double counting   =     25516.28058574   -25970.63208934
  entropy T*S    EENTRO =        -0.00000000
  eigenvalues    EBANDS =    -18143.60712659
  atomic energy  EATOM  =     53811.27190059
  Solvation  Ediel_sol  =         0.00000000
  ---------------------------------------------------
  free energy    TOTEN  =     -3310.22858593 eV

  energy without entropy =    -3310.22858593  energy(sigma->0) =    -3310.22858593


--------------------------------------------------------------------------------------------------------




--------------------------------------- Iteration      1(  45)  ---------------------------------------


    POTLOK:  cpu time      0.8078: real time      0.8145
    SETDIJ:  cpu time      0.0249: real time      0.0249
     EDDAV:  cpu time    143.6581: real time    143.6651
       DOS:  cpu time      0.0016: real time      0.0016
    --------------------------------------------
      LOOP:  cpu time    144.4924: real time    144.5061

 eigenvalue-minimisations  :  4576
 total energy-change (2. order) :-0.5047768E-06  ( 0.7487452E-07)
 number of electron    1462.0000014 magnetization       0.0000004
 augmentation part       33.5323182 magnetization       0.0000003

 Free energy of the ion-electron system (eV)
  ---------------------------------------------------
  alpha Z        PSCENC =       418.83067969
  Ewald energy   TEWEN  =    465413.64842331
  -Hartree energ DENC   =   -509593.36239518
  -exchange      EXHF   =         0.00000000
  -V(xc)+E(xc)   XCENC  =      5237.33769891
  PAW double counting   =     25516.28053086   -25970.63203378
  entropy T*S    EENTRO =        -0.00000000
  eigenvalues    EBANDS =    -18143.60339083
  atomic energy  EATOM  =     53811.27190059
  Solvation  Ediel_sol  =         0.00000000
  ---------------------------------------------------
  free energy    TOTEN  =     -3310.22858643 eV

  energy without entropy =    -3310.22858643  energy(sigma->0) =    -3310.22858643


--------------------------------------------------------------------------------------------------------




 average (electrostatic) potential at core
  the test charge radii are     0.6991  1.0808
  (the norm of the test charge is              1.0000)
       1 -58.7585       2 -58.7583       3 -58.7580       4 -58.7584       5 -58.7582
       6 -58.7578       7 -58.7586       8 -58.7580       9 -58.7578      10 -58.7578
      11 -58.7576      12 -58.7581      13 -58.7580      14 -58.7556      15 -58.7560
      16 -58.7575      17 -58.7563      18 -58.7577      19 -58.7585      20 -58.7586
      21 -58.7594      22 -58.7586      23 -58.7589      24 -58.7580      25 -58.7579
      26 -58.7522      27 -58.7509      28 -58.7574      29 -58.7593      30 -58.7588
      31 -58.7610      32 -58.7596      33 -58.7597      34 -58.7591      35 -58.7594
      36 -58.7593      37 -58.7593      38 -58.7582      39 -58.7586      40 -58.7579
      41 -58.7580      42 -58.7190      43 -58.7474      44 -58.7538      45 -58.7573
      46 -58.7633      47 -58.7619      48 -58.7612      49 -58.7607      50 -58.7607
      51 -58.7604      52 -58.7617      53 -58.7604      54 -58.7602      55 -58.7588
      56 -58.7585      57 -58.7583      58 -58.7587      59 -58.7582      60 -58.7587
      61 -58.7583      62 -58.7584      63 -58.7658      64 -58.7365      65 -58.7468
      66 -58.7614      67 -58.7614      68 -58.7649      69 -58.7651      70 -58.7631
      71 -58.7651      72 -58.7625      73 -58.7622      74 -58.7609      75 -58.7607
      76 -58.7608      77 -58.7613      78 -58.7589      79 -58.7594      80 -58.7582
      81 -58.7582      82 -58.7585      83 -58.7586      84 -58.7587      85 -58.7591
      86 -58.7994      87 -58.8129      88 -58.7528      89 -58.7542      90 -58.7634
      91 -58.7647      92 -58.7714      93 -58.7678      94 -58.7665      95 -58.7636
      96 -58.7636      97 -58.7633      98 -58.7651      99 -58.7626     100 -58.7635
     101 -58.7607     102 -58.7596     103 -58.7585     104 -58.7589     105 -58.7585
     106 -58.7587     107 -58.7582     108 -58.7582     109 -58.7489     110 -58.7665
     111 -58.7589     112 -58.7814     113 -58.7700     114 -58.7778     115 -58.7726
     116 -58.7685     117 -58.7714     118 -58.7684     119 -58.7708     120 -58.7676
     121 -58.7670     122 -58.7640     123 -58.7644     124 -58.7646     125 -58.7651
     126 -58.7600     127 -58.7599     128 -58.7570     129 -58.7546     130 -58.7564
     131 -58.7569     132 -58.7554     133 -58.7672     134 -58.7650     135 -58.7618
     136 -58.7636     137 -58.7690     138 -58.7751     139 -58.7804     140 -58.7791
     141 -58.7766     142 -58.7719     143 -58.7702     144 -58.7697     145 -58.7703
     146 -58.7733     147 -58.7668     148 -58.7683     149 -58.7620     150 -58.7565
     151 -58.7552     152 -58.7516     153 -58.7533     154 -58.7563     155 -58.7544
     156 -58.7562     157 -58.7623     158 -58.7686     159 -58.7671     160 -58.7734
     161 -58.7699     162 -58.7691     163 -58.7698     164 -58.7718     165 -58.7766
     166 -58.7795     167 -58.7812     168 -58.7759     169 -58.7693     170 -58.7634
     171 -58.7617     172 -58.7645     173 -58.7670     174 -58.7559     175 -58.7483
     176 -58.7437     177 -58.7430     178 -58.7567     179 -58.7595     180 -58.7602
     181 -58.7653     182 -58.7648     183 -58.7647     184 -58.7643     185 -58.7670
     186 -58.7676     187 -58.7707     188 -58.7682     189 -58.7716     190 -58.7693
     191 -58.7738     192 -58.7785     193 -58.7703     194 -58.7817     195 -58.7589
     196 -58.7664     197 -58.7495     198 -58.7064     199 -58.7313     200 -58.7585
     201 -58.7592     202 -58.7591     203 -58.7602     204 -58.7613     205 -58.7639
     206 -58.7633     207 -58.7657     208 -58.7634     209 -58.7637     210 -58.7638
     211 -58.7665     212 -58.7683     213 -58.7723     214 -58.7650     215 -58.7640
     216 -58.7549     217 -58.7529     218 -58.8125     219 -58.7995     220 -59.5340
     221 -58.8542     222 -58.7586     223 -58.7584     224 -58.7586     225 -58.7602
     226 -58.7595     227 -58.7616     228 -58.7616     229 -58.7615     230 -58.7611
     231 -58.7625     232 -58.7627     233 -58.7650     234 -58.7631     235 -58.7657
     236 -58.7653     237 -58.7619     238 -58.7621     239 -58.7472     240 -58.7361
     241 -58.7653     242 -58.8538     243 -59.5339     244 -58.7588     245 -58.7594
     246 -58.7588     247 -58.7592     248 -58.7588     249 -58.7590     250 -58.7596
     251 -58.7610     252 -58.7605     253 -58.7620     254 -58.7609     255 -58.7609
     256 -58.7605     257 -58.7612     258 -58.7618     259 -58.7633     260 -58.7576
     261 -58.7540     262 -58.7469     263 -58.7182     264 -58.7307     265 -58.7060
     266 -58.7591     267 -58.7591     268 -58.7585     269 -58.7584     270 -58.7584
     271 -58.7588     272 -58.7587     273 -58.7601     274 -58.7595     275 -58.7596
     276 -58.7597     277 -58.7600     278 -58.7595     279 -58.7609     280 -58.7586
     281 -58.7590     282 -58.7571     283 -58.7507     284 -58.7516     285 -58.7422
     286 -58.7431     287 -58.7480     288 -58.7586     289 -58.7587     290 -58.7581
     291 -58.7585     292 -58.7584     293 -58.7585     294 -58.7581     295 -58.7583
     296 -58.7582     297 -58.7589     298 -58.7589     299 -58.7598     300 -58.7583
     301 -58.7582     302 -58.7576     303 -58.7559     304 -58.7569     305 -58.7555
     306 -58.7551     307 -58.7556     308 -58.7529     309 -58.7512     310 -58.7580
     311 -58.7583     312 -58.7579     313 -58.7575     314 -58.7580     315 -58.7577
     316 -58.7584     317 -58.7583     318 -58.7581     319 -58.7578     320 -58.7572
     321 -58.7576     322 -58.7574     323 -58.7572     324 -58.7578     325 -58.7573
     326 -58.7564     327 -58.7563     328 -58.7546     329 -58.7581     330 -58.7583
     331 -58.7577     332 -58.7579     333 -58.7577     334 -58.7578     335 -58.7579
     336 -58.7580     337 -58.7580     338 -58.7578     339 -58.7573     340 -58.7580
     341 -58.7578     342 -58.7579     343 -58.7588     344 -58.7579     345 -58.7582
     346 -58.7579     347 -58.7583     348 -58.7578     349 -58.7579     350 -58.7579
     351 -58.7582     352 -58.7588     353 -58.7585     354 -58.7586     355 -58.7583
     356 -58.7584     357 -58.7583     358 -58.7587     359 -58.7584     360 -58.7585
     361 -58.7587     362 -58.7586     363 -58.7585     364 -58.7589     365 -61.6676
 
 
 
 E-fermi :  -3.5686     XC(G=0):  -1.6382     alpha+bet : -1.4091

 Fermi energy:        -3.5685920945

 spin component 1

 k-point     1 :       0.0000    0.0000    0.0000
  band No.  band energies     occupation 
      1     -22.9908      1.00000
      2     -22.9280      1.00000
      3     -22.9187      1.00000
      4     -22.7855      1.00000
      5     -22.7723      1.00000
      6     -22.7323      1.00000
      7     -22.7210      1.00000
      8     -22.7160      1.00000
      9     -22.7077      1.00000
     10     -22.7067      1.00000
     11     -22.7046      1.00000
     12     -22.5233      1.00000
     13     -22.5103      1.00000
     14     -22.5095      1.00000
     15     -22.5068      1.00000
     16     -22.3975      1.00000
     17     -22.3916      1.00000
     18     -22.2006      1.00000
     19     -22.1819      1.00000
     20     -22.1801      1.00000
     21     -22.1785      1.00000
     22     -22.1536      1.00000
     23     -22.1413      1.00000
     24     -22.0944      1.00000
     25     -22.0773      1.00000
     26     -22.0759      1.00000
     27     -22.0758      1.00000
     28     -21.9393      1.00000
     29     -21.9316      1.00000
     30     -21.8977      1.00000
     31     -21.8833      1.00000
     32     -21.8803      1.00000
     33     -21.8793      1.00000
     34     -21.7351      1.00000
     35     -21.7233      1.00000
     36     -21.7217      1.00000
     37     -21.7199      1.00000
     38     -21.5727      1.00000
     39     -21.5590      1.00000
     40     -21.5551      1.00000
     41     -21.5531      1.00000
     42     -21.3527      1.00000
     43     -21.3432      1.00000
     44     -21.1773      1.00000
     45     -21.1373      1.00000
     46     -21.1368      1.00000
     47     -21.1353      1.00000
     48     -21.1327      1.00000
     49     -21.1237      1.00000
     50     -21.1112      1.00000
     51     -21.1052      1.00000
     52     -21.1016      1.00000
     53     -21.0988      1.00000
     54     -21.0749      1.00000
     55     -21.0600      1.00000
     56     -21.0593      1.00000
     57     -21.0589      1.00000
     58     -20.8890      1.00000
     59     -20.8686      1.00000
     60     -20.8668      1.00000
     61     -20.8663      1.00000
     62     -20.6446      1.00000
     63     -20.6314      1.00000
     64     -20.5778      1.00000
     65     -20.5501      1.00000
     66     -20.5472      1.00000
     67     -20.5467      1.00000
     68     -20.5334      1.00000
     69     -20.5252      1.00000
     70     -20.5234      1.00000
     71     -20.5190      1.00000
     72     -20.4407      1.00000
     73     -20.4285      1.00000
     74     -20.4268      1.00000
     75     -20.4249      1.00000
     76     -20.1302      1.00000
     77     -20.1051      1.00000
     78     -20.1025      1.00000
     79     -20.1015      1.00000
     80     -19.8674      1.00000
     81     -19.8256      1.00000
     82     -19.8240      1.00000
     83     -19.8196      1.00000
     84     -19.8085      1.00000
     85     -19.8025      1.00000
     86     -19.7850      1.00000
     87     -19.7618      1.00000
     88     -19.7264      1.00000
     89     -19.7003      1.00000
     90     -19.6991      1.00000
     91     -19.6989      1.00000
     92     -19.6223      1.00000
     93     -19.6020      1.00000
     94     -19.6014      1.00000
     95     -19.6011      1.00000
     96     -19.5629      1.00000
     97     -19.5386      1.00000
     98     -19.5367      1.00000
     99     -19.5347      1.00000
    100     -19.5250      1.00000
    101     -19.5145      1.00000
    102     -19.5126      1.00000
    103     -19.5121      1.00000
    104     -19.2370      1.00000
    105     -19.2057      1.00000
    106     -19.2035      1.00000
    107     -19.2033      1.00000
    108     -19.0376      1.00000
    109     -19.0156      1.00000
    110     -19.0124      1.00000
    111     -19.0096      1.00000
    112     -18.8997      1.00000
    113     -18.8665      1.00000
    114     -18.8636      1.00000
    115     -18.8592      1.00000
    116     -18.8571      1.00000
    117     -18.8539      1.00000
    118     -18.8009      1.00000
    119     -18.7772      1.00000
    120     -18.7744      1.00000
    121     -18.7742      1.00000
    122     -18.6887      1.00000
    123     -18.6733      1.00000
    124     -18.6719      1.00000
    125     -18.6708      1.00000
    126     -18.3386      1.00000
    127     -18.2360      1.00000
    128     -18.2346      1.00000
    129     -18.2328      1.00000
    130     -18.2056      1.00000
    131     -18.1687      1.00000
    132     -18.1519      1.00000
    133     -18.1286      1.00000
    134     -18.1285      1.00000
    135     -18.1177      1.00000
    136     -18.1176      1.00000
    137     -18.1166      1.00000
    138     -18.1083      1.00000
    139     -18.1041      1.00000
    140     -18.1000      1.00000
    141     -18.0970      1.00000
    142     -18.0936      1.00000
    143     -18.0916      1.00000
    144     -17.9764      1.00000
    145     -17.9476      1.00000
    146     -17.9308      1.00000
    147     -17.9237      1.00000
    148     -17.8496      1.00000
    149     -17.8409      1.00000
    150     -17.7286      1.00000
    151     -17.6862      1.00000
    152     -17.6824      1.00000
    153     -17.6658      1.00000
    154     -17.6649      1.00000
    155     -17.6622      1.00000
    156     -17.6397      1.00000
    157     -17.6297      1.00000
    158     -17.6210      1.00000
    159     -17.6200      1.00000
    160     -17.6088      1.00000
    161     -17.6024      1.00000
    162     -17.5463      1.00000
    163     -17.5216      1.00000
    164     -17.5129      1.00000
    165     -17.3449      1.00000
    166     -17.3417      1.00000
    167     -17.3065      1.00000
    168     -17.2713      1.00000
    169     -17.2348      1.00000
    170     -17.2251      1.00000
    171     -17.0957      1.00000
    172     -17.0721      1.00000
    173     -16.8439      1.00000
    174     -16.7855      1.00000
    175     -16.7843      1.00000
    176     -16.7768      1.00000
    177     -16.7559      1.00000
    178     -16.7521      1.00000
    179     -16.7230      1.00000
    180     -16.7221      1.00000
    181     -16.5575      1.00000
    182     -16.5015      1.00000
    183     -16.5013      1.00000
    184     -16.3932      1.00000
    185     -16.3052      1.00000
    186     -16.2748      1.00000
    187     -16.2528      1.00000
    188     -16.0734      1.00000
    189     -16.0731      1.00000
    190     -16.0576      1.00000
    191     -15.9009      1.00000
    192     -15.8958      1.00000
    193     -15.8865      1.00000
    194     -15.8730      1.00000
    195     -15.8594      1.00000
    196     -15.8412      1.00000
    197     -15.8100      1.00000
    198     -15.8033      1.00000
    199     -15.8029      1.00000
    200     -15.7865      1.00000
    201     -15.7422      1.00000
    202     -15.7245      1.00000
    203     -15.7092      1.00000
    204     -15.7070      1.00000
    205     -15.7053      1.00000
    206     -15.6958      1.00000
    207     -15.6945      1.00000
    208     -15.6769      1.00000
    209     -15.6643      1.00000
    210     -15.6554      1.00000
    211     -15.6521      1.00000
    212     -15.6492      1.00000
    213     -15.6475      1.00000
    214     -15.6171      1.00000
    215     -15.6162      1.00000
    216     -15.5027      1.00000
    217     -15.4314      1.00000
    218     -15.4236      1.00000
    219     -15.3978      1.00000
    220     -15.3851      1.00000
    221     -15.3571      1.00000
    222     -15.3444      1.00000
    223     -15.3275      1.00000
    224     -15.2815      1.00000
    225     -15.2795      1.00000
    226     -15.2385      1.00000
    227     -15.1628      1.00000
    228     -15.1596      1.00000
    229     -15.1327      1.00000
    230     -15.1082      1.00000
    231     -15.0882      1.00000
    232     -15.0456      1.00000
    233     -14.8884      1.00000
    234     -14.8740      1.00000
    235     -14.8293      1.00000
    236     -14.8267      1.00000
    237     -14.8246      1.00000
    238     -14.8035      1.00000
    239     -14.7559      1.00000
    240     -14.7452      1.00000
    241     -14.7014      1.00000
    242     -14.6811      1.00000
    243     -14.6247      1.00000
    244     -14.6080      1.00000
    245     -14.5676      1.00000
    246     -14.5534      1.00000
    247     -14.5521      1.00000
    248     -14.5356      1.00000
    249     -14.2897      1.00000
    250     -14.2760      1.00000
    251     -14.1569      1.00000
    252     -14.1512      1.00000
    253     -13.8193      1.00000
    254     -13.8081      1.00000
    255     -13.7980      1.00000
    256     -13.7874      1.00000
    257     -13.7548      1.00000
    258     -13.7487      1.00000
    259     -13.7247      1.00000
    260     -13.7131      1.00000
    261     -13.6988      1.00000
    262     -13.6916      1.00000
    263     -13.6831      1.00000
    264     -13.6803      1.00000
    265     -13.6783      1.00000
    266     -13.6780      1.00000
    267     -13.6755      1.00000
    268     -13.6673      1.00000
    269     -13.6588      1.00000
    270     -13.6542      1.00000
    271     -13.6459      1.00000
    272     -13.6409      1.00000
    273     -13.6325      1.00000
    274     -13.6253      1.00000
    275     -13.6193      1.00000
    276     -13.6137      1.00000
    277     -13.6115      1.00000
    278     -13.6030      1.00000
    279     -13.4193      1.00000
    280     -13.4177      1.00000
    281     -13.3555      1.00000
    282     -13.3496      1.00000
    283     -13.3479      1.00000
    284     -13.3448      1.00000
    285     -13.3303      1.00000
    286     -13.3256      1.00000
    287     -13.3254      1.00000
    288     -13.3218      1.00000
    289     -13.2909      1.00000
    290     -13.2899      1.00000
    291     -13.2749      1.00000
    292     -13.2709      1.00000
    293     -13.1408      1.00000
    294     -13.1384      1.00000
    295     -12.8423      1.00000
    296     -12.8417      1.00000
    297     -12.6648      1.00000
    298     -12.6638      1.00000
    299     -12.6342      1.00000
    300     -12.6333      1.00000
    301     -12.5317      1.00000
    302     -12.5281      1.00000
    303     -12.5272      1.00000
    304     -12.5266      1.00000
    305     -12.4693      1.00000
    306     -12.4646      1.00000
    307     -12.4185      1.00000
    308     -12.4171      1.00000
    309     -12.4149      1.00000
    310     -12.4086      1.00000
    311     -12.3337      1.00000
    312     -12.3322      1.00000
    313     -12.3023      1.00000
    314     -12.2927      1.00000
    315     -12.2786      1.00000
    316     -12.2748      1.00000
    317     -12.2433      1.00000
    318     -12.2431      1.00000
    319     -12.1732      1.00000
    320     -12.1708      1.00000
    321     -12.1518      1.00000
    322     -12.1481      1.00000
    323     -11.9650      1.00000
    324     -11.9610      1.00000
    325     -11.9179      1.00000
    326     -11.9162      1.00000
    327     -11.8509      1.00000
    328     -11.8504      1.00000
    329     -11.8175      1.00000
    330     -11.8166      1.00000
    331     -11.7775      1.00000
    332     -11.7677      1.00000
    333     -11.7398      1.00000
    334     -11.7367      1.00000
    335     -11.6664      1.00000
    336     -11.6660      1.00000
    337     -11.6452      1.00000
    338     -11.6349      1.00000
    339     -11.6240      1.00000
    340     -11.6231      1.00000
    341     -11.5952      1.00000
    342     -11.5893      1.00000
    343     -11.5623      1.00000
    344     -11.5555      1.00000
    345     -11.4849      1.00000
    346     -11.4818      1.00000
    347     -11.4683      1.00000
    348     -11.4600      1.00000
    349     -11.3998      1.00000
    350     -11.3904      1.00000
    351     -11.3741      1.00000
    352     -11.3680      1.00000
    353     -11.3279      1.00000
    354     -11.3250      1.00000
    355     -11.3035      1.00000
    356     -11.3022      1.00000
    357     -11.2847      1.00000
    358     -11.2816      1.00000
    359     -11.2805      1.00000
    360     -11.2747      1.00000
    361     -11.2235      1.00000
    362     -11.2130      1.00000
    363     -11.2023      1.00000
    364     -11.2010      1.00000
    365     -11.1614      1.00000
    366     -11.1597      1.00000
    367     -11.0994      1.00000
    368     -11.0682      1.00000
    369     -11.0676      1.00000
    370     -11.0259      1.00000
    371     -11.0201      1.00000
    372     -10.9965      1.00000
    373     -10.9932      1.00000
    374     -10.9049      1.00000
    375     -10.9006      1.00000
    376     -10.8621      1.00000
    377     -10.8556      1.00000
    378     -10.7989      1.00000
    379     -10.7967      1.00000
    380     -10.7923      1.00000
    381     -10.7856      1.00000
    382     -10.7849      1.00000
    383     -10.7715      1.00000
    384     -10.7672      1.00000
    385     -10.7586      1.00000
    386     -10.7404      1.00000
    387     -10.7275      1.00000
    388     -10.6976      1.00000
    389     -10.6882      1.00000
    390     -10.6752      1.00000
    391     -10.6725      1.00000
    392     -10.5820      1.00000
    393     -10.5704      1.00000
    394     -10.5666      1.00000
    395     -10.5653      1.00000
    396     -10.5562      1.00000
    397     -10.5546      1.00000
    398     -10.5534      1.00000
    399     -10.5457      1.00000
    400     -10.5176      1.00000
    401     -10.5170      1.00000
    402     -10.4724      1.00000
    403     -10.4702      1.00000
    404     -10.4262      1.00000
    405     -10.4172      1.00000
    406     -10.3604      1.00000
    407     -10.3537      1.00000
    408     -10.3380      1.00000
    409     -10.3315      1.00000
    410     -10.3308      1.00000
    411     -10.3235      1.00000
    412     -10.3180      1.00000
    413     -10.3138      1.00000
    414     -10.3004      1.00000
    415     -10.2993      1.00000
    416     -10.2971      1.00000
    417     -10.2906      1.00000
    418     -10.2619      1.00000
    419     -10.2611      1.00000
    420     -10.2536      1.00000
    421     -10.2370      1.00000
    422     -10.2357      1.00000
    423     -10.2348      1.00000
    424     -10.2331      1.00000
    425     -10.2323      1.00000
    426     -10.2259      1.00000
    427     -10.2251      1.00000
    428     -10.2203      1.00000
    429     -10.2156      1.00000
    430     -10.2053      1.00000
    431     -10.2010      1.00000
    432     -10.1915      1.00000
    433     -10.1883      1.00000
    434     -10.1426      1.00000
    435     -10.1413      1.00000
    436     -10.1329      1.00000
    437     -10.1318      1.00000
    438     -10.1266      1.00000
    439     -10.1263      1.00000
    440     -10.1186      1.00000
    441     -10.1174      1.00000
    442     -10.1052      1.00000
    443     -10.0987      1.00000
    444     -10.0796      1.00000
    445     -10.0660      1.00000
    446     -10.0567      1.00000
    447     -10.0560      1.00000
    448     -10.0428      1.00000
    449     -10.0414      1.00000
    450      -9.9535      1.00000
    451      -9.9409      1.00000
    452      -9.9389      1.00000
    453      -9.9348      1.00000
    454      -9.9202      1.00000
    455      -9.9176      1.00000
    456      -9.8309      1.00000
    457      -9.8217      1.00000
    458      -9.8095      1.00000
    459      -9.7925      1.00000
    460      -9.7754      1.00000
    461      -9.7708      1.00000
    462      -9.7664      1.00000
    463      -9.7620      1.00000
    464      -9.7443      1.00000
    465      -9.6648      1.00000
    466      -9.6514      1.00000
    467      -9.6413      1.00000
    468      -9.6359      1.00000
    469      -9.6313      1.00000
    470      -9.6250      1.00000
    471      -9.6144      1.00000
    472      -9.6090      1.00000
    473      -9.5991      1.00000
    474      -9.5981      1.00000
    475      -9.5938      1.00000
    476      -9.5894      1.00000
    477      -9.5224      1.00000
    478      -9.5207      1.00000
    479      -9.5084      1.00000
    480      -9.4962      1.00000
    481      -9.4709      1.00000
    482      -9.4587      1.00000
    483      -9.4478      1.00000
    484      -9.4462      1.00000
    485      -9.4430      1.00000
    486      -9.4391      1.00000
    487      -9.4002      1.00000
    488      -9.3885      1.00000
    489      -9.3877      1.00000
    490      -9.3649      1.00000
    491      -9.3603      1.00000
    492      -9.3526      1.00000
    493      -9.3009      1.00000
    494      -9.2980      1.00000
    495      -9.2878      1.00000
    496      -9.2870      1.00000
    497      -9.2797      1.00000
    498      -9.2792      1.00000
    499      -9.2749      1.00000
    500      -9.2642      1.00000
    501      -9.2591      1.00000
    502      -9.2590      1.00000
    503      -9.2461      1.00000
    504      -9.2450      1.00000
    505      -9.1945      1.00000
    506      -9.1927      1.00000
    507      -9.1841      1.00000
    508      -9.1824      1.00000
    509      -9.1619      1.00000
    510      -9.1536      1.00000
    511      -9.0636      1.00000
    512      -9.0463      1.00000
    513      -8.9518      1.00000
    514      -8.9418      1.00000
    515      -8.8670      1.00000
    516      -8.8544      1.00000
    517      -8.8482      1.00000
    518      -8.8461      1.00000
    519      -8.8443      1.00000
    520      -8.8323      1.00000
    521      -8.8081      1.00000
    522      -8.8039      1.00000
    523      -8.7918      1.00000
    524      -8.7918      1.00000
    525      -8.7850      1.00000
    526      -8.7838      1.00000
    527      -8.7564      1.00000
    528      -8.7539      1.00000
    529      -8.6257      1.00000
    530      -8.6161      1.00000
    531      -8.6133      1.00000
    532      -8.6090      1.00000
    533      -8.5734      1.00000
    534      -8.5667      1.00000
    535      -8.5286      1.00000
    536      -8.5195      1.00000
    537      -8.5017      1.00000
    538      -8.5009      1.00000
    539      -8.4959      1.00000
    540      -8.4903      1.00000
    541      -8.4375      1.00000
    542      -8.4366      1.00000
    543      -8.4276      1.00000
    544      -8.4225      1.00000
    545      -8.4209      1.00000
    546      -8.4153      1.00000
    547      -8.3648      1.00000
    548      -8.3544      1.00000
    549      -8.3284      1.00000
    550      -8.3257      1.00000
    551      -8.3114      1.00000
    552      -8.3031      1.00000
    553      -8.2914      1.00000
    554      -8.2906      1.00000
    555      -8.2653      1.00000
    556      -8.2592      1.00000
    557      -8.2460      1.00000
    558      -8.2449      1.00000
    559      -8.2219      1.00000
    560      -8.2197      1.00000
    561      -8.1910      1.00000
    562      -8.1887      1.00000
    563      -8.1778      1.00000
    564      -8.1691      1.00000
    565      -8.1006      1.00000
    566      -8.0967      1.00000
    567      -8.0856      1.00000
    568      -8.0810      1.00000
    569      -8.0357      1.00000
    570      -8.0231      1.00000
    571      -7.9941      1.00000
    572      -7.9924      1.00000
    573      -7.9805      1.00000
    574      -7.9769      1.00000
    575      -7.9687      1.00000
    576      -7.9675      1.00000
    577      -7.9648      1.00000
    578      -7.9622      1.00000
    579      -7.9504      1.00000
    580      -7.9445      1.00000
    581      -7.8823      1.00000
    582      -7.8807      1.00000
    583      -7.8470      1.00000
    584      -7.8438      1.00000
    585      -7.7743      1.00000
    586      -7.7739      1.00000
    587      -7.6895      1.00000
    588      -7.6787      1.00000
    589      -7.6459      1.00000
    590      -7.6357      1.00000
    591      -7.5903      1.00000
    592      -7.5844      1.00000
    593      -7.5407      1.00000
    594      -7.5388      1.00000
    595      -7.5017      1.00000
    596      -7.4986      1.00000
    597      -7.4840      1.00000
    598      -7.4817      1.00000
    599      -7.4796      1.00000
    600      -7.4744      1.00000
    601      -7.3997      1.00000
    602      -7.3816      1.00000
    603      -7.3421      1.00000
    604      -7.3382      1.00000
    605      -7.3298      1.00000
    606      -7.3178      1.00000
    607      -7.3080      1.00000
    608      -7.3038      1.00000
    609      -7.3003      1.00000
    610      -7.2976      1.00000
    611      -7.2443      1.00000
    612      -7.2251      1.00000
    613      -7.2000      1.00000
    614      -7.1978      1.00000
    615      -7.1940      1.00000
    616      -7.1769      1.00000
    617      -7.1730      1.00000
    618      -7.1717      1.00000
    619      -7.1653      1.00000
    620      -7.1571      1.00000
    621      -7.1440      1.00000
    622      -7.1408      1.00000
    623      -7.1247      1.00000
    624      -7.1205      1.00000
    625      -7.0706      1.00000
    626      -7.0659      1.00000
    627      -7.0498      1.00000
    628      -7.0491      1.00000
    629      -6.9675      1.00000
    630      -6.9542      1.00000
    631      -6.9262      1.00000
    632      -6.9216      1.00000
    633      -6.9170      1.00000
    634      -6.9062      1.00000
    635      -6.8628      1.00000
    636      -6.8568      1.00000
    637      -6.8432      1.00000
    638      -6.8387      1.00000
    639      -6.8090      1.00000
    640      -6.8008      1.00000
    641      -6.7936      1.00000
    642      -6.7842      1.00000
    643      -6.6437      1.00000
    644      -6.6172      1.00000
    645      -6.5801      1.00000
    646      -6.5633      1.00000
    647      -6.5587      1.00000
    648      -6.5450      1.00000
    649      -6.5413      1.00000
    650      -6.5349      1.00000
    651      -6.5146      1.00000
    652      -6.5129      1.00000
    653      -6.5029      1.00000
    654      -6.4985      1.00000
    655      -6.4611      1.00000
    656      -6.4488      1.00000
    657      -6.4240      1.00000
    658      -6.4117      1.00000
    659      -6.3719      1.00000
    660      -6.3422      1.00000
    661      -6.3238      1.00000
    662      -6.2914      1.00000
    663      -6.2793      1.00000
    664      -6.2420      1.00000
    665      -6.2359      1.00000
    666      -6.1984      1.00000
    667      -6.1843      1.00000
    668      -6.1753      1.00000
    669      -6.0937      1.00000
    670      -6.0865      1.00000
    671      -6.0500      1.00000
    672      -6.0461      1.00000
    673      -5.9155      1.00000
    674      -5.8729      1.00000
    675      -5.8250      1.00000
    676      -5.7790      1.00000
    677      -5.7651      1.00000
    678      -5.7632      1.00000
    679      -5.7365      1.00000
    680      -5.6952      1.00000
    681      -5.6571      1.00000
    682      -5.6485      1.00000
    683      -5.6057      1.00000
    684      -5.5912      1.00000
    685      -5.5713      1.00000
    686      -5.5684      1.00000
    687      -5.5333      1.00000
    688      -5.5330      1.00000
    689      -5.5103      1.00000
    690      -5.5046      1.00000
    691      -5.5024      1.00000
    692      -5.4688      1.00000
    693      -5.4644      1.00000
    694      -5.4113      1.00000
    695      -5.4031      1.00000
    696      -5.3826      1.00000
    697      -5.3575      1.00000
    698      -5.3445      1.00000
    699      -5.3197      1.00000
    700      -5.2956      1.00000
    701      -5.2744      1.00000
    702      -5.2511      1.00000
    703      -5.2276      1.00000
    704      -5.2145      1.00000
    705      -5.2021      1.00000
    706      -5.1973      1.00000
    707      -5.1965      1.00000
    708      -5.0822      1.00000
    709      -5.0527      1.00000
    710      -5.0115      1.00000
    711      -5.0023      1.00000
    712      -4.9324      1.00000
    713      -4.9092      1.00000
    714      -4.8590      1.00000
    715      -4.8472      1.00000
    716      -4.6986      1.00000
    717      -4.6134      1.00000
    718      -4.5969      1.00000
    719      -4.4574      1.00000
    720      -4.4158      1.00000
    721      -4.3738      1.00000
    722      -4.3504      1.00000
    723      -4.3195      1.00000
    724      -4.2944      1.00000
    725      -4.1797      1.00000
    726      -4.1127      1.00000
    727      -4.0481      1.00000
    728      -4.0105      1.00000
    729      -3.8399      1.00000
    730      -3.6772      1.00000
    731      -3.6197      1.00000
    732      -2.7778      0.00000
    733      -2.6843      0.00000
    734      -2.6268      0.00000
    735      -2.3164      0.00000
    736      -2.2960      0.00000
    737      -2.2357      0.00000
    738      -2.2020      0.00000
    739      -2.1254      0.00000
    740      -2.1239      0.00000
    741      -2.0849      0.00000
    742      -1.9948      0.00000
    743      -1.9768      0.00000
    744      -1.9695      0.00000
    745      -1.9510      0.00000
    746      -1.9220      0.00000
    747      -1.8523      0.00000
    748      -1.8332      0.00000
    749      -1.8273      0.00000
    750      -1.8127      0.00000
    751      -1.7864      0.00000
    752      -1.7440      0.00000
    753      -1.6811      0.00000
    754      -1.6513      0.00000
    755      -1.6442      0.00000
    756      -1.6213      0.00000
    757      -1.6141      0.00000
    758      -1.5935      0.00000
    759      -1.5876      0.00000
    760      -1.5723      0.00000
    761      -1.5699      0.00000
    762      -1.5413      0.00000
    763      -1.5367      0.00000
    764      -1.5353      0.00000
    765      -1.5278      0.00000
    766      -1.4816      0.00000
    767      -1.4813      0.00000
    768      -1.4735      0.00000
    769      -1.4244      0.00000
    770      -1.3974      0.00000
    771      -1.3880      0.00000
    772      -1.3730      0.00000
    773      -1.3471      0.00000
    774      -1.3306      0.00000
    775      -1.3221      0.00000
    776      -1.3107      0.00000
    777      -1.3035      0.00000
    778      -1.2971      0.00000
    779      -1.2877      0.00000
    780      -1.2715      0.00000
    781      -1.2634      0.00000
    782      -1.2215      0.00000
    783      -1.2085      0.00000
    784      -1.1863      0.00000
    785      -1.0310      0.00000
    786      -0.9583      0.00000
    787      -0.9487      0.00000
    788      -0.9469      0.00000
    789      -0.8766      0.00000
    790      -0.8662      0.00000
    791      -0.8339      0.00000
    792      -0.7844      0.00000
    793      -0.7571      0.00000
    794      -0.7289      0.00000
    795      -0.7201      0.00000
    796      -0.7000      0.00000
    797      -0.6204      0.00000
    798      -0.5323      0.00000
    799      -0.4881      0.00000
    800      -0.4530      0.00000
    801      -0.3530      0.00000
    802      -0.3457      0.00000
    803      -0.3285      0.00000
    804      -0.2736      0.00000
    805      -0.2195      0.00000
    806      -0.1742      0.00000
    807      -0.1471      0.00000
    808      -0.0933      0.00000
    809      -0.0587      0.00000
    810      -0.0454      0.00000
    811       0.0162      0.00000
    812       0.0719      0.00000
    813       0.0896      0.00000
    814       0.0963      0.00000
    815       0.1386      0.00000
    816       0.1660      0.00000
    817       0.2074      0.00000
    818       0.2085      0.00000
    819       0.2107      0.00000
    820       0.2296      0.00000
    821       0.2309      0.00000
    822       0.2385      0.00000
    823       0.2501      0.00000
    824       0.2786      0.00000
    825       0.3273      0.00000
    826       0.3428      0.00000
    827       0.3603      0.00000
    828       0.4024      0.00000
    829       0.4525      0.00000
    830       0.4736      0.00000
    831       0.5041      0.00000
    832       0.5200      0.00000
    833       0.5227      0.00000
    834       0.5349      0.00000
    835       0.5522      0.00000
    836       0.5585      0.00000
    837       0.5646      0.00000
    838       0.5787      0.00000
    839       0.5873      0.00000
    840       0.6073      0.00000
    841       0.6123      0.00000
    842       0.6191      0.00000
    843       0.6513      0.00000
    844       0.6526      0.00000
    845       0.6564      0.00000
    846       0.6625      0.00000
    847       0.8389      0.00000
    848       0.8627      0.00000
    849       0.8851      0.00000
    850       0.8895      0.00000
    851       0.8994      0.00000
    852       0.9192      0.00000
    853       0.9214      0.00000
    854       0.9218      0.00000
    855       0.9280      0.00000
    856       0.9343      0.00000
    857       0.9407      0.00000
    858       0.9688      0.00000
    859       1.0032      0.00000
    860       1.0066      0.00000
    861       1.0136      0.00000
    862       1.0273      0.00000
    863       1.0288      0.00000
    864       1.0425      0.00000
    865       1.0474      0.00000
    866       1.0822      0.00000
    867       1.0946      0.00000
    868       1.1295      0.00000
    869       1.1324      0.00000
    870       1.1998      0.00000
    871       1.2008      0.00000
    872       1.2171      0.00000
    873       1.2264      0.00000
    874       1.2369      0.00000
    875       1.2610      0.00000
    876       1.2671      0.00000
    877       1.2688      0.00000
    878       1.2768      0.00000
    879       1.2788      0.00000
    880       1.2986      0.00000
    881       1.3038      0.00000
    882       1.3074      0.00000
    883       1.3113      0.00000
    884       1.3360      0.00000
    885       1.3420      0.00000
    886       1.3520      0.00000
    887       1.3663      0.00000
    888       1.3684      0.00000
    889       1.3690      0.00000
    890       1.3750      0.00000
    891       1.4050      0.00000
    892       1.4621      0.00000
    893       1.4658      0.00000
    894       1.4916      0.00000
    895       1.4930      0.00000
    896       1.4985      0.00000

 k-point     2 :       0.0000    0.0000    0.5000
  band No.  band energies     occupation 
      1     -22.9792      1.00000
      2     -22.9680      1.00000
      3     -22.8458      1.00000
      4     -22.8363      1.00000
      5     -22.7754      1.00000
      6     -22.7569      1.00000
      7     -22.7551      1.00000
      8     -22.7545      1.00000
      9     -22.6392      1.00000
     10     -22.6255      1.00000
     11     -22.6250      1.00000
     12     -22.6219      1.00000
     13     -22.5780      1.00000
     14     -22.5727      1.00000
     15     -22.3756      1.00000
     16     -22.3625      1.00000
     17     -22.3611      1.00000
     18     -22.3590      1.00000
     19     -22.1866      1.00000
     20     -22.1777      1.00000
     21     -22.1503      1.00000
     22     -22.1256      1.00000
     23     -22.1251      1.00000
     24     -22.1249      1.00000
     25     -22.0174      1.00000
     26     -21.9967      1.00000
     27     -21.9945      1.00000
     28     -21.9939      1.00000
     29     -21.9751      1.00000
     30     -21.9686      1.00000
     31     -21.9669      1.00000
     32     -21.9651      1.00000
     33     -21.7525      1.00000
     34     -21.7375      1.00000
     35     -21.7339      1.00000
     36     -21.7323      1.00000
     37     -21.6599      1.00000
     38     -21.6532      1.00000
     39     -21.4614      1.00000
     40     -21.4460      1.00000
     41     -21.4449      1.00000
     42     -21.4427      1.00000
     43     -21.3618      1.00000
     44     -21.3481      1.00000
     45     -21.3442      1.00000
     46     -21.3419      1.00000
     47     -21.1413      1.00000
     48     -21.1081      1.00000
     49     -21.1073      1.00000
     50     -21.1072      1.00000
     51     -21.0180      1.00000
     52     -21.0022      1.00000
     53     -20.9968      1.00000
     54     -20.9802      1.00000
     55     -20.9789      1.00000
     56     -20.9788      1.00000
     57     -20.8508      1.00000
     58     -20.8312      1.00000
     59     -20.8280      1.00000
     60     -20.8250      1.00000
     61     -20.8074      1.00000
     62     -20.7982      1.00000
     63     -20.7964      1.00000
     64     -20.7937      1.00000
     65     -20.7410      1.00000
     66     -20.7251      1.00000
     67     -20.7228      1.00000
     68     -20.7217      1.00000
     69     -20.3683      1.00000
     70     -20.3430      1.00000
     71     -20.3401      1.00000
     72     -20.3398      1.00000
     73     -20.2439      1.00000
     74     -20.2313      1.00000
     75     -20.2047      1.00000
     76     -20.1898      1.00000
     77     -20.1885      1.00000
     78     -20.1835      1.00000
     79     -20.0471      1.00000
     80     -20.0291      1.00000
     81     -20.0281      1.00000
     82     -20.0272      1.00000
     83     -19.8726      1.00000
     84     -19.8367      1.00000
     85     -19.8344      1.00000
     86     -19.8330      1.00000
     87     -19.7806      1.00000
     88     -19.7468      1.00000
     89     -19.7458      1.00000
     90     -19.7457      1.00000
     91     -19.6506      1.00000
     92     -19.6231      1.00000
     93     -19.6213      1.00000
     94     -19.6209      1.00000
     95     -19.4604      1.00000
     96     -19.4335      1.00000
     97     -19.4310      1.00000
     98     -19.4274      1.00000
     99     -19.3992      1.00000
    100     -19.3753      1.00000
    101     -19.3734      1.00000
    102     -19.3730      1.00000
    103     -19.3529      1.00000
    104     -19.3466      1.00000
    105     -19.2341      1.00000
    106     -19.2122      1.00000
    107     -19.2105      1.00000
    108     -19.2067      1.00000
    109     -19.1630      1.00000
    110     -19.1489      1.00000
    111     -19.1484      1.00000
    112     -19.1480      1.00000
    113     -19.0324      1.00000
    114     -19.0061      1.00000
    115     -19.0035      1.00000
    116     -19.0034      1.00000
    117     -18.6282      1.00000
    118     -18.5767      1.00000
    119     -18.5718      1.00000
    120     -18.5712      1.00000
    121     -18.5502      1.00000
    122     -18.5200      1.00000
    123     -18.5174      1.00000
    124     -18.5165      1.00000
    125     -18.4947      1.00000
    126     -18.4835      1.00000
    127     -18.4826      1.00000
    128     -18.4788      1.00000
    129     -18.3717      1.00000
    130     -18.3622      1.00000
    131     -18.2567      1.00000
    132     -18.1818      1.00000
    133     -18.1812      1.00000
    134     -18.1743      1.00000
    135     -18.1734      1.00000
    136     -18.1576      1.00000
    137     -18.1529      1.00000
    138     -18.1507      1.00000
    139     -18.0792      1.00000
    140     -18.0471      1.00000
    141     -18.0343      1.00000
    142     -18.0283      1.00000
    143     -17.9529      1.00000
    144     -17.9319      1.00000
    145     -17.9273      1.00000
    146     -17.9266      1.00000
    147     -17.8508      1.00000
    148     -17.8200      1.00000
    149     -17.7987      1.00000
    150     -17.7905      1.00000
    151     -17.7454      1.00000
    152     -17.7365      1.00000
    153     -17.7287      1.00000
    154     -17.7235      1.00000
    155     -17.7170      1.00000
    156     -17.7132      1.00000
    157     -17.6759      1.00000
    158     -17.6743      1.00000
    159     -17.5168      1.00000
    160     -17.4813      1.00000
    161     -17.4493      1.00000
    162     -17.4397      1.00000
    163     -17.3605      1.00000
    164     -17.3593      1.00000
    165     -17.3281      1.00000
    166     -17.3095      1.00000
    167     -17.2972      1.00000
    168     -17.2832      1.00000
    169     -17.2529      1.00000
    170     -17.2430      1.00000
    171     -17.1622      1.00000
    172     -17.1583      1.00000
    173     -17.0697      1.00000
    174     -17.0357      1.00000
    175     -16.9990      1.00000
    176     -16.9906      1.00000
    177     -16.6076      1.00000
    178     -16.5805      1.00000
    179     -16.5584      1.00000
    180     -16.5018      1.00000
    181     -16.4011      1.00000
    182     -16.3329      1.00000
    183     -16.3312      1.00000
    184     -16.3294      1.00000
    185     -16.3254      1.00000
    186     -16.3228      1.00000
    187     -16.2215      1.00000
    188     -16.2090      1.00000
    189     -16.1955      1.00000
    190     -16.1521      1.00000
    191     -16.1005      1.00000
    192     -16.0652      1.00000
    193     -16.0426      1.00000
    194     -16.0417      1.00000
    195     -15.9399      1.00000
    196     -15.8505      1.00000
    197     -15.8430      1.00000
    198     -15.8428      1.00000
    199     -15.8072      1.00000
    200     -15.7451      1.00000
    201     -15.7380      1.00000
    202     -15.7375      1.00000
    203     -15.7222      1.00000
    204     -15.6842      1.00000
    205     -15.6834      1.00000
    206     -15.6821      1.00000
    207     -15.6630      1.00000
    208     -15.6568      1.00000
    209     -15.5956      1.00000
    210     -15.5468      1.00000
    211     -15.5409      1.00000
    212     -15.5335      1.00000
    213     -15.5180      1.00000
    214     -15.4896      1.00000
    215     -15.4325      1.00000
    216     -15.3851      1.00000
    217     -15.3790      1.00000
    218     -15.3756      1.00000
    219     -15.3706      1.00000
    220     -15.3692      1.00000
    221     -15.3393      1.00000
    222     -15.3265      1.00000
    223     -15.3140      1.00000
    224     -15.2500      1.00000
    225     -15.2457      1.00000
    226     -15.2431      1.00000
    227     -15.2263      1.00000
    228     -15.2018      1.00000
    229     -15.1865      1.00000
    230     -15.1761      1.00000
    231     -15.1461      1.00000
    232     -15.1439      1.00000
    233     -15.1040      1.00000
    234     -15.0072      1.00000
    235     -14.9951      1.00000
    236     -14.9800      1.00000
    237     -14.9598      1.00000
    238     -14.9494      1.00000
    239     -14.8900      1.00000
    240     -14.7281      1.00000
    241     -14.7004      1.00000
    242     -14.6301      1.00000
    243     -14.6255      1.00000
    244     -14.2569      1.00000
    245     -14.2491      1.00000
    246     -14.2488      1.00000
    247     -14.2418      1.00000
    248     -14.2328      1.00000
    249     -14.2261      1.00000
    250     -14.1726      1.00000
    251     -14.1606      1.00000
    252     -14.1272      1.00000
    253     -14.1167      1.00000
    254     -14.0900      1.00000
    255     -14.0794      1.00000
    256     -13.9533      1.00000
    257     -13.9459      1.00000
    258     -13.8378      1.00000
    259     -13.8251      1.00000
    260     -13.8215      1.00000
    261     -13.8172      1.00000
    262     -13.8130      1.00000
    263     -13.8053      1.00000
    264     -13.7923      1.00000
    265     -13.7856      1.00000
    266     -13.7626      1.00000
    267     -13.7520      1.00000
    268     -13.6934      1.00000
    269     -13.6889      1.00000
    270     -13.6845      1.00000
    271     -13.6776      1.00000
    272     -13.6348      1.00000
    273     -13.6305      1.00000
    274     -13.5367      1.00000
    275     -13.5364      1.00000
    276     -13.5198      1.00000
    277     -13.5157      1.00000
    278     -13.3621      1.00000
    279     -13.3607      1.00000
    280     -13.3482      1.00000
    281     -13.3440      1.00000
    282     -13.3257      1.00000
    283     -13.3236      1.00000
    284     -13.1735      1.00000
    285     -13.1700      1.00000
    286     -13.1259      1.00000
    287     -13.1254      1.00000
    288     -13.1150      1.00000
    289     -13.1130      1.00000
    290     -13.0918      1.00000
    291     -13.0884      1.00000
    292     -13.0510      1.00000
    293     -13.0446      1.00000
    294     -13.0338      1.00000
    295     -13.0266      1.00000
    296     -12.9826      1.00000
    297     -12.9821      1.00000
    298     -12.8819      1.00000
    299     -12.8797      1.00000
    300     -12.8143      1.00000
    301     -12.8090      1.00000
    302     -12.7904      1.00000
    303     -12.7826      1.00000
    304     -12.7056      1.00000
    305     -12.7032      1.00000
    306     -12.5125      1.00000
    307     -12.5103      1.00000
    308     -12.3812      1.00000
    309     -12.3811      1.00000
    310     -12.2740      1.00000
    311     -12.2728      1.00000
    312     -12.2539      1.00000
    313     -12.2538      1.00000
    314     -12.1382      1.00000
    315     -12.1373      1.00000
    316     -12.0490      1.00000
    317     -12.0487      1.00000
    318     -12.0243      1.00000
    319     -12.0198      1.00000
    320     -11.9622      1.00000
    321     -11.9473      1.00000
    322     -11.9291      1.00000
    323     -11.9280      1.00000
    324     -11.9035      1.00000
    325     -11.8999      1.00000
    326     -11.8828      1.00000
    327     -11.8793      1.00000
    328     -11.8349      1.00000
    329     -11.8312      1.00000
    330     -11.8076      1.00000
    331     -11.7972      1.00000
    332     -11.7703      1.00000
    333     -11.7650      1.00000
    334     -11.7613      1.00000
    335     -11.7612      1.00000
    336     -11.7266      1.00000
    337     -11.7234      1.00000
    338     -11.6975      1.00000
    339     -11.6937      1.00000
    340     -11.6465      1.00000
    341     -11.6428      1.00000
    342     -11.6138      1.00000
    343     -11.6126      1.00000
    344     -11.5991      1.00000
    345     -11.5932      1.00000
    346     -11.5595      1.00000
    347     -11.5554      1.00000
    348     -11.5263      1.00000
    349     -11.5252      1.00000
    350     -11.5163      1.00000
    351     -11.5102      1.00000
    352     -11.4504      1.00000
    353     -11.4370      1.00000
    354     -11.4312      1.00000
    355     -11.4298      1.00000
    356     -11.4273      1.00000
    357     -11.4264      1.00000
    358     -11.4186      1.00000
    359     -11.4132      1.00000
    360     -11.0834      1.00000
    361     -11.0774      1.00000
    362     -11.0412      1.00000
    363     -11.0394      1.00000
    364     -11.0271      1.00000
    365     -11.0258      1.00000
    366     -11.0119      1.00000
    367     -11.0118      1.00000
    368     -10.9855      1.00000
    369     -10.9793      1.00000
    370     -10.9672      1.00000
    371     -10.9624      1.00000
    372     -10.9303      1.00000
    373     -10.9254      1.00000
    374     -10.8447      1.00000
    375     -10.8425      1.00000
    376     -10.8419      1.00000
    377     -10.8300      1.00000
    378     -10.7717      1.00000
    379     -10.7541      1.00000
    380     -10.7525      1.00000
    381     -10.7504      1.00000
    382     -10.7419      1.00000
    383     -10.7306      1.00000
    384     -10.7134      1.00000
    385     -10.7008      1.00000
    386     -10.6980      1.00000
    387     -10.6918      1.00000
    388     -10.6903      1.00000
    389     -10.6868      1.00000
    390     -10.6790      1.00000
    391     -10.6748      1.00000
    392     -10.6651      1.00000
    393     -10.6569      1.00000
    394     -10.6279      1.00000
    395     -10.6175      1.00000
    396     -10.5948      1.00000
    397     -10.5934      1.00000
    398     -10.5664      1.00000
    399     -10.5651      1.00000
    400     -10.5586      1.00000
    401     -10.5528      1.00000
    402     -10.5072      1.00000
    403     -10.4974      1.00000
    404     -10.4920      1.00000
    405     -10.4809      1.00000
    406     -10.4527      1.00000
    407     -10.4466      1.00000
    408     -10.4191      1.00000
    409     -10.4087      1.00000
    410     -10.3954      1.00000
    411     -10.3947      1.00000
    412     -10.3822      1.00000
    413     -10.3785      1.00000
    414     -10.3619      1.00000
    415     -10.3593      1.00000
    416     -10.3394      1.00000
    417     -10.3394      1.00000
    418     -10.3250      1.00000
    419     -10.3243      1.00000
    420     -10.3111      1.00000
    421     -10.3028      1.00000
    422     -10.2624      1.00000
    423     -10.2612      1.00000
    424     -10.2370      1.00000
    425     -10.2301      1.00000
    426     -10.2175      1.00000
    427     -10.2090      1.00000
    428     -10.2025      1.00000
    429     -10.1957      1.00000
    430     -10.1885      1.00000
    431     -10.1863      1.00000
    432     -10.1801      1.00000
    433     -10.1782      1.00000
    434     -10.1541      1.00000
    435     -10.1519      1.00000
    436     -10.0924      1.00000
    437     -10.0874      1.00000
    438     -10.0745      1.00000
    439     -10.0648      1.00000
    440     -10.0521      1.00000
    441     -10.0513      1.00000
    442     -10.0378      1.00000
    443     -10.0310      1.00000
    444      -9.9964      1.00000
    445      -9.9918      1.00000
    446      -9.9863      1.00000
    447      -9.9841      1.00000
    448      -9.9751      1.00000
    449      -9.9690      1.00000
    450      -9.9495      1.00000
    451      -9.9411      1.00000
    452      -9.9240      1.00000
    453      -9.9174      1.00000
    454      -9.8718      1.00000
    455      -9.8675      1.00000
    456      -9.8654      1.00000
    457      -9.8550      1.00000
    458      -9.8076      1.00000
    459      -9.8019      1.00000
    460      -9.7662      1.00000
    461      -9.7534      1.00000
    462      -9.7511      1.00000
    463      -9.7376      1.00000
    464      -9.7327      1.00000
    465      -9.7303      1.00000
    466      -9.7167      1.00000
    467      -9.7089      1.00000
    468      -9.6866      1.00000
    469      -9.6830      1.00000
    470      -9.6230      1.00000
    471      -9.6153      1.00000
    472      -9.5697      1.00000
    473      -9.5592      1.00000
    474      -9.5530      1.00000
    475      -9.5475      1.00000
    476      -9.5416      1.00000
    477      -9.5414      1.00000
    478      -9.5347      1.00000
    479      -9.5232      1.00000
    480      -9.4594      1.00000
    481      -9.4427      1.00000
    482      -9.4311      1.00000
    483      -9.4267      1.00000
    484      -9.4071      1.00000
    485      -9.3991      1.00000
    486      -9.3884      1.00000
    487      -9.3867      1.00000
    488      -9.3748      1.00000
    489      -9.3700      1.00000
    490      -9.3678      1.00000
    491      -9.3543      1.00000
    492      -9.3535      1.00000
    493      -9.3507      1.00000
    494      -9.3507      1.00000
    495      -9.3453      1.00000
    496      -9.3352      1.00000
    497      -9.3287      1.00000
    498      -9.3234      1.00000
    499      -9.3124      1.00000
    500      -9.3005      1.00000
    501      -9.2895      1.00000
    502      -9.2649      1.00000
    503      -9.2597      1.00000
    504      -9.2192      1.00000
    505      -9.2118      1.00000
    506      -9.1972      1.00000
    507      -9.1919      1.00000
    508      -9.1859      1.00000
    509      -9.1849      1.00000
    510      -9.1597      1.00000
    511      -9.1586      1.00000
    512      -9.0915      1.00000
    513      -9.0829      1.00000
    514      -8.9069      1.00000
    515      -8.8784      1.00000
    516      -8.8758      1.00000
    517      -8.8707      1.00000
    518      -8.8662      1.00000
    519      -8.8630      1.00000
    520      -8.8171      1.00000
    521      -8.8052      1.00000
    522      -8.7820      1.00000
    523      -8.7760      1.00000
    524      -8.7316      1.00000
    525      -8.7216      1.00000
    526      -8.6450      1.00000
    527      -8.6369      1.00000
    528      -8.6085      1.00000
    529      -8.6078      1.00000
    530      -8.5969      1.00000
    531      -8.5918      1.00000
    532      -8.5467      1.00000
    533      -8.5449      1.00000
    534      -8.5405      1.00000
    535      -8.5318      1.00000
    536      -8.5200      1.00000
    537      -8.5159      1.00000
    538      -8.4886      1.00000
    539      -8.4885      1.00000
    540      -8.4511      1.00000
    541      -8.4468      1.00000
    542      -8.4313      1.00000
    543      -8.4303      1.00000
    544      -8.4262      1.00000
    545      -8.4203      1.00000
    546      -8.3695      1.00000
    547      -8.3639      1.00000
    548      -8.3530      1.00000
    549      -8.3471      1.00000
    550      -8.3447      1.00000
    551      -8.3409      1.00000
    552      -8.3336      1.00000
    553      -8.3331      1.00000
    554      -8.3229      1.00000
    555      -8.3217      1.00000
    556      -8.3184      1.00000
    557      -8.3142      1.00000
    558      -8.3011      1.00000
    559      -8.2988      1.00000
    560      -8.2876      1.00000
    561      -8.2835      1.00000
    562      -8.2259      1.00000
    563      -8.2236      1.00000
    564      -8.1842      1.00000
    565      -8.1725      1.00000
    566      -8.1599      1.00000
    567      -8.1579      1.00000
    568      -8.1515      1.00000
    569      -8.1490      1.00000
    570      -8.0227      1.00000
    571      -8.0212      1.00000
    572      -7.9551      1.00000
    573      -7.9432      1.00000
    574      -7.8648      1.00000
    575      -7.8545      1.00000
    576      -7.8486      1.00000
    577      -7.8464      1.00000
    578      -7.8308      1.00000
    579      -7.8275      1.00000
    580      -7.8238      1.00000
    581      -7.8227      1.00000
    582      -7.7738      1.00000
    583      -7.7704      1.00000
    584      -7.7500      1.00000
    585      -7.7442      1.00000
    586      -7.6909      1.00000
    587      -7.6840      1.00000
    588      -7.6567      1.00000
    589      -7.6506      1.00000
    590      -7.6448      1.00000
    591      -7.6421      1.00000
    592      -7.6072      1.00000
    593      -7.6070      1.00000
    594      -7.5893      1.00000
    595      -7.5860      1.00000
    596      -7.5741      1.00000
    597      -7.5664      1.00000
    598      -7.5378      1.00000
    599      -7.5244      1.00000
    600      -7.5183      1.00000
    601      -7.5155      1.00000
    602      -7.5136      1.00000
    603      -7.5125      1.00000
    604      -7.4415      1.00000
    605      -7.4292      1.00000
    606      -7.3737      1.00000
    607      -7.3667      1.00000
    608      -7.2801      1.00000
    609      -7.2782      1.00000
    610      -7.2292      1.00000
    611      -7.2241      1.00000
    612      -7.2213      1.00000
    613      -7.2122      1.00000
    614      -7.2014      1.00000
    615      -7.1957      1.00000
    616      -7.1762      1.00000
    617      -7.1699      1.00000
    618      -7.1297      1.00000
    619      -7.1272      1.00000
    620      -7.1031      1.00000
    621      -7.1025      1.00000
    622      -7.0393      1.00000
    623      -7.0199      1.00000
    624      -7.0054      1.00000
    625      -7.0018      1.00000
    626      -6.9912      1.00000
    627      -6.9891      1.00000
    628      -6.9654      1.00000
    629      -6.9608      1.00000
    630      -6.9498      1.00000
    631      -6.9353      1.00000
    632      -6.9293      1.00000
    633      -6.9268      1.00000
    634      -6.8869      1.00000
    635      -6.8799      1.00000
    636      -6.7883      1.00000
    637      -6.7717      1.00000
    638      -6.7527      1.00000
    639      -6.7408      1.00000
    640      -6.7124      1.00000
    641      -6.6996      1.00000
    642      -6.6929      1.00000
    643      -6.6853      1.00000
    644      -6.6844      1.00000
    645      -6.6808      1.00000
    646      -6.6703      1.00000
    647      -6.6676      1.00000
    648      -6.6468      1.00000
    649      -6.6445      1.00000
    650      -6.6391      1.00000
    651      -6.6332      1.00000
    652      -6.6280      1.00000
    653      -6.6263      1.00000
    654      -6.6004      1.00000
    655      -6.5985      1.00000
    656      -6.4622      1.00000
    657      -6.4511      1.00000
    658      -6.3598      1.00000
    659      -6.3382      1.00000
    660      -6.2896      1.00000
    661      -6.2874      1.00000
    662      -6.2608      1.00000
    663      -6.2463      1.00000
    664      -6.2174      1.00000
    665      -6.1806      1.00000
    666      -6.1615      1.00000
    667      -6.1420      1.00000
    668      -6.0751      1.00000
    669      -6.0313      1.00000
    670      -5.9925      1.00000
    671      -5.9677      1.00000
    672      -5.9194      1.00000
    673      -5.8854      1.00000
    674      -5.8307      1.00000
    675      -5.8295      1.00000
    676      -5.8021      1.00000
    677      -5.7859      1.00000
    678      -5.7733      1.00000
    679      -5.7697      1.00000
    680      -5.7238      1.00000
    681      -5.6960      1.00000
    682      -5.6588      1.00000
    683      -5.6361      1.00000
    684      -5.6074      1.00000
    685      -5.5920      1.00000
    686      -5.5787      1.00000
    687      -5.5747      1.00000
    688      -5.5745      1.00000
    689      -5.5740      1.00000
    690      -5.5286      1.00000
    691      -5.5106      1.00000
    692      -5.5049      1.00000
    693      -5.4961      1.00000
    694      -5.4946      1.00000
    695      -5.4489      1.00000
    696      -5.4163      1.00000
    697      -5.4074      1.00000
    698      -5.3791      1.00000
    699      -5.3583      1.00000
    700      -5.2764      1.00000
    701      -5.2419      1.00000
    702      -5.2315      1.00000
    703      -5.2314      1.00000
    704      -5.2147      1.00000
    705      -5.1429      1.00000
    706      -5.1094      1.00000
    707      -5.1002      1.00000
    708      -5.0410      1.00000
    709      -5.0291      1.00000
    710      -4.9063      1.00000
    711      -4.8918      1.00000
    712      -4.8528      1.00000
    713      -4.8381      1.00000
    714      -4.8331      1.00000
    715      -4.7996      1.00000
    716      -4.7789      1.00000
    717      -4.7492      1.00000
    718      -4.6940      1.00000
    719      -4.6850      1.00000
    720      -4.5122      1.00000
    721      -4.3579      1.00000
    722      -4.3447      1.00000
    723      -4.2424      1.00000
    724      -4.2309      1.00000
    725      -4.1744      1.00000
    726      -4.1383      1.00000
    727      -3.9357      1.00000
    728      -3.9119      1.00000
    729      -3.8081      1.00000
    730      -3.7754      1.00000
    731      -3.7071      1.00000
    732      -2.7370      0.00000
    733      -2.5899      0.00000
    734      -2.5675      0.00000
    735      -2.4846      0.00000
    736      -2.4636      0.00000
    737      -2.2577      0.00000
    738      -2.1856      0.00000
    739      -2.0696      0.00000
    740      -2.0514      0.00000
    741      -2.0317      0.00000
    742      -2.0075      0.00000
    743      -1.9011      0.00000
    744      -1.8900      0.00000
    745      -1.8683      0.00000
    746      -1.8653      0.00000
    747      -1.8619      0.00000
    748      -1.8599      0.00000
    749      -1.8512      0.00000
    750      -1.8061      0.00000
    751      -1.7686      0.00000
    752      -1.7684      0.00000
    753      -1.7337      0.00000
    754      -1.7312      0.00000
    755      -1.7130      0.00000
    756      -1.6942      0.00000
    757      -1.6681      0.00000
    758      -1.6633      0.00000
    759      -1.6623      0.00000
    760      -1.6519      0.00000
    761      -1.6365      0.00000
    762      -1.6161      0.00000
    763      -1.5885      0.00000
    764      -1.4570      0.00000
    765      -1.4454      0.00000
    766      -1.4330      0.00000
    767      -1.3710      0.00000
    768      -1.3623      0.00000
    769      -1.3518      0.00000
    770      -1.3466      0.00000
    771      -1.3084      0.00000
    772      -1.2966      0.00000
    773      -1.2950      0.00000
    774      -1.2948      0.00000
    775      -1.2945      0.00000
    776      -1.2906      0.00000
    777      -1.2835      0.00000
    778      -1.2753      0.00000
    779      -1.2685      0.00000
    780      -1.2683      0.00000
    781      -1.2321      0.00000
    782      -1.2208      0.00000
    783      -1.1976      0.00000
    784      -1.1768      0.00000
    785      -1.1657      0.00000
    786      -1.1625      0.00000
    787      -1.1220      0.00000
    788      -1.0304      0.00000
    789      -0.9468      0.00000
    790      -0.9373      0.00000
    791      -0.9270      0.00000
    792      -0.7631      0.00000
    793      -0.6960      0.00000
    794      -0.6432      0.00000
    795      -0.6290      0.00000
    796      -0.6210      0.00000
    797      -0.5995      0.00000
    798      -0.4680      0.00000
    799      -0.4182      0.00000
    800      -0.3955      0.00000
    801      -0.3330      0.00000
    802      -0.3009      0.00000
    803      -0.2604      0.00000
    804      -0.2429      0.00000
    805      -0.2396      0.00000
    806      -0.1936      0.00000
    807      -0.1261      0.00000
    808      -0.1207      0.00000
    809      -0.1108      0.00000
    810      -0.0945      0.00000
    811      -0.0869      0.00000
    812      -0.0422      0.00000
    813       0.0059      0.00000
    814       0.0323      0.00000
    815       0.0509      0.00000
    816       0.0529      0.00000
    817       0.0544      0.00000
    818       0.1381      0.00000
    819       0.2107      0.00000
    820       0.2430      0.00000
    821       0.3251      0.00000
    822       0.3816      0.00000
    823       0.3994      0.00000
    824       0.4058      0.00000
    825       0.4079      0.00000
    826       0.4080      0.00000
    827       0.4149      0.00000
    828       0.4425      0.00000
    829       0.4793      0.00000
    830       0.5202      0.00000
    831       0.5303      0.00000
    832       0.5356      0.00000
    833       0.5438      0.00000
    834       0.5535      0.00000
    835       0.5672      0.00000
    836       0.5727      0.00000
    837       0.5734      0.00000
    838       0.5829      0.00000
    839       0.5916      0.00000
    840       0.5958      0.00000
    841       0.6217      0.00000
    842       0.6238      0.00000
    843       0.6671      0.00000
    844       0.6797      0.00000
    845       0.6946      0.00000
    846       0.7120      0.00000
    847       0.7250      0.00000
    848       0.7312      0.00000
    849       0.7645      0.00000
    850       0.7672      0.00000
    851       0.8011      0.00000
    852       0.8232      0.00000
    853       0.8576      0.00000
    854       0.8668      0.00000
    855       0.9330      0.00000
    856       0.9393      0.00000
    857       0.9396      0.00000
    858       0.9485      0.00000
    859       0.9565      0.00000
    860       0.9730      0.00000
    861       1.0304      0.00000
    862       1.0415      0.00000
    863       1.0435      0.00000
    864       1.0558      0.00000
    865       1.0873      0.00000
    866       1.0887      0.00000
    867       1.1209      0.00000
    868       1.1219      0.00000
    869       1.1236      0.00000
    870       1.1261      0.00000
    871       1.1425      0.00000
    872       1.1499      0.00000
    873       1.2338      0.00000
    874       1.2478      0.00000
    875       1.2767      0.00000
    876       1.2909      0.00000
    877       1.3045      0.00000
    878       1.3900      0.00000
    879       1.3967      0.00000
    880       1.4022      0.00000
    881       1.4035      0.00000
    882       1.4082      0.00000
    883       1.4176      0.00000
    884       1.4233      0.00000
    885       1.4252      0.00000
    886       1.4406      0.00000
    887       1.4652      0.00000
    888       1.4686      0.00000
    889       1.4778      0.00000
    890       1.4857      0.00000
    891       1.4932      0.00000
    892       1.5009      0.00000
    893       1.5132      0.00000
    894       1.5158      0.00000
    895       1.5286      0.00000
    896       1.5761      0.00000
 Fermi energy:        -3.5685920945

 spin component 2

 k-point     1 :       0.0000    0.0000    0.0000
  band No.  band energies     occupation 
      1     -22.9908      1.00000
      2     -22.9280      1.00000
      3     -22.9187      1.00000
      4     -22.7855      1.00000
      5     -22.7723      1.00000
      6     -22.7323      1.00000
      7     -22.7210      1.00000
      8     -22.7160      1.00000
      9     -22.7077      1.00000
     10     -22.7067      1.00000
     11     -22.7046      1.00000
     12     -22.5233      1.00000
     13     -22.5103      1.00000
     14     -22.5095      1.00000
     15     -22.5068      1.00000
     16     -22.3975      1.00000
     17     -22.3916      1.00000
     18     -22.2006      1.00000
     19     -22.1819      1.00000
     20     -22.1801      1.00000
     21     -22.1785      1.00000
     22     -22.1536      1.00000
     23     -22.1413      1.00000
     24     -22.0944      1.00000
     25     -22.0773      1.00000
     26     -22.0759      1.00000
     27     -22.0758      1.00000
     28     -21.9393      1.00000
     29     -21.9316      1.00000
     30     -21.8977      1.00000
     31     -21.8833      1.00000
     32     -21.8803      1.00000
     33     -21.8793      1.00000
     34     -21.7351      1.00000
     35     -21.7233      1.00000
     36     -21.7217      1.00000
     37     -21.7199      1.00000
     38     -21.5727      1.00000
     39     -21.5590      1.00000
     40     -21.5551      1.00000
     41     -21.5531      1.00000
     42     -21.3527      1.00000
     43     -21.3432      1.00000
     44     -21.1773      1.00000
     45     -21.1373      1.00000
     46     -21.1368      1.00000
     47     -21.1353      1.00000
     48     -21.1327      1.00000
     49     -21.1237      1.00000
     50     -21.1112      1.00000
     51     -21.1052      1.00000
     52     -21.1016      1.00000
     53     -21.0988      1.00000
     54     -21.0749      1.00000
     55     -21.0600      1.00000
     56     -21.0593      1.00000
     57     -21.0589      1.00000
     58     -20.8890      1.00000
     59     -20.8686      1.00000
     60     -20.8668      1.00000
     61     -20.8663      1.00000
     62     -20.6446      1.00000
     63     -20.6314      1.00000
     64     -20.5778      1.00000
     65     -20.5501      1.00000
     66     -20.5472      1.00000
     67     -20.5467      1.00000
     68     -20.5334      1.00000
     69     -20.5252      1.00000
     70     -20.5234      1.00000
     71     -20.5190      1.00000
     72     -20.4407      1.00000
     73     -20.4285      1.00000
     74     -20.4268      1.00000
     75     -20.4249      1.00000
     76     -20.1302      1.00000
     77     -20.1051      1.00000
     78     -20.1025      1.00000
     79     -20.1015      1.00000
     80     -19.8674      1.00000
     81     -19.8256      1.00000
     82     -19.8240      1.00000
     83     -19.8196      1.00000
     84     -19.8085      1.00000
     85     -19.8025      1.00000
     86     -19.7850      1.00000
     87     -19.7618      1.00000
     88     -19.7264      1.00000
     89     -19.7003      1.00000
     90     -19.6991      1.00000
     91     -19.6989      1.00000
     92     -19.6223      1.00000
     93     -19.6020      1.00000
     94     -19.6014      1.00000
     95     -19.6011      1.00000
     96     -19.5629      1.00000
     97     -19.5386      1.00000
     98     -19.5367      1.00000
     99     -19.5347      1.00000
    100     -19.5250      1.00000
    101     -19.5145      1.00000
    102     -19.5126      1.00000
    103     -19.5121      1.00000
    104     -19.2370      1.00000
    105     -19.2057      1.00000
    106     -19.2035      1.00000
    107     -19.2033      1.00000
    108     -19.0376      1.00000
    109     -19.0156      1.00000
    110     -19.0124      1.00000
    111     -19.0096      1.00000
    112     -18.8997      1.00000
    113     -18.8665      1.00000
    114     -18.8636      1.00000
    115     -18.8592      1.00000
    116     -18.8571      1.00000
    117     -18.8539      1.00000
    118     -18.8009      1.00000
    119     -18.7772      1.00000
    120     -18.7744      1.00000
    121     -18.7742      1.00000
    122     -18.6887      1.00000
    123     -18.6733      1.00000
    124     -18.6719      1.00000
    125     -18.6708      1.00000
    126     -18.3386      1.00000
    127     -18.2360      1.00000
    128     -18.2346      1.00000
    129     -18.2328      1.00000
    130     -18.2056      1.00000
    131     -18.1687      1.00000
    132     -18.1519      1.00000
    133     -18.1286      1.00000
    134     -18.1285      1.00000
    135     -18.1177      1.00000
    136     -18.1176      1.00000
    137     -18.1166      1.00000
    138     -18.1083      1.00000
    139     -18.1041      1.00000
    140     -18.1000      1.00000
    141     -18.0970      1.00000
    142     -18.0936      1.00000
    143     -18.0916      1.00000
    144     -17.9764      1.00000
    145     -17.9476      1.00000
    146     -17.9308      1.00000
    147     -17.9237      1.00000
    148     -17.8496      1.00000
    149     -17.8409      1.00000
    150     -17.7286      1.00000
    151     -17.6862      1.00000
    152     -17.6824      1.00000
    153     -17.6658      1.00000
    154     -17.6649      1.00000
    155     -17.6622      1.00000
    156     -17.6397      1.00000
    157     -17.6297      1.00000
    158     -17.6210      1.00000
    159     -17.6200      1.00000
    160     -17.6088      1.00000
    161     -17.6024      1.00000
    162     -17.5463      1.00000
    163     -17.5216      1.00000
    164     -17.5129      1.00000
    165     -17.3449      1.00000
    166     -17.3417      1.00000
    167     -17.3065      1.00000
    168     -17.2713      1.00000
    169     -17.2348      1.00000
    170     -17.2251      1.00000
    171     -17.0957      1.00000
    172     -17.0721      1.00000
    173     -16.8439      1.00000
    174     -16.7855      1.00000
    175     -16.7843      1.00000
    176     -16.7768      1.00000
    177     -16.7559      1.00000
    178     -16.7521      1.00000
    179     -16.7230      1.00000
    180     -16.7221      1.00000
    181     -16.5575      1.00000
    182     -16.5015      1.00000
    183     -16.5013      1.00000
    184     -16.3932      1.00000
    185     -16.3052      1.00000
    186     -16.2748      1.00000
    187     -16.2528      1.00000
    188     -16.0734      1.00000
    189     -16.0731      1.00000
    190     -16.0576      1.00000
    191     -15.9009      1.00000
    192     -15.8958      1.00000
    193     -15.8865      1.00000
    194     -15.8730      1.00000
    195     -15.8594      1.00000
    196     -15.8412      1.00000
    197     -15.8100      1.00000
    198     -15.8033      1.00000
    199     -15.8029      1.00000
    200     -15.7865      1.00000
    201     -15.7422      1.00000
    202     -15.7245      1.00000
    203     -15.7092      1.00000
    204     -15.7070      1.00000
    205     -15.7053      1.00000
    206     -15.6958      1.00000
    207     -15.6945      1.00000
    208     -15.6769      1.00000
    209     -15.6643      1.00000
    210     -15.6554      1.00000
    211     -15.6521      1.00000
    212     -15.6492      1.00000
    213     -15.6475      1.00000
    214     -15.6171      1.00000
    215     -15.6162      1.00000
    216     -15.5027      1.00000
    217     -15.4314      1.00000
    218     -15.4236      1.00000
    219     -15.3978      1.00000
    220     -15.3851      1.00000
    221     -15.3571      1.00000
    222     -15.3444      1.00000
    223     -15.3275      1.00000
    224     -15.2815      1.00000
    225     -15.2795      1.00000
    226     -15.2385      1.00000
    227     -15.1628      1.00000
    228     -15.1596      1.00000
    229     -15.1327      1.00000
    230     -15.1082      1.00000
    231     -15.0882      1.00000
    232     -15.0456      1.00000
    233     -14.8884      1.00000
    234     -14.8740      1.00000
    235     -14.8293      1.00000
    236     -14.8267      1.00000
    237     -14.8246      1.00000
    238     -14.8035      1.00000
    239     -14.7559      1.00000
    240     -14.7452      1.00000
    241     -14.7014      1.00000
    242     -14.6811      1.00000
    243     -14.6247      1.00000
    244     -14.6080      1.00000
    245     -14.5676      1.00000
    246     -14.5534      1.00000
    247     -14.5521      1.00000
    248     -14.5356      1.00000
    249     -14.2897      1.00000
    250     -14.2760      1.00000
    251     -14.1569      1.00000
    252     -14.1512      1.00000
    253     -13.8193      1.00000
    254     -13.8081      1.00000
    255     -13.7980      1.00000
    256     -13.7874      1.00000
    257     -13.7548      1.00000
    258     -13.7487      1.00000
    259     -13.7247      1.00000
    260     -13.7131      1.00000
    261     -13.6988      1.00000
    262     -13.6916      1.00000
    263     -13.6831      1.00000
    264     -13.6803      1.00000
    265     -13.6783      1.00000
    266     -13.6780      1.00000
    267     -13.6755      1.00000
    268     -13.6673      1.00000
    269     -13.6588      1.00000
    270     -13.6542      1.00000
    271     -13.6459      1.00000
    272     -13.6409      1.00000
    273     -13.6325      1.00000
    274     -13.6253      1.00000
    275     -13.6193      1.00000
    276     -13.6137      1.00000
    277     -13.6115      1.00000
    278     -13.6030      1.00000
    279     -13.4193      1.00000
    280     -13.4177      1.00000
    281     -13.3555      1.00000
    282     -13.3496      1.00000
    283     -13.3479      1.00000
    284     -13.3448      1.00000
    285     -13.3303      1.00000
    286     -13.3256      1.00000
    287     -13.3254      1.00000
    288     -13.3218      1.00000
    289     -13.2909      1.00000
    290     -13.2899      1.00000
    291     -13.2749      1.00000
    292     -13.2709      1.00000
    293     -13.1408      1.00000
    294     -13.1384      1.00000
    295     -12.8423      1.00000
    296     -12.8417      1.00000
    297     -12.6648      1.00000
    298     -12.6638      1.00000
    299     -12.6342      1.00000
    300     -12.6333      1.00000
    301     -12.5317      1.00000
    302     -12.5281      1.00000
    303     -12.5272      1.00000
    304     -12.5266      1.00000
    305     -12.4693      1.00000
    306     -12.4646      1.00000
    307     -12.4185      1.00000
    308     -12.4171      1.00000
    309     -12.4149      1.00000
    310     -12.4086      1.00000
    311     -12.3337      1.00000
    312     -12.3322      1.00000
    313     -12.3023      1.00000
    314     -12.2927      1.00000
    315     -12.2786      1.00000
    316     -12.2748      1.00000
    317     -12.2433      1.00000
    318     -12.2431      1.00000
    319     -12.1732      1.00000
    320     -12.1708      1.00000
    321     -12.1518      1.00000
    322     -12.1481      1.00000
    323     -11.9650      1.00000
    324     -11.9610      1.00000
    325     -11.9179      1.00000
    326     -11.9162      1.00000
    327     -11.8509      1.00000
    328     -11.8504      1.00000
    329     -11.8175      1.00000
    330     -11.8166      1.00000
    331     -11.7775      1.00000
    332     -11.7677      1.00000
    333     -11.7398      1.00000
    334     -11.7367      1.00000
    335     -11.6664      1.00000
    336     -11.6660      1.00000
    337     -11.6452      1.00000
    338     -11.6349      1.00000
    339     -11.6240      1.00000
    340     -11.6231      1.00000
    341     -11.5952      1.00000
    342     -11.5893      1.00000
    343     -11.5623      1.00000
    344     -11.5555      1.00000
    345     -11.4849      1.00000
    346     -11.4818      1.00000
    347     -11.4683      1.00000
    348     -11.4600      1.00000
    349     -11.3998      1.00000
    350     -11.3904      1.00000
    351     -11.3741      1.00000
    352     -11.3680      1.00000
    353     -11.3279      1.00000
    354     -11.3250      1.00000
    355     -11.3035      1.00000
    356     -11.3022      1.00000
    357     -11.2847      1.00000
    358     -11.2816      1.00000
    359     -11.2805      1.00000
    360     -11.2747      1.00000
    361     -11.2235      1.00000
    362     -11.2130      1.00000
    363     -11.2023      1.00000
    364     -11.2010      1.00000
    365     -11.1614      1.00000
    366     -11.1597      1.00000
    367     -11.0994      1.00000
    368     -11.0682      1.00000
    369     -11.0676      1.00000
    370     -11.0259      1.00000
    371     -11.0201      1.00000
    372     -10.9965      1.00000
    373     -10.9932      1.00000
    374     -10.9049      1.00000
    375     -10.9006      1.00000
    376     -10.8621      1.00000
    377     -10.8556      1.00000
    378     -10.7989      1.00000
    379     -10.7967      1.00000
    380     -10.7923      1.00000
    381     -10.7856      1.00000
    382     -10.7849      1.00000
    383     -10.7715      1.00000
    384     -10.7672      1.00000
    385     -10.7586      1.00000
    386     -10.7404      1.00000
    387     -10.7275      1.00000
    388     -10.6976      1.00000
    389     -10.6882      1.00000
    390     -10.6752      1.00000
    391     -10.6725      1.00000
    392     -10.5820      1.00000
    393     -10.5704      1.00000
    394     -10.5666      1.00000
    395     -10.5653      1.00000
    396     -10.5562      1.00000
    397     -10.5546      1.00000
    398     -10.5534      1.00000
    399     -10.5457      1.00000
    400     -10.5176      1.00000
    401     -10.5170      1.00000
    402     -10.4724      1.00000
    403     -10.4702      1.00000
    404     -10.4262      1.00000
    405     -10.4172      1.00000
    406     -10.3604      1.00000
    407     -10.3537      1.00000
    408     -10.3380      1.00000
    409     -10.3315      1.00000
    410     -10.3308      1.00000
    411     -10.3235      1.00000
    412     -10.3180      1.00000
    413     -10.3138      1.00000
    414     -10.3004      1.00000
    415     -10.2993      1.00000
    416     -10.2971      1.00000
    417     -10.2906      1.00000
    418     -10.2619      1.00000
    419     -10.2611      1.00000
    420     -10.2536      1.00000
    421     -10.2370      1.00000
    422     -10.2357      1.00000
    423     -10.2348      1.00000
    424     -10.2331      1.00000
    425     -10.2323      1.00000
    426     -10.2259      1.00000
    427     -10.2251      1.00000
    428     -10.2203      1.00000
    429     -10.2156      1.00000
    430     -10.2053      1.00000
    431     -10.2010      1.00000
    432     -10.1915      1.00000
    433     -10.1883      1.00000
    434     -10.1426      1.00000
    435     -10.1413      1.00000
    436     -10.1329      1.00000
    437     -10.1318      1.00000
    438     -10.1266      1.00000
    439     -10.1263      1.00000
    440     -10.1186      1.00000
    441     -10.1174      1.00000
    442     -10.1052      1.00000
    443     -10.0987      1.00000
    444     -10.0796      1.00000
    445     -10.0660      1.00000
    446     -10.0567      1.00000
    447     -10.0560      1.00000
    448     -10.0428      1.00000
    449     -10.0414      1.00000
    450      -9.9535      1.00000
    451      -9.9409      1.00000
    452      -9.9389      1.00000
    453      -9.9348      1.00000
    454      -9.9202      1.00000
    455      -9.9176      1.00000
    456      -9.8309      1.00000
    457      -9.8217      1.00000
    458      -9.8095      1.00000
    459      -9.7925      1.00000
    460      -9.7754      1.00000
    461      -9.7708      1.00000
    462      -9.7664      1.00000
    463      -9.7620      1.00000
    464      -9.7443      1.00000
    465      -9.6648      1.00000
    466      -9.6514      1.00000
    467      -9.6413      1.00000
    468      -9.6359      1.00000
    469      -9.6313      1.00000
    470      -9.6250      1.00000
    471      -9.6144      1.00000
    472      -9.6090      1.00000
    473      -9.5991      1.00000
    474      -9.5981      1.00000
    475      -9.5938      1.00000
    476      -9.5894      1.00000
    477      -9.5224      1.00000
    478      -9.5207      1.00000
    479      -9.5084      1.00000
    480      -9.4962      1.00000
    481      -9.4709      1.00000
    482      -9.4587      1.00000
    483      -9.4478      1.00000
    484      -9.4462      1.00000
    485      -9.4430      1.00000
    486      -9.4391      1.00000
    487      -9.4002      1.00000
    488      -9.3885      1.00000
    489      -9.3877      1.00000
    490      -9.3649      1.00000
    491      -9.3603      1.00000
    492      -9.3526      1.00000
    493      -9.3009      1.00000
    494      -9.2980      1.00000
    495      -9.2878      1.00000
    496      -9.2870      1.00000
    497      -9.2797      1.00000
    498      -9.2792      1.00000
    499      -9.2749      1.00000
    500      -9.2642      1.00000
    501      -9.2591      1.00000
    502      -9.2590      1.00000
    503      -9.2461      1.00000
    504      -9.2450      1.00000
    505      -9.1945      1.00000
    506      -9.1927      1.00000
    507      -9.1841      1.00000
    508      -9.1824      1.00000
    509      -9.1619      1.00000
    510      -9.1536      1.00000
    511      -9.0636      1.00000
    512      -9.0463      1.00000
    513      -8.9518      1.00000
    514      -8.9418      1.00000
    515      -8.8670      1.00000
    516      -8.8544      1.00000
    517      -8.8482      1.00000
    518      -8.8461      1.00000
    519      -8.8443      1.00000
    520      -8.8323      1.00000
    521      -8.8081      1.00000
    522      -8.8039      1.00000
    523      -8.7918      1.00000
    524      -8.7918      1.00000
    525      -8.7850      1.00000
    526      -8.7838      1.00000
    527      -8.7564      1.00000
    528      -8.7539      1.00000
    529      -8.6257      1.00000
    530      -8.6161      1.00000
    531      -8.6133      1.00000
    532      -8.6090      1.00000
    533      -8.5734      1.00000
    534      -8.5667      1.00000
    535      -8.5286      1.00000
    536      -8.5195      1.00000
    537      -8.5017      1.00000
    538      -8.5009      1.00000
    539      -8.4959      1.00000
    540      -8.4903      1.00000
    541      -8.4375      1.00000
    542      -8.4366      1.00000
    543      -8.4276      1.00000
    544      -8.4225      1.00000
    545      -8.4209      1.00000
    546      -8.4153      1.00000
    547      -8.3648      1.00000
    548      -8.3544      1.00000
    549      -8.3284      1.00000
    550      -8.3257      1.00000
    551      -8.3114      1.00000
    552      -8.3031      1.00000
    553      -8.2914      1.00000
    554      -8.2906      1.00000
    555      -8.2653      1.00000
    556      -8.2592      1.00000
    557      -8.2460      1.00000
    558      -8.2449      1.00000
    559      -8.2219      1.00000
    560      -8.2197      1.00000
    561      -8.1910      1.00000
    562      -8.1887      1.00000
    563      -8.1778      1.00000
    564      -8.1691      1.00000
    565      -8.1006      1.00000
    566      -8.0967      1.00000
    567      -8.0856      1.00000
    568      -8.0810      1.00000
    569      -8.0357      1.00000
    570      -8.0231      1.00000
    571      -7.9941      1.00000
    572      -7.9924      1.00000
    573      -7.9805      1.00000
    574      -7.9769      1.00000
    575      -7.9687      1.00000
    576      -7.9675      1.00000
    577      -7.9648      1.00000
    578      -7.9622      1.00000
    579      -7.9504      1.00000
    580      -7.9445      1.00000
    581      -7.8823      1.00000
    582      -7.8807      1.00000
    583      -7.8470      1.00000
    584      -7.8438      1.00000
    585      -7.7743      1.00000
    586      -7.7739      1.00000
    587      -7.6895      1.00000
    588      -7.6787      1.00000
    589      -7.6459      1.00000
    590      -7.6357      1.00000
    591      -7.5903      1.00000
    592      -7.5844      1.00000
    593      -7.5407      1.00000
    594      -7.5388      1.00000
    595      -7.5017      1.00000
    596      -7.4986      1.00000
    597      -7.4840      1.00000
    598      -7.4817      1.00000
    599      -7.4796      1.00000
    600      -7.4744      1.00000
    601      -7.3997      1.00000
    602      -7.3816      1.00000
    603      -7.3421      1.00000
    604      -7.3382      1.00000
    605      -7.3298      1.00000
    606      -7.3178      1.00000
    607      -7.3080      1.00000
    608      -7.3038      1.00000
    609      -7.3003      1.00000
    610      -7.2976      1.00000
    611      -7.2443      1.00000
    612      -7.2251      1.00000
    613      -7.2000      1.00000
    614      -7.1978      1.00000
    615      -7.1940      1.00000
    616      -7.1769      1.00000
    617      -7.1730      1.00000
    618      -7.1717      1.00000
    619      -7.1653      1.00000
    620      -7.1571      1.00000
    621      -7.1440      1.00000
    622      -7.1408      1.00000
    623      -7.1247      1.00000
    624      -7.1205      1.00000
    625      -7.0706      1.00000
    626      -7.0659      1.00000
    627      -7.0498      1.00000
    628      -7.0491      1.00000
    629      -6.9675      1.00000
    630      -6.9542      1.00000
    631      -6.9262      1.00000
    632      -6.9216      1.00000
    633      -6.9170      1.00000
    634      -6.9062      1.00000
    635      -6.8628      1.00000
    636      -6.8568      1.00000
    637      -6.8432      1.00000
    638      -6.8387      1.00000
    639      -6.8090      1.00000
    640      -6.8008      1.00000
    641      -6.7936      1.00000
    642      -6.7842      1.00000
    643      -6.6437      1.00000
    644      -6.6172      1.00000
    645      -6.5801      1.00000
    646      -6.5633      1.00000
    647      -6.5587      1.00000
    648      -6.5450      1.00000
    649      -6.5413      1.00000
    650      -6.5349      1.00000
    651      -6.5146      1.00000
    652      -6.5129      1.00000
    653      -6.5029      1.00000
    654      -6.4985      1.00000
    655      -6.4611      1.00000
    656      -6.4488      1.00000
    657      -6.4240      1.00000
    658      -6.4117      1.00000
    659      -6.3719      1.00000
    660      -6.3422      1.00000
    661      -6.3238      1.00000
    662      -6.2914      1.00000
    663      -6.2793      1.00000
    664      -6.2420      1.00000
    665      -6.2359      1.00000
    666      -6.1984      1.00000
    667      -6.1843      1.00000
    668      -6.1753      1.00000
    669      -6.0937      1.00000
    670      -6.0865      1.00000
    671      -6.0500      1.00000
    672      -6.0461      1.00000
    673      -5.9155      1.00000
    674      -5.8729      1.00000
    675      -5.8250      1.00000
    676      -5.7790      1.00000
    677      -5.7651      1.00000
    678      -5.7632      1.00000
    679      -5.7365      1.00000
    680      -5.6952      1.00000
    681      -5.6571      1.00000
    682      -5.6485      1.00000
    683      -5.6057      1.00000
    684      -5.5912      1.00000
    685      -5.5713      1.00000
    686      -5.5684      1.00000
    687      -5.5333      1.00000
    688      -5.5330      1.00000
    689      -5.5103      1.00000
    690      -5.5046      1.00000
    691      -5.5024      1.00000
    692      -5.4688      1.00000
    693      -5.4644      1.00000
    694      -5.4113      1.00000
    695      -5.4031      1.00000
    696      -5.3826      1.00000
    697      -5.3575      1.00000
    698      -5.3445      1.00000
    699      -5.3197      1.00000
    700      -5.2956      1.00000
    701      -5.2744      1.00000
    702      -5.2511      1.00000
    703      -5.2276      1.00000
    704      -5.2145      1.00000
    705      -5.2021      1.00000
    706      -5.1973      1.00000
    707      -5.1965      1.00000
    708      -5.0822      1.00000
    709      -5.0527      1.00000
    710      -5.0115      1.00000
    711      -5.0023      1.00000
    712      -4.9324      1.00000
    713      -4.9092      1.00000
    714      -4.8590      1.00000
    715      -4.8472      1.00000
    716      -4.6986      1.00000
    717      -4.6134      1.00000
    718      -4.5969      1.00000
    719      -4.4574      1.00000
    720      -4.4158      1.00000
    721      -4.3738      1.00000
    722      -4.3504      1.00000
    723      -4.3195      1.00000
    724      -4.2944      1.00000
    725      -4.1797      1.00000
    726      -4.1127      1.00000
    727      -4.0481      1.00000
    728      -4.0105      1.00000
    729      -3.8399      1.00000
    730      -3.6772      1.00000
    731      -3.6197      1.00000
    732      -2.7778      0.00000
    733      -2.6843      0.00000
    734      -2.6268      0.00000
    735      -2.3164      0.00000
    736      -2.2960      0.00000
    737      -2.2357      0.00000
    738      -2.2020      0.00000
    739      -2.1254      0.00000
    740      -2.1239      0.00000
    741      -2.0849      0.00000
    742      -1.9948      0.00000
    743      -1.9768      0.00000
    744      -1.9695      0.00000
    745      -1.9510      0.00000
    746      -1.9220      0.00000
    747      -1.8523      0.00000
    748      -1.8332      0.00000
    749      -1.8273      0.00000
    750      -1.8127      0.00000
    751      -1.7864      0.00000
    752      -1.7440      0.00000
    753      -1.6811      0.00000
    754      -1.6513      0.00000
    755      -1.6442      0.00000
    756      -1.6213      0.00000
    757      -1.6141      0.00000
    758      -1.5935      0.00000
    759      -1.5876      0.00000
    760      -1.5723      0.00000
    761      -1.5699      0.00000
    762      -1.5413      0.00000
    763      -1.5367      0.00000
    764      -1.5353      0.00000
    765      -1.5278      0.00000
    766      -1.4816      0.00000
    767      -1.4813      0.00000
    768      -1.4735      0.00000
    769      -1.4244      0.00000
    770      -1.3974      0.00000
    771      -1.3880      0.00000
    772      -1.3730      0.00000
    773      -1.3471      0.00000
    774      -1.3306      0.00000
    775      -1.3221      0.00000
    776      -1.3107      0.00000
    777      -1.3035      0.00000
    778      -1.2971      0.00000
    779      -1.2877      0.00000
    780      -1.2715      0.00000
    781      -1.2634      0.00000
    782      -1.2215      0.00000
    783      -1.2085      0.00000
    784      -1.1863      0.00000
    785      -1.0310      0.00000
    786      -0.9583      0.00000
    787      -0.9487      0.00000
    788      -0.9469      0.00000
    789      -0.8766      0.00000
    790      -0.8662      0.00000
    791      -0.8339      0.00000
    792      -0.7844      0.00000
    793      -0.7571      0.00000
    794      -0.7289      0.00000
    795      -0.7201      0.00000
    796      -0.7000      0.00000
    797      -0.6204      0.00000
    798      -0.5323      0.00000
    799      -0.4881      0.00000
    800      -0.4530      0.00000
    801      -0.3530      0.00000
    802      -0.3457      0.00000
    803      -0.3285      0.00000
    804      -0.2736      0.00000
    805      -0.2195      0.00000
    806      -0.1742      0.00000
    807      -0.1471      0.00000
    808      -0.0933      0.00000
    809      -0.0587      0.00000
    810      -0.0454      0.00000
    811       0.0162      0.00000
    812       0.0719      0.00000
    813       0.0896      0.00000
    814       0.0963      0.00000
    815       0.1386      0.00000
    816       0.1660      0.00000
    817       0.2074      0.00000
    818       0.2085      0.00000
    819       0.2107      0.00000
    820       0.2296      0.00000
    821       0.2309      0.00000
    822       0.2385      0.00000
    823       0.2501      0.00000
    824       0.2786      0.00000
    825       0.3273      0.00000
    826       0.3428      0.00000
    827       0.3603      0.00000
    828       0.4024      0.00000
    829       0.4525      0.00000
    830       0.4736      0.00000
    831       0.5041      0.00000
    832       0.5200      0.00000
    833       0.5227      0.00000
    834       0.5349      0.00000
    835       0.5522      0.00000
    836       0.5585      0.00000
    837       0.5647      0.00000
    838       0.5787      0.00000
    839       0.5873      0.00000
    840       0.6073      0.00000
    841       0.6123      0.00000
    842       0.6189      0.00000
    843       0.6513      0.00000
    844       0.6526      0.00000
    845       0.6565      0.00000
    846       0.6625      0.00000
    847       0.8399      0.00000
    848       0.8627      0.00000
    849       0.8852      0.00000
    850       0.8896      0.00000
    851       0.8993      0.00000
    852       0.9193      0.00000
    853       0.9215      0.00000
    854       0.9219      0.00000
    855       0.9290      0.00000
    856       0.9351      0.00000
    857       0.9407      0.00000
    858       0.9689      0.00000
    859       1.0032      0.00000
    860       1.0065      0.00000
    861       1.0132      0.00000
    862       1.0272      0.00000
    863       1.0288      0.00000
    864       1.0423      0.00000
    865       1.0474      0.00000
    866       1.0822      0.00000
    867       1.0946      0.00000
    868       1.1299      0.00000
    869       1.1324      0.00000
    870       1.2007      0.00000
    871       1.2016      0.00000
    872       1.2184      0.00000
    873       1.2268      0.00000
    874       1.2374      0.00000
    875       1.2612      0.00000
    876       1.2671      0.00000
    877       1.2689      0.00000
    878       1.2769      0.00000
    879       1.2790      0.00000
    880       1.2985      0.00000
    881       1.3038      0.00000
    882       1.3090      0.00000
    883       1.3120      0.00000
    884       1.3358      0.00000
    885       1.3417      0.00000
    886       1.3520      0.00000
    887       1.3661      0.00000
    888       1.3684      0.00000
    889       1.3690      0.00000
    890       1.3749      0.00000
    891       1.4034      0.00000
    892       1.4621      0.00000
    893       1.4652      0.00000
    894       1.4921      0.00000
    895       1.4935      0.00000
    896       1.4976      0.00000

 k-point     2 :       0.0000    0.0000    0.5000
  band No.  band energies     occupation 
      1     -22.9792      1.00000
      2     -22.9680      1.00000
      3     -22.8458      1.00000
      4     -22.8363      1.00000
      5     -22.7754      1.00000
      6     -22.7569      1.00000
      7     -22.7551      1.00000
      8     -22.7545      1.00000
      9     -22.6392      1.00000
     10     -22.6255      1.00000
     11     -22.6250      1.00000
     12     -22.6219      1.00000
     13     -22.5780      1.00000
     14     -22.5727      1.00000
     15     -22.3756      1.00000
     16     -22.3625      1.00000
     17     -22.3611      1.00000
     18     -22.3590      1.00000
     19     -22.1866      1.00000
     20     -22.1777      1.00000
     21     -22.1503      1.00000
     22     -22.1256      1.00000
     23     -22.1251      1.00000
     24     -22.1249      1.00000
     25     -22.0174      1.00000
     26     -21.9967      1.00000
     27     -21.9945      1.00000
     28     -21.9939      1.00000
     29     -21.9751      1.00000
     30     -21.9686      1.00000
     31     -21.9669      1.00000
     32     -21.9651      1.00000
     33     -21.7525      1.00000
     34     -21.7375      1.00000
     35     -21.7339      1.00000
     36     -21.7323      1.00000
     37     -21.6599      1.00000
     38     -21.6532      1.00000
     39     -21.4614      1.00000
     40     -21.4460      1.00000
     41     -21.4449      1.00000
     42     -21.4427      1.00000
     43     -21.3618      1.00000
     44     -21.3481      1.00000
     45     -21.3442      1.00000
     46     -21.3419      1.00000
     47     -21.1413      1.00000
     48     -21.1081      1.00000
     49     -21.1073      1.00000
     50     -21.1072      1.00000
     51     -21.0180      1.00000
     52     -21.0022      1.00000
     53     -20.9968      1.00000
     54     -20.9802      1.00000
     55     -20.9789      1.00000
     56     -20.9788      1.00000
     57     -20.8508      1.00000
     58     -20.8312      1.00000
     59     -20.8280      1.00000
     60     -20.8250      1.00000
     61     -20.8074      1.00000
     62     -20.7982      1.00000
     63     -20.7964      1.00000
     64     -20.7937      1.00000
     65     -20.7410      1.00000
     66     -20.7251      1.00000
     67     -20.7228      1.00000
     68     -20.7217      1.00000
     69     -20.3683      1.00000
     70     -20.3430      1.00000
     71     -20.3401      1.00000
     72     -20.3398      1.00000
     73     -20.2439      1.00000
     74     -20.2313      1.00000
     75     -20.2047      1.00000
     76     -20.1898      1.00000
     77     -20.1885      1.00000
     78     -20.1835      1.00000
     79     -20.0471      1.00000
     80     -20.0291      1.00000
     81     -20.0281      1.00000
     82     -20.0272      1.00000
     83     -19.8726      1.00000
     84     -19.8367      1.00000
     85     -19.8344      1.00000
     86     -19.8330      1.00000
     87     -19.7806      1.00000
     88     -19.7468      1.00000
     89     -19.7458      1.00000
     90     -19.7457      1.00000
     91     -19.6506      1.00000
     92     -19.6231      1.00000
     93     -19.6213      1.00000
     94     -19.6209      1.00000
     95     -19.4604      1.00000
     96     -19.4335      1.00000
     97     -19.4310      1.00000
     98     -19.4274      1.00000
     99     -19.3992      1.00000
    100     -19.3753      1.00000
    101     -19.3734      1.00000
    102     -19.3730      1.00000
    103     -19.3529      1.00000
    104     -19.3466      1.00000
    105     -19.2341      1.00000
    106     -19.2122      1.00000
    107     -19.2105      1.00000
    108     -19.2067      1.00000
    109     -19.1630      1.00000
    110     -19.1489      1.00000
    111     -19.1484      1.00000
    112     -19.1480      1.00000
    113     -19.0324      1.00000
    114     -19.0061      1.00000
    115     -19.0035      1.00000
    116     -19.0034      1.00000
    117     -18.6282      1.00000
    118     -18.5767      1.00000
    119     -18.5718      1.00000
    120     -18.5712      1.00000
    121     -18.5502      1.00000
    122     -18.5200      1.00000
    123     -18.5174      1.00000
    124     -18.5165      1.00000
    125     -18.4947      1.00000
    126     -18.4835      1.00000
    127     -18.4826      1.00000
    128     -18.4788      1.00000
    129     -18.3717      1.00000
    130     -18.3622      1.00000
    131     -18.2567      1.00000
    132     -18.1818      1.00000
    133     -18.1812      1.00000
    134     -18.1743      1.00000
    135     -18.1734      1.00000
    136     -18.1576      1.00000
    137     -18.1529      1.00000
    138     -18.1507      1.00000
    139     -18.0792      1.00000
    140     -18.0471      1.00000
    141     -18.0343      1.00000
    142     -18.0283      1.00000
    143     -17.9529      1.00000
    144     -17.9319      1.00000
    145     -17.9273      1.00000
    146     -17.9266      1.00000
    147     -17.8508      1.00000
    148     -17.8200      1.00000
    149     -17.7987      1.00000
    150     -17.7905      1.00000
    151     -17.7454      1.00000
    152     -17.7365      1.00000
    153     -17.7287      1.00000
    154     -17.7235      1.00000
    155     -17.7170      1.00000
    156     -17.7132      1.00000
    157     -17.6759      1.00000
    158     -17.6743      1.00000
    159     -17.5168      1.00000
    160     -17.4813      1.00000
    161     -17.4493      1.00000
    162     -17.4397      1.00000
    163     -17.3605      1.00000
    164     -17.3593      1.00000
    165     -17.3281      1.00000
    166     -17.3095      1.00000
    167     -17.2972      1.00000
    168     -17.2832      1.00000
    169     -17.2529      1.00000
    170     -17.2430      1.00000
    171     -17.1622      1.00000
    172     -17.1583      1.00000
    173     -17.0697      1.00000
    174     -17.0357      1.00000
    175     -16.9990      1.00000
    176     -16.9906      1.00000
    177     -16.6076      1.00000
    178     -16.5805      1.00000
    179     -16.5584      1.00000
    180     -16.5018      1.00000
    181     -16.4011      1.00000
    182     -16.3329      1.00000
    183     -16.3312      1.00000
    184     -16.3294      1.00000
    185     -16.3254      1.00000
    186     -16.3228      1.00000
    187     -16.2215      1.00000
    188     -16.2090      1.00000
    189     -16.1955      1.00000
    190     -16.1521      1.00000
    191     -16.1005      1.00000
    192     -16.0652      1.00000
    193     -16.0426      1.00000
    194     -16.0417      1.00000
    195     -15.9399      1.00000
    196     -15.8505      1.00000
    197     -15.8430      1.00000
    198     -15.8428      1.00000
    199     -15.8072      1.00000
    200     -15.7451      1.00000
    201     -15.7380      1.00000
    202     -15.7375      1.00000
    203     -15.7222      1.00000
    204     -15.6842      1.00000
    205     -15.6834      1.00000
    206     -15.6821      1.00000
    207     -15.6630      1.00000
    208     -15.6568      1.00000
    209     -15.5956      1.00000
    210     -15.5468      1.00000
    211     -15.5409      1.00000
    212     -15.5335      1.00000
    213     -15.5180      1.00000
    214     -15.4896      1.00000
    215     -15.4325      1.00000
    216     -15.3851      1.00000
    217     -15.3790      1.00000
    218     -15.3756      1.00000
    219     -15.3706      1.00000
    220     -15.3692      1.00000
    221     -15.3393      1.00000
    222     -15.3265      1.00000
    223     -15.3140      1.00000
    224     -15.2500      1.00000
    225     -15.2457      1.00000
    226     -15.2431      1.00000
    227     -15.2263      1.00000
    228     -15.2018      1.00000
    229     -15.1865      1.00000
    230     -15.1761      1.00000
    231     -15.1461      1.00000
    232     -15.1439      1.00000
    233     -15.1040      1.00000
    234     -15.0072      1.00000
    235     -14.9951      1.00000
    236     -14.9800      1.00000
    237     -14.9598      1.00000
    238     -14.9494      1.00000
    239     -14.8900      1.00000
    240     -14.7281      1.00000
    241     -14.7004      1.00000
    242     -14.6301      1.00000
    243     -14.6255      1.00000
    244     -14.2569      1.00000
    245     -14.2491      1.00000
    246     -14.2488      1.00000
    247     -14.2418      1.00000
    248     -14.2328      1.00000
    249     -14.2261      1.00000
    250     -14.1726      1.00000
    251     -14.1606      1.00000
    252     -14.1272      1.00000
    253     -14.1167      1.00000
    254     -14.0900      1.00000
    255     -14.0794      1.00000
    256     -13.9533      1.00000
    257     -13.9459      1.00000
    258     -13.8378      1.00000
    259     -13.8251      1.00000
    260     -13.8215      1.00000
    261     -13.8172      1.00000
    262     -13.8130      1.00000
    263     -13.8053      1.00000
    264     -13.7923      1.00000
    265     -13.7856      1.00000
    266     -13.7626      1.00000
    267     -13.7520      1.00000
    268     -13.6934      1.00000
    269     -13.6889      1.00000
    270     -13.6845      1.00000
    271     -13.6776      1.00000
    272     -13.6348      1.00000
    273     -13.6305      1.00000
    274     -13.5367      1.00000
    275     -13.5364      1.00000
    276     -13.5198      1.00000
    277     -13.5157      1.00000
    278     -13.3621      1.00000
    279     -13.3607      1.00000
    280     -13.3482      1.00000
    281     -13.3440      1.00000
    282     -13.3257      1.00000
    283     -13.3236      1.00000
    284     -13.1735      1.00000
    285     -13.1700      1.00000
    286     -13.1259      1.00000
    287     -13.1254      1.00000
    288     -13.1150      1.00000
    289     -13.1130      1.00000
    290     -13.0918      1.00000
    291     -13.0884      1.00000
    292     -13.0510      1.00000
    293     -13.0446      1.00000
    294     -13.0338      1.00000
    295     -13.0266      1.00000
    296     -12.9826      1.00000
    297     -12.9821      1.00000
    298     -12.8819      1.00000
    299     -12.8797      1.00000
    300     -12.8143      1.00000
    301     -12.8090      1.00000
    302     -12.7904      1.00000
    303     -12.7826      1.00000
    304     -12.7056      1.00000
    305     -12.7032      1.00000
    306     -12.5125      1.00000
    307     -12.5103      1.00000
    308     -12.3812      1.00000
    309     -12.3811      1.00000
    310     -12.2740      1.00000
    311     -12.2728      1.00000
    312     -12.2539      1.00000
    313     -12.2538      1.00000
    314     -12.1382      1.00000
    315     -12.1373      1.00000
    316     -12.0490      1.00000
    317     -12.0487      1.00000
    318     -12.0243      1.00000
    319     -12.0198      1.00000
    320     -11.9622      1.00000
    321     -11.9473      1.00000
    322     -11.9291      1.00000
    323     -11.9280      1.00000
    324     -11.9035      1.00000
    325     -11.8999      1.00000
    326     -11.8828      1.00000
    327     -11.8793      1.00000
    328     -11.8349      1.00000
    329     -11.8312      1.00000
    330     -11.8076      1.00000
    331     -11.7972      1.00000
    332     -11.7703      1.00000
    333     -11.7650      1.00000
    334     -11.7613      1.00000
    335     -11.7612      1.00000
    336     -11.7266      1.00000
    337     -11.7234      1.00000
    338     -11.6975      1.00000
    339     -11.6937      1.00000
    340     -11.6465      1.00000
    341     -11.6428      1.00000
    342     -11.6138      1.00000
    343     -11.6126      1.00000
    344     -11.5991      1.00000
    345     -11.5932      1.00000
    346     -11.5595      1.00000
    347     -11.5554      1.00000
    348     -11.5263      1.00000
    349     -11.5252      1.00000
    350     -11.5163      1.00000
    351     -11.5102      1.00000
    352     -11.4504      1.00000
    353     -11.4370      1.00000
    354     -11.4312      1.00000
    355     -11.4298      1.00000
    356     -11.4273      1.00000
    357     -11.4264      1.00000
    358     -11.4186      1.00000
    359     -11.4132      1.00000
    360     -11.0834      1.00000
    361     -11.0774      1.00000
    362     -11.0412      1.00000
    363     -11.0394      1.00000
    364     -11.0271      1.00000
    365     -11.0258      1.00000
    366     -11.0119      1.00000
    367     -11.0118      1.00000
    368     -10.9855      1.00000
    369     -10.9793      1.00000
    370     -10.9672      1.00000
    371     -10.9624      1.00000
    372     -10.9303      1.00000
    373     -10.9254      1.00000
    374     -10.8447      1.00000
    375     -10.8425      1.00000
    376     -10.8419      1.00000
    377     -10.8300      1.00000
    378     -10.7717      1.00000
    379     -10.7541      1.00000
    380     -10.7525      1.00000
    381     -10.7504      1.00000
    382     -10.7419      1.00000
    383     -10.7306      1.00000
    384     -10.7134      1.00000
    385     -10.7008      1.00000
    386     -10.6980      1.00000
    387     -10.6918      1.00000
    388     -10.6903      1.00000
    389     -10.6868      1.00000
    390     -10.6790      1.00000
    391     -10.6748      1.00000
    392     -10.6651      1.00000
    393     -10.6569      1.00000
    394     -10.6279      1.00000
    395     -10.6175      1.00000
    396     -10.5948      1.00000
    397     -10.5934      1.00000
    398     -10.5664      1.00000
    399     -10.5651      1.00000
    400     -10.5586      1.00000
    401     -10.5528      1.00000
    402     -10.5072      1.00000
    403     -10.4974      1.00000
    404     -10.4920      1.00000
    405     -10.4809      1.00000
    406     -10.4527      1.00000
    407     -10.4466      1.00000
    408     -10.4191      1.00000
    409     -10.4087      1.00000
    410     -10.3954      1.00000
    411     -10.3947      1.00000
    412     -10.3822      1.00000
    413     -10.3785      1.00000
    414     -10.3619      1.00000
    415     -10.3593      1.00000
    416     -10.3394      1.00000
    417     -10.3394      1.00000
    418     -10.3250      1.00000
    419     -10.3243      1.00000
    420     -10.3111      1.00000
    421     -10.3028      1.00000
    422     -10.2624      1.00000
    423     -10.2612      1.00000
    424     -10.2370      1.00000
    425     -10.2301      1.00000
    426     -10.2175      1.00000
    427     -10.2090      1.00000
    428     -10.2025      1.00000
    429     -10.1957      1.00000
    430     -10.1885      1.00000
    431     -10.1863      1.00000
    432     -10.1801      1.00000
    433     -10.1782      1.00000
    434     -10.1541      1.00000
    435     -10.1519      1.00000
    436     -10.0924      1.00000
    437     -10.0874      1.00000
    438     -10.0745      1.00000
    439     -10.0648      1.00000
    440     -10.0521      1.00000
    441     -10.0513      1.00000
    442     -10.0378      1.00000
    443     -10.0310      1.00000
    444      -9.9964      1.00000
    445      -9.9918      1.00000
    446      -9.9863      1.00000
    447      -9.9841      1.00000
    448      -9.9751      1.00000
    449      -9.9690      1.00000
    450      -9.9495      1.00000
    451      -9.9411      1.00000
    452      -9.9240      1.00000
    453      -9.9174      1.00000
    454      -9.8718      1.00000
    455      -9.8675      1.00000
    456      -9.8654      1.00000
    457      -9.8550      1.00000
    458      -9.8076      1.00000
    459      -9.8019      1.00000
    460      -9.7662      1.00000
    461      -9.7534      1.00000
    462      -9.7511      1.00000
    463      -9.7376      1.00000
    464      -9.7327      1.00000
    465      -9.7303      1.00000
    466      -9.7167      1.00000
    467      -9.7089      1.00000
    468      -9.6866      1.00000
    469      -9.6830      1.00000
    470      -9.6230      1.00000
    471      -9.6153      1.00000
    472      -9.5697      1.00000
    473      -9.5592      1.00000
    474      -9.5530      1.00000
    475      -9.5475      1.00000
    476      -9.5416      1.00000
    477      -9.5414      1.00000
    478      -9.5347      1.00000
    479      -9.5232      1.00000
    480      -9.4594      1.00000
    481      -9.4427      1.00000
    482      -9.4311      1.00000
    483      -9.4267      1.00000
    484      -9.4071      1.00000
    485      -9.3991      1.00000
    486      -9.3884      1.00000
    487      -9.3867      1.00000
    488      -9.3748      1.00000
    489      -9.3700      1.00000
    490      -9.3678      1.00000
    491      -9.3543      1.00000
    492      -9.3535      1.00000
    493      -9.3507      1.00000
    494      -9.3507      1.00000
    495      -9.3453      1.00000
    496      -9.3352      1.00000
    497      -9.3287      1.00000
    498      -9.3234      1.00000
    499      -9.3124      1.00000
    500      -9.3005      1.00000
    501      -9.2895      1.00000
    502      -9.2649      1.00000
    503      -9.2597      1.00000
    504      -9.2192      1.00000
    505      -9.2118      1.00000
    506      -9.1972      1.00000
    507      -9.1919      1.00000
    508      -9.1859      1.00000
    509      -9.1849      1.00000
    510      -9.1597      1.00000
    511      -9.1586      1.00000
    512      -9.0915      1.00000
    513      -9.0829      1.00000
    514      -8.9069      1.00000
    515      -8.8784      1.00000
    516      -8.8758      1.00000
    517      -8.8707      1.00000
    518      -8.8662      1.00000
    519      -8.8630      1.00000
    520      -8.8171      1.00000
    521      -8.8052      1.00000
    522      -8.7820      1.00000
    523      -8.7760      1.00000
    524      -8.7316      1.00000
    525      -8.7216      1.00000
    526      -8.6450      1.00000
    527      -8.6369      1.00000
    528      -8.6085      1.00000
    529      -8.6078      1.00000
    530      -8.5969      1.00000
    531      -8.5918      1.00000
    532      -8.5467      1.00000
    533      -8.5449      1.00000
    534      -8.5405      1.00000
    535      -8.5318      1.00000
    536      -8.5200      1.00000
    537      -8.5159      1.00000
    538      -8.4886      1.00000
    539      -8.4885      1.00000
    540      -8.4511      1.00000
    541      -8.4468      1.00000
    542      -8.4313      1.00000
    543      -8.4303      1.00000
    544      -8.4262      1.00000
    545      -8.4203      1.00000
    546      -8.3695      1.00000
    547      -8.3639      1.00000
    548      -8.3530      1.00000
    549      -8.3471      1.00000
    550      -8.3447      1.00000
    551      -8.3409      1.00000
    552      -8.3336      1.00000
    553      -8.3331      1.00000
    554      -8.3229      1.00000
    555      -8.3217      1.00000
    556      -8.3184      1.00000
    557      -8.3142      1.00000
    558      -8.3011      1.00000
    559      -8.2988      1.00000
    560      -8.2876      1.00000
    561      -8.2835      1.00000
    562      -8.2259      1.00000
    563      -8.2236      1.00000
    564      -8.1842      1.00000
    565      -8.1725      1.00000
    566      -8.1599      1.00000
    567      -8.1579      1.00000
    568      -8.1515      1.00000
    569      -8.1490      1.00000
    570      -8.0227      1.00000
    571      -8.0212      1.00000
    572      -7.9551      1.00000
    573      -7.9432      1.00000
    574      -7.8648      1.00000
    575      -7.8545      1.00000
    576      -7.8486      1.00000
    577      -7.8464      1.00000
    578      -7.8308      1.00000
    579      -7.8275      1.00000
    580      -7.8238      1.00000
    581      -7.8227      1.00000
    582      -7.7738      1.00000
    583      -7.7704      1.00000
    584      -7.7500      1.00000
    585      -7.7442      1.00000
    586      -7.6909      1.00000
    587      -7.6840      1.00000
    588      -7.6567      1.00000
    589      -7.6506      1.00000
    590      -7.6448      1.00000
    591      -7.6421      1.00000
    592      -7.6072      1.00000
    593      -7.6070      1.00000
    594      -7.5893      1.00000
    595      -7.5860      1.00000
    596      -7.5741      1.00000
    597      -7.5664      1.00000
    598      -7.5378      1.00000
    599      -7.5244      1.00000
    600      -7.5183      1.00000
    601      -7.5155      1.00000
    602      -7.5136      1.00000
    603      -7.5125      1.00000
    604      -7.4415      1.00000
    605      -7.4292      1.00000
    606      -7.3737      1.00000
    607      -7.3667      1.00000
    608      -7.2801      1.00000
    609      -7.2782      1.00000
    610      -7.2292      1.00000
    611      -7.2241      1.00000
    612      -7.2213      1.00000
    613      -7.2122      1.00000
    614      -7.2014      1.00000
    615      -7.1957      1.00000
    616      -7.1762      1.00000
    617      -7.1699      1.00000
    618      -7.1297      1.00000
    619      -7.1272      1.00000
    620      -7.1031      1.00000
    621      -7.1025      1.00000
    622      -7.0393      1.00000
    623      -7.0199      1.00000
    624      -7.0054      1.00000
    625      -7.0018      1.00000
    626      -6.9912      1.00000
    627      -6.9891      1.00000
    628      -6.9654      1.00000
    629      -6.9608      1.00000
    630      -6.9498      1.00000
    631      -6.9353      1.00000
    632      -6.9293      1.00000
    633      -6.9268      1.00000
    634      -6.8869      1.00000
    635      -6.8799      1.00000
    636      -6.7883      1.00000
    637      -6.7717      1.00000
    638      -6.7527      1.00000
    639      -6.7408      1.00000
    640      -6.7124      1.00000
    641      -6.6996      1.00000
    642      -6.6929      1.00000
    643      -6.6853      1.00000
    644      -6.6844      1.00000
    645      -6.6808      1.00000
    646      -6.6703      1.00000
    647      -6.6676      1.00000
    648      -6.6468      1.00000
    649      -6.6445      1.00000
    650      -6.6391      1.00000
    651      -6.6332      1.00000
    652      -6.6280      1.00000
    653      -6.6263      1.00000
    654      -6.6004      1.00000
    655      -6.5985      1.00000
    656      -6.4622      1.00000
    657      -6.4511      1.00000
    658      -6.3598      1.00000
    659      -6.3382      1.00000
    660      -6.2896      1.00000
    661      -6.2874      1.00000
    662      -6.2608      1.00000
    663      -6.2463      1.00000
    664      -6.2174      1.00000
    665      -6.1806      1.00000
    666      -6.1615      1.00000
    667      -6.1420      1.00000
    668      -6.0751      1.00000
    669      -6.0313      1.00000
    670      -5.9925      1.00000
    671      -5.9677      1.00000
    672      -5.9194      1.00000
    673      -5.8854      1.00000
    674      -5.8307      1.00000
    675      -5.8295      1.00000
    676      -5.8021      1.00000
    677      -5.7859      1.00000
    678      -5.7733      1.00000
    679      -5.7697      1.00000
    680      -5.7238      1.00000
    681      -5.6960      1.00000
    682      -5.6588      1.00000
    683      -5.6361      1.00000
    684      -5.6074      1.00000
    685      -5.5920      1.00000
    686      -5.5787      1.00000
    687      -5.5747      1.00000
    688      -5.5745      1.00000
    689      -5.5740      1.00000
    690      -5.5286      1.00000
    691      -5.5106      1.00000
    692      -5.5049      1.00000
    693      -5.4961      1.00000
    694      -5.4946      1.00000
    695      -5.4489      1.00000
    696      -5.4163      1.00000
    697      -5.4074      1.00000
    698      -5.3791      1.00000
    699      -5.3583      1.00000
    700      -5.2764      1.00000
    701      -5.2419      1.00000
    702      -5.2315      1.00000
    703      -5.2314      1.00000
    704      -5.2147      1.00000
    705      -5.1429      1.00000
    706      -5.1094      1.00000
    707      -5.1002      1.00000
    708      -5.0410      1.00000
    709      -5.0291      1.00000
    710      -4.9063      1.00000
    711      -4.8918      1.00000
    712      -4.8528      1.00000
    713      -4.8381      1.00000
    714      -4.8331      1.00000
    715      -4.7996      1.00000
    716      -4.7789      1.00000
    717      -4.7492      1.00000
    718      -4.6940      1.00000
    719      -4.6850      1.00000
    720      -4.5122      1.00000
    721      -4.3579      1.00000
    722      -4.3447      1.00000
    723      -4.2424      1.00000
    724      -4.2309      1.00000
    725      -4.1744      1.00000
    726      -4.1383      1.00000
    727      -3.9357      1.00000
    728      -3.9119      1.00000
    729      -3.8081      1.00000
    730      -3.7754      1.00000
    731      -3.7071      1.00000
    732      -2.7370      0.00000
    733      -2.5899      0.00000
    734      -2.5675      0.00000
    735      -2.4846      0.00000
    736      -2.4636      0.00000
    737      -2.2577      0.00000
    738      -2.1856      0.00000
    739      -2.0696      0.00000
    740      -2.0514      0.00000
    741      -2.0317      0.00000
    742      -2.0075      0.00000
    743      -1.9011      0.00000
    744      -1.8900      0.00000
    745      -1.8683      0.00000
    746      -1.8653      0.00000
    747      -1.8619      0.00000
    748      -1.8599      0.00000
    749      -1.8512      0.00000
    750      -1.8061      0.00000
    751      -1.7686      0.00000
    752      -1.7684      0.00000
    753      -1.7337      0.00000
    754      -1.7312      0.00000
    755      -1.7130      0.00000
    756      -1.6942      0.00000
    757      -1.6681      0.00000
    758      -1.6633      0.00000
    759      -1.6623      0.00000
    760      -1.6519      0.00000
    761      -1.6365      0.00000
    762      -1.6161      0.00000
    763      -1.5885      0.00000
    764      -1.4570      0.00000
    765      -1.4454      0.00000
    766      -1.4330      0.00000
    767      -1.3710      0.00000
    768      -1.3623      0.00000
    769      -1.3518      0.00000
    770      -1.3466      0.00000
    771      -1.3084      0.00000
    772      -1.2966      0.00000
    773      -1.2950      0.00000
    774      -1.2948      0.00000
    775      -1.2945      0.00000
    776      -1.2906      0.00000
    777      -1.2835      0.00000
    778      -1.2753      0.00000
    779      -1.2685      0.00000
    780      -1.2683      0.00000
    781      -1.2321      0.00000
    782      -1.2208      0.00000
    783      -1.1976      0.00000
    784      -1.1768      0.00000
    785      -1.1657      0.00000
    786      -1.1625      0.00000
    787      -1.1220      0.00000
    788      -1.0304      0.00000
    789      -0.9468      0.00000
    790      -0.9373      0.00000
    791      -0.9270      0.00000
    792      -0.7631      0.00000
    793      -0.6960      0.00000
    794      -0.6432      0.00000
    795      -0.6290      0.00000
    796      -0.6210      0.00000
    797      -0.5995      0.00000
    798      -0.4681      0.00000
    799      -0.4182      0.00000
    800      -0.3955      0.00000
    801      -0.3330      0.00000
    802      -0.3009      0.00000
    803      -0.2604      0.00000
    804      -0.2429      0.00000
    805      -0.2396      0.00000
    806      -0.1936      0.00000
    807      -0.1260      0.00000
    808      -0.1207      0.00000
    809      -0.1108      0.00000
    810      -0.0945      0.00000
    811      -0.0869      0.00000
    812      -0.0422      0.00000
    813       0.0059      0.00000
    814       0.0323      0.00000
    815       0.0509      0.00000
    816       0.0530      0.00000
    817       0.0544      0.00000
    818       0.1380      0.00000
    819       0.2107      0.00000
    820       0.2430      0.00000
    821       0.3251      0.00000
    822       0.3816      0.00000
    823       0.3994      0.00000
    824       0.4059      0.00000
    825       0.4080      0.00000
    826       0.4080      0.00000
    827       0.4149      0.00000
    828       0.4425      0.00000
    829       0.4793      0.00000
    830       0.5202      0.00000
    831       0.5303      0.00000
    832       0.5357      0.00000
    833       0.5438      0.00000
    834       0.5533      0.00000
    835       0.5672      0.00000
    836       0.5727      0.00000
    837       0.5734      0.00000
    838       0.5831      0.00000
    839       0.5916      0.00000
    840       0.5958      0.00000
    841       0.6217      0.00000
    842       0.6238      0.00000
    843       0.6671      0.00000
    844       0.6797      0.00000
    845       0.6946      0.00000
    846       0.7120      0.00000
    847       0.7250      0.00000
    848       0.7312      0.00000
    849       0.7646      0.00000
    850       0.7673      0.00000
    851       0.8011      0.00000
    852       0.8232      0.00000
    853       0.8592      0.00000
    854       0.8671      0.00000
    855       0.9333      0.00000
    856       0.9394      0.00000
    857       0.9396      0.00000
    858       0.9480      0.00000
    859       0.9566      0.00000
    860       0.9726      0.00000
    861       1.0304      0.00000
    862       1.0424      0.00000
    863       1.0443      0.00000
    864       1.0558      0.00000
    865       1.0876      0.00000
    866       1.0890      0.00000
    867       1.1208      0.00000
    868       1.1221      0.00000
    869       1.1233      0.00000
    870       1.1257      0.00000
    871       1.1423      0.00000
    872       1.1497      0.00000
    873       1.2352      0.00000
    874       1.2489      0.00000
    875       1.2775      0.00000
    876       1.2901      0.00000
    877       1.3046      0.00000
    878       1.3903      0.00000
    879       1.3976      0.00000
    880       1.4030      0.00000
    881       1.4046      0.00000
    882       1.4085      0.00000
    883       1.4189      0.00000
    884       1.4248      0.00000
    885       1.4255      0.00000
    886       1.4384      0.00000
    887       1.4649      0.00000
    888       1.4685      0.00000
    889       1.4789      0.00000
    890       1.4878      0.00000
    891       1.5000      0.00000
    892       1.5070      0.00000
    893       1.5151      0.00000
    894       1.5257      0.00000
    895       1.5714      0.00000
    896       1.5750      0.00000


--------------------------------------------------------------------------------------------------------


 soft charge-density along one line, spin component            1
         0         1         2         3         4         5         6         7         8         9
 total charge-density along one line
 
 soft charge-density along one line, spin component            2
         0         1         2         3         4         5         6         7         8         9
 total charge-density along one line
 
 pseudopotential strength for first ion, spin component:            1
 10.262   0.020  -0.000  -0.000  -0.000   0.000  -0.000   0.000
  0.020  -0.001  -0.000   0.000  -0.000   0.000  -0.000   0.000
 -0.000  -0.000  -4.372  -0.000   0.003  -0.017  -0.000   0.001
 -0.000   0.000  -0.000  -4.375  -0.000  -0.000  -0.018  -0.000
 -0.000  -0.000   0.003  -0.000  -4.371   0.001  -0.000  -0.016
  0.000   0.000  -0.017  -0.000   0.001  -0.773  -0.000   0.000
 -0.000  -0.000  -0.000  -0.018  -0.000  -0.000  -0.773  -0.000
  0.000   0.000   0.001  -0.000  -0.016   0.000  -0.000  -0.773
 pseudopotential strength for first ion, spin component:            2
 10.262   0.020  -0.000  -0.000  -0.000   0.000  -0.000   0.000
  0.020  -0.001  -0.000   0.000  -0.000   0.000  -0.000   0.000
 -0.000  -0.000  -4.372  -0.000   0.003  -0.017  -0.000   0.001
 -0.000   0.000  -0.000  -4.375  -0.000  -0.000  -0.018  -0.000
 -0.000  -0.000   0.003  -0.000  -4.371   0.001  -0.000  -0.016
  0.000   0.000  -0.017  -0.000   0.001  -0.773  -0.000   0.000
 -0.000  -0.000  -0.000  -0.018  -0.000  -0.000  -0.773  -0.000
  0.000   0.000   0.001  -0.000  -0.016   0.000  -0.000  -0.773
 total augmentation occupancy for first ion, spin component:            1
  1.473  -1.150  -0.019   0.001  -0.020  -0.011   0.000  -0.012
 -1.150   1.107   0.047  -0.001   0.056   0.016  -0.000   0.019
 -0.019   0.047   1.123   0.001  -0.122   0.187   0.001  -0.056
  0.001  -0.001   0.001   1.227   0.001   0.001   0.230   0.001
 -0.020   0.056  -0.122   0.001   1.020  -0.056   0.001   0.153
 -0.011   0.016   0.187   0.001  -0.056   0.036   0.000  -0.016
  0.000  -0.000   0.001   0.230   0.001   0.000   0.049   0.000
 -0.012   0.019  -0.056   0.001   0.153  -0.016   0.000   0.027
 total augmentation occupancy for first ion, spin component:            2
 -0.000   0.000  -0.000   0.000  -0.000   0.000  -0.000  -0.000
  0.000   0.000   0.000   0.000  -0.000   0.000   0.000  -0.000
 -0.000   0.000  -0.000  -0.000  -0.000  -0.000   0.000   0.000
  0.000   0.000  -0.000   0.000  -0.000   0.000  -0.000   0.000
 -0.000  -0.000  -0.000  -0.000  -0.000   0.000   0.000   0.000
  0.000   0.000  -0.000   0.000   0.000  -0.000   0.000   0.000
 -0.000   0.000   0.000  -0.000   0.000   0.000  -0.000   0.000
 -0.000  -0.000   0.000   0.000   0.000   0.000   0.000   0.000


------------------------ aborting loop because EDIFF is reached ----------------------------------------





 total charge

# of ion       s       p       d       tot
------------------------------------------
    1        0.868   1.790   0.000   2.658
    2        0.868   1.790   0.000   2.658
    3        0.868   1.790   0.000   2.658
    4        0.868   1.790   0.000   2.658
    5        0.868   1.791   0.000   2.658
    6        0.868   1.790   0.000   2.658
    7        0.868   1.790   0.000   2.658
    8        0.868   1.790   0.000   2.658
    9        0.868   1.791   0.000   2.658
   10        0.868   1.791   0.000   2.659
   11        0.868   1.791   0.000   2.658
   12        0.868   1.790   0.000   2.658
   13        0.868   1.791   0.000   2.658
   14        0.868   1.791   0.000   2.659
   15        0.868   1.790   0.000   2.658
   16        0.868   1.791   0.000   2.658
   17        0.868   1.791   0.000   2.658
   18        0.868   1.791   0.000   2.659
   19        0.868   1.790   0.000   2.658
   20        0.868   1.790   0.000   2.658
   21        0.868   1.790   0.000   2.658
   22        0.868   1.790   0.000   2.658
   23        0.868   1.790   0.000   2.658
   24        0.868   1.790   0.000   2.658
   25        0.868   1.791   0.000   2.659
   26        0.868   1.791   0.000   2.659
   27        0.868   1.791   0.000   2.658
   28        0.868   1.790   0.000   2.658
   29        0.868   1.790   0.000   2.658
   30        0.868   1.790   0.000   2.658
   31        0.868   1.790   0.000   2.658
   32        0.868   1.790   0.000   2.658
   33        0.868   1.790   0.000   2.658
   34        0.868   1.790   0.000   2.658
   35        0.868   1.790   0.000   2.658
   36        0.868   1.790   0.000   2.658
   37        0.868   1.790   0.000   2.658
   38        0.868   1.791   0.000   2.659
   39        0.868   1.790   0.000   2.658
   40        0.868   1.791   0.000   2.658
   41        0.868   1.791   0.000   2.658
   42        0.869   1.795   0.000   2.663
   43        0.868   1.791   0.000   2.660
   44        0.868   1.790   0.000   2.658
   45        0.868   1.790   0.000   2.658
   46        0.868   1.789   0.000   2.657
   47        0.868   1.790   0.000   2.658
   48        0.868   1.790   0.000   2.658
   49        0.868   1.790   0.000   2.658
   50        0.868   1.790   0.000   2.658
   51        0.868   1.790   0.000   2.658
   52        0.868   1.790   0.000   2.658
   53        0.868   1.790   0.000   2.658
   54        0.868   1.790   0.000   2.658
   55        0.868   1.791   0.000   2.658
   56        0.868   1.790   0.000   2.658
   57        0.868   1.790   0.000   2.658
   58        0.868   1.791   0.000   2.658
   59        0.868   1.791   0.000   2.658
   60        0.868   1.790   0.000   2.658
   61        0.868   1.790   0.000   2.658
   62        0.868   1.790   0.000   2.658
   63        0.868   1.793   0.000   2.661
   64        0.868   1.792   0.000   2.660
   65        0.868   1.791   0.000   2.659
   66        0.868   1.789   0.000   2.656
   67        0.868   1.790   0.000   2.657
   68        0.868   1.789   0.000   2.657
   69        0.868   1.790   0.000   2.658
   70        0.868   1.790   0.000   2.658
   71        0.868   1.790   0.000   2.658
   72        0.868   1.790   0.000   2.658
   73        0.868   1.790   0.000   2.658
   74        0.868   1.790   0.000   2.658
   75        0.868   1.790   0.000   2.658
   76        0.868   1.790   0.000   2.658
   77        0.868   1.790   0.000   2.658
   78        0.868   1.790   0.000   2.658
   79        0.868   1.790   0.000   2.658
   80        0.868   1.790   0.000   2.658
   81        0.868   1.790   0.000   2.658
   82        0.868   1.790   0.000   2.658
   83        0.868   1.790   0.000   2.658
   84        0.868   1.790   0.000   2.658
   85        0.868   1.790   0.000   2.658
   86        0.865   1.783   0.000   2.648
   87        0.868   1.787   0.000   2.655
   88        0.868   1.792   0.000   2.660
   89        0.868   1.791   0.000   2.659
   90        0.868   1.791   0.000   2.659
   91        0.868   1.790   0.000   2.658
   92        0.868   1.790   0.000   2.658
   93        0.868   1.790   0.000   2.658
   94        0.868   1.790   0.000   2.658
   95        0.868   1.790   0.000   2.658
   96        0.868   1.790   0.000   2.658
   97        0.868   1.790   0.000   2.658
   98        0.868   1.790   0.000   2.658
   99        0.868   1.790   0.000   2.658
  100        0.868   1.790   0.000   2.658
  101        0.868   1.790   0.000   2.658
  102        0.868   1.790   0.000   2.658
  103        0.868   1.790   0.000   2.658
  104        0.868   1.790   0.000   2.658
  105        0.868   1.790   0.000   2.658
  106        0.868   1.791   0.000   2.659
  107        0.868   1.790   0.000   2.658
  108        0.868   1.790   0.000   2.658
  109        0.867   1.789   0.000   2.656
  110        0.867   1.790   0.000   2.657
  111        0.868   1.792   0.000   2.660
  112        0.869   1.791   0.000   2.660
  113        0.868   1.791   0.000   2.659
  114        0.868   1.791   0.000   2.659
  115        0.868   1.791   0.000   2.659
  116        0.868   1.790   0.000   2.658
  117        0.868   1.790   0.000   2.658
  118        0.868   1.790   0.000   2.658
  119        0.868   1.790   0.000   2.658
  120        0.868   1.790   0.000   2.658
  121        0.868   1.790   0.000   2.658
  122        0.868   1.790   0.000   2.658
  123        0.868   1.790   0.000   2.658
  124        0.868   1.790   0.000   2.657
  125        0.868   1.789   0.000   2.657
  126        0.868   1.790   0.000   2.658
  127        0.868   1.790   0.000   2.658
  128        0.868   1.790   0.000   2.658
  129        0.868   1.791   0.000   2.659
  130        0.868   1.791   0.000   2.659
  131        0.868   1.791   0.000   2.659
  132        0.868   1.790   0.000   2.658
  133        0.868   1.789   0.000   2.656
  134        0.867   1.789   0.000   2.657
  135        0.868   1.790   0.000   2.658
  136        0.868   1.791   0.000   2.659
  137        0.868   1.791   0.000   2.659
  138        0.868   1.790   0.000   2.658
  139        0.868   1.790   0.000   2.658
  140        0.868   1.789   0.000   2.657
  141        0.868   1.789   0.000   2.657
  142        0.868   1.790   0.000   2.658
  143        0.868   1.790   0.000   2.658
  144        0.868   1.790   0.000   2.658
  145        0.868   1.790   0.000   2.658
  146        0.868   1.790   0.000   2.658
  147        0.868   1.790   0.000   2.657
  148        0.868   1.789   0.000   2.656
  149        0.868   1.789   0.000   2.657
  150        0.868   1.790   0.000   2.658
  151        0.868   1.790   0.000   2.658
  152        0.868   1.792   0.000   2.660
  153        0.868   1.791   0.000   2.660
  154        0.868   1.791   0.000   2.659
  155        0.868   1.791   0.000   2.659
  156        0.868   1.791   0.000   2.659
  157        0.868   1.789   0.000   2.657
  158        0.868   1.789   0.000   2.656
  159        0.868   1.790   0.000   2.658
  160        0.868   1.790   0.000   2.658
  161        0.868   1.790   0.000   2.658
  162        0.868   1.790   0.000   2.658
  163        0.868   1.790   0.000   2.658
  164        0.868   1.790   0.000   2.658
  165        0.868   1.790   0.000   2.657
  166        0.868   1.789   0.000   2.657
  167        0.868   1.789   0.000   2.657
  168        0.868   1.790   0.000   2.658
  169        0.868   1.791   0.000   2.659
  170        0.868   1.791   0.000   2.659
  171        0.868   1.790   0.000   2.658
  172        0.867   1.789   0.000   2.657
  173        0.868   1.788   0.000   2.656
  174        0.868   1.790   0.000   2.658
  175        0.869   1.793   0.000   2.663
  176        0.868   1.793   0.000   2.661
  177        0.868   1.792   0.000   2.660
  178        0.868   1.791   0.000   2.659
  179        0.868   1.791   0.000   2.659
  180        0.868   1.790   0.000   2.658
  181        0.868   1.789   0.000   2.657
  182        0.868   1.790   0.000   2.658
  183        0.868   1.790   0.000   2.658
  184        0.868   1.790   0.000   2.658
  185        0.868   1.790   0.000   2.658
  186        0.868   1.790   0.000   2.658
  187        0.868   1.790   0.000   2.658
  188        0.868   1.790   0.000   2.658
  189        0.868   1.790   0.000   2.658
  190        0.868   1.790   0.000   2.658
  191        0.868   1.790   0.000   2.658
  192        0.868   1.790   0.000   2.659
  193        0.868   1.791   0.000   2.659
  194        0.869   1.791   0.000   2.660
  195        0.868   1.791   0.000   2.660
  196        0.867   1.790   0.000   2.657
  197        0.867   1.789   0.000   2.656
  198        0.869   1.799   0.000   2.668
  199        0.870   1.795   0.000   2.665
  200        0.868   1.790   0.000   2.658
  201        0.868   1.790   0.000   2.658
  202        0.868   1.790   0.000   2.658
  203        0.868   1.790   0.000   2.658
  204        0.868   1.790   0.000   2.658
  205        0.868   1.790   0.000   2.658
  206        0.868   1.790   0.000   2.658
  207        0.868   1.790   0.000   2.658
  208        0.868   1.790   0.000   2.658
  209        0.868   1.790   0.000   2.658
  210        0.868   1.790   0.000   2.658
  211        0.868   1.790   0.000   2.658
  212        0.868   1.790   0.000   2.658
  213        0.868   1.790   0.000   2.657
  214        0.868   1.790   0.000   2.658
  215        0.868   1.791   0.000   2.659
  216        0.868   1.791   0.000   2.659
  217        0.868   1.792   0.000   2.660
  218        0.868   1.787   0.000   2.655
  219        0.865   1.783   0.000   2.648
  220        0.844   1.719   0.000   2.563
  221        0.870   1.784   0.000   2.654
  222        0.868   1.790   0.000   2.658
  223        0.868   1.790   0.000   2.658
  224        0.868   1.790   0.000   2.658
  225        0.868   1.790   0.000   2.658
  226        0.868   1.790   0.000   2.658
  227        0.868   1.790   0.000   2.658
  228        0.868   1.790   0.000   2.658
  229        0.868   1.790   0.000   2.658
  230        0.868   1.790   0.000   2.658
  231        0.868   1.790   0.000   2.658
  232        0.868   1.790   0.000   2.658
  233        0.868   1.790   0.000   2.658
  234        0.868   1.790   0.000   2.658
  235        0.868   1.790   0.000   2.658
  236        0.868   1.789   0.000   2.657
  237        0.868   1.789   0.000   2.657
  238        0.868   1.789   0.000   2.656
  239        0.868   1.791   0.000   2.659
  240        0.868   1.792   0.000   2.660
  241        0.868   1.793   0.000   2.661
  242        0.870   1.784   0.000   2.654
  243        0.844   1.719   0.000   2.563
  244        0.868   1.790   0.000   2.658
  245        0.868   1.790   0.000   2.658
  246        0.868   1.790   0.000   2.658
  247        0.868   1.790   0.000   2.658
  248        0.868   1.790   0.000   2.658
  249        0.868   1.790   0.000   2.658
  250        0.868   1.790   0.000   2.658
  251        0.868   1.790   0.000   2.658
  252        0.868   1.790   0.000   2.658
  253        0.868   1.790   0.000   2.658
  254        0.868   1.790   0.000   2.658
  255        0.868   1.790   0.000   2.658
  256        0.868   1.790   0.000   2.658
  257        0.868   1.790   0.000   2.658
  258        0.868   1.790   0.000   2.658
  259        0.868   1.789   0.000   2.657
  260        0.868   1.790   0.000   2.657
  261        0.868   1.790   0.000   2.658
  262        0.868   1.791   0.000   2.660
  263        0.869   1.795   0.000   2.663
  264        0.870   1.795   0.000   2.665
  265        0.869   1.799   0.000   2.669
  266        0.868   1.790   0.000   2.658
  267        0.868   1.790   0.000   2.658
  268        0.868   1.790   0.000   2.658
  269        0.868   1.790   0.000   2.658
  270        0.868   1.790   0.000   2.658
  271        0.868   1.790   0.000   2.658
  272        0.868   1.790   0.000   2.658
  273        0.868   1.790   0.000   2.658
  274        0.868   1.790   0.000   2.658
  275        0.868   1.790   0.000   2.658
  276        0.868   1.790   0.000   2.658
  277        0.868   1.790   0.000   2.658
  278        0.868   1.790   0.000   2.658
  279        0.868   1.790   0.000   2.658
  280        0.868   1.790   0.000   2.658
  281        0.868   1.790   0.000   2.658
  282        0.868   1.790   0.000   2.658
  283        0.868   1.790   0.000   2.658
  284        0.868   1.791   0.000   2.659
  285        0.868   1.792   0.000   2.660
  286        0.868   1.793   0.000   2.661
  287        0.869   1.794   0.000   2.663
  288        0.868   1.790   0.000   2.658
  289        0.868   1.790   0.000   2.658
  290        0.868   1.790   0.000   2.658
  291        0.868   1.790   0.000   2.658
  292        0.868   1.790   0.000   2.658
  293        0.868   1.790   0.000   2.658
  294        0.868   1.790   0.000   2.658
  295        0.868   1.791   0.000   2.658
  296        0.868   1.790   0.000   2.658
  297        0.868   1.790   0.000   2.658
  298        0.868   1.790   0.000   2.658
  299        0.868   1.790   0.000   2.658
  300        0.868   1.791   0.000   2.658
  301        0.868   1.791   0.000   2.659
  302        0.868   1.790   0.000   2.658
  303        0.868   1.791   0.000   2.659
  304        0.868   1.791   0.000   2.659
  305        0.868   1.790   0.000   2.658
  306        0.868   1.791   0.000   2.659
  307        0.868   1.791   0.000   2.659
  308        0.868   1.791   0.000   2.660
  309        0.868   1.792   0.000   2.660
  310        0.868   1.791   0.000   2.658
  311        0.868   1.790   0.000   2.658
  312        0.868   1.790   0.000   2.658
  313        0.868   1.791   0.000   2.659
  314        0.868   1.791   0.000   2.659
  315        0.868   1.791   0.000   2.659
  316        0.868   1.791   0.000   2.658
  317        0.868   1.791   0.000   2.658
  318        0.868   1.790   0.000   2.658
  319        0.868   1.791   0.000   2.659
  320        0.868   1.791   0.000   2.659
  321        0.868   1.791   0.000   2.659
  322        0.868   1.791   0.000   2.658
  323        0.868   1.791   0.000   2.659
  324        0.868   1.790   0.000   2.658
  325        0.868   1.791   0.000   2.659
  326        0.868   1.791   0.000   2.659
  327        0.868   1.791   0.000   2.659
  328        0.868   1.791   0.000   2.659
  329        0.868   1.791   0.000   2.659
  330        0.868   1.790   0.000   2.658
  331        0.868   1.791   0.000   2.658
  332        0.868   1.791   0.000   2.659
  333        0.868   1.791   0.000   2.658
  334        0.868   1.791   0.000   2.659
  335        0.868   1.791   0.000   2.659
  336        0.868   1.791   0.000   2.658
  337        0.868   1.790   0.000   2.658
  338        0.868   1.791   0.000   2.659
  339        0.868   1.791   0.000   2.658
  340        0.868   1.790   0.000   2.658
  341        0.868   1.790   0.000   2.658
  342        0.868   1.790   0.000   2.658
  343        0.868   1.790   0.000   2.658
  344        0.868   1.791   0.000   2.659
  345        0.868   1.791   0.000   2.659
  346        0.868   1.791   0.000   2.658
  347        0.868   1.790   0.000   2.658
  348        0.868   1.790   0.000   2.658
  349        0.868   1.790   0.000   2.658
  350        0.868   1.791   0.000   2.658
  351        0.868   1.790   0.000   2.658
  352        0.868   1.790   0.000   2.658
  353        0.868   1.790   0.000   2.658
  354        0.868   1.790   0.000   2.658
  355        0.868   1.790   0.000   2.658
  356        0.868   1.790   0.000   2.658
  357        0.868   1.790   0.000   2.658
  358        0.868   1.790   0.000   2.658
  359        0.868   1.790   0.000   2.658
  360        0.868   1.790   0.000   2.658
  361        0.868   1.790   0.000   2.658
  362        0.868   1.790   0.000   2.658
  363        0.868   1.790   0.000   2.658
  364        0.868   1.790   0.000   2.658
  365        1.488   2.242   0.042   3.772
--------------------------------------------------
tot        317.372 653.793   0.042 971.207



 magnetization (x)

# of ion       s       p       d       tot
------------------------------------------
    1       -0.000  -0.000   0.000  -0.000
    2       -0.000  -0.000   0.000  -0.000
    3       -0.000  -0.000   0.000  -0.000
    4       -0.000  -0.000   0.000  -0.000
    5       -0.000  -0.000   0.000  -0.000
    6       -0.000  -0.000   0.000  -0.000
    7       -0.000  -0.000   0.000  -0.000
    8       -0.000  -0.000   0.000  -0.000
    9       -0.000  -0.000   0.000  -0.000
   10       -0.000  -0.000   0.000  -0.000
   11       -0.000  -0.000   0.000  -0.000
   12       -0.000  -0.000   0.000  -0.000
   13       -0.000  -0.000   0.000  -0.000
   14        0.000   0.000   0.000   0.000
   15        0.000   0.000   0.000   0.000
   16       -0.000  -0.000   0.000  -0.000
   17       -0.000  -0.000   0.000  -0.000
   18       -0.000  -0.000   0.000  -0.000
   19       -0.000  -0.000   0.000  -0.000
   20       -0.000  -0.000   0.000  -0.000
   21       -0.000  -0.000   0.000  -0.000
   22       -0.000  -0.000   0.000  -0.000
   23       -0.000  -0.000   0.000  -0.000
   24       -0.000  -0.000   0.000  -0.000
   25       -0.000  -0.000   0.000  -0.000
   26        0.000   0.000   0.000   0.000
   27        0.000   0.000   0.000   0.000
   28        0.000   0.000   0.000   0.000
   29       -0.000   0.000   0.000   0.000
   30       -0.000  -0.000   0.000  -0.000
   31       -0.000  -0.000   0.000  -0.000
   32       -0.000  -0.000   0.000  -0.000
   33       -0.000  -0.000   0.000  -0.000
   34       -0.000  -0.000   0.000  -0.000
   35       -0.000  -0.000   0.000  -0.000
   36       -0.000  -0.000   0.000  -0.000
   37       -0.000  -0.000   0.000  -0.000
   38       -0.000  -0.000   0.000  -0.000
   39       -0.000  -0.000   0.000  -0.000
   40       -0.000  -0.000   0.000  -0.000
   41       -0.000  -0.000   0.000  -0.000
   42        0.000   0.000   0.000   0.000
   43        0.000   0.000   0.000   0.000
   44        0.000   0.000   0.000   0.000
   45        0.000   0.000   0.000   0.000
   46       -0.000   0.000   0.000   0.000
   47        0.000   0.000   0.000   0.000
   48       -0.000  -0.000   0.000  -0.000
   49       -0.000  -0.000   0.000  -0.000
   50       -0.000  -0.000   0.000  -0.000
   51       -0.000  -0.000   0.000  -0.000
   52       -0.000  -0.000   0.000  -0.000
   53       -0.000  -0.000   0.000  -0.000
   54       -0.000  -0.000   0.000  -0.000
   55       -0.000  -0.000   0.000  -0.000
   56       -0.000  -0.000   0.000  -0.000
   57       -0.000  -0.000   0.000  -0.000
   58       -0.000  -0.000   0.000  -0.000
   59       -0.000  -0.000   0.000  -0.000
   60       -0.000  -0.000   0.000  -0.000
   61       -0.000  -0.000   0.000  -0.000
   62       -0.000  -0.000   0.000  -0.000
   63        0.000   0.000   0.000   0.000
   64        0.000   0.000   0.000   0.000
   65        0.000   0.000   0.000   0.000
   66        0.000   0.000   0.000   0.000
   67        0.000   0.000   0.000   0.000
   68        0.000   0.000   0.000   0.000
   69       -0.000  -0.000   0.000  -0.000
   70       -0.000  -0.000   0.000  -0.000
   71       -0.000  -0.000   0.000  -0.000
   72       -0.000  -0.000   0.000  -0.000
   73       -0.000  -0.000   0.000  -0.000
   74       -0.000  -0.000   0.000  -0.000
   75       -0.000  -0.000   0.000  -0.000
   76       -0.000  -0.000   0.000  -0.000
   77        0.000  -0.000   0.000  -0.000
   78       -0.000  -0.000   0.000  -0.000
   79       -0.000  -0.000   0.000  -0.000
   80       -0.000  -0.000   0.000  -0.000
   81       -0.000  -0.000   0.000  -0.000
   82       -0.000  -0.000   0.000  -0.000
   83       -0.000  -0.000   0.000  -0.000
   84       -0.000  -0.000   0.000  -0.000
   85       -0.000  -0.000   0.000  -0.000
   86        0.000   0.000   0.000   0.000
   87        0.000   0.000   0.000   0.000
   88        0.000   0.000   0.000   0.000
   89        0.000   0.000   0.000   0.000
   90        0.000   0.000   0.000   0.000
   91        0.000   0.000   0.000   0.000
   92       -0.000  -0.000   0.000  -0.000
   93       -0.000  -0.000   0.000  -0.000
   94       -0.000  -0.000   0.000  -0.000
   95       -0.000  -0.000   0.000  -0.000
   96       -0.000  -0.000   0.000  -0.000
   97       -0.000  -0.000   0.000  -0.000
   98        0.000   0.000   0.000   0.000
   99       -0.000  -0.000   0.000  -0.000
  100        0.000   0.000   0.000   0.000
  101       -0.000  -0.000   0.000  -0.000
  102        0.000   0.000   0.000   0.000
  103       -0.000  -0.000   0.000  -0.000
  104        0.000   0.000   0.000   0.000
  105       -0.000  -0.000   0.000  -0.000
  106        0.000  -0.000   0.000  -0.000
  107       -0.000  -0.000   0.000  -0.000
  108       -0.000  -0.000   0.000  -0.000
  109        0.000   0.000   0.000   0.000
  110        0.000   0.000   0.000   0.000
  111        0.000   0.000   0.000   0.000
  112        0.000   0.000   0.000   0.000
  113        0.000   0.000   0.000   0.000
  114        0.000   0.000   0.000   0.000
  115       -0.000  -0.000   0.000  -0.000
  116       -0.000  -0.000   0.000  -0.000
  117       -0.000  -0.000   0.000  -0.000
  118       -0.000  -0.000   0.000  -0.000
  119       -0.000  -0.000   0.000  -0.000
  120       -0.000  -0.000   0.000  -0.000
  121        0.000   0.000   0.000   0.000
  122       -0.000  -0.000   0.000  -0.000
  123        0.000   0.000   0.000   0.000
  124       -0.000   0.000   0.000  -0.000
  125        0.000   0.000   0.000   0.000
  126        0.000   0.000   0.000   0.000
  127        0.000   0.000   0.000   0.000
  128        0.000   0.000   0.000   0.000
  129        0.000   0.000   0.000   0.000
  130       -0.000   0.000   0.000   0.000
  131        0.000   0.000   0.000   0.000
  132        0.000   0.000   0.000   0.000
  133        0.000   0.000   0.000   0.000
  134        0.000   0.000   0.000   0.000
  135        0.000   0.000   0.000   0.000
  136       -0.000   0.000   0.000   0.000
  137        0.000   0.000   0.000   0.000
  138       -0.000  -0.000   0.000  -0.000
  139       -0.000  -0.000   0.000  -0.000
  140       -0.000  -0.000   0.000  -0.000
  141       -0.000  -0.000   0.000  -0.000
  142       -0.000  -0.000   0.000  -0.000
  143       -0.000  -0.000   0.000  -0.000
  144        0.000   0.000   0.000   0.000
  145       -0.000  -0.000   0.000  -0.000
  146        0.000   0.000   0.000   0.000
  147       -0.000   0.000   0.000   0.000
  148        0.000   0.000   0.000   0.000
  149        0.000   0.000   0.000   0.000
  150        0.000   0.000   0.000   0.000
  151        0.000   0.000   0.000   0.000
  152        0.000   0.000   0.000   0.000
  153        0.000   0.000   0.000   0.000
  154        0.000   0.000   0.000   0.000
  155        0.000   0.000   0.000   0.000
  156        0.000   0.000   0.000   0.000
  157        0.000   0.000   0.000   0.000
  158        0.000   0.000   0.000   0.000
  159       -0.000  -0.000   0.000  -0.000
  160        0.000   0.000   0.000   0.000
  161       -0.000  -0.000   0.000  -0.000
  162       -0.000  -0.000   0.000  -0.000
  163       -0.000  -0.000   0.000  -0.000
  164       -0.000  -0.000   0.000  -0.000
  165       -0.000  -0.000   0.000  -0.000
  166       -0.000  -0.000   0.000  -0.000
  167        0.000   0.000   0.000   0.000
  168       -0.000  -0.000   0.000  -0.000
  169        0.000   0.000   0.000   0.000
  170        0.000   0.000   0.000   0.000
  171        0.000   0.000   0.000   0.000
  172        0.000   0.000   0.000   0.000
  173        0.000   0.000   0.000   0.000
  174        0.000   0.000   0.000   0.000
  175        0.000   0.000   0.000   0.000
  176        0.000   0.000   0.000   0.000
  177        0.000   0.000   0.000   0.000
  178       -0.000   0.000   0.000   0.000
  179        0.000   0.000   0.000   0.000
  180       -0.000   0.000   0.000  -0.000
  181        0.000   0.000   0.000   0.000
  182       -0.000  -0.000   0.000  -0.000
  183        0.000   0.000   0.000   0.000
  184       -0.000  -0.000   0.000  -0.000
  185       -0.000  -0.000   0.000  -0.000
  186       -0.000  -0.000   0.000  -0.000
  187       -0.000  -0.000   0.000  -0.000
  188       -0.000  -0.000   0.000  -0.000
  189       -0.000  -0.000   0.000  -0.000
  190        0.000   0.000   0.000   0.000
  191       -0.000   0.000   0.000  -0.000
  192        0.000   0.000   0.000   0.000
  193        0.000   0.000   0.000   0.000
  194        0.000   0.000   0.000   0.000
  195        0.000   0.000   0.000   0.000
  196        0.000   0.000   0.000   0.000
  197        0.000   0.000   0.000   0.000
  198        0.000   0.000   0.000   0.000
  199        0.000   0.000   0.000   0.000
  200       -0.000  -0.000   0.000  -0.000
  201        0.000   0.000   0.000   0.000
  202       -0.000  -0.000   0.000  -0.000
  203        0.000   0.000   0.000   0.000
  204       -0.000  -0.000   0.000  -0.000
  205        0.000   0.000   0.000   0.000
  206       -0.000  -0.000   0.000  -0.000
  207       -0.000  -0.000   0.000  -0.000
  208       -0.000  -0.000   0.000  -0.000
  209       -0.000  -0.000   0.000  -0.000
  210       -0.000  -0.000   0.000  -0.000
  211       -0.000  -0.000   0.000  -0.000
  212        0.000   0.000   0.000   0.000
  213       -0.000   0.000   0.000   0.000
  214        0.000   0.000   0.000   0.000
  215        0.000   0.000   0.000   0.000
  216        0.000   0.000   0.000   0.000
  217        0.000   0.000   0.000   0.000
  218        0.000   0.000   0.000   0.000
  219        0.000   0.000   0.000   0.000
  220       -0.000  -0.000   0.000  -0.000
  221        0.000  -0.000   0.000  -0.000
  222       -0.000  -0.000   0.000  -0.000
  223       -0.000  -0.000   0.000  -0.000
  224       -0.000  -0.000   0.000  -0.000
  225       -0.000  -0.000   0.000  -0.000
  226       -0.000  -0.000   0.000  -0.000
  227       -0.000  -0.000   0.000  -0.000
  228       -0.000  -0.000   0.000  -0.000
  229       -0.000  -0.000   0.000  -0.000
  230       -0.000  -0.000   0.000  -0.000
  231       -0.000  -0.000   0.000  -0.000
  232       -0.000  -0.000   0.000  -0.000
  233       -0.000  -0.000   0.000  -0.000
  234        0.000   0.000   0.000   0.000
  235       -0.000   0.000   0.000  -0.000
  236        0.000   0.000   0.000   0.000
  237        0.000   0.000   0.000   0.000
  238        0.000   0.000   0.000   0.000
  239        0.000   0.000   0.000   0.000
  240        0.000   0.000   0.000   0.000
  241        0.000   0.000   0.000   0.000
  242        0.000  -0.000   0.000  -0.000
  243       -0.000  -0.000   0.000  -0.000
  244       -0.000  -0.000   0.000  -0.000
  245       -0.000  -0.000   0.000  -0.000
  246       -0.000  -0.000   0.000  -0.000
  247       -0.000  -0.000   0.000  -0.000
  248       -0.000  -0.000   0.000  -0.000
  249       -0.000  -0.000   0.000  -0.000
  250       -0.000  -0.000   0.000  -0.000
  251       -0.000  -0.000   0.000  -0.000
  252       -0.000  -0.000   0.000  -0.000
  253       -0.000  -0.000   0.000  -0.000
  254       -0.000  -0.000   0.000  -0.000
  255       -0.000  -0.000   0.000  -0.000
  256       -0.000  -0.000   0.000  -0.000
  257       -0.000  -0.000   0.000  -0.000
  258        0.000   0.000   0.000   0.000
  259        0.000   0.000   0.000   0.000
  260        0.000   0.000   0.000   0.000
  261        0.000   0.000   0.000   0.000
  262        0.000   0.000   0.000   0.000
  263        0.000   0.000   0.000   0.000
  264        0.000   0.000   0.000   0.000
  265        0.000   0.000   0.000   0.000
  266       -0.000  -0.000   0.000  -0.000
  267       -0.000  -0.000   0.000  -0.000
  268       -0.000  -0.000   0.000  -0.000
  269       -0.000  -0.000   0.000  -0.000
  270       -0.000  -0.000   0.000  -0.000
  271       -0.000  -0.000   0.000  -0.000
  272       -0.000  -0.000   0.000  -0.000
  273       -0.000  -0.000   0.000  -0.000
  274       -0.000  -0.000   0.000  -0.000
  275       -0.000  -0.000   0.000  -0.000
  276       -0.000  -0.000   0.000  -0.000
  277       -0.000  -0.000   0.000  -0.000
  278       -0.000  -0.000   0.000  -0.000
  279       -0.000  -0.000   0.000  -0.000
  280       -0.000  -0.000   0.000  -0.000
  281        0.000   0.000   0.000   0.000
  282        0.000   0.000   0.000   0.000
  283        0.000   0.000   0.000   0.000
  284        0.000   0.000   0.000   0.000
  285        0.000   0.000   0.000   0.000
  286        0.000   0.000   0.000   0.000
  287        0.000   0.000   0.000   0.000
  288       -0.000  -0.000   0.000  -0.000
  289       -0.000  -0.000   0.000  -0.000
  290       -0.000  -0.000   0.000  -0.000
  291       -0.000  -0.000   0.000  -0.000
  292       -0.000  -0.000   0.000  -0.000
  293       -0.000  -0.000   0.000  -0.000
  294       -0.000  -0.000   0.000  -0.000
  295       -0.000  -0.000   0.000  -0.000
  296       -0.000  -0.000   0.000  -0.000
  297       -0.000  -0.000   0.000  -0.000
  298       -0.000  -0.000   0.000  -0.000
  299       -0.000  -0.000   0.000  -0.000
  300       -0.000  -0.000   0.000  -0.000
  301       -0.000  -0.000   0.000  -0.000
  302       -0.000  -0.000   0.000  -0.000
  303       -0.000  -0.000   0.000  -0.000
  304       -0.000  -0.000   0.000  -0.000
  305        0.000   0.000   0.000   0.000
  306        0.000   0.000   0.000   0.000
  307        0.000   0.000   0.000   0.000
  308        0.000   0.000   0.000   0.000
  309        0.000   0.000   0.000   0.000
  310       -0.000  -0.000   0.000  -0.000
  311       -0.000  -0.000   0.000  -0.000
  312       -0.000  -0.000   0.000  -0.000
  313       -0.000  -0.000   0.000  -0.000
  314       -0.000  -0.000   0.000  -0.000
  315       -0.000  -0.000   0.000  -0.000
  316       -0.000  -0.000   0.000  -0.000
  317       -0.000  -0.000   0.000  -0.000
  318       -0.000  -0.000   0.000  -0.000
  319       -0.000  -0.000   0.000  -0.000
  320       -0.000  -0.000   0.000  -0.000
  321       -0.000  -0.000   0.000  -0.000
  322       -0.000  -0.000   0.000  -0.000
  323       -0.000  -0.000   0.000  -0.000
  324       -0.000  -0.000   0.000  -0.000
  325       -0.000  -0.000   0.000  -0.000
  326        0.000   0.000   0.000   0.000
  327       -0.000   0.000   0.000   0.000
  328        0.000   0.000   0.000   0.000
  329       -0.000  -0.000   0.000  -0.000
  330       -0.000  -0.000   0.000  -0.000
  331       -0.000  -0.000   0.000  -0.000
  332       -0.000  -0.000   0.000  -0.000
  333       -0.000  -0.000   0.000  -0.000
  334       -0.000  -0.000   0.000  -0.000
  335       -0.000  -0.000   0.000  -0.000
  336       -0.000  -0.000   0.000  -0.000
  337       -0.000  -0.000   0.000  -0.000
  338       -0.000  -0.000   0.000  -0.000
  339       -0.000  -0.000   0.000  -0.000
  340       -0.000  -0.000   0.000  -0.000
  341       -0.000  -0.000   0.000  -0.000
  342       -0.000  -0.000   0.000  -0.000
  343        0.000  -0.000   0.000  -0.000
  344       -0.000  -0.000   0.000  -0.000
  345       -0.000  -0.000   0.000  -0.000
  346       -0.000  -0.000   0.000  -0.000
  347       -0.000  -0.000   0.000  -0.000
  348       -0.000  -0.000   0.000  -0.000
  349       -0.000  -0.000   0.000  -0.000
  350       -0.000  -0.000   0.000  -0.000
  351       -0.000  -0.000   0.000  -0.000
  352       -0.000  -0.000   0.000  -0.000
  353       -0.000  -0.000   0.000  -0.000
  354       -0.000  -0.000   0.000  -0.000
  355       -0.000  -0.000   0.000  -0.000
  356       -0.000  -0.000   0.000  -0.000
  357       -0.000  -0.000   0.000  -0.000
  358       -0.000  -0.000   0.000  -0.000
  359       -0.000  -0.000   0.000  -0.000
  360       -0.000  -0.000   0.000  -0.000
  361       -0.000  -0.000   0.000  -0.000
  362       -0.000  -0.000   0.000  -0.000
  363       -0.000  -0.000   0.000  -0.000
  364       -0.000  -0.000   0.000  -0.000
  365        0.000   0.000   0.000   0.000
--------------------------------------------------
tot         -0.000   0.000   0.000   0.000
 
    CHARGE:  cpu time      3.5237: real time      3.5241
    FORLOC:  cpu time      0.2713: real time      0.2713
    FORNL :  cpu time     77.4124: real time     77.4151
    STRESS:  cpu time    326.7858: real time    326.8001
    FORCOR:  cpu time      0.7299: real time      0.7300
    FORHAR:  cpu time      0.3375: real time      0.3376
    MIXING:  cpu time      0.0465: real time      0.0465
    OFIELD:  cpu time      0.0002: real time      0.0002

 ---------------------------------------------------------------------------------------------

         DFTD3 V3.0 Rev 1        
 IVDW         = 11
 DF pbe       
 parameters
 VDW_S6       =    1.0000
 VDW_S8       =    0.7220
 VDW_SR       =    1.2170
 rs18     =    1.0000
 alpha6   =   14.0000
 alpha8   =   16.0000
 k1-k3    =   16.0000    1.3333   -4.0000
 VDW_RADIUS   =   50.2022 A
 VDW_CNRADIUS =   21.1671 A
 Edisp (eV)  -14.08312

 E6    (eV) :    -8.0814
 E8    (eV) :    -6.0018
 % E8        : 42.62
    FORVDW:  cpu time      2.5559: real time      2.5573

  FORCE on cell =-STRESS in cart. coord.  units (eV):
  Direction    XX          YY          ZZ          XY          YZ          ZX
  --------------------------------------------------------------------------------------
  Alpha Z   418.83068   418.83068   418.83068
  Ewald  ************202288.31396514336.39837   373.39404    17.71923    -2.27352
  Hartree************226541.33629507407.68153   324.71780     5.97365    -0.77687
  E(xc)   -5437.81499 -5439.27449 -5335.97821     0.21948     0.09704    -0.01226
  Local  458401.26711************************  -694.16486   -18.76864     2.39678
  n-local -1172.19841 -1170.33678 -1246.66470    -0.25365    -0.82265     0.11557
  augment  -137.34569  -138.85922  -144.50220     0.20664     0.36216    -0.04737
  Kinetic 23454.01218 23480.05684 22092.17907    -3.90091    -4.55034     0.56100
  Fock        0.00000     0.00000     0.00000     0.00000     0.00000     0.00000
  vdW        -3.05428    -3.17655    -2.39339    -0.00075     0.00341    -0.00049
  -------------------------------------------------------------------------------------
  Total     -43.62567   -45.35204   128.03506     0.21780     0.01385    -0.03715
  in kB      -2.67955    -2.78558     7.86409     0.01338     0.00085    -0.00228
  external pressure =        0.80 kB  Pullay stress =        0.00 kB


 VOLUME and BASIS-vectors are now :
 -----------------------------------------------------------------------------
  energy-cutoff  :      400.00
  volume of cell :    26085.03
      direct lattice vectors                 reciprocal lattice vectors
    32.372299194  0.000000000  0.000000000     0.030890608  0.000000000  0.000000000
     0.000000000 19.921413422  0.000000000     0.000000000  0.050197241  0.000000000
     0.000000000  0.000000000 40.448047638     0.000000000  0.000000000  0.024723072

  length of vectors
    32.372299194 19.921413422 40.448047638     0.030890608  0.050197241  0.024723072


 FORCES acting on ions
    electron-ion (+dipol)            ewald-force                    non-local-force                 convergence-correction
 -----------------------------------------------------------------------------------------------
   -.416E+03 -.205E+03 0.847E+00   0.416E+03 0.206E+03 -.842E+00   -.287E+00 -.126E+00 -.855E-02   -.306E-07 -.111E-05 -.815E-06
   -.407E+03 -.217E+03 0.143E+01   0.407E+03 0.217E+03 -.142E+01   -.283E+00 -.136E+00 -.875E-02   0.100E-05 -.102E-05 -.220E-05
   -.285E+03 -.313E+03 0.602E+00   0.285E+03 0.313E+03 -.609E+00   -.144E+00 -.278E+00 0.652E-02   0.516E-06 -.148E-05 -.192E-05
   -.206E+03 -.347E+03 0.105E+01   0.206E+03 0.348E+03 -.104E+01   -.168E+00 -.262E+00 -.127E-01   -.194E-06 -.187E-05 -.190E-05
   -.310E+02 -.378E+03 0.237E+00   0.310E+02 0.379E+03 -.242E+00   0.202E-01 -.313E+00 0.122E-01   -.361E-06 -.224E-05 -.135E-05
   -.397E+03 -.227E+03 0.208E+01   0.398E+03 0.227E+03 -.207E+01   -.282E+00 -.146E+00 -.423E-02   0.147E-05 0.264E-06 -.300E-05
   -.271E+03 -.320E+03 0.112E+01   0.271E+03 0.320E+03 -.113E+01   -.136E+00 -.281E+00 0.559E-02   0.133E-05 -.506E-06 -.287E-05
   -.190E+03 -.352E+03 0.160E+01   0.190E+03 0.353E+03 -.160E+01   -.160E+00 -.271E+00 -.128E-01   0.333E-06 -.969E-06 -.193E-05
   -.136E+02 -.379E+03 0.712E+00   0.136E+02 0.379E+03 -.720E+00   0.327E-01 -.311E+00 0.150E-01   -.252E-06 -.129E-05 -.243E-05
   0.792E+02 -.375E+03 0.129E+01   -.792E+02 0.375E+03 -.128E+01   0.871E-02 -.312E+00 -.941E-02   -.338E-06 -.182E-05 -.212E-05
   0.248E+03 -.331E+03 0.410E+00   -.249E+03 0.332E+03 -.419E+00   0.193E+00 -.247E+00 0.924E-02   -.978E-06 -.234E-05 -.197E-05
   0.322E+03 -.291E+03 0.944E+00   -.322E+03 0.291E+03 -.937E+00   0.169E+00 -.265E+00 -.105E-01   -.871E-06 -.267E-05 -.206E-05
   0.431E+03 -.185E+03 0.107E+00   -.431E+03 0.185E+03 -.113E+00   0.293E+00 -.109E+00 0.107E-01   0.138E-07 -.157E-05 -.175E-05
   -.387E+03 -.238E+03 0.304E+01   0.387E+03 0.238E+03 -.303E+01   -.275E+00 -.158E+00 -.291E-02   0.281E-05 0.548E-06 -.139E-05
   -.257E+03 -.327E+03 0.175E+01   0.257E+03 0.327E+03 -.175E+01   -.126E+00 -.292E+00 0.411E-02   0.209E-05 0.287E-06 -.216E-05
   -.174E+03 -.357E+03 0.233E+01   0.174E+03 0.357E+03 -.232E+01   -.151E+00 -.275E+00 -.170E-01   0.178E-05 -.523E-07 -.290E-05
   0.398E+01 -.379E+03 0.123E+01   -.402E+01 0.380E+03 -.124E+01   0.427E-01 -.313E+00 0.138E-01   -.227E-06 -.497E-07 -.291E-05
   0.963E+02 -.372E+03 0.172E+01   -.964E+02 0.373E+03 -.171E+01   0.171E-01 -.313E+00 -.776E-02   -.111E-05 -.866E-06 -.364E-05
   0.263E+03 -.325E+03 0.751E+00   -.263E+03 0.325E+03 -.760E+00   0.198E+00 -.240E+00 0.883E-02   -.109E-05 -.884E-06 -.357E-05
   0.335E+03 -.282E+03 0.131E+01   -.335E+03 0.283E+03 -.130E+01   0.177E+00 -.259E+00 -.104E-01   -.122E-05 -.170E-05 -.253E-05
   0.438E+03 -.173E+03 0.459E+00   -.438E+03 0.173E+03 -.466E+00   0.295E+00 -.975E-01 0.130E-01   -.462E-06 -.487E-06 -.325E-05
   0.470E+03 -.104E+03 0.107E+01   -.470E+03 0.105E+03 -.107E+01   0.288E+00 -.127E+00 -.116E-01   0.113E-06 -.156E-06 -.246E-05
   0.485E+03 0.355E+02 0.293E+00   -.485E+03 -.356E+02 -.302E+00   0.305E+00 0.708E-01 0.125E-01   0.332E-06 0.400E-06 -.253E-05
   0.468E+03 0.108E+03 0.789E+00   -.469E+03 -.108E+03 -.780E+00   0.310E+00 0.437E-01 -.785E-02   0.342E-06 0.111E-05 -.232E-05
   0.392E+03 0.232E+03 0.719E-01   -.393E+03 -.232E+03 -.776E-01   0.219E+00 0.219E+00 0.819E-02   -.359E-06 0.233E-05 -.186E-05
   -.376E+03 -.249E+03 0.479E+01   0.376E+03 0.249E+03 -.477E+01   -.261E+00 -.169E+00 -.193E-01   0.410E-05 0.786E-06 -.153E-06
   -.241E+03 -.334E+03 0.273E+01   0.241E+03 0.335E+03 -.273E+01   -.118E+00 -.303E+00 0.587E-04   0.254E-05 0.124E-05 0.127E-06
   -.158E+03 -.362E+03 0.288E+01   0.158E+03 0.362E+03 -.286E+01   -.144E+00 -.281E+00 -.191E-01   0.989E-06 0.117E-05 -.174E-05
   0.220E+02 -.380E+03 0.153E+01   -.220E+02 0.380E+03 -.154E+01   0.518E-01 -.313E+00 0.169E-01   0.787E-06 0.139E-05 -.252E-05
   0.114E+03 -.370E+03 0.210E+01   -.114E+03 0.371E+03 -.210E+01   0.243E-01 -.316E+00 -.372E-02   -.594E-06 0.613E-06 -.191E-05
   0.278E+03 -.318E+03 0.106E+01   -.278E+03 0.319E+03 -.107E+01   0.207E+00 -.232E+00 0.797E-02   -.902E-06 0.955E-06 -.389E-05
   0.347E+03 -.273E+03 0.171E+01   -.347E+03 0.274E+03 -.170E+01   0.188E+00 -.252E+00 -.134E-01   -.871E-06 0.869E-06 -.376E-05
   0.445E+03 -.161E+03 0.849E+00   -.446E+03 0.161E+03 -.858E+00   0.301E+00 -.899E-01 0.143E-01   -.143E-05 0.603E-06 -.456E-05
   0.474E+03 -.915E+02 0.137E+01   -.474E+03 0.916E+02 -.136E+01   0.291E+00 -.115E+00 -.914E-02   -.985E-06 0.444E-06 -.492E-05
   0.483E+03 0.489E+02 0.609E+00   -.483E+03 -.490E+02 -.621E+00   0.302E+00 0.801E-01 0.117E-01   -.912E-06 0.539E-06 -.460E-05
   0.464E+03 0.121E+03 0.117E+01   -.464E+03 -.121E+03 -.116E+01   0.306E+00 0.540E-01 -.805E-02   -.414E-06 0.532E-06 -.362E-05
   0.382E+03 0.242E+03 0.500E+00   -.383E+03 -.243E+03 -.506E+00   0.213E+00 0.229E+00 0.946E-02   -.926E-06 0.169E-05 -.296E-05
   0.320E+03 0.294E+03 0.999E+00   -.320E+03 -.294E+03 -.991E+00   0.234E+00 0.209E+00 -.137E-01   -.909E-06 0.225E-05 -.239E-05
   0.166E+03 0.359E+03 0.383E+00   -.166E+03 -.359E+03 -.392E+00   0.630E-01 0.306E+00 0.147E-01   -.839E-06 0.239E-05 -.221E-05
   0.757E+02 0.375E+03 0.823E+00   -.758E+02 -.376E+03 -.816E+00   0.872E-01 0.300E+00 -.733E-02   -.818E-06 0.255E-05 -.187E-05
   -.106E+03 0.371E+03 0.167E+00   0.106E+03 -.372E+03 -.175E+00   -.109E+00 0.294E+00 0.800E-02   -.249E-06 0.243E-05 -.141E-05
   -.411E+03 -.204E+03 0.107E+02   0.412E+03 0.204E+03 -.107E+02   -.326E+00 -.299E+00 0.476E-02   0.663E-05 0.209E-05 0.537E-05
   -.363E+03 -.260E+03 0.660E+01   0.363E+03 0.260E+03 -.659E+01   -.260E+00 -.196E+00 -.429E-02   0.401E-05 0.250E-05 0.351E-05
   -.224E+03 -.342E+03 0.319E+01   0.224E+03 0.342E+03 -.320E+01   -.119E+00 -.319E+00 0.149E-01   0.530E-05 0.150E-05 0.384E-06
   -.140E+03 -.367E+03 0.325E+01   0.140E+03 0.367E+03 -.324E+01   -.143E+00 -.289E+00 -.952E-02   0.371E-05 0.145E-05 0.213E-05
   0.399E+02 -.380E+03 0.160E+01   -.400E+02 0.380E+03 -.162E+01   0.622E-01 -.310E+00 0.194E-01   0.335E-05 0.237E-05 -.193E-05
   0.131E+03 -.368E+03 0.253E+01   -.131E+03 0.368E+03 -.252E+01   0.336E-01 -.316E+00 -.806E-02   0.269E-05 0.287E-05 -.213E-05
   0.292E+03 -.311E+03 0.143E+01   -.292E+03 0.312E+03 -.144E+01   0.215E+00 -.225E+00 0.893E-02   -.863E-06 0.232E-05 -.339E-05
   0.359E+03 -.264E+03 0.193E+01   -.359E+03 0.264E+03 -.192E+01   0.196E+00 -.244E+00 -.152E-01   -.172E-05 0.205E-05 -.512E-05
   0.452E+03 -.149E+03 0.108E+01   -.452E+03 0.149E+03 -.110E+01   0.300E+00 -.805E-01 0.187E-01   -.261E-05 0.175E-05 -.462E-05
   0.477E+03 -.783E+02 0.165E+01   -.478E+03 0.784E+02 -.165E+01   0.293E+00 -.105E+00 -.548E-02   -.245E-05 0.675E-06 -.456E-05
   0.481E+03 0.622E+02 0.910E+00   -.481E+03 -.623E+02 -.920E+00   0.298E+00 0.925E-01 0.921E-02   -.249E-05 0.298E-06 -.473E-05
   0.459E+03 0.134E+03 0.155E+01   -.459E+03 -.134E+03 -.154E+01   0.305E+00 0.650E-01 -.931E-02   -.196E-05 0.325E-06 -.460E-05
   0.372E+03 0.252E+03 0.906E+00   -.372E+03 -.253E+03 -.914E+00   0.206E+00 0.235E+00 0.130E-01   -.155E-05 0.288E-06 -.468E-05
   0.307E+03 0.302E+03 0.136E+01   -.307E+03 -.302E+03 -.135E+01   0.224E+00 0.217E+00 -.983E-02   -.164E-05 0.130E-05 -.437E-05
   0.150E+03 0.363E+03 0.827E+00   -.150E+03 -.363E+03 -.837E+00   0.507E-01 0.308E+00 0.137E-01   -.118E-05 0.147E-05 -.366E-05
   0.588E+02 0.377E+03 0.129E+01   -.589E+02 -.377E+03 -.128E+01   0.778E-01 0.304E+00 -.650E-02   -.574E-06 0.163E-05 -.329E-05
   -.122E+03 0.369E+03 0.729E+00   0.122E+03 -.369E+03 -.735E+00   -.121E+00 0.288E+00 0.721E-02   0.280E-06 0.169E-05 -.253E-05
   -.209E+03 0.346E+03 0.109E+01   0.209E+03 -.346E+03 -.109E+01   -.923E-01 0.298E+00 -.139E-01   0.563E-06 0.206E-05 -.223E-05
   -.353E+03 0.269E+03 0.495E+00   0.353E+03 -.269E+03 -.504E+00   -.253E+00 0.184E+00 0.161E-01   0.539E-06 0.149E-05 -.188E-05
   -.409E+03 0.213E+03 0.893E+00   0.409E+03 -.213E+03 -.888E+00   -.235E+00 0.202E+00 -.743E-02   0.217E-06 0.131E-05 -.127E-05
   -.475E+03 0.851E+02 0.198E+00   0.476E+03 -.852E+02 -.206E+00   -.313E+00 0.243E-01 0.813E-02   -.374E-06 0.386E-06 -.103E-05
   -.376E+03 -.217E+03 0.890E+01   0.376E+03 0.217E+03 -.901E+01   -.295E+00 -.331E+00 0.103E+00   0.127E-04 -.513E-05 0.107E-04
   -.341E+03 -.271E+03 0.717E+01   0.342E+03 0.271E+03 -.720E+01   -.260E+00 -.207E+00 0.291E-01   0.109E-04 -.266E-05 0.966E-05
   -.205E+03 -.347E+03 0.271E+01   0.205E+03 0.347E+03 -.274E+01   -.129E+00 -.341E+00 0.406E-01   0.105E-04 -.428E-06 0.526E-06
   -.122E+03 -.371E+03 0.373E+01   0.122E+03 0.371E+03 -.371E+01   -.150E+00 -.303E+00 -.260E-01   0.992E-05 0.102E-05 -.624E-06
   0.579E+02 -.379E+03 0.187E+01   -.579E+02 0.380E+03 -.188E+01   0.621E-01 -.299E+00 0.118E-01   0.422E-05 0.294E-05 -.152E-05
   0.148E+03 -.365E+03 0.245E+01   -.148E+03 0.365E+03 -.244E+01   0.392E-01 -.321E+00 -.871E-02   0.227E-05 0.348E-05 -.359E-05
   0.306E+03 -.304E+03 0.138E+01   -.306E+03 0.304E+03 -.139E+01   0.211E+00 -.222E+00 0.164E-01   -.132E-05 0.351E-05 -.256E-05
   0.371E+03 -.255E+03 0.207E+01   -.371E+03 0.255E+03 -.206E+01   0.201E+00 -.244E+00 -.835E-02   -.295E-05 0.237E-05 -.242E-05
   0.458E+03 -.137E+03 0.119E+01   -.459E+03 0.137E+03 -.121E+01   0.303E+00 -.701E-01 0.189E-01   -.359E-05 0.254E-05 -.335E-05
   0.481E+03 -.651E+02 0.200E+01   -.481E+03 0.652E+02 -.199E+01   0.298E+00 -.954E-01 -.397E-02   -.370E-05 0.214E-05 -.332E-05
   0.478E+03 0.754E+02 0.125E+01   -.479E+03 -.755E+02 -.126E+01   0.294E+00 0.102E+00 0.762E-02   -.370E-05 -.285E-06 -.401E-05
   0.453E+03 0.146E+03 0.180E+01   -.454E+03 -.146E+03 -.179E+01   0.302E+00 0.767E-01 -.125E-01   -.340E-05 -.316E-06 -.520E-05
   0.361E+03 0.262E+03 0.114E+01   -.361E+03 -.262E+03 -.115E+01   0.197E+00 0.240E+00 0.179E-01   -.253E-05 -.715E-06 -.487E-05
   0.294E+03 0.309E+03 0.182E+01   -.294E+03 -.310E+03 -.182E+01   0.218E+00 0.222E+00 -.830E-02   -.159E-05 -.430E-06 -.477E-05
   0.134E+03 0.366E+03 0.134E+01   -.134E+03 -.367E+03 -.135E+01   0.399E-01 0.309E+00 0.676E-02   -.306E-06 -.299E-06 -.358E-05
   0.421E+02 0.378E+03 0.172E+01   -.421E+02 -.378E+03 -.171E+01   0.681E-01 0.309E+00 -.743E-02   -.166E-06 0.236E-06 -.361E-05
   -.138E+03 0.365E+03 0.132E+01   0.138E+03 -.366E+03 -.133E+01   -.128E+00 0.283E+00 0.945E-02   0.106E-05 0.517E-06 -.354E-05
   -.224E+03 0.340E+03 0.157E+01   0.224E+03 -.340E+03 -.156E+01   -.105E+00 0.295E+00 -.133E-01   0.113E-05 0.964E-06 -.334E-05
   -.364E+03 0.260E+03 0.110E+01   0.364E+03 -.260E+03 -.111E+01   -.261E+00 0.176E+00 0.167E-01   0.128E-05 0.803E-06 -.284E-05
   -.417E+03 0.202E+03 0.141E+01   0.418E+03 -.202E+03 -.141E+01   -.242E+00 0.196E+00 -.707E-02   0.848E-06 0.657E-06 -.282E-05
   -.478E+03 0.720E+02 0.761E+00   0.479E+03 -.720E+02 -.767E+00   -.314E+00 0.161E-01 0.668E-02   0.460E-06 0.369E-06 -.231E-05
   -.486E+03 -.203E+01 0.113E+01   0.487E+03 0.199E+01 -.112E+01   -.313E+00 0.404E-01 -.158E-01   -.591E-07 0.368E-06 -.210E-05
   -.455E+03 -.140E+03 0.418E+00   0.455E+03 0.140E+03 -.425E+00   -.273E+00 -.151E+00 0.147E-01   0.155E-06 -.723E-06 -.148E-05
   -.372E+03 -.228E+03 -.528E+01   0.372E+03 0.228E+03 0.525E+01   0.187E+00 -.462E+00 0.295E-01   0.188E-04 -.128E-04 -.659E-05
   -.316E+03 -.277E+03 0.950E+01   0.316E+03 0.277E+03 -.940E+01   -.299E+00 -.299E+00 -.113E+00   0.203E-04 -.112E-04 0.397E-05
   -.184E+03 -.346E+03 0.255E+01   0.184E+03 0.346E+03 -.257E+01   -.847E-01 -.270E+00 0.265E-01   0.140E-04 -.393E-05 0.284E-05
   -.103E+03 -.369E+03 0.208E+01   0.103E+03 0.369E+03 -.209E+01   -.137E+00 -.330E+00 0.115E-01   0.954E-05 0.592E-06 -.146E-07
   0.763E+02 -.376E+03 0.811E+00   -.763E+02 0.377E+03 -.844E+00   0.423E-01 -.322E+00 0.326E-01   0.265E-05 0.318E-05 0.141E-05
   0.166E+03 -.362E+03 0.189E+01   -.166E+03 0.362E+03 -.191E+01   0.439E-01 -.323E+00 0.159E-01   0.349E-06 0.351E-05 0.667E-06
   0.320E+03 -.297E+03 0.840E+00   -.321E+03 0.297E+03 -.855E+00   0.233E+00 -.219E+00 0.191E-01   -.134E-05 0.468E-05 -.112E-05
   0.383E+03 -.245E+03 0.241E+01   -.383E+03 0.245E+03 -.241E+01   0.209E+00 -.231E+00 -.616E-02   -.235E-05 0.494E-05 -.817E-06
   0.464E+03 -.124E+03 0.125E+01   -.465E+03 0.124E+03 -.126E+01   0.306E+00 -.524E-01 0.155E-01   -.411E-05 0.267E-05 -.195E-05
   0.483E+03 -.519E+02 0.205E+01   -.484E+03 0.520E+02 -.205E+01   0.301E+00 -.831E-01 -.321E-02   -.453E-05 0.185E-05 -.391E-05
   0.475E+03 0.886E+02 0.121E+01   -.475E+03 -.887E+02 -.123E+01   0.290E+00 0.108E+00 0.120E-01   -.456E-05 -.641E-06 -.320E-05
   0.447E+03 0.159E+03 0.201E+01   -.448E+03 -.159E+03 -.200E+01   0.305E+00 0.833E-01 -.116E-01   -.389E-05 -.184E-05 -.322E-05
   0.351E+03 0.271E+03 0.143E+01   -.351E+03 -.272E+03 -.144E+01   0.185E+00 0.248E+00 0.194E-01   -.295E-05 -.198E-05 -.287E-05
   0.281E+03 0.317E+03 0.226E+01   -.281E+03 -.317E+03 -.226E+01   0.203E+00 0.228E+00 -.442E-02   -.187E-05 -.174E-05 -.310E-05
   0.117E+03 0.370E+03 0.174E+01   -.118E+03 -.370E+03 -.175E+01   0.240E-01 0.312E+00 0.747E-02   0.137E-05 -.205E-05 -.307E-05
   0.253E+02 0.379E+03 0.206E+01   -.254E+02 -.380E+03 -.206E+01   0.556E-01 0.313E+00 -.639E-02   0.614E-06 -.134E-05 -.354E-05
   -.154E+03 0.363E+03 0.185E+01   0.154E+03 -.363E+03 -.186E+01   -.141E+00 0.283E+00 0.104E-01   0.176E-05 -.599E-06 -.247E-05
   -.239E+03 0.335E+03 0.222E+01   0.239E+03 -.335E+03 -.221E+01   -.112E+00 0.293E+00 -.162E-01   0.225E-05 0.468E-07 -.336E-05
   -.375E+03 0.250E+03 0.199E+01   0.375E+03 -.250E+03 -.200E+01   -.267E+00 0.165E+00 0.121E-01   0.288E-05 0.574E-06 -.265E-05
   -.426E+03 0.191E+03 0.199E+01   0.426E+03 -.191E+03 -.198E+01   -.251E+00 0.188E+00 -.575E-02   0.230E-05 0.688E-06 -.299E-05
   -.481E+03 0.588E+02 0.146E+01   0.481E+03 -.588E+02 -.147E+01   -.313E+00 0.554E-02 0.927E-02   0.179E-05 0.337E-06 -.273E-05
   -.486E+03 -.156E+02 0.170E+01   0.486E+03 0.155E+02 -.169E+01   -.314E+00 0.279E-01 -.134E-01   0.116E-05 0.465E-06 -.233E-05
   -.449E+03 -.152E+03 0.956E+00   0.449E+03 0.152E+03 -.964E+00   -.270E+00 -.160E+00 0.170E-01   0.111E-05 -.136E-06 -.238E-05
   -.382E+03 -.241E+03 -.947E+01   0.382E+03 0.242E+03 0.949E+01   -.425E+00 -.411E+00 -.236E-01   0.981E-05 -.109E-05 -.659E-05
   -.309E+03 -.286E+03 -.732E+01   0.309E+03 0.286E+03 0.733E+01   -.175E+00 -.161E+00 -.160E-01   0.170E-04 -.793E-05 -.879E-05
   -.169E+03 -.351E+03 -.373E+01   0.169E+03 0.351E+03 0.374E+01   -.726E-01 -.204E+00 -.561E-02   0.103E-04 -.101E-05 -.390E-05
   -.832E+02 -.373E+03 0.524E+00   0.833E+02 0.373E+03 -.519E+00   -.133E+00 -.238E+00 -.597E-02   0.747E-05 0.832E-06 -.105E-05
   0.930E+02 -.378E+03 -.709E+00   -.932E+02 0.378E+03 0.709E+00   0.138E+00 -.339E+00 0.453E-05   0.542E-05 0.333E-05 -.210E-05
   0.183E+03 -.358E+03 0.190E+01   -.183E+03 0.358E+03 -.189E+01   0.616E-01 -.304E+00 -.161E-01   0.266E-05 0.437E-05 0.131E-05
   0.335E+03 -.289E+03 0.441E+00   -.335E+03 0.289E+03 -.455E+00   0.267E+00 -.205E+00 0.207E-01   -.562E-06 0.465E-05 0.130E-05
   0.394E+03 -.235E+03 0.166E+01   -.394E+03 0.235E+03 -.167E+01   0.218E+00 -.214E+00 -.435E-03   -.244E-05 0.472E-05 -.741E-06
   0.470E+03 -.110E+03 0.412E+00   -.470E+03 0.111E+03 -.432E+00   0.307E+00 -.509E-01 0.211E-01   -.452E-05 0.223E-05 -.345E-06
   0.486E+03 -.382E+02 0.167E+01   -.486E+03 0.383E+02 -.166E+01   0.302E+00 -.791E-01 -.867E-03   -.495E-05 0.223E-06 -.655E-06
   0.472E+03 0.102E+03 0.815E+00   -.472E+03 -.102E+03 -.824E+00   0.283E+00 0.121E+00 0.106E-01   -.504E-05 -.867E-06 -.135E-05
   0.441E+03 0.171E+03 0.210E+01   -.442E+03 -.171E+03 -.210E+01   0.297E+00 0.926E-01 -.130E-01   -.485E-05 -.163E-05 -.990E-06
   0.340E+03 0.281E+03 0.167E+01   -.340E+03 -.281E+03 -.168E+01   0.177E+00 0.256E+00 0.198E-01   -.232E-05 -.350E-05 -.128E-05
   0.268E+03 0.324E+03 0.224E+01   -.268E+03 -.324E+03 -.224E+01   0.195E+00 0.238E+00 -.223E-02   -.168E-05 -.300E-05 -.288E-05
   0.101E+03 0.373E+03 0.162E+01   -.101E+03 -.373E+03 -.163E+01   0.151E-01 0.310E+00 0.175E-01   0.184E-05 -.297E-05 -.247E-05
   0.849E+01 0.380E+03 0.255E+01   -.853E+01 -.381E+03 -.255E+01   0.481E-01 0.310E+00 -.134E-01   0.293E-05 -.226E-05 -.220E-05
   -.170E+03 0.360E+03 0.262E+01   0.170E+03 -.360E+03 -.262E+01   -.160E+00 0.276E+00 0.307E-02   0.437E-05 -.890E-06 -.817E-07
   -.253E+03 0.329E+03 0.276E+01   0.253E+03 -.329E+03 -.275E+01   -.124E+00 0.296E+00 -.112E-01   0.367E-05 -.615E-06 -.931E-06
   -.384E+03 0.241E+03 0.308E+01   0.385E+03 -.241E+03 -.309E+01   -.270E+00 0.156E+00 0.111E-01   0.395E-05 0.391E-07 -.119E-05
   -.433E+03 0.179E+03 0.284E+01   0.433E+03 -.179E+03 -.283E+01   -.256E+00 0.178E+00 -.763E-02   0.342E-05 0.647E-07 -.200E-05
   -.482E+03 0.457E+02 0.261E+01   0.483E+03 -.457E+02 -.262E+01   -.315E+00 -.698E-02 0.128E-01   0.289E-05 0.387E-06 -.184E-05
   -.484E+03 -.290E+02 0.264E+01   0.485E+03 0.290E+02 -.263E+01   -.314E+00 0.165E-01 -.143E-01   0.250E-05 0.203E-06 -.275E-05
   -.442E+03 -.164E+03 0.181E+01   0.442E+03 0.165E+03 -.181E+01   -.260E+00 -.169E+00 0.109E-01   0.214E-05 0.529E-06 -.241E-05
   -.377E+03 -.246E+03 -.703E+01   0.377E+03 0.246E+03 0.701E+01   -.249E+00 -.268E+00 0.205E-01   0.622E-05 0.819E-06 -.396E-05
   -.312E+03 -.300E+03 -.776E+01   0.312E+03 0.300E+03 0.770E+01   -.235E+00 -.188E+00 0.568E-01   0.796E-05 -.285E-06 -.482E-05
   -.161E+03 -.361E+03 -.403E+01   0.161E+03 0.362E+03 0.402E+01   -.458E-01 -.311E+00 0.134E-01   0.856E-05 0.772E-06 -.824E-06
   -.697E+02 -.375E+03 -.104E+01   0.698E+02 0.375E+03 0.108E+01   -.967E-01 -.268E+00 -.389E-01   0.815E-05 0.168E-05 0.742E-06
   0.110E+03 -.373E+03 -.168E+01   -.110E+03 0.373E+03 0.168E+01   0.834E-01 -.295E+00 -.321E-03   0.278E-05 0.362E-05 0.433E-06
   0.199E+03 -.353E+03 -.975E+00   -.199E+03 0.354E+03 0.996E+00   0.750E-01 -.301E+00 -.278E-01   0.209E-05 0.424E-05 -.224E-05
   0.347E+03 -.280E+03 -.138E+01   -.347E+03 0.280E+03 0.138E+01   0.258E+00 -.196E+00 0.102E-01   -.238E-05 0.390E-05 -.203E-05
   0.405E+03 -.225E+03 0.393E+00   -.405E+03 0.225E+03 -.384E+00   0.217E+00 -.217E+00 -.106E-01   -.327E-05 0.331E-05 -.385E-06
   0.475E+03 -.981E+02 -.483E+00   -.475E+03 0.981E+02 0.475E+00   0.313E+00 -.148E-01 0.632E-02   -.380E-05 0.376E-05 -.104E-05
   0.488E+03 -.247E+02 0.126E+01   -.488E+03 0.248E+02 -.125E+01   0.295E+00 -.594E-01 -.102E-01   -.469E-05 0.217E-05 0.112E-05
   0.468E+03 0.115E+03 0.343E+00   -.468E+03 -.115E+03 -.356E+00   0.273E+00 0.131E+00 0.147E-01   -.433E-05 -.182E-05 0.114E-05
   0.435E+03 0.182E+03 0.131E+01   -.435E+03 -.182E+03 -.130E+01   0.292E+00 0.106E+00 -.112E-01   -.441E-05 -.251E-05 -.129E-05
   0.329E+03 0.290E+03 0.804E+00   -.329E+03 -.291E+03 -.826E+00   0.176E+00 0.255E+00 0.273E-01   -.188E-05 -.425E-05 -.512E-06
   0.255E+03 0.332E+03 0.198E+01   -.255E+03 -.332E+03 -.198E+01   0.207E+00 0.247E+00 -.423E-02   0.294E-08 -.446E-05 -.502E-06
   0.859E+02 0.376E+03 0.156E+01   -.859E+02 -.377E+03 -.158E+01   -.283E-02 0.312E+00 0.183E-01   0.206E-05 -.361E-05 -.288E-06
   -.785E+01 0.380E+03 0.285E+01   0.783E+01 -.381E+03 -.285E+01   0.221E-01 0.292E+00 -.110E-01   0.374E-05 -.288E-05 0.830E-08
   -.184E+03 0.355E+03 0.291E+01   0.184E+03 -.355E+03 -.291E+01   -.171E+00 0.262E+00 0.546E-02   0.810E-05 -.373E-06 0.217E-06
   -.266E+03 0.324E+03 0.307E+01   0.267E+03 -.324E+03 -.307E+01   -.141E+00 0.307E+00 -.247E-02   0.553E-05 -.939E-06 -.952E-07
   -.393E+03 0.232E+03 0.462E+01   0.393E+03 -.233E+03 -.463E+01   -.281E+00 0.153E+00 0.599E-02   0.463E-05 -.618E-06 0.165E-05
   -.439E+03 0.168E+03 0.464E+01   0.439E+03 -.168E+03 -.462E+01   -.259E+00 0.172E+00 -.253E-01   0.445E-05 -.983E-07 0.371E-07
   -.482E+03 0.328E+02 0.510E+01   0.483E+03 -.327E+02 -.511E+01   -.304E+00 -.189E-01 0.113E-01   0.422E-05 0.927E-06 0.408E-06
   -.482E+03 -.424E+02 0.408E+01   0.482E+03 0.424E+02 -.408E+01   -.316E+00 0.437E-02 -.425E-02   0.345E-05 0.112E-05 -.855E-06
   -.434E+03 -.176E+03 0.302E+01   0.434E+03 0.177E+03 -.303E+01   -.255E+00 -.179E+00 0.827E-02   0.327E-05 0.917E-06 -.122E-05
   -.369E+03 -.253E+03 -.466E+01   0.369E+03 0.253E+03 0.464E+01   -.203E+00 -.234E+00 0.275E-01   0.440E-05 0.516E-06 -.108E-06
   -.303E+03 -.304E+03 -.455E+01   0.304E+03 0.304E+03 0.456E+01   -.228E+00 -.224E+00 -.857E-02   0.416E-05 0.106E-05 -.173E-05
   -.146E+03 -.365E+03 -.300E+01   0.146E+03 0.365E+03 0.299E+01   -.533E-01 -.334E+00 0.720E-02   0.456E-05 0.181E-05 0.165E-06
   -.550E+02 -.378E+03 -.277E+01   0.551E+02 0.378E+03 0.276E+01   -.950E-01 -.299E+00 0.523E-02   0.718E-05 0.193E-05 -.165E-06
   0.125E+03 -.369E+03 -.276E+01   -.125E+03 0.370E+03 0.275E+01   0.988E-01 -.274E+00 0.207E-02   0.197E-05 0.330E-05 0.285E-07
   0.213E+03 -.347E+03 -.143E+01   -.213E+03 0.347E+03 0.145E+01   0.774E-01 -.300E+00 -.272E-01   0.740E-07 0.369E-05 0.271E-06
   0.357E+03 -.270E+03 -.185E+01   -.357E+03 0.271E+03 0.185E+01   0.266E+00 -.185E+00 0.128E-01   -.178E-05 0.478E-05 0.518E-06
   0.413E+03 -.213E+03 -.713E+00   -.413E+03 0.214E+03 0.733E+00   0.238E+00 -.195E+00 -.210E-01   -.321E-05 0.426E-05 0.545E-06
   0.478E+03 -.844E+02 -.125E+01   -.478E+03 0.844E+02 0.124E+01   0.310E+00 -.235E-01 0.518E-02   -.472E-05 0.171E-05 0.120E-05
   0.488E+03 -.111E+02 -.352E+00   -.489E+03 0.112E+02 0.367E+00   0.300E+00 -.517E-01 -.165E-01   -.448E-05 0.735E-06 -.127E-05
   0.463E+03 0.127E+03 -.127E+01   -.463E+03 -.128E+03 0.126E+01   0.268E+00 0.137E+00 0.137E-01   -.418E-05 -.328E-05 -.118E-05
   0.428E+03 0.195E+03 0.500E+00   -.428E+03 -.195E+03 -.495E+00   0.296E+00 0.954E-01 -.790E-02   -.297E-05 -.431E-05 0.959E-06
   0.317E+03 0.299E+03 -.351E+00   -.318E+03 -.299E+03 0.338E+00   0.151E+00 0.271E+00 0.134E-01   -.206E-05 -.351E-05 0.341E-06
   0.241E+03 0.339E+03 0.145E+01   -.242E+03 -.339E+03 -.144E+01   0.197E+00 0.256E+00 -.325E-02   -.724E-06 -.394E-05 0.205E-05
   0.696E+02 0.380E+03 0.106E+01   -.696E+02 -.380E+03 -.107E+01   -.733E-02 0.312E+00 0.213E-01   0.410E-05 -.372E-05 0.228E-05
   -.239E+02 0.381E+03 0.177E+01   0.239E+02 -.381E+03 -.177E+01   0.111E-02 0.308E+00 -.892E-02   0.458E-05 -.314E-05 -.370E-06
   -.197E+03 0.349E+03 0.117E+01   0.197E+03 -.349E+03 -.121E+01   -.164E+00 0.231E+00 0.478E-01   0.910E-05 -.173E-07 -.634E-06
   -.278E+03 0.318E+03 0.409E+01   0.278E+03 -.318E+03 -.408E+01   -.124E+00 0.287E+00 -.579E-02   0.909E-05 0.884E-06 0.841E-06
   -.399E+03 0.226E+03 0.779E+01   0.400E+03 -.227E+03 -.772E+01   -.273E+00 0.118E+00 -.638E-01   0.793E-05 0.148E-05 0.478E-05
   -.443E+03 0.159E+03 0.697E+01   0.444E+03 -.159E+03 -.695E+01   -.310E+00 0.196E+00 -.245E-01   0.634E-05 0.145E-06 0.389E-05
   -.480E+03 0.202E+02 0.963E+01   0.480E+03 -.202E+02 -.967E+01   -.313E+00 -.945E-02 0.518E-01   0.613E-05 0.539E-06 0.308E-05
   -.478E+03 -.560E+02 0.725E+01   0.478E+03 0.560E+02 -.727E+01   -.297E+00 -.272E-01 0.130E-01   0.525E-05 0.594E-06 0.207E-05
   -.425E+03 -.189E+03 0.543E+01   0.425E+03 0.189E+03 -.544E+01   -.265E+00 -.205E+00 0.526E-02   0.444E-05 0.149E-05 0.162E-05
   -.359E+03 -.262E+03 -.283E+01   0.360E+03 0.262E+03 0.282E+01   -.200E+00 -.240E+00 0.122E-01   0.343E-05 0.114E-06 0.197E-05
   -.292E+03 -.310E+03 -.297E+01   0.292E+03 0.310E+03 0.298E+01   -.218E+00 -.221E+00 -.120E-01   0.363E-05 0.337E-06 0.115E-05
   -.131E+03 -.367E+03 -.268E+01   0.131E+03 0.367E+03 0.267E+01   -.413E-01 -.320E+00 0.103E-01   0.275E-05 0.124E-05 0.894E-06
   -.390E+02 -.380E+03 -.249E+01   0.391E+02 0.380E+03 0.249E+01   -.808E-01 -.311E+00 0.239E-02   0.334E-05 0.165E-05 0.964E-07
   0.141E+03 -.366E+03 -.245E+01   -.141E+03 0.367E+03 0.244E+01   0.129E+00 -.282E+00 0.761E-02   0.140E-05 0.267E-05 0.221E-05
   0.227E+03 -.341E+03 -.146E+01   -.227E+03 0.341E+03 0.148E+01   0.961E-01 -.293E+00 -.246E-01   0.128E-07 0.316E-05 0.254E-05
   0.366E+03 -.260E+03 -.211E+01   -.367E+03 0.260E+03 0.210E+01   0.254E+00 -.180E+00 0.109E-01   -.306E-05 0.299E-05 0.292E-05
   0.420E+03 -.202E+03 -.154E+01   -.420E+03 0.202E+03 0.155E+01   0.237E+00 -.198E+00 -.111E-01   -.342E-05 0.354E-05 0.135E-05
   0.480E+03 -.716E+02 -.204E+01   -.481E+03 0.716E+02 0.203E+01   0.313E+00 -.133E-01 0.370E-02   -.498E-05 0.712E-06 0.115E-05
   0.488E+03 0.246E+01 -.836E+00   -.488E+03 -.241E+01 0.850E+00   0.304E+00 -.411E-01 -.189E-01   -.496E-05 -.413E-06 0.131E-05
   0.457E+03 0.140E+03 -.166E+01   -.457E+03 -.140E+03 0.166E+01   0.268E+00 0.154E+00 0.775E-02   -.493E-05 -.148E-05 0.601E-06
   0.419E+03 0.205E+03 -.439E+00   -.419E+03 -.205E+03 0.456E+00   0.283E+00 0.131E+00 -.196E-01   -.407E-05 -.298E-05 0.265E-06
   0.302E+03 0.307E+03 -.169E+01   -.303E+03 -.307E+03 0.169E+01   0.154E+00 0.267E+00 -.116E-02   -.834E-06 -.460E-05 0.631E-06
   0.227E+03 0.345E+03 -.462E+00   -.227E+03 -.345E+03 0.480E+00   0.205E+00 0.269E+00 -.162E-01   0.130E-05 -.423E-05 -.142E-05
   0.524E+02 0.381E+03 -.189E+01   -.524E+02 -.381E+03 0.188E+01   -.190E-01 0.312E+00 0.124E-01   0.474E-05 -.373E-05 -.134E-05
   -.416E+02 0.382E+03 0.747E+00   0.416E+02 -.383E+03 -.746E+00   0.416E-01 0.364E+00 -.626E-02   0.714E-05 -.220E-05 0.208E-05
   -.209E+03 0.345E+03 -.416E+00   0.209E+03 -.345E+03 0.407E+00   -.191E+00 0.194E+00 0.145E-01   0.828E-05 0.554E-06 0.105E-05
   -.283E+03 0.306E+03 0.376E+01   0.283E+03 -.306E+03 -.377E+01   -.122E+00 0.174E+00 0.144E-01   0.104E-04 0.293E-05 0.405E-05
   -.392E+03 0.215E+03 0.731E+01   0.392E+03 -.215E+03 -.732E+01   -.211E+00 0.110E+00 0.737E-02   0.147E-04 0.111E-04 0.898E-05
   -.446E+03 0.154E+03 0.938E+01   0.447E+03 -.155E+03 -.940E+01   -.519E+00 0.286E+00 0.162E-01   0.933E-05 0.269E-05 0.664E-05
   -.472E+03 0.131E+02 0.195E+02   0.473E+03 -.131E+02 -.196E+02   -.497E+00 0.325E-01 0.135E+00   0.781E-05 0.267E-05 0.133E-04
   -.469E+03 -.685E+02 0.153E+02   0.469E+03 0.685E+02 -.153E+02   -.262E+00 -.563E-01 -.146E-01   0.689E-05 0.186E-05 0.604E-05
   -.349E+03 -.272E+03 -.193E+01   0.349E+03 0.272E+03 0.193E+01   -.191E+00 -.250E+00 0.135E-01   0.249E-05 -.731E-06 0.289E-05
   -.279E+03 -.317E+03 -.186E+01   0.279E+03 0.317E+03 0.186E+01   -.213E+00 -.227E+00 -.816E-02   0.275E-05 -.364E-06 0.258E-05
   -.115E+03 -.370E+03 -.214E+01   0.115E+03 0.370E+03 0.213E+01   -.308E-01 -.314E+00 0.107E-01   0.154E-05 0.409E-06 0.335E-05
   -.229E+02 -.379E+03 -.174E+01   0.229E+02 0.380E+03 0.175E+01   -.606E-01 -.311E+00 -.126E-01   0.862E-06 0.905E-06 0.243E-05
   0.157E+03 -.362E+03 -.195E+01   -.157E+03 0.362E+03 0.194E+01   0.138E+00 -.285E+00 0.671E-02   -.612E-06 0.137E-05 0.354E-05
   0.241E+03 -.334E+03 -.160E+01   -.241E+03 0.335E+03 0.160E+01   0.108E+00 -.293E+00 -.124E-01   -.180E-06 0.232E-05 0.302E-05
   0.376E+03 -.250E+03 -.213E+01   -.377E+03 0.250E+03 0.213E+01   0.260E+00 -.163E+00 0.883E-02   -.297E-05 0.174E-05 0.308E-05
   0.427E+03 -.190E+03 -.132E+01   -.428E+03 0.191E+03 0.133E+01   0.243E+00 -.188E+00 -.104E-01   -.370E-05 0.188E-05 0.290E-05
   0.482E+03 -.586E+02 -.196E+01   -.483E+03 0.586E+02 0.195E+01   0.317E+00 -.118E-02 0.474E-02   -.420E-05 0.112E-05 0.331E-05
   0.487E+03 0.157E+02 -.120E+01   -.487E+03 -.157E+02 0.122E+01   0.309E+00 -.254E-01 -.211E-01   -.452E-05 -.483E-06 0.328E-05
   0.450E+03 0.152E+03 -.202E+01   -.450E+03 -.153E+03 0.202E+01   0.267E+00 0.158E+00 0.141E-01   -.413E-05 -.268E-05 0.390E-05
   0.409E+03 0.217E+03 -.130E+01   -.409E+03 -.217E+03 0.131E+01   0.282E+00 0.134E+00 -.901E-02   -.353E-05 -.318E-05 0.192E-05
   0.288E+03 0.314E+03 -.249E+01   -.288E+03 -.314E+03 0.248E+01   0.139E+00 0.281E+00 0.590E-03   -.649E-06 -.471E-05 0.705E-06
   0.210E+03 0.350E+03 -.927E+00   -.210E+03 -.350E+03 0.943E+00   0.164E+00 0.269E+00 -.207E-01   0.626E-06 -.447E-05 0.100E-05
   0.342E+02 0.382E+03 -.197E+01   -.342E+02 -.382E+03 0.199E+01   -.439E-01 0.325E+00 -.141E-01   0.229E-05 -.350E-05 -.873E-06
   -.576E+02 0.378E+03 -.811E+00   0.577E+02 -.379E+03 0.841E+00   -.461E-01 0.323E+00 -.346E-01   0.434E-05 -.282E-05 -.154E-05
   -.226E+03 0.337E+03 -.207E+01   0.227E+03 -.337E+03 0.208E+01   -.219E+00 0.283E+00 -.893E-02   0.101E-04 0.130E-05 -.146E-06
   -.295E+03 0.298E+03 -.255E+01   0.295E+03 -.299E+03 0.257E+01   -.151E+00 0.240E+00 -.181E-01   0.131E-04 0.664E-05 -.298E-05
   -.395E+03 0.204E+03 -.956E+01   0.395E+03 -.204E+03 0.946E+01   -.364E+00 0.210E+00 0.105E+00   0.170E-04 0.152E-04 -.398E-05
   -.432E+03 0.144E+03 0.518E+01   0.432E+03 -.144E+03 -.515E+01   0.576E-01 0.498E+00 -.381E-01   0.150E-04 0.163E-04 0.661E-05
   -.480E+03 0.177E+02 0.162E+02   0.477E+03 -.193E+02 -.177E+02   0.234E+01 0.157E+01 0.142E+01   0.167E-04 0.882E-05 0.127E-04
   -.440E+03 -.781E+02 0.175E+02   0.440E+03 0.783E+02 -.178E+02   0.904E-01 -.257E+00 0.316E+00   0.107E-04 0.208E-05 0.204E-04
   -.337E+03 -.281E+03 -.132E+01   0.337E+03 0.281E+03 0.131E+01   -.183E+00 -.256E+00 0.151E-01   0.109E-05 -.115E-05 0.278E-05
   -.265E+03 -.324E+03 -.969E+00   0.265E+03 0.324E+03 0.977E+00   -.202E+00 -.238E+00 -.796E-02   0.120E-05 -.933E-06 0.276E-05
   -.989E+02 -.372E+03 -.150E+01   0.989E+02 0.372E+03 0.150E+01   -.202E-01 -.314E+00 0.551E-02   0.549E-06 -.649E-06 0.332E-05
   -.619E+01 -.379E+03 -.122E+01   0.623E+01 0.380E+03 0.123E+01   -.485E-01 -.308E+00 -.131E-01   0.369E-06 -.203E-06 0.356E-05
   0.172E+03 -.358E+03 -.166E+01   -.172E+03 0.358E+03 0.165E+01   0.150E+00 -.277E+00 0.107E-01   -.969E-06 -.279E-06 0.368E-05
   0.255E+03 -.328E+03 -.122E+01   -.255E+03 0.328E+03 0.123E+01   0.118E+00 -.291E+00 -.804E-02   -.131E-05 0.312E-06 0.359E-05
   0.386E+03 -.240E+03 -.174E+01   -.387E+03 0.240E+03 0.173E+01   0.270E+00 -.156E+00 0.794E-02   -.230E-05 0.607E-06 0.471E-05
   0.434E+03 -.179E+03 -.108E+01   -.435E+03 0.179E+03 0.109E+01   0.252E+00 -.179E+00 -.146E-01   -.302E-05 0.740E-06 0.482E-05
   0.484E+03 -.452E+02 -.178E+01   -.484E+03 0.452E+02 0.177E+01   0.315E+00 0.436E-02 0.690E-02   -.342E-05 -.187E-06 0.515E-05
   0.486E+03 0.292E+02 -.124E+01   -.486E+03 -.292E+02 0.125E+01   0.312E+00 -.203E-01 -.170E-01   -.369E-05 -.469E-06 0.400E-05
   0.443E+03 0.164E+03 -.199E+01   -.443E+03 -.165E+03 0.199E+01   0.260E+00 0.170E+00 0.135E-01   -.326E-05 -.251E-05 0.322E-05
   0.399E+03 0.227E+03 -.124E+01   -.399E+03 -.227E+03 0.125E+01   0.274E+00 0.146E+00 -.947E-02   -.305E-05 -.270E-05 0.326E-05
   0.273E+03 0.320E+03 -.217E+01   -.273E+03 -.320E+03 0.216E+01   0.129E+00 0.288E+00 0.969E-03   -.189E-05 -.231E-05 0.229E-05
   0.193E+03 0.353E+03 -.153E+01   -.193E+03 -.353E+03 0.155E+01   0.145E+00 0.270E+00 -.223E-01   0.302E-06 -.325E-05 0.241E-05
   0.158E+02 0.381E+03 -.259E+01   -.158E+02 -.381E+03 0.258E+01   -.454E-01 0.324E+00 0.159E-01   0.407E-05 -.288E-05 0.338E-05
   -.764E+02 0.377E+03 -.195E+01   0.764E+02 -.378E+03 0.196E+01   -.196E-01 0.306E+00 -.106E-01   0.583E-05 -.208E-05 0.130E-05
   -.245E+03 0.335E+03 -.383E+01   0.245E+03 -.335E+03 0.381E+01   -.224E+00 0.253E+00 0.249E-01   0.106E-04 0.110E-05 0.499E-06
   -.315E+03 0.295E+03 -.276E+01   0.315E+03 -.295E+03 0.280E+01   -.215E+00 0.297E+00 -.356E-01   0.108E-04 0.249E-05 -.607E-06
   -.417E+03 0.192E+03 -.730E+01   0.418E+03 -.192E+03 0.733E+01   -.303E+00 0.133E+00 -.324E-01   0.103E-04 0.469E-05 -.970E-05
   -.432E+03 0.132E+03 -.897E+01   0.432E+03 -.133E+03 0.908E+01   -.370E+00 0.241E+00 -.110E+00   0.112E-04 0.762E-05 -.106E-04
   -.449E+03 -.162E+02 -.176E+02   0.449E+03 0.160E+02 0.179E+02   0.163E-01 0.275E+00 -.313E+00   0.110E-04 0.322E-06 -.204E-04
   -.459E+03 -.118E+03 -.163E+02   0.457E+03 0.119E+03 0.178E+02   0.267E+01 -.895E+00 -.141E+01   0.185E-04 -.477E-05 -.125E-04
   -.325E+03 -.289E+03 -.792E+00   0.325E+03 0.289E+03 0.782E+00   -.175E+00 -.264E+00 0.118E-01   0.560E-06 -.201E-05 0.128E-05
   -.251E+03 -.330E+03 -.406E+00   0.251E+03 0.330E+03 0.416E+00   -.194E+00 -.244E+00 -.685E-02   0.541E-06 -.182E-05 0.186E-05
   -.822E+02 -.374E+03 -.105E+01   0.822E+02 0.375E+03 0.105E+01   -.119E-01 -.314E+00 0.417E-02   0.138E-06 -.190E-05 0.226E-05
   0.108E+02 -.379E+03 -.692E+00   -.108E+02 0.379E+03 0.702E+00   -.384E-01 -.311E+00 -.151E-01   -.191E-06 -.154E-05 0.253E-05
   0.188E+03 -.353E+03 -.124E+01   -.188E+03 0.354E+03 0.123E+01   0.157E+00 -.271E+00 0.147E-01   -.102E-05 -.174E-05 0.335E-05
   0.269E+03 -.321E+03 -.754E+00   -.269E+03 0.322E+03 0.763E+00   0.132E+00 -.284E+00 -.815E-02   -.162E-05 -.159E-05 0.372E-05
   0.396E+03 -.229E+03 -.134E+01   -.396E+03 0.229E+03 0.133E+01   0.276E+00 -.148E+00 0.426E-02   -.176E-05 -.105E-05 0.445E-05
   0.441E+03 -.167E+03 -.870E+00   -.442E+03 0.167E+03 0.881E+00   0.257E+00 -.173E+00 -.120E-01   -.177E-05 0.386E-07 0.468E-05
   0.485E+03 -.319E+02 -.157E+01   -.486E+03 0.318E+02 0.156E+01   0.312E+00 0.167E-01 0.982E-02   -.192E-05 -.418E-06 0.454E-05
   0.484E+03 0.425E+02 -.882E+00   -.485E+03 -.425E+02 0.889E+00   0.312E+00 -.109E-01 -.155E-01   -.243E-05 -.675E-06 0.468E-05
   0.436E+03 0.176E+03 -.165E+01   -.436E+03 -.176E+03 0.164E+01   0.255E+00 0.181E+00 0.115E-01   -.245E-05 -.678E-06 0.448E-05
   0.389E+03 0.237E+03 -.111E+01   -.389E+03 -.238E+03 0.112E+01   0.269E+00 0.156E+00 -.113E-01   -.224E-05 -.159E-05 0.455E-05
   0.258E+03 0.327E+03 -.204E+01   -.258E+03 -.327E+03 0.204E+01   0.122E+00 0.286E+00 0.740E-02   -.730E-06 -.170E-05 0.503E-05
   0.176E+03 0.357E+03 -.158E+01   -.176E+03 -.358E+03 0.159E+01   0.148E+00 0.274E+00 -.172E-01   0.480E-06 -.199E-05 0.330E-05
   -.178E+01 0.380E+03 -.270E+01   0.183E+01 -.381E+03 0.269E+01   -.507E-01 0.315E+00 0.175E-01   0.432E-05 -.209E-05 0.204E-05
   -.940E+02 0.374E+03 -.172E+01   0.940E+02 -.375E+03 0.173E+01   -.231E-01 0.316E+00 -.118E-01   0.484E-05 -.162E-05 0.179E-05
   -.261E+03 0.328E+03 -.342E+01   0.261E+03 -.328E+03 0.341E+01   -.215E+00 0.240E+00 0.419E-02   0.477E-05 -.867E-06 -.225E-05
   -.331E+03 0.286E+03 -.328E+01   0.331E+03 -.286E+03 0.329E+01   -.200E+00 0.278E+00 -.148E-01   0.616E-05 -.713E-06 -.544E-06
   -.434E+03 0.176E+03 -.674E+01   0.435E+03 -.177E+03 0.674E+01   -.302E+00 0.121E+00 0.687E-02   0.481E-05 -.214E-05 -.374E-05
   -.462E+03 0.110E+03 -.107E+02   0.462E+03 -.111E+03 0.107E+02   -.393E+00 0.203E+00 -.724E-02   0.716E-05 -.105E-05 -.556E-05
   -.474E+03 -.333E+02 -.154E+02   0.474E+03 0.333E+02 0.154E+02   -.266E+00 -.120E-01 0.140E-01   0.727E-05 -.554E-06 -.626E-05
   -.452E+03 -.112E+03 -.195E+02   0.453E+03 0.112E+03 0.197E+02   -.466E+00 -.161E+00 -.130E+00   0.834E-05 -.108E-05 -.135E-04
   -.312E+03 -.297E+03 -.341E+00   0.312E+03 0.298E+03 0.331E+00   -.164E+00 -.269E+00 0.119E-01   0.399E-06 -.246E-05 0.527E-06
   -.236E+03 -.336E+03 0.781E-01   0.237E+03 0.337E+03 -.696E-01   -.183E+00 -.250E+00 -.727E-02   0.625E-07 -.239E-05 0.696E-06
   -.653E+02 -.376E+03 -.616E+00   0.653E+02 0.376E+03 0.610E+00   -.217E-03 -.314E+00 0.808E-02   -.500E-06 -.251E-05 0.108E-05
   0.279E+02 -.379E+03 -.151E+00   -.278E+02 0.379E+03 0.160E+00   -.230E-01 -.313E+00 -.157E-01   -.668E-06 -.248E-05 0.150E-05
   0.203E+03 -.348E+03 -.796E+00   -.203E+03 0.349E+03 0.788E+00   0.163E+00 -.264E+00 0.146E-01   -.102E-05 -.271E-05 0.202E-05
   0.283E+03 -.314E+03 -.351E+00   -.283E+03 0.314E+03 0.358E+00   0.141E+00 -.278E+00 -.704E-02   -.999E-06 -.241E-05 0.236E-05
   0.405E+03 -.219E+03 -.996E+00   -.406E+03 0.219E+03 0.987E+00   0.281E+00 -.139E+00 0.455E-02   -.706E-06 -.180E-05 0.250E-05
   0.448E+03 -.155E+03 -.510E+00   -.448E+03 0.155E+03 0.521E+00   0.267E+00 -.164E+00 -.132E-01   -.699E-06 -.111E-05 0.304E-05
   0.486E+03 -.185E+02 -.119E+01   -.487E+03 0.184E+02 0.119E+01   0.311E+00 0.297E-01 0.127E-01   -.348E-06 -.141E-06 0.367E-05
   0.482E+03 0.558E+02 -.573E+00   -.482E+03 -.558E+02 0.581E+00   0.313E+00 0.226E-02 -.120E-01   -.864E-06 -.476E-06 0.458E-05
   0.428E+03 0.188E+03 -.140E+01   -.428E+03 -.188E+03 0.139E+01   0.248E+00 0.187E+00 0.992E-02   -.107E-05 -.667E-07 0.491E-05
   0.378E+03 0.248E+03 -.872E+00   -.378E+03 -.248E+03 0.881E+00   0.267E+00 0.163E+00 -.936E-02   -.138E-05 -.151E-06 0.454E-05
   0.244E+03 0.333E+03 -.182E+01   -.244E+03 -.333E+03 0.181E+01   0.116E+00 0.292E+00 0.857E-02   -.174E-06 -.445E-06 0.378E-05
   0.160E+03 0.361E+03 -.119E+01   -.160E+03 -.361E+03 0.120E+01   0.140E+00 0.281E+00 -.177E-01   0.109E-06 -.751E-06 0.382E-05
   -.195E+02 0.379E+03 -.225E+01   0.196E+02 -.380E+03 0.224E+01   -.618E-01 0.311E+00 0.127E-01   0.578E-06 -.723E-06 0.183E-05
   -.111E+03 0.371E+03 -.167E+01   0.111E+03 -.371E+03 0.168E+01   -.348E-01 0.317E+00 -.818E-02   0.207E-05 -.122E-05 0.242E-05
   -.276E+03 0.319E+03 -.307E+01   0.276E+03 -.319E+03 0.306E+01   -.216E+00 0.230E+00 0.102E-01   0.201E-05 -.123E-05 0.164E-05
   -.345E+03 0.275E+03 -.283E+01   0.346E+03 -.275E+03 0.283E+01   -.194E+00 0.264E+00 -.430E-02   0.336E-05 -.111E-05 -.176E-06
   -.443E+03 0.162E+03 -.492E+01   0.443E+03 -.162E+03 0.490E+01   -.295E+00 0.958E-01 0.254E-01   0.433E-05 -.405E-06 0.107E-06
   -.471E+03 0.929E+02 -.542E+01   0.471E+03 -.930E+02 0.542E+01   -.308E+00 0.128E+00 -.291E-02   0.476E-05 -.937E-06 -.167E-05
   -.479E+03 -.477E+02 -.732E+01   0.479E+03 0.478E+02 0.733E+01   -.293E+00 -.513E-01 -.144E-01   0.538E-05 0.400E-06 -.206E-05
   -.457E+03 -.121E+03 -.963E+01   0.457E+03 0.121E+03 0.968E+01   -.303E+00 -.738E-01 -.495E-01   0.622E-05 0.653E-06 -.315E-05
   -.299E+03 -.305E+03 0.100E+00   0.299E+03 0.305E+03 -.110E+00   -.155E+00 -.273E+00 0.888E-02   0.184E-06 -.208E-05 -.636E-06
   -.221E+03 -.342E+03 0.559E+00   0.222E+03 0.342E+03 -.549E+00   -.177E+00 -.257E+00 -.104E-01   0.215E-06 -.253E-05 -.312E-06
   -.482E+02 -.377E+03 -.174E+00   0.482E+02 0.378E+03 0.169E+00   0.948E-02 -.314E+00 0.107E-01   -.501E-06 -.271E-05 0.293E-08
   0.450E+02 -.378E+03 0.308E+00   -.449E+02 0.378E+03 -.301E+00   -.130E-01 -.314E+00 -.144E-01   -.888E-06 -.287E-05 -.180E-07
   0.218E+03 -.343E+03 -.399E+00   -.219E+03 0.343E+03 0.390E+00   0.173E+00 -.259E+00 0.147E-01   -.857E-06 -.308E-05 0.431E-06
   0.296E+03 -.307E+03 0.811E-01   -.296E+03 0.307E+03 -.743E-01   0.152E+00 -.274E+00 -.622E-02   -.810E-06 -.304E-05 0.930E-06
   0.414E+03 -.208E+03 -.644E+00   -.414E+03 0.208E+03 0.637E+00   0.284E+00 -.127E+00 0.683E-02   0.172E-08 -.200E-05 0.140E-05
   0.454E+03 -.142E+03 -.108E+00   -.454E+03 0.143E+03 0.117E+00   0.271E+00 -.154E+00 -.156E-01   0.146E-06 -.154E-05 0.196E-05
   0.487E+03 -.496E+01 -.824E+00   -.487E+03 0.492E+01 0.815E+00   0.311E+00 0.379E-01 0.145E-01   0.577E-06 -.462E-06 0.240E-05
   0.479E+03 0.691E+02 -.290E+00   -.480E+03 -.691E+02 0.296E+00   0.313E+00 0.134E-01 -.877E-02   0.280E-06 0.744E-07 0.254E-05
   0.420E+03 0.199E+03 -.112E+01   -.420E+03 -.200E+03 0.111E+01   0.243E+00 0.196E+00 0.700E-02   -.162E-06 0.844E-06 0.245E-05
   0.367E+03 0.258E+03 -.489E+00   -.368E+03 -.258E+03 0.498E+00   0.262E+00 0.175E+00 -.121E-01   -.670E-06 0.109E-05 0.321E-05
   0.228E+03 0.339E+03 -.143E+01   -.228E+03 -.339E+03 0.142E+01   0.102E+00 0.296E+00 0.949E-02   -.115E-05 0.181E-05 0.254E-05
   0.143E+03 0.365E+03 -.825E+00   -.143E+03 -.365E+03 0.833E+00   0.130E+00 0.285E+00 -.136E-01   -.556E-06 0.884E-06 0.362E-05
   -.371E+02 0.378E+03 -.185E+01   0.372E+02 -.379E+03 0.183E+01   -.667E-01 0.306E+00 0.125E-01   -.350E-06 0.620E-06 0.367E-05
   -.129E+03 0.367E+03 -.136E+01   0.129E+03 -.367E+03 0.137E+01   -.392E-01 0.314E+00 -.521E-02   0.699E-06 -.685E-08 0.288E-05
   -.290E+03 0.311E+03 -.248E+01   0.290E+03 -.311E+03 0.247E+01   -.217E+00 0.223E+00 0.945E-02   0.244E-05 0.211E-06 0.295E-05
   -.357E+03 0.265E+03 -.185E+01   0.358E+03 -.265E+03 0.185E+01   -.199E+00 0.247E+00 -.122E-01   0.262E-05 -.331E-06 0.212E-05
   -.450E+03 0.149E+03 -.313E+01   0.451E+03 -.149E+03 0.313E+01   -.307E+00 0.782E-01 0.116E-01   0.303E-05 -.515E-06 0.132E-05
   -.475E+03 0.787E+02 -.296E+01   0.475E+03 -.788E+02 0.296E+01   -.295E+00 0.104E+00 -.203E-02   0.347E-05 -.619E-06 0.113E-05
   -.478E+03 -.619E+02 -.413E+01   0.479E+03 0.620E+02 0.413E+01   -.302E+00 -.884E-01 -.113E-02   0.378E-05 -.560E-06 0.782E-06
   -.455E+03 -.134E+03 -.505E+01   0.456E+03 0.134E+03 0.506E+01   -.297E+00 -.611E-01 -.133E-01   0.458E-05 -.275E-06 -.418E-06
   0.621E+02 -.376E+03 0.783E+00   -.621E+02 0.377E+03 -.780E+00   -.486E-02 -.315E+00 -.121E-01   -.944E-06 -.274E-05 -.531E-06
   0.234E+03 -.337E+03 -.119E-01   -.234E+03 0.338E+03 0.356E-02   0.180E+00 -.250E+00 0.121E-01   -.787E-06 -.294E-05 -.614E-06
   0.309E+03 -.299E+03 0.536E+00   -.310E+03 0.299E+03 -.529E+00   0.161E+00 -.270E+00 -.786E-02   -.619E-06 -.292E-05 -.191E-06
   0.422E+03 -.197E+03 -.247E+00   -.423E+03 0.197E+03 0.241E+00   0.288E+00 -.118E+00 0.763E-02   0.121E-06 -.207E-05 0.990E-07
   0.460E+03 -.130E+03 0.268E+00   -.460E+03 0.130E+03 -.260E+00   0.277E+00 -.144E+00 -.155E-01   0.634E-06 -.122E-05 0.140E-06
   0.486E+03 0.854E+01 -.489E+00   -.487E+03 -.859E+01 0.481E+00   0.310E+00 0.501E-01 0.152E-01   0.103E-05 -.682E-08 0.152E-06
   0.476E+03 0.823E+02 0.854E-01   -.477E+03 -.824E+02 -.798E-01   0.312E+00 0.225E-01 -.673E-02   0.862E-06 0.300E-06 0.726E-06
   0.411E+03 0.211E+03 -.742E+00   -.411E+03 -.211E+03 0.735E+00   0.235E+00 0.203E+00 0.558E-02   -.274E-07 0.208E-05 0.957E-06
   0.356E+03 0.267E+03 -.134E+00   -.356E+03 -.267E+03 0.143E+00   0.254E+00 0.184E+00 -.143E-01   -.448E-06 0.219E-05 0.175E-05
   0.213E+03 0.344E+03 -.101E+01   -.213E+03 -.345E+03 0.100E+01   0.948E-01 0.297E+00 0.122E-01   -.998E-06 0.274E-05 0.211E-05
   0.126E+03 0.368E+03 -.433E+00   -.126E+03 -.368E+03 0.439E+00   0.118E+00 0.288E+00 -.112E-01   -.788E-06 0.223E-05 0.199E-05
   -.545E+02 0.377E+03 -.135E+01   0.546E+02 -.377E+03 0.134E+01   -.766E-01 0.304E+00 0.932E-02   0.200E-06 0.175E-05 0.216E-05
   -.145E+03 0.363E+03 -.772E+00   0.145E+03 -.364E+03 0.781E+00   -.512E-01 0.308E+00 -.759E-02   0.387E-06 0.125E-05 0.250E-05
   -.303E+03 0.303E+03 -.172E+01   0.304E+03 -.304E+03 0.171E+01   -.227E+00 0.218E+00 0.592E-02   0.834E-06 0.740E-06 0.204E-05
   -.369E+03 0.255E+03 -.116E+01   0.369E+03 -.255E+03 0.117E+01   -.205E+00 0.236E+00 -.131E-01   0.166E-05 0.263E-06 0.297E-05
   -.457E+03 0.137E+03 -.212E+01   0.457E+03 -.137E+03 0.211E+01   -.309E+00 0.652E-01 0.138E-01   0.158E-05 -.687E-06 0.307E-05
   -.479E+03 0.651E+02 -.175E+01   0.479E+03 -.652E+02 0.176E+01   -.297E+00 0.947E-01 -.263E-02   0.228E-05 -.584E-06 0.244E-05
   -.477E+03 -.754E+02 -.266E+01   0.477E+03 0.755E+02 0.266E+01   -.296E+00 -.102E+00 0.506E-02   0.267E-05 0.802E-07 0.267E-05
   -.451E+03 -.146E+03 -.254E+01   0.452E+03 0.147E+03 0.255E+01   -.306E+00 -.737E-01 -.193E-01   0.316E-05 -.982E-07 0.177E-05
   0.465E+03 -.117E+03 0.674E+00   -.465E+03 0.117E+03 -.667E+00   0.281E+00 -.135E+00 -.143E-01   0.568E-06 -.127E-05 -.885E-06
   0.486E+03 0.220E+02 -.880E-01   -.486E+03 -.221E+02 0.791E-01   0.308E+00 0.627E-01 0.147E-01   0.951E-06 0.423E-06 -.594E-06
   0.473E+03 0.955E+02 0.455E+00   -.473E+03 -.955E+02 -.449E+00   0.311E+00 0.348E-01 -.584E-02   0.875E-06 0.759E-06 -.475E-07
   0.402E+03 0.222E+03 -.331E+00   -.402E+03 -.222E+03 0.325E+00   0.227E+00 0.213E+00 0.723E-02   0.100E-06 0.208E-05 -.143E-07
   0.344E+03 0.276E+03 0.222E+00   -.344E+03 -.277E+03 -.214E+00   0.248E+00 0.194E+00 -.145E-01   -.419E-06 0.269E-05 0.223E-07
   0.197E+03 0.350E+03 -.571E+00   -.197E+03 -.350E+03 0.562E+00   0.819E-01 0.301E+00 0.148E-01   -.749E-06 0.301E-05 0.275E-06
   0.109E+03 0.371E+03 0.273E-01   -.110E+03 -.371E+03 -.214E-01   0.107E+00 0.293E+00 -.822E-02   -.672E-06 0.282E-05 0.700E-06
   -.718E+02 0.376E+03 -.812E+00   0.719E+02 -.376E+03 0.803E+00   -.893E-01 0.302E+00 0.647E-02   -.524E-06 0.249E-05 0.685E-06
   -.162E+03 0.360E+03 -.276E+00   0.162E+03 -.360E+03 0.286E+00   -.617E-01 0.306E+00 -.102E-01   0.142E-06 0.216E-05 0.149E-05
   -.317E+03 0.295E+03 -.110E+01   0.317E+03 -.296E+03 0.109E+01   -.234E+00 0.212E+00 0.918E-02   0.137E-06 0.143E-05 0.206E-05
   -.380E+03 0.245E+03 -.594E+00   0.380E+03 -.245E+03 0.602E+00   -.213E+00 0.226E+00 -.130E-01   0.572E-06 0.948E-06 0.210E-05
   -.462E+03 0.124E+03 -.141E+01   0.463E+03 -.124E+03 0.140E+01   -.309E+00 0.568E-01 0.133E-01   0.701E-06 0.385E-06 0.234E-05
   -.482E+03 0.517E+02 -.899E+00   0.482E+03 -.518E+02 0.907E+00   -.301E+00 0.841E-01 -.701E-02   0.106E-05 -.286E-06 0.248E-05
   -.474E+03 -.886E+02 -.169E+01   0.474E+03 0.888E+02 0.168E+01   -.295E+00 -.111E+00 0.512E-02   0.148E-05 -.612E-06 0.237E-05
   -.446E+03 -.159E+03 -.138E+01   0.446E+03 0.159E+03 0.140E+01   -.303E+00 -.868E-01 -.171E-01   0.213E-05 -.388E-06 0.271E-05
   0.332E+03 0.285E+03 0.613E+00   -.332E+03 -.285E+03 -.605E+00   0.240E+00 0.200E+00 -.159E-01   -.436E-06 0.262E-05 -.129E-05
   0.182E+03 0.354E+03 -.898E-01   -.182E+03 -.355E+03 0.822E-01   0.694E-01 0.305E+00 0.150E-01   -.922E-06 0.307E-05 -.773E-06
   0.926E+02 0.373E+03 0.440E+00   -.927E+02 -.374E+03 -.435E+00   0.989E-01 0.298E+00 -.628E-02   -.748E-06 0.295E-05 -.327E-06
   -.888E+02 0.374E+03 -.335E+00   0.889E+02 -.374E+03 0.328E+00   -.991E-01 0.298E+00 0.585E-02   -.438E-06 0.268E-05 0.850E-07
   -.178E+03 0.355E+03 0.174E+00   0.178E+03 -.356E+03 -.164E+00   -.713E-01 0.303E+00 -.127E-01   -.704E-07 0.257E-05 0.106E-06
   -.329E+03 0.287E+03 -.569E+00   0.329E+03 -.287E+03 0.560E+00   -.240E+00 0.202E+00 0.126E-01   0.301E-06 0.208E-05 0.448E-06
   -.390E+03 0.234E+03 -.472E-01   0.390E+03 -.234E+03 0.553E-01   -.221E+00 0.220E+00 -.106E-01   0.419E-07 0.135E-05 0.800E-06
   -.467E+03 0.111E+03 -.783E+00   0.467E+03 -.111E+03 0.773E+00   -.309E+00 0.465E-01 0.920E-02   -.387E-06 0.159E-06 0.989E-06
   -.484E+03 0.384E+02 -.335E+00   0.484E+03 -.384E+02 0.345E+00   -.305E+00 0.722E-01 -.783E-02   -.855E-07 -.573E-07 0.160E-05
   -.470E+03 -.102E+03 -.108E+01   0.470E+03 0.102E+03 0.107E+01   -.287E+00 -.123E+00 0.656E-02   0.288E-06 -.971E-06 0.212E-05
   -.439E+03 -.171E+03 -.676E+00   0.439E+03 0.171E+03 0.684E+00   -.297E+00 -.964E-01 -.139E-01   0.903E-06 -.885E-06 0.231E-05
   -.194E+03 0.351E+03 0.649E+00   0.194E+03 -.351E+03 -.641E+00   -.847E-01 0.302E+00 -.156E-01   -.310E-07 0.243E-05 -.104E-05
   -.341E+03 0.278E+03 -.440E-01   0.342E+03 -.278E+03 0.379E-01   -.250E+00 0.193E+00 0.145E-01   0.108E-06 0.190E-05 -.683E-06
   -.400E+03 0.224E+03 0.435E+00   0.400E+03 -.224E+03 -.429E+00   -.227E+00 0.211E+00 -.876E-02   0.704E-07 0.170E-05 -.405E-06
   -.471E+03 0.982E+02 -.278E+00   0.472E+03 -.982E+02 0.269E+00   -.312E+00 0.370E-01 0.922E-02   -.625E-06 0.264E-06 0.217E-06
   -.485E+03 0.249E+02 0.154E+00   0.486E+03 -.250E+02 -.144E+00   -.307E+00 0.617E-01 -.101E-01   -.682E-06 -.992E-07 0.624E-06
   -.466E+03 -.115E+03 -.563E+00   0.466E+03 0.115E+03 0.556E+00   -.284E+00 -.132E+00 0.113E-01   -.385E-06 -.698E-06 0.960E-06
   -.432E+03 -.183E+03 -.106E+00   0.432E+03 0.183E+03 0.115E+00   -.294E+00 -.108E+00 -.143E-01   0.956E-07 -.123E-05 0.109E-05
   -.486E+03 0.114E+02 0.662E+00   0.486E+03 -.115E+02 -.653E+00   -.311E+00 0.513E-01 -.135E-01   -.626E-06 -.231E-06 -.897E-06
   -.461E+03 -.127E+03 -.547E-01   0.461E+03 0.127E+03 0.473E-01   -.279E+00 -.142E+00 0.131E-01   -.411E-06 -.872E-06 -.526E-06
   -.424E+03 -.194E+03 0.372E+00   0.424E+03 0.194E+03 -.366E+00   -.291E+00 -.117E+00 -.114E-01   -.182E-06 -.127E-05 -.121E-06
   -.991E+03 -.108E+03 -.174E+00   0.994E+03 0.109E+03 0.176E+00   -.346E+01 -.466E+00 -.178E-02   -.111E-04 -.181E-05 0.207E-07
 -----------------------------------------------------------------------------------------------
   -.163E+01 -.255E+00 -.618E-03   -.341E-11 -.347E-11 0.306E-11   0.163E+01 0.256E+00 -.889E-04   0.527E-03 0.501E-04 0.805E-07
 
 
 POSITION                                       TOTAL-FORCE (eV/Angst)
 -----------------------------------------------------------------------------------
     12.00899     10.72415      0.09986        -0.000280      0.000690     -0.003075
     11.93853     10.83405      2.54428        -0.001357      0.001708     -0.002557
     10.94378     11.85365      2.47122         0.000066     -0.000481     -0.000346
     10.37520     12.18056      1.21105         0.003222      0.000723     -0.003396
      8.99365     12.52673      1.13759        -0.004421     -0.000117      0.006707
     11.86344     10.94156      4.98834        -0.002794      0.000744      0.001892
     10.83456     11.92649      4.91548        -0.000941     -0.000447     -0.001281
     10.25534     12.23361      3.65534         0.001468      0.000152     -0.004751
      8.86253     12.53183      3.58174        -0.001842      0.000932      0.006973
      8.20819     12.48888      2.32185         0.003520      0.000668     -0.003903
      6.86620     12.01159      2.24870        -0.002105     -0.000319      0.000355
      6.33178     11.63147      0.98859        -0.000212     -0.001422     -0.002581
      5.43966     10.52102      0.91547         0.001165      0.001717      0.004534
     11.78373     11.04656      7.43222        -0.002019      0.000707      0.003162
     10.72231     11.99661      7.35974         0.000588     -0.000271      0.000875
     10.13329     12.28317      6.09965        -0.001393      0.001668     -0.005103
      8.73115     12.53340      6.02612        -0.002495      0.001141      0.006236
      8.07886     12.46716      4.76598         0.002227      0.001459      0.000299
      6.75444     11.94367      4.69307        -0.005878      0.000289     -0.000723
      6.23330     11.54539      3.43301        -0.000053      0.001410     -0.001470
      5.38009     10.40476      3.35975        -0.001439      0.001247      0.006193
      5.14533      9.79227      2.09992         0.000703     -0.001965     -0.005785
      5.01735      8.37356      2.02664         0.000761     -0.001754      0.003419
      5.13895      7.72879      0.76661        -0.000131     -0.000406      0.000368
      5.77444      6.45396      0.69365        -0.003400     -0.000130      0.002518
     11.70055     11.14907      9.87615        -0.000204      0.000338      0.001656
     10.60797     12.06288      9.80457         0.002042     -0.000293      0.003244
     10.00922     12.32914      8.54401         0.000592      0.000846     -0.006368
      8.59977     12.53086      8.47072        -0.000998      0.000264      0.005995
      7.95019     12.44226      7.21044         0.001466      0.000783      0.001904
      6.64467     11.87256      7.13760        -0.003301      0.001198     -0.002221
      6.13783     11.45613      5.87770         0.001939      0.001089     -0.003888
      5.32463     10.28663      5.80424         0.000322     -0.002314      0.005587
      5.11131      9.66621      4.54421         0.000048      0.001081     -0.002027
      5.03229      8.24407      4.47105         0.001053     -0.002854     -0.000262
      5.17598      7.60383      3.21100        -0.002753      0.003495      0.001398
      5.85486      6.35148      3.13790        -0.000221     -0.000242      0.003414
      6.31318      5.88190      1.87797        -0.000323     -0.000015     -0.006648
      7.54811      5.17215      1.80441         0.001895     -0.000270      0.005593
      8.18479      5.01277      0.54447        -0.002561      0.000229     -0.000536
      9.60852      5.05685      0.47145         0.000462      0.000362      0.000360
     12.00219     10.71309     13.57790         0.005194      0.000792     -0.000603
     11.61433     11.24666     12.31907         0.002055     -0.000254     -0.000464
     10.49189     12.12037     12.24938         0.002583     -0.003373      0.004655
      9.88468     12.37020     10.98932        -0.001083      0.000415     -0.004718
      8.46835     12.52332     10.91618         0.003414     -0.001577      0.005625
      7.82247     12.41270      9.65601        -0.001515     -0.000211      0.003253
      6.53742     11.79770      9.58268         0.000128      0.000887      0.000333
      6.04590     11.36347      8.32235         0.000618      0.002112     -0.004619
      5.27423     10.16651      8.24863        -0.001316     -0.000495      0.006093
      5.08188      9.53922      6.98863        -0.000739      0.003585     -0.000560
      5.05188      8.11502      6.91560         0.000729     -0.001893     -0.001200
      5.21735      7.48020      5.65558        -0.000711      0.002488     -0.000664
      5.93883      6.25197      5.58225         0.002360     -0.001589      0.004644
      6.41303      5.79841      4.32213        -0.004384      0.000897     -0.003057
      7.67159      5.13151      4.24874         0.002109     -0.002714      0.002996
      8.31348      4.99435      2.98875        -0.003220      0.000189      0.002732
      9.73487      5.08758      2.91572        -0.001461     -0.001448      0.001290
     10.35321      5.30766      1.65577         0.000618     -0.001166     -0.006508
     11.51417      6.13284      1.58207         0.000484     -0.000455      0.007390
     11.92535      6.64438      0.32210        -0.001236     -0.004971     -0.002722
     12.48118      7.95582      0.24901         0.000479      0.002995      0.000639
     11.93121     10.78953     16.02098         0.006355      0.000545     -0.002030
     11.52149     11.32079     14.76626         0.004414     -0.001126     -0.004311
     10.37062     12.15794     14.69589         0.004094     -0.004152      0.007259
      9.75860     12.39741     13.43782        -0.002042     -0.002669     -0.003838
      8.33757     12.50579     13.36338        -0.000530     -0.004731      0.002258
      7.69602     12.37604     12.10174        -0.002334     -0.001018      0.002230
      6.43315     11.71812     12.02758         0.000421      0.000157      0.003498
      5.95653     11.26824     10.76704        -0.000622     -0.001854     -0.005389
      5.22686     10.04466     10.69317        -0.000426     -0.000259      0.005612
      5.05706      9.41116      9.43332        -0.000264      0.002350      0.001964
      5.07607      7.98676      9.36026        -0.000052     -0.001787     -0.001201
      5.26342      7.35808      8.10004        -0.001165      0.001093     -0.004743
      6.02637      6.15541      8.02646         0.000690     -0.000792      0.006652
      6.51542      5.71817      6.76660        -0.003957      0.000267     -0.002814
      7.79620      5.09423      6.69362         0.006147     -0.003589     -0.001937
      8.44242      4.97976      5.43319        -0.003852     -0.000001      0.002156
      9.85952      5.12181      5.35998         0.001041     -0.002483      0.002038
     10.47032      5.36325      4.10006        -0.001049     -0.000448     -0.005497
     11.60222      6.22797      4.02639         0.000778      0.000453      0.006452
     11.99565      6.75368      2.76653        -0.001786     -0.005213      0.001141
     12.50599      8.08348      2.69354         0.000138      0.006508      0.000967
     12.56531      8.73717      1.43350        -0.001845     -0.004430     -0.007758
     12.30146     10.13682      1.35988        -0.000597      0.002334      0.007188
     11.89528     10.94962     18.47261         0.007297      0.002025     -0.000513
     11.43571     11.39872     17.22500         0.002653     -0.002109     -0.006371
     10.24716     12.18601     17.14432         0.000269     -0.004398      0.007880
      9.62665     12.40185     15.88375         0.000912     -0.005495     -0.003447
      8.20768     12.47529     15.80835        -0.001000     -0.006379      0.000170
      7.56936     12.33265     14.54663         0.003463     -0.004589     -0.000689
      6.32727     11.63516     14.47219         0.001800     -0.001774      0.004128
      5.86865     11.16890     13.21204        -0.002639     -0.000927     -0.004595
      5.18236      9.92039     13.13809        -0.003613      0.002351      0.003643
      5.03604      9.28168     11.87759        -0.001560     -0.000164      0.002340
      5.10402      7.85922     11.80439        -0.002204      0.000183     -0.000853
      5.31244      7.23727     10.54443        -0.000235     -0.000321     -0.005000
      6.11624      6.06086     10.47075        -0.000857      0.001423      0.008424
      6.62097      5.64142      9.21119        -0.003589     -0.000181     -0.001867
      7.92209      5.06129      9.13862         0.001250     -0.000545     -0.000224
      8.57158      4.96834      7.87780        -0.003076      0.000150      0.000073
      9.98330      5.15866      7.80460         0.000904     -0.001056      0.002324
     10.58494      5.42202      6.54464         0.002524     -0.000438     -0.003252
     11.68597      6.32588      6.47088        -0.001178     -0.001971      0.002337
     12.06130      6.86520      5.21088        -0.002798     -0.004980      0.001638
     12.52488      8.21187      5.13768        -0.000457      0.005409      0.000615
     12.56260      8.86733      3.87784        -0.002074     -0.005733     -0.007526
     12.25086     10.25722      3.80421        -0.002501      0.002534      0.008678
     11.80039     11.04962     20.92518         0.005852      0.003742      0.001228
     11.34528     11.50462     19.65161         0.007996     -0.004551     -0.006296
     10.12700     12.24478     19.58081         0.001320     -0.004790      0.006602
      9.49904     12.43029     18.32480         0.002598     -0.007732     -0.001091
      8.07128     12.46025     18.25114         0.002286     -0.007880      0.000232
      7.44162     12.28613     16.99304        -0.000248     -0.005902     -0.004646
      6.22320     11.54863     16.91789        -0.000998     -0.002064      0.006277
      5.78254     11.06568     15.65657        -0.004941     -0.000983     -0.002357
      5.14190      9.79482     15.58276        -0.003981     -0.002016      0.000750
      5.01722      9.15161     14.32225        -0.002817     -0.001333      0.002373
      5.13435      7.73159     14.24895        -0.002448     -0.000655      0.001570
      5.36489      7.11776     12.98920        -0.001629     -0.002543     -0.006287
      6.20736      5.96879     12.91538        -0.002507      0.002446      0.007842
      6.72740      5.56743     11.65538         0.000345     -0.000719     -0.000174
      8.04788      5.03335     11.58299         0.000164      0.002610      0.002346
      8.70060      4.96159     10.32347        -0.000251      0.001897     -0.005071
     10.10626      5.20009     10.25073         0.000575     -0.000586      0.007414
     10.69774      5.48413      8.98933         0.003569      0.001069     -0.001881
     11.76558      6.42616      8.91511        -0.002097     -0.002084     -0.000264
     12.12208      6.97843      7.65510         0.000330     -0.000488      0.001619
     12.53835      8.34080      7.58122        -0.001498     -0.000971      0.000287
     12.55366      8.99724      6.32187        -0.001942     -0.003146     -0.005007
     12.19437     10.37562      6.24855         0.000246      0.000763      0.003131
     11.70338     11.14682     23.36629         0.003027      0.002768      0.002661
     11.25279     11.61746     22.09955         0.003079     -0.002612     -0.006296
     10.00982     12.32265     22.02596        -0.001681     -0.003074      0.004552
      9.37173     12.46687     20.76699         0.002687     -0.006068      0.000893
      7.94826     12.43427     20.69481         0.000014     -0.006332     -0.001968
      7.31915     12.24066     19.43529         0.000614     -0.006573     -0.006436
      6.12802     11.45900     19.36168         0.001722     -0.002900      0.005954
      5.69985     10.96290     18.10224        -0.003363      0.000336     -0.001066
      5.10365      9.66717     18.02846        -0.005757     -0.005181     -0.001457
      5.00384      9.02024     16.76846        -0.004709      0.000821      0.001211
      5.16973      7.60523     16.69464        -0.006442     -0.000631      0.001972
      5.42062      6.99949     15.43371        -0.003786      0.000695     -0.004783
      6.29996      5.87953     15.35961        -0.003927      0.002789      0.005037
      6.83278      5.49513     14.10007        -0.002141      0.000640      0.000562
      8.17305      5.00905     14.02756         0.001331      0.004821      0.001691
      8.82956      4.96358     12.76923        -0.001152      0.004115     -0.007726
     10.22535      5.25209     12.69724         0.001318      0.002580      0.008544
     10.80852      5.55027     11.43433         0.003722      0.002310     -0.001888
     11.84489      6.52843     11.35975        -0.001682     -0.002847     -0.001567
     12.17917      7.09351     10.09949         0.002047      0.001396      0.000059
     12.54635      8.46974     10.02393        -0.000245     -0.002872      0.002557
     12.53888      9.12666      8.76465        -0.001298      0.002722     -0.003322
     12.13302     10.49173      8.69207         0.000623     -0.000904      0.002883
     11.61645     11.24544     25.80855         0.003722     -0.001705      0.005456
     11.14489     11.70170     24.54840         0.002062     -0.000078     -0.003676
      9.88651     12.37013     24.47326         0.000685      0.000515      0.001908
      9.24561     12.50248     23.20998         0.003275     -0.003711      0.002418
      7.82340     12.40898     23.13850        -0.001328     -0.003351      0.001511
      7.20319     12.19006     21.88007        -0.002726     -0.004354     -0.008000
      6.04014     11.36544     21.80688         0.000440     -0.001346      0.006837
      5.62880     10.85288     20.54751        -0.001192      0.002073     -0.000684
      5.07804      9.53992     20.47405        -0.005284     -0.003459     -0.002423
      4.99652      8.88909     19.21315        -0.004876      0.001391     -0.001799
      5.21170      7.48076     19.13918        -0.005997     -0.000785      0.005251
      5.47932      6.88340     17.87932        -0.005362     -0.001788     -0.002681
      6.39745      5.79175     17.80531        -0.004401      0.002155      0.000432
      6.94197      5.42739     16.54554        -0.001444      0.002567      0.002460
      8.29789      4.99008     16.47246         0.000219      0.007219      0.003715
      8.95602      4.97139     15.21299        -0.001379      0.007238     -0.006519
     10.33671      5.31917     15.14030         0.001846      0.004560      0.007425
     10.91375      5.62829     13.88155         0.001473      0.003318     -0.000249
     11.92546      6.63768     13.80890         0.004309      0.001936     -0.000194
     12.23618      7.21092     12.54218         0.004870      0.001863     -0.003861
     12.55147      8.59729     12.46304         0.003352     -0.001466      0.005465
     12.52060      9.25507     11.20581         0.002800      0.000255     -0.002313
     12.06983     10.60669     11.13496         0.000525      0.000967      0.001137
     11.53079     11.34217     28.25262         0.002589     -0.003150      0.005980
     11.04072     11.77970     26.99275        -0.002051      0.003252     -0.004446
      9.76144     12.40496     26.91840         0.001103      0.000143     -0.000793
      9.11609     12.52137     25.65669         0.000371     -0.001510      0.000305
      7.69768     12.37718     25.58424        -0.000398      0.001396      0.002327
      7.08801     12.13416     24.32463        -0.001307     -0.002265     -0.008135
      5.95667     11.26872     24.25164         0.002345     -0.000849      0.007320
      5.56243     10.74319     22.99162        -0.000891      0.002740     -0.000771
      5.05505      9.41200     22.91866        -0.002760     -0.005194     -0.000852
      4.99610      8.75854     21.65901        -0.003623      0.000629     -0.005529
      5.25977      7.35840     21.58533        -0.005233     -0.001902      0.006064
      5.55017      6.77078     20.32503        -0.001933     -0.001332     -0.002698
      6.50454      5.71489     20.25146        -0.003494      0.000982     -0.001849
      7.05725      5.36562     18.98981        -0.001595      0.003240      0.001520
      8.42771      4.97767     18.91497         0.001459      0.008248      0.002648
      9.08114      4.97777     17.65681        -0.001288      0.009098     -0.004871
     10.44938      5.38680     17.58276         0.002125      0.008244      0.005210
     11.00556      5.73342     16.32681         0.000670      0.003142      0.001735
     11.98417      6.77001     16.25712         0.005981      0.006751     -0.001001
     12.30320      7.32957     14.98365         0.006461      0.000364     -0.005394
     12.57784      8.72998     14.90029         0.006887     -0.000168      0.008111
     12.50176      9.38223     13.64501         0.006466     -0.000552     -0.003547
     11.44228     11.43633     30.69667        -0.000516     -0.003219      0.006867
     10.93730     11.85619     29.43671        -0.002353      0.003358     -0.001893
      9.63593     12.43566     29.36331        -0.000756     -0.000417     -0.002840
      8.98604     12.52931     28.10310         0.000985      0.000125     -0.001833
      7.57449     12.33733     28.02984        -0.000530      0.001425      0.002009
      6.97333     12.07458     26.76907         0.000188     -0.000451     -0.005581
      5.87300     11.16965     26.69621        -0.000225      0.001628      0.002647
      5.49812     10.63100     25.43643        -0.000064      0.003198     -0.000076
      5.03538      9.28351     25.36355        -0.000120     -0.003639      0.001336
      4.99992      8.62817     24.10369        -0.001203      0.002198     -0.006744
      5.31214      7.23881     24.03000        -0.002426     -0.002223      0.006294
      5.62267      6.66124     22.76972        -0.001189     -0.002947     -0.000375
      6.61525      5.63910     22.69644        -0.004695      0.002147     -0.001721
      7.18092      5.31067     21.43608        -0.002184     -0.000408     -0.003927
      8.56333      4.96693     21.36157         0.001304      0.006183      0.004190
      9.21655      4.99864     20.09979        -0.004962      0.007155     -0.004459
     10.56481      5.44692     20.02431         0.004008      0.007995      0.001342
     11.10549      5.82055     18.76360         0.000445      0.005223      0.002285
     12.04228      6.89531     18.68392         0.004500      0.003526      0.000391
     12.36711      7.45034     17.43656         0.007199      0.001506     -0.006014
     12.80191      8.85507     17.34544         0.007656      0.000437      0.003000
     12.51968      9.51457     16.07295         0.010464      0.001053     -0.000006
     11.34956     11.52717     33.14096        -0.001860      0.000057      0.004082
     10.83047     11.92912     31.88106         0.002982      0.000503      0.000609
      9.50954     12.46222     31.80810         0.000096     -0.000027     -0.002637
      8.85665     12.53251     30.54802        -0.001036      0.000729     -0.003223
      7.45271     12.29244     30.47458         0.001230      0.001732      0.003133
      6.86050     12.01020     29.21417        -0.002742     -0.001622     -0.002391
      5.79158     11.06807     29.14127        -0.001104      0.000820     -0.000524
      5.43624     10.51654     27.88122        -0.000570      0.000911     -0.001331
      5.01968      9.15451     27.80815         0.001738     -0.002497      0.002897
      5.00619      8.49848     26.54801         0.000646      0.001181     -0.007849
      5.36638      7.12023     26.47446        -0.001275     -0.001833      0.006915
      5.69842      6.55431     25.21472         0.000352     -0.003060      0.000880
      6.72628      5.56779     25.14176        -0.002229      0.001197     -0.001257
      7.30492      5.25945     23.88119        -0.000932     -0.000186     -0.006543
      8.69686      4.95926     23.80667        -0.000404      0.002988      0.005998
      9.34985      5.00397     22.54504        -0.002609      0.004708     -0.004219
     10.69084      5.48631     22.47078         0.003366      0.004901     -0.000500
     11.21712      5.87983     21.21238         0.000443      0.004494      0.000449
     12.10371      6.99304     21.14255         0.004770      0.005367      0.003979
     12.35801      7.61406     19.88812         0.007077      0.000809     -0.005188
     12.58770      8.99936     19.83594         0.008328      0.004751      0.000067
     12.68615      9.71003     18.56349         0.009005      0.001727      0.004587
     11.25324     11.61454     35.58558        -0.004770      0.000642      0.002249
     10.72073     11.99823     34.32544         0.003822     -0.001223      0.003291
      9.38220     12.48507     34.25259        -0.005593      0.000443     -0.001967
      8.72737     12.53251     32.99258        -0.001115      0.000051     -0.004583
      7.33244     12.24394     32.91910        -0.001444      0.000639      0.004068
      6.75007     11.94112     31.65914        -0.000288     -0.000202      0.000598
      5.71402     10.96348     31.58626        -0.000091      0.001306     -0.003581
      5.37768     10.40032     30.32582        -0.002214      0.000811     -0.001026
      5.00785      9.02466     30.25266         0.000955     -0.001008      0.005420
      5.01669      8.36871     28.99278         0.001300     -0.001281     -0.008197
      5.42375      7.00353     28.91946        -0.000359     -0.001643      0.004034
      5.77592      6.44977     27.65942         0.000320     -0.002121     -0.000665
      6.83748      5.50027     27.58655        -0.004170     -0.000508      0.000388
      7.42654      5.21153     26.32635         0.000517     -0.002194     -0.007718
      8.82854      4.95894     26.25251        -0.000841      0.000066      0.005391
      9.48059      5.02287     24.99235         0.001218      0.001889     -0.002427
     10.80517      5.54701     24.91971         0.002741      0.000207     -0.002780
     11.32398      5.94888     23.65931        -0.000060      0.002335     -0.002475
     12.17335      7.08979     23.58953         0.001824      0.000730      0.006308
     12.40541      7.70695     22.33088         0.005555      0.001309     -0.005044
     12.53389      9.12261     22.26371         0.007075      0.005956      0.000396
     12.43517      9.77159     21.00834         0.010271     -0.000689     -0.001829
     11.15328     11.69792     38.03016        -0.001441     -0.000510      0.002197
     10.60812     12.06331     36.77000         0.006823     -0.000763      0.001323
      9.25356     12.50373     36.69698        -0.006100     -0.000114      0.001713
      8.59764     12.52843     35.43706         0.006155      0.000028     -0.006192
      7.21371     12.19170     35.36354        -0.005947     -0.000159      0.006472
      6.64226     11.86872     34.10359        -0.000635      0.000410      0.000094
      5.64021     10.85638     34.03079        -0.000637     -0.000424     -0.004262
      5.32281     10.28206     32.77063         0.000598      0.001206     -0.002136
      5.00051      8.89442     32.69732         0.000250     -0.000767      0.005547
      5.03198      8.23913     31.43737         0.001077      0.001332     -0.004004
      5.48569      6.88898     31.36431        -0.001181     -0.002287      0.001359
      5.85607      6.34757     30.10410         0.000089     -0.001281     -0.001029
      6.95036      5.43559     30.03123         0.000779      0.000209      0.001977
      7.54951      5.16829     28.77150         0.000352     -0.002285     -0.007319
      8.95944      4.96557     28.69811        -0.002065     -0.000830      0.003939
      9.60926      5.05194     27.43786        -0.000918      0.000408     -0.000586
     10.91440      5.62115     27.36521        -0.001536     -0.003287     -0.002242
     11.42077      6.03614     26.10438         0.002154      0.003013     -0.005488
     12.23088      7.20765     26.03224        -0.000434      0.000472      0.006814
     12.44232      7.82825     24.77347         0.002047      0.000593     -0.002679
     12.51805      9.25102     24.70273         0.003551      0.001540     -0.000014
     12.37379      9.89317     23.44539         0.005014     -0.001978     -0.001524
     11.05009     11.77750      0.02671        -0.002397      0.001133     -0.001033
     10.49299     12.12412     39.21462         0.003500     -0.000662     -0.000424
      9.12408     12.51768     39.14137        -0.005358     -0.001000      0.005640
      8.46783     12.51991     37.88144         0.005426     -0.000372     -0.007528
      7.09634     12.13572     37.80794        -0.005157     -0.001172      0.005893
      6.53650     11.79322     36.54797         0.001869      0.001199      0.000585
      5.57005     10.74680     36.47517        -0.001024      0.001194      0.000404
      5.27279     10.16184     35.21526        -0.001639      0.000839     -0.006828
      4.99845      8.76417     35.14181         0.000104     -0.002657      0.005800
      5.05207      8.11025     33.88181        -0.000665      0.005049     -0.002156
      5.55208      6.77655     33.80895         0.000884     -0.003859     -0.000918
      5.94068      6.24817     32.54893         0.000221      0.001007     -0.002739
      7.06625      5.37512     32.47588        -0.000924     -0.000114      0.004385
      7.67417      5.12934     31.21597        -0.000040     -0.002445     -0.005487
      9.09013      4.97669     31.14272         0.001527     -0.000205      0.001165
      9.73638      5.08576     29.88242         0.000994     -0.002017      0.003175
     11.02146      5.69985     29.80943         0.000234     -0.003521     -0.000199
     11.51324      6.13199     28.54927         0.002886      0.001963     -0.006450
     12.28412      7.32990     28.47595        -0.003254     -0.005173      0.006337
     12.47333      7.95692     27.21604        -0.001014      0.000483     -0.002477
     12.50199      9.38074     27.14378         0.000507     -0.003199     -0.000472
     12.33482     10.01557     25.88439         0.000686      0.002839     -0.003985
      8.33808     12.50665     40.32571         0.001723     -0.000605     -0.008266
      6.98053     12.07550     40.25234        -0.005411      0.000959      0.003748
      6.43309     11.71405     38.99235         0.000311      0.000099     -0.000927
      5.50327     10.63497     38.91942        -0.000421      0.001722      0.001717
      5.22658     10.04005     37.65956        -0.000833      0.000976     -0.007209
      5.00066      8.63373     37.58609         0.000222     -0.000657      0.007408
      5.07702      7.98219     36.32619        -0.001599      0.002985     -0.001122
      5.62284      6.66654     36.25343        -0.000044     -0.004922     -0.001506
      6.02955      6.15204     34.99343        -0.002365      0.001455     -0.005039
      7.18452      5.31864     34.92010         0.002158     -0.002224      0.005246
      7.80061      5.09422     33.66012        -0.004737     -0.001738     -0.004968
      9.22111      4.99087     33.58691         0.003018     -0.000276     -0.001460
      9.86306      5.12304     32.32677        -0.003290     -0.002917      0.001975
     11.12644      5.78071     32.25355         0.001532      0.000443      0.001180
     11.60285      6.23040     30.99338         0.001691      0.001871     -0.005373
     12.33306      7.45326     30.91966        -0.001729     -0.003882      0.005761
     12.50188      8.08626     29.65940        -0.000592      0.002264      0.001384
     12.48237      9.51067     29.58658        -0.001025     -0.002352     -0.001976
     12.29330     10.13883     28.32704        -0.002653      0.004603     -0.005463
      5.18405      9.91683     40.10372        -0.001915     -0.000193     -0.007215
      5.00690      8.50340     40.03032         0.000531      0.001411      0.005728
      5.10603      7.85484     38.77042        -0.001295      0.002506      0.000417
      5.69702      6.55886     38.69761        -0.001229     -0.000775      0.000690
      6.12138      6.05868     37.43767         0.000156      0.001537     -0.006422
      7.30452      5.26553     37.36415        -0.001393     -0.000134      0.006470
      7.92814      5.06274     36.10423        -0.004169      0.000483     -0.002345
      9.35146      5.00856     36.03114         0.001703      0.000567     -0.002468
      9.98855      5.16331     34.77097        -0.002206     -0.001182      0.000150
     11.22852      5.86409     34.69755         0.000555      0.002488      0.001385
     11.68946      6.33026     33.43742        -0.001393     -0.002626     -0.005266
     12.37737      7.57751     33.36371        -0.000742      0.001299      0.003181
     12.52493      8.21624     32.10357        -0.000956     -0.000656      0.001314
     12.45667      9.63912     32.03051        -0.003121      0.001254      0.000623
     12.24657     10.26072     30.77057        -0.003840     -0.000161     -0.006140
      6.21607      5.96872     39.88189        -0.000144     -0.000758     -0.008447
      7.42587      5.21672     39.80828        -0.003814      0.000362      0.007357
      8.05627      5.03545     38.54836         0.000003      0.000710     -0.000865
      9.48067      5.03045     38.47536         0.000938      0.000793     -0.000843
     10.11218      5.20733     37.21525        -0.000464     -0.001784     -0.002632
     11.32719      5.95068     37.14166         0.000683      0.000171      0.003889
     11.77201      6.43255     35.88161        -0.002039     -0.003422     -0.002466
     12.41647      7.70276     35.80814         0.002263      0.004085     -0.000563
     12.54219      8.34650     34.54788        -0.001208     -0.003869      0.002145
     12.42481      9.76599     34.47472         0.000723      0.001435      0.000266
     12.19418     10.38014     33.21461         0.000454     -0.001691     -0.006000
     10.23405      5.25515     39.65959        -0.003144      0.000884     -0.007249
     11.42279      6.04006     39.58587        -0.003065      0.000110      0.008447
     11.85067      6.53728     38.32586        -0.000405     -0.003884     -0.002889
     12.45121      7.82879     38.25257         0.000714      0.006050      0.000269
     12.55481      8.47667     36.99236        -0.001111     -0.004153     -0.000527
     12.38858      9.89135     36.91903        -0.000975      0.002082      0.004063
     12.13695     10.49741     35.65907         0.000713     -0.003466     -0.005329
     12.56266      8.60690     39.43698        -0.001443     -0.003694     -0.005069
     12.34744     10.01496     39.36349        -0.000034      0.001025      0.005656
     12.07517     10.61204     38.10350        -0.000830     -0.000223     -0.005236
     14.67839      9.54312     17.95517         0.008965      0.001327     -0.000240
 -----------------------------------------------------------------------------------
    total drift:                               -0.001440      0.000884     -0.000707


--------------------------------------------------------------------------------------------------------



  FREE ENERGIE OF THE ION-ELECTRON SYSTEM (eV)
  ---------------------------------------------------
  free  energy   TOTEN  =     -3324.31170999 eV

  energy  without entropy=    -3324.31170999  energy(sigma->0) =    -3324.31170999
 


--------------------------------------------------------------------------------------------------------


    POTLOK:  cpu time      0.8455: real time      0.8455


--------------------------------------------------------------------------------------------------------


 writing wavefunctions
     LOOP+:  cpu time  10218.2305: real time  10219.1038
    4ORBIT:  cpu time      0.0000: real time      0.0000



 total charge

# of ion       s       p       d       tot
------------------------------------------
    1        0.868   1.790   0.000   2.658
    2        0.868   1.790   0.000   2.658
    3        0.868   1.790   0.000   2.658
    4        0.868   1.790   0.000   2.658
    5        0.868   1.791   0.000   2.658
    6        0.868   1.790   0.000   2.658
    7        0.868   1.790   0.000   2.658
    8        0.868   1.790   0.000   2.658
    9        0.868   1.791   0.000   2.658
   10        0.868   1.791   0.000   2.659
   11        0.868   1.791   0.000   2.658
   12        0.868   1.790   0.000   2.658
   13        0.868   1.791   0.000   2.658
   14        0.868   1.791   0.000   2.659
   15        0.868   1.790   0.000   2.658
   16        0.868   1.791   0.000   2.658
   17        0.868   1.791   0.000   2.658
   18        0.868   1.791   0.000   2.659
   19        0.868   1.790   0.000   2.658
   20        0.868   1.790   0.000   2.658
   21        0.868   1.790   0.000   2.658
   22        0.868   1.790   0.000   2.658
   23        0.868   1.790   0.000   2.658
   24        0.868   1.790   0.000   2.658
   25        0.868   1.791   0.000   2.659
   26        0.868   1.791   0.000   2.659
   27        0.868   1.791   0.000   2.658
   28        0.868   1.790   0.000   2.658
   29        0.868   1.790   0.000   2.658
   30        0.868   1.790   0.000   2.658
   31        0.868   1.790   0.000   2.658
   32        0.868   1.790   0.000   2.658
   33        0.868   1.790   0.000   2.658
   34        0.868   1.790   0.000   2.658
   35        0.868   1.790   0.000   2.658
   36        0.868   1.790   0.000   2.658
   37        0.868   1.790   0.000   2.658
   38        0.868   1.791   0.000   2.659
   39        0.868   1.790   0.000   2.658
   40        0.868   1.791   0.000   2.658
   41        0.868   1.791   0.000   2.658
   42        0.869   1.795   0.000   2.663
   43        0.868   1.791   0.000   2.660
   44        0.868   1.790   0.000   2.658
   45        0.868   1.790   0.000   2.658
   46        0.868   1.789   0.000   2.657
   47        0.868   1.790   0.000   2.658
   48        0.868   1.790   0.000   2.658
   49        0.868   1.790   0.000   2.658
   50        0.868   1.790   0.000   2.658
   51        0.868   1.790   0.000   2.658
   52        0.868   1.790   0.000   2.658
   53        0.868   1.790   0.000   2.658
   54        0.868   1.790   0.000   2.658
   55        0.868   1.791   0.000   2.658
   56        0.868   1.790   0.000   2.658
   57        0.868   1.790   0.000   2.658
   58        0.868   1.791   0.000   2.658
   59        0.868   1.791   0.000   2.658
   60        0.868   1.790   0.000   2.658
   61        0.868   1.790   0.000   2.658
   62        0.868   1.790   0.000   2.658
   63        0.868   1.793   0.000   2.661
   64        0.868   1.792   0.000   2.660
   65        0.868   1.791   0.000   2.659
   66        0.868   1.789   0.000   2.656
   67        0.868   1.790   0.000   2.657
   68        0.868   1.789   0.000   2.657
   69        0.868   1.790   0.000   2.658
   70        0.868   1.790   0.000   2.658
   71        0.868   1.790   0.000   2.658
   72        0.868   1.790   0.000   2.658
   73        0.868   1.790   0.000   2.658
   74        0.868   1.790   0.000   2.658
   75        0.868   1.790   0.000   2.658
   76        0.868   1.790   0.000   2.658
   77        0.868   1.790   0.000   2.658
   78        0.868   1.790   0.000   2.658
   79        0.868   1.790   0.000   2.658
   80        0.868   1.790   0.000   2.658
   81        0.868   1.790   0.000   2.658
   82        0.868   1.790   0.000   2.658
   83        0.868   1.790   0.000   2.658
   84        0.868   1.790   0.000   2.658
   85        0.868   1.790   0.000   2.658
   86        0.865   1.783   0.000   2.648
   87        0.868   1.787   0.000   2.655
   88        0.868   1.792   0.000   2.660
   89        0.868   1.791   0.000   2.659
   90        0.868   1.791   0.000   2.659
   91        0.868   1.790   0.000   2.658
   92        0.868   1.790   0.000   2.658
   93        0.868   1.790   0.000   2.658
   94        0.868   1.790   0.000   2.658
   95        0.868   1.790   0.000   2.658
   96        0.868   1.790   0.000   2.658
   97        0.868   1.790   0.000   2.658
   98        0.868   1.790   0.000   2.658
   99        0.868   1.790   0.000   2.658
  100        0.868   1.790   0.000   2.658
  101        0.868   1.790   0.000   2.658
  102        0.868   1.790   0.000   2.658
  103        0.868   1.790   0.000   2.658
  104        0.868   1.790   0.000   2.658
  105        0.868   1.790   0.000   2.658
  106        0.868   1.791   0.000   2.659
  107        0.868   1.790   0.000   2.658
  108        0.868   1.790   0.000   2.658
  109        0.867   1.789   0.000   2.656
  110        0.867   1.790   0.000   2.657
  111        0.868   1.792   0.000   2.660
  112        0.869   1.791   0.000   2.660
  113        0.868   1.791   0.000   2.659
  114        0.868   1.791   0.000   2.659
  115        0.868   1.791   0.000   2.659
  116        0.868   1.790   0.000   2.658
  117        0.868   1.790   0.000   2.658
  118        0.868   1.790   0.000   2.658
  119        0.868   1.790   0.000   2.658
  120        0.868   1.790   0.000   2.658
  121        0.868   1.790   0.000   2.658
  122        0.868   1.790   0.000   2.658
  123        0.868   1.790   0.000   2.658
  124        0.868   1.790   0.000   2.657
  125        0.868   1.789   0.000   2.657
  126        0.868   1.790   0.000   2.658
  127        0.868   1.790   0.000   2.658
  128        0.868   1.790   0.000   2.658
  129        0.868   1.791   0.000   2.659
  130        0.868   1.791   0.000   2.659
  131        0.868   1.791   0.000   2.659
  132        0.868   1.790   0.000   2.658
  133        0.868   1.789   0.000   2.656
  134        0.867   1.789   0.000   2.657
  135        0.868   1.790   0.000   2.658
  136        0.868   1.791   0.000   2.659
  137        0.868   1.791   0.000   2.659
  138        0.868   1.790   0.000   2.658
  139        0.868   1.790   0.000   2.658
  140        0.868   1.789   0.000   2.657
  141        0.868   1.789   0.000   2.657
  142        0.868   1.790   0.000   2.658
  143        0.868   1.790   0.000   2.658
  144        0.868   1.790   0.000   2.658
  145        0.868   1.790   0.000   2.658
  146        0.868   1.790   0.000   2.658
  147        0.868   1.790   0.000   2.657
  148        0.868   1.789   0.000   2.656
  149        0.868   1.789   0.000   2.657
  150        0.868   1.790   0.000   2.658
  151        0.868   1.790   0.000   2.658
  152        0.868   1.792   0.000   2.660
  153        0.868   1.791   0.000   2.660
  154        0.868   1.791   0.000   2.659
  155        0.868   1.791   0.000   2.659
  156        0.868   1.791   0.000   2.659
  157        0.868   1.789   0.000   2.657
  158        0.868   1.789   0.000   2.656
  159        0.868   1.790   0.000   2.658
  160        0.868   1.790   0.000   2.658
  161        0.868   1.790   0.000   2.658
  162        0.868   1.790   0.000   2.658
  163        0.868   1.790   0.000   2.658
  164        0.868   1.790   0.000   2.658
  165        0.868   1.790   0.000   2.657
  166        0.868   1.789   0.000   2.657
  167        0.868   1.789   0.000   2.657
  168        0.868   1.790   0.000   2.658
  169        0.868   1.791   0.000   2.659
  170        0.868   1.791   0.000   2.659
  171        0.868   1.790   0.000   2.658
  172        0.867   1.789   0.000   2.657
  173        0.868   1.788   0.000   2.656
  174        0.868   1.790   0.000   2.658
  175        0.869   1.793   0.000   2.663
  176        0.868   1.793   0.000   2.661
  177        0.868   1.792   0.000   2.660
  178        0.868   1.791   0.000   2.659
  179        0.868   1.791   0.000   2.659
  180        0.868   1.790   0.000   2.658
  181        0.868   1.789   0.000   2.657
  182        0.868   1.790   0.000   2.658
  183        0.868   1.790   0.000   2.658
  184        0.868   1.790   0.000   2.658
  185        0.868   1.790   0.000   2.658
  186        0.868   1.790   0.000   2.658
  187        0.868   1.790   0.000   2.658
  188        0.868   1.790   0.000   2.658
  189        0.868   1.790   0.000   2.658
  190        0.868   1.790   0.000   2.658
  191        0.868   1.790   0.000   2.658
  192        0.868   1.790   0.000   2.659
  193        0.868   1.791   0.000   2.659
  194        0.869   1.791   0.000   2.660
  195        0.868   1.791   0.000   2.660
  196        0.867   1.790   0.000   2.657
  197        0.867   1.789   0.000   2.656
  198        0.869   1.799   0.000   2.668
  199        0.870   1.795   0.000   2.665
  200        0.868   1.790   0.000   2.658
  201        0.868   1.790   0.000   2.658
  202        0.868   1.790   0.000   2.658
  203        0.868   1.790   0.000   2.658
  204        0.868   1.790   0.000   2.658
  205        0.868   1.790   0.000   2.658
  206        0.868   1.790   0.000   2.658
  207        0.868   1.790   0.000   2.658
  208        0.868   1.790   0.000   2.658
  209        0.868   1.790   0.000   2.658
  210        0.868   1.790   0.000   2.658
  211        0.868   1.790   0.000   2.658
  212        0.868   1.790   0.000   2.658
  213        0.868   1.790   0.000   2.657
  214        0.868   1.790   0.000   2.658
  215        0.868   1.791   0.000   2.659
  216        0.868   1.791   0.000   2.659
  217        0.868   1.792   0.000   2.660
  218        0.868   1.787   0.000   2.655
  219        0.865   1.783   0.000   2.648
  220        0.844   1.719   0.000   2.563
  221        0.870   1.784   0.000   2.654
  222        0.868   1.790   0.000   2.658
  223        0.868   1.790   0.000   2.658
  224        0.868   1.790   0.000   2.658
  225        0.868   1.790   0.000   2.658
  226        0.868   1.790   0.000   2.658
  227        0.868   1.790   0.000   2.658
  228        0.868   1.790   0.000   2.658
  229        0.868   1.790   0.000   2.658
  230        0.868   1.790   0.000   2.658
  231        0.868   1.790   0.000   2.658
  232        0.868   1.790   0.000   2.658
  233        0.868   1.790   0.000   2.658
  234        0.868   1.790   0.000   2.658
  235        0.868   1.790   0.000   2.658
  236        0.868   1.789   0.000   2.657
  237        0.868   1.789   0.000   2.657
  238        0.868   1.789   0.000   2.656
  239        0.868   1.791   0.000   2.659
  240        0.868   1.792   0.000   2.660
  241        0.868   1.793   0.000   2.661
  242        0.870   1.784   0.000   2.654
  243        0.844   1.719   0.000   2.563
  244        0.868   1.790   0.000   2.658
  245        0.868   1.790   0.000   2.658
  246        0.868   1.790   0.000   2.658
  247        0.868   1.790   0.000   2.658
  248        0.868   1.790   0.000   2.658
  249        0.868   1.790   0.000   2.658
  250        0.868   1.790   0.000   2.658
  251        0.868   1.790   0.000   2.658
  252        0.868   1.790   0.000   2.658
  253        0.868   1.790   0.000   2.658
  254        0.868   1.790   0.000   2.658
  255        0.868   1.790   0.000   2.658
  256        0.868   1.790   0.000   2.658
  257        0.868   1.790   0.000   2.658
  258        0.868   1.790   0.000   2.658
  259        0.868   1.789   0.000   2.657
  260        0.868   1.790   0.000   2.657
  261        0.868   1.790   0.000   2.658
  262        0.868   1.791   0.000   2.660
  263        0.869   1.795   0.000   2.663
  264        0.870   1.795   0.000   2.665
  265        0.869   1.799   0.000   2.669
  266        0.868   1.790   0.000   2.658
  267        0.868   1.790   0.000   2.658
  268        0.868   1.790   0.000   2.658
  269        0.868   1.790   0.000   2.658
  270        0.868   1.790   0.000   2.658
  271        0.868   1.790   0.000   2.658
  272        0.868   1.790   0.000   2.658
  273        0.868   1.790   0.000   2.658
  274        0.868   1.790   0.000   2.658
  275        0.868   1.790   0.000   2.658
  276        0.868   1.790   0.000   2.658
  277        0.868   1.790   0.000   2.658
  278        0.868   1.790   0.000   2.658
  279        0.868   1.790   0.000   2.658
  280        0.868   1.790   0.000   2.658
  281        0.868   1.790   0.000   2.658
  282        0.868   1.790   0.000   2.658
  283        0.868   1.790   0.000   2.658
  284        0.868   1.791   0.000   2.659
  285        0.868   1.792   0.000   2.660
  286        0.868   1.793   0.000   2.661
  287        0.869   1.794   0.000   2.663
  288        0.868   1.790   0.000   2.658
  289        0.868   1.790   0.000   2.658
  290        0.868   1.790   0.000   2.658
  291        0.868   1.790   0.000   2.658
  292        0.868   1.790   0.000   2.658
  293        0.868   1.790   0.000   2.658
  294        0.868   1.790   0.000   2.658
  295        0.868   1.791   0.000   2.658
  296        0.868   1.790   0.000   2.658
  297        0.868   1.790   0.000   2.658
  298        0.868   1.790   0.000   2.658
  299        0.868   1.790   0.000   2.658
  300        0.868   1.791   0.000   2.658
  301        0.868   1.791   0.000   2.659
  302        0.868   1.790   0.000   2.658
  303        0.868   1.791   0.000   2.659
  304        0.868   1.791   0.000   2.659
  305        0.868   1.790   0.000   2.658
  306        0.868   1.791   0.000   2.659
  307        0.868   1.791   0.000   2.659
  308        0.868   1.791   0.000   2.660
  309        0.868   1.792   0.000   2.660
  310        0.868   1.791   0.000   2.658
  311        0.868   1.790   0.000   2.658
  312        0.868   1.790   0.000   2.658
  313        0.868   1.791   0.000   2.659
  314        0.868   1.791   0.000   2.659
  315        0.868   1.791   0.000   2.659
  316        0.868   1.791   0.000   2.658
  317        0.868   1.791   0.000   2.658
  318        0.868   1.790   0.000   2.658
  319        0.868   1.791   0.000   2.659
  320        0.868   1.791   0.000   2.659
  321        0.868   1.791   0.000   2.659
  322        0.868   1.791   0.000   2.658
  323        0.868   1.791   0.000   2.659
  324        0.868   1.790   0.000   2.658
  325        0.868   1.791   0.000   2.659
  326        0.868   1.791   0.000   2.659
  327        0.868   1.791   0.000   2.659
  328        0.868   1.791   0.000   2.659
  329        0.868   1.791   0.000   2.659
  330        0.868   1.790   0.000   2.658
  331        0.868   1.791   0.000   2.658
  332        0.868   1.791   0.000   2.659
  333        0.868   1.791   0.000   2.658
  334        0.868   1.791   0.000   2.659
  335        0.868   1.791   0.000   2.659
  336        0.868   1.791   0.000   2.658
  337        0.868   1.790   0.000   2.658
  338        0.868   1.791   0.000   2.659
  339        0.868   1.791   0.000   2.658
  340        0.868   1.790   0.000   2.658
  341        0.868   1.790   0.000   2.658
  342        0.868   1.790   0.000   2.658
  343        0.868   1.790   0.000   2.658
  344        0.868   1.791   0.000   2.659
  345        0.868   1.791   0.000   2.659
  346        0.868   1.791   0.000   2.658
  347        0.868   1.790   0.000   2.658
  348        0.868   1.790   0.000   2.658
  349        0.868   1.790   0.000   2.658
  350        0.868   1.791   0.000   2.658
  351        0.868   1.790   0.000   2.658
  352        0.868   1.790   0.000   2.658
  353        0.868   1.790   0.000   2.658
  354        0.868   1.790   0.000   2.658
  355        0.868   1.790   0.000   2.658
  356        0.868   1.790   0.000   2.658
  357        0.868   1.790   0.000   2.658
  358        0.868   1.790   0.000   2.658
  359        0.868   1.790   0.000   2.658
  360        0.868   1.790   0.000   2.658
  361        0.868   1.790   0.000   2.658
  362        0.868   1.790   0.000   2.658
  363        0.868   1.790   0.000   2.658
  364        0.868   1.790   0.000   2.658
  365        1.488   2.242   0.042   3.772
--------------------------------------------------
tot        317.372 653.793   0.042 971.207



 magnetization (x)

# of ion       s       p       d       tot
------------------------------------------
    1       -0.000  -0.000   0.000  -0.000
    2       -0.000  -0.000   0.000  -0.000
    3       -0.000  -0.000   0.000  -0.000
    4       -0.000  -0.000   0.000  -0.000
    5       -0.000  -0.000   0.000  -0.000
    6       -0.000  -0.000   0.000  -0.000
    7       -0.000  -0.000   0.000  -0.000
    8       -0.000  -0.000   0.000  -0.000
    9       -0.000  -0.000   0.000  -0.000
   10       -0.000  -0.000   0.000  -0.000
   11       -0.000  -0.000   0.000  -0.000
   12       -0.000  -0.000   0.000  -0.000
   13       -0.000  -0.000   0.000  -0.000
   14        0.000   0.000   0.000   0.000
   15        0.000   0.000   0.000   0.000
   16       -0.000  -0.000   0.000  -0.000
   17       -0.000  -0.000   0.000  -0.000
   18       -0.000  -0.000   0.000  -0.000
   19       -0.000  -0.000   0.000  -0.000
   20       -0.000  -0.000   0.000  -0.000
   21       -0.000  -0.000   0.000  -0.000
   22       -0.000  -0.000   0.000  -0.000
   23       -0.000  -0.000   0.000  -0.000
   24       -0.000  -0.000   0.000  -0.000
   25       -0.000  -0.000   0.000  -0.000
   26        0.000   0.000   0.000   0.000
   27        0.000   0.000   0.000   0.000
   28        0.000   0.000   0.000   0.000
   29       -0.000   0.000   0.000   0.000
   30       -0.000  -0.000   0.000  -0.000
   31       -0.000  -0.000   0.000  -0.000
   32       -0.000  -0.000   0.000  -0.000
   33       -0.000  -0.000   0.000  -0.000
   34       -0.000  -0.000   0.000  -0.000
   35       -0.000  -0.000   0.000  -0.000
   36       -0.000  -0.000   0.000  -0.000
   37       -0.000  -0.000   0.000  -0.000
   38       -0.000  -0.000   0.000  -0.000
   39       -0.000  -0.000   0.000  -0.000
   40       -0.000  -0.000   0.000  -0.000
   41       -0.000  -0.000   0.000  -0.000
   42        0.000   0.000   0.000   0.000
   43        0.000   0.000   0.000   0.000
   44        0.000   0.000   0.000   0.000
   45        0.000   0.000   0.000   0.000
   46       -0.000   0.000   0.000   0.000
   47        0.000   0.000   0.000   0.000
   48       -0.000  -0.000   0.000  -0.000
   49       -0.000  -0.000   0.000  -0.000
   50       -0.000  -0.000   0.000  -0.000
   51       -0.000  -0.000   0.000  -0.000
   52       -0.000  -0.000   0.000  -0.000
   53       -0.000  -0.000   0.000  -0.000
   54       -0.000  -0.000   0.000  -0.000
   55       -0.000  -0.000   0.000  -0.000
   56       -0.000  -0.000   0.000  -0.000
   57       -0.000  -0.000   0.000  -0.000
   58       -0.000  -0.000   0.000  -0.000
   59       -0.000  -0.000   0.000  -0.000
   60       -0.000  -0.000   0.000  -0.000
   61       -0.000  -0.000   0.000  -0.000
   62       -0.000  -0.000   0.000  -0.000
   63        0.000   0.000   0.000   0.000
   64        0.000   0.000   0.000   0.000
   65        0.000   0.000   0.000   0.000
   66        0.000   0.000   0.000   0.000
   67        0.000   0.000   0.000   0.000
   68        0.000   0.000   0.000   0.000
   69       -0.000  -0.000   0.000  -0.000
   70       -0.000  -0.000   0.000  -0.000
   71       -0.000  -0.000   0.000  -0.000
   72       -0.000  -0.000   0.000  -0.000
   73       -0.000  -0.000   0.000  -0.000
   74       -0.000  -0.000   0.000  -0.000
   75       -0.000  -0.000   0.000  -0.000
   76       -0.000  -0.000   0.000  -0.000
   77        0.000  -0.000   0.000  -0.000
   78       -0.000  -0.000   0.000  -0.000
   79       -0.000  -0.000   0.000  -0.000
   80       -0.000  -0.000   0.000  -0.000
   81       -0.000  -0.000   0.000  -0.000
   82       -0.000  -0.000   0.000  -0.000
   83       -0.000  -0.000   0.000  -0.000
   84       -0.000  -0.000   0.000  -0.000
   85       -0.000  -0.000   0.000  -0.000
   86        0.000   0.000   0.000   0.000
   87        0.000   0.000   0.000   0.000
   88        0.000   0.000   0.000   0.000
   89        0.000   0.000   0.000   0.000
   90        0.000   0.000   0.000   0.000
   91        0.000   0.000   0.000   0.000
   92       -0.000  -0.000   0.000  -0.000
   93       -0.000  -0.000   0.000  -0.000
   94       -0.000  -0.000   0.000  -0.000
   95       -0.000  -0.000   0.000  -0.000
   96       -0.000  -0.000   0.000  -0.000
   97       -0.000  -0.000   0.000  -0.000
   98        0.000   0.000   0.000   0.000
   99       -0.000  -0.000   0.000  -0.000
  100        0.000   0.000   0.000   0.000
  101       -0.000  -0.000   0.000  -0.000
  102        0.000   0.000   0.000   0.000
  103       -0.000  -0.000   0.000  -0.000
  104        0.000   0.000   0.000   0.000
  105       -0.000  -0.000   0.000  -0.000
  106        0.000  -0.000   0.000  -0.000
  107       -0.000  -0.000   0.000  -0.000
  108       -0.000  -0.000   0.000  -0.000
  109        0.000   0.000   0.000   0.000
  110        0.000   0.000   0.000   0.000
  111        0.000   0.000   0.000   0.000
  112        0.000   0.000   0.000   0.000
  113        0.000   0.000   0.000   0.000
  114        0.000   0.000   0.000   0.000
  115       -0.000  -0.000   0.000  -0.000
  116       -0.000  -0.000   0.000  -0.000
  117       -0.000  -0.000   0.000  -0.000
  118       -0.000  -0.000   0.000  -0.000
  119       -0.000  -0.000   0.000  -0.000
  120       -0.000  -0.000   0.000  -0.000
  121        0.000   0.000   0.000   0.000
  122       -0.000  -0.000   0.000  -0.000
  123        0.000   0.000   0.000   0.000
  124       -0.000   0.000   0.000  -0.000
  125        0.000   0.000   0.000   0.000
  126        0.000   0.000   0.000   0.000
  127        0.000   0.000   0.000   0.000
  128        0.000   0.000   0.000   0.000
  129        0.000   0.000   0.000   0.000
  130       -0.000   0.000   0.000   0.000
  131        0.000   0.000   0.000   0.000
  132        0.000   0.000   0.000   0.000
  133        0.000   0.000   0.000   0.000
  134        0.000   0.000   0.000   0.000
  135        0.000   0.000   0.000   0.000
  136       -0.000   0.000   0.000   0.000
  137        0.000   0.000   0.000   0.000
  138       -0.000  -0.000   0.000  -0.000
  139       -0.000  -0.000   0.000  -0.000
  140       -0.000  -0.000   0.000  -0.000
  141       -0.000  -0.000   0.000  -0.000
  142       -0.000  -0.000   0.000  -0.000
  143       -0.000  -0.000   0.000  -0.000
  144        0.000   0.000   0.000   0.000
  145       -0.000  -0.000   0.000  -0.000
  146        0.000   0.000   0.000   0.000
  147       -0.000   0.000   0.000   0.000
  148        0.000   0.000   0.000   0.000
  149        0.000   0.000   0.000   0.000
  150        0.000   0.000   0.000   0.000
  151        0.000   0.000   0.000   0.000
  152        0.000   0.000   0.000   0.000
  153        0.000   0.000   0.000   0.000
  154        0.000   0.000   0.000   0.000
  155        0.000   0.000   0.000   0.000
  156        0.000   0.000   0.000   0.000
  157        0.000   0.000   0.000   0.000
  158        0.000   0.000   0.000   0.000
  159       -0.000  -0.000   0.000  -0.000
  160        0.000   0.000   0.000   0.000
  161       -0.000  -0.000   0.000  -0.000
  162       -0.000  -0.000   0.000  -0.000
  163       -0.000  -0.000   0.000  -0.000
  164       -0.000  -0.000   0.000  -0.000
  165       -0.000  -0.000   0.000  -0.000
  166       -0.000  -0.000   0.000  -0.000
  167        0.000   0.000   0.000   0.000
  168       -0.000  -0.000   0.000  -0.000
  169        0.000   0.000   0.000   0.000
  170        0.000   0.000   0.000   0.000
  171        0.000   0.000   0.000   0.000
  172        0.000   0.000   0.000   0.000
  173        0.000   0.000   0.000   0.000
  174        0.000   0.000   0.000   0.000
  175        0.000   0.000   0.000   0.000
  176        0.000   0.000   0.000   0.000
  177        0.000   0.000   0.000   0.000
  178       -0.000   0.000   0.000   0.000
  179        0.000   0.000   0.000   0.000
  180       -0.000   0.000   0.000  -0.000
  181        0.000   0.000   0.000   0.000
  182       -0.000  -0.000   0.000  -0.000
  183        0.000   0.000   0.000   0.000
  184       -0.000  -0.000   0.000  -0.000
  185       -0.000  -0.000   0.000  -0.000
  186       -0.000  -0.000   0.000  -0.000
  187       -0.000  -0.000   0.000  -0.000
  188       -0.000  -0.000   0.000  -0.000
  189       -0.000  -0.000   0.000  -0.000
  190        0.000   0.000   0.000   0.000
  191       -0.000   0.000   0.000  -0.000
  192        0.000   0.000   0.000   0.000
  193        0.000   0.000   0.000   0.000
  194        0.000   0.000   0.000   0.000
  195        0.000   0.000   0.000   0.000
  196        0.000   0.000   0.000   0.000
  197        0.000   0.000   0.000   0.000
  198        0.000   0.000   0.000   0.000
  199        0.000   0.000   0.000   0.000
  200       -0.000  -0.000   0.000  -0.000
  201        0.000   0.000   0.000   0.000
  202       -0.000  -0.000   0.000  -0.000
  203        0.000   0.000   0.000   0.000
  204       -0.000  -0.000   0.000  -0.000
  205        0.000   0.000   0.000   0.000
  206       -0.000  -0.000   0.000  -0.000
  207       -0.000  -0.000   0.000  -0.000
  208       -0.000  -0.000   0.000  -0.000
  209       -0.000  -0.000   0.000  -0.000
  210       -0.000  -0.000   0.000  -0.000
  211       -0.000  -0.000   0.000  -0.000
  212        0.000   0.000   0.000   0.000
  213       -0.000   0.000   0.000   0.000
  214        0.000   0.000   0.000   0.000
  215        0.000   0.000   0.000   0.000
  216        0.000   0.000   0.000   0.000
  217        0.000   0.000   0.000   0.000
  218        0.000   0.000   0.000   0.000
  219        0.000   0.000   0.000   0.000
  220       -0.000  -0.000   0.000  -0.000
  221        0.000  -0.000   0.000  -0.000
  222       -0.000  -0.000   0.000  -0.000
  223       -0.000  -0.000   0.000  -0.000
  224       -0.000  -0.000   0.000  -0.000
  225       -0.000  -0.000   0.000  -0.000
  226       -0.000  -0.000   0.000  -0.000
  227       -0.000  -0.000   0.000  -0.000
  228       -0.000  -0.000   0.000  -0.000
  229       -0.000  -0.000   0.000  -0.000
  230       -0.000  -0.000   0.000  -0.000
  231       -0.000  -0.000   0.000  -0.000
  232       -0.000  -0.000   0.000  -0.000
  233       -0.000  -0.000   0.000  -0.000
  234        0.000   0.000   0.000   0.000
  235       -0.000   0.000   0.000  -0.000
  236        0.000   0.000   0.000   0.000
  237        0.000   0.000   0.000   0.000
  238        0.000   0.000   0.000   0.000
  239        0.000   0.000   0.000   0.000
  240        0.000   0.000   0.000   0.000
  241        0.000   0.000   0.000   0.000
  242        0.000  -0.000   0.000  -0.000
  243       -0.000  -0.000   0.000  -0.000
  244       -0.000  -0.000   0.000  -0.000
  245       -0.000  -0.000   0.000  -0.000
  246       -0.000  -0.000   0.000  -0.000
  247       -0.000  -0.000   0.000  -0.000
  248       -0.000  -0.000   0.000  -0.000
  249       -0.000  -0.000   0.000  -0.000
  250       -0.000  -0.000   0.000  -0.000
  251       -0.000  -0.000   0.000  -0.000
  252       -0.000  -0.000   0.000  -0.000
  253       -0.000  -0.000   0.000  -0.000
  254       -0.000  -0.000   0.000  -0.000
  255       -0.000  -0.000   0.000  -0.000
  256       -0.000  -0.000   0.000  -0.000
  257       -0.000  -0.000   0.000  -0.000
  258        0.000   0.000   0.000   0.000
  259        0.000   0.000   0.000   0.000
  260        0.000   0.000   0.000   0.000
  261        0.000   0.000   0.000   0.000
  262        0.000   0.000   0.000   0.000
  263        0.000   0.000   0.000   0.000
  264        0.000   0.000   0.000   0.000
  265        0.000   0.000   0.000   0.000
  266       -0.000  -0.000   0.000  -0.000
  267       -0.000  -0.000   0.000  -0.000
  268       -0.000  -0.000   0.000  -0.000
  269       -0.000  -0.000   0.000  -0.000
  270       -0.000  -0.000   0.000  -0.000
  271       -0.000  -0.000   0.000  -0.000
  272       -0.000  -0.000   0.000  -0.000
  273       -0.000  -0.000   0.000  -0.000
  274       -0.000  -0.000   0.000  -0.000
  275       -0.000  -0.000   0.000  -0.000
  276       -0.000  -0.000   0.000  -0.000
  277       -0.000  -0.000   0.000  -0.000
  278       -0.000  -0.000   0.000  -0.000
  279       -0.000  -0.000   0.000  -0.000
  280       -0.000  -0.000   0.000  -0.000
  281        0.000   0.000   0.000   0.000
  282        0.000   0.000   0.000   0.000
  283        0.000   0.000   0.000   0.000
  284        0.000   0.000   0.000   0.000
  285        0.000   0.000   0.000   0.000
  286        0.000   0.000   0.000   0.000
  287        0.000   0.000   0.000   0.000
  288       -0.000  -0.000   0.000  -0.000
  289       -0.000  -0.000   0.000  -0.000
  290       -0.000  -0.000   0.000  -0.000
  291       -0.000  -0.000   0.000  -0.000
  292       -0.000  -0.000   0.000  -0.000
  293       -0.000  -0.000   0.000  -0.000
  294       -0.000  -0.000   0.000  -0.000
  295       -0.000  -0.000   0.000  -0.000
  296       -0.000  -0.000   0.000  -0.000
  297       -0.000  -0.000   0.000  -0.000
  298       -0.000  -0.000   0.000  -0.000
  299       -0.000  -0.000   0.000  -0.000
  300       -0.000  -0.000   0.000  -0.000
  301       -0.000  -0.000   0.000  -0.000
  302       -0.000  -0.000   0.000  -0.000
  303       -0.000  -0.000   0.000  -0.000
  304       -0.000  -0.000   0.000  -0.000
  305        0.000   0.000   0.000   0.000
  306        0.000   0.000   0.000   0.000
  307        0.000   0.000   0.000   0.000
  308        0.000   0.000   0.000   0.000
  309        0.000   0.000   0.000   0.000
  310       -0.000  -0.000   0.000  -0.000
  311       -0.000  -0.000   0.000  -0.000
  312       -0.000  -0.000   0.000  -0.000
  313       -0.000  -0.000   0.000  -0.000
  314       -0.000  -0.000   0.000  -0.000
  315       -0.000  -0.000   0.000  -0.000
  316       -0.000  -0.000   0.000  -0.000
  317       -0.000  -0.000   0.000  -0.000
  318       -0.000  -0.000   0.000  -0.000
  319       -0.000  -0.000   0.000  -0.000
  320       -0.000  -0.000   0.000  -0.000
  321       -0.000  -0.000   0.000  -0.000
  322       -0.000  -0.000   0.000  -0.000
  323       -0.000  -0.000   0.000  -0.000
  324       -0.000  -0.000   0.000  -0.000
  325       -0.000  -0.000   0.000  -0.000
  326        0.000   0.000   0.000   0.000
  327       -0.000   0.000   0.000   0.000
  328        0.000   0.000   0.000   0.000
  329       -0.000  -0.000   0.000  -0.000
  330       -0.000  -0.000   0.000  -0.000
  331       -0.000  -0.000   0.000  -0.000
  332       -0.000  -0.000   0.000  -0.000
  333       -0.000  -0.000   0.000  -0.000
  334       -0.000  -0.000   0.000  -0.000
  335       -0.000  -0.000   0.000  -0.000
  336       -0.000  -0.000   0.000  -0.000
  337       -0.000  -0.000   0.000  -0.000
  338       -0.000  -0.000   0.000  -0.000
  339       -0.000  -0.000   0.000  -0.000
  340       -0.000  -0.000   0.000  -0.000
  341       -0.000  -0.000   0.000  -0.000
  342       -0.000  -0.000   0.000  -0.000
  343        0.000  -0.000   0.000  -0.000
  344       -0.000  -0.000   0.000  -0.000
  345       -0.000  -0.000   0.000  -0.000
  346       -0.000  -0.000   0.000  -0.000
  347       -0.000  -0.000   0.000  -0.000
  348       -0.000  -0.000   0.000  -0.000
  349       -0.000  -0.000   0.000  -0.000
  350       -0.000  -0.000   0.000  -0.000
  351       -0.000  -0.000   0.000  -0.000
  352       -0.000  -0.000   0.000  -0.000
  353       -0.000  -0.000   0.000  -0.000
  354       -0.000  -0.000   0.000  -0.000
  355       -0.000  -0.000   0.000  -0.000
  356       -0.000  -0.000   0.000  -0.000
  357       -0.000  -0.000   0.000  -0.000
  358       -0.000  -0.000   0.000  -0.000
  359       -0.000  -0.000   0.000  -0.000
  360       -0.000  -0.000   0.000  -0.000
  361       -0.000  -0.000   0.000  -0.000
  362       -0.000  -0.000   0.000  -0.000
  363       -0.000  -0.000   0.000  -0.000
  364       -0.000  -0.000   0.000  -0.000
  365        0.000   0.000   0.000   0.000
--------------------------------------------------
tot         -0.000   0.000   0.000   0.000
 

 total amount of memory used by VASP MPI-rank0  1278540. kBytes
=======================================================================

   base      :      30000. kBytes
   nonl-proj :     741511. kBytes
   fftplans  :      79694. kBytes
   grid      :     212065. kBytes
   one-center:       1492. kBytes
   wavefun   :     213778. kBytes
 
  
  
 General timing and accounting informations for this job:
 ========================================================
  
                  Total CPU time used (sec):    10381.786
                            User time (sec):    10341.869
                          System time (sec):       39.918
                         Elapsed time (sec):    10383.461
  
                   Maximum memory used (kb):     1745184.
                   Average memory used (kb):          N/A
  
                          Minor page faults:       218453
                          Major page faults:         1345
                 Voluntary context switches:         3305
 
 PROFILE, used timers:     339
 =============================
 
 index                 routine                    time                            calls level
----------------------------------------------------------------------------------------------
    1    total_time                        10383.461326                                1   1
    2      crpa_reader                           0.000028                              1   2
    3      m_bcast_d                             0.165287                              3   2
    4      inisym                                0.006580                              1   2
    5        posmap                                0.000127                            2   3
    6      brgrid                                0.092995                              1   2
    7      stufak                                0.226299                              1   2
    8      m_sumb_d                              0.774098                           2584   2
    9      fft3d_mpi                             0.079001                              5   2
   10        fftbrc_mpi                            0.077895                            5   3
   11          fftbas_plan_mpi                       0.077891                          5   4
   12            dfftw_execute                         0.020572                       15   5
   13            map_forward                           0.056991                       10   5
   14              map_gather                            0.007003                      5   6
   15              m_alltoallv_z                         0.038901                      5   6
   16              map_scatter                           0.011045                      5   6
   17      spher                                 0.073976                              1   2
   18      phase                                 0.000000                              1   2
   19      wfinit                               55.253349                              1   2
   20        m_bcast_z                            18.037838                         3696   3
   21        m_sumb_d                              0.014267                          226   3
   22      setdij_                               0.048991                              2   2
   23        m_alltoall_d                          0.030097                            4   3
   24        m_sumb_d                              0.000435                            2   3
   25      vectorpot                             0.000000                              1   2
   26      proall                               36.491168                              1   2
   27        phase                                 0.712630                            1   3
   28        proj                                 35.778521                            1   3
   29          proj1                                35.778209                         56   4
   30            crexp_mul_wave                       11.918238                    20440   5
   31            m_sumb_d                              0.076184                       56   5
   32      orthch                                2.204869                              1   2
   33        overl                                 0.000511                            2   3
   34        redis_proj                            0.135439                            6   3
   35          m_alltoall_d                          0.135193                        168   4
   36        redis_pw                              0.540209                            4   3
   37          m_alltoall_d                          0.492473                        112   4
   38        orth1                                 0.648749                           56   3
   39        m_alltoall_d                          0.106737                            8   3
   40        choleski                              0.131783                            2   3
   41        lincom                                0.619509                            2   3
   42      redis_pw_over_bands                   0.000000                              1   2
   43      m_bcast_z                             0.000149                              2   2
   44      fewald                                0.184992                              1   2
   45        rsp                                   0.005173                            1   3
   46        rcp                                   0.000298                            1   3
   47        m_sumb_d                              0.129617                            5   3
   48        m_alltoall_d                          0.047183                            2   3
   49      elmin                              9622.599228                              1   2
   50        potlok                               33.248223                           41   3
   51          fft3d_mpi                            15.002754                       1066   4
   52            fftbrc_mpi                           14.407099                     1066   5
   53              fftbas_plan_mpi                      14.406255                   1066   6
   54                dfftw_execute                         4.422921                 3198   7
   55                map_forward                           5.446933                 1148   7
   56                  map_gather                            0.738105                656   8
   57                  m_alltoallv_z                         3.634060                656   8
   58                  map_scatter                           1.065035                656   8
   59                map_backward                          4.510795                  984   7
   60                  map_gather                            0.909199                492   8
   61                  m_alltoallv_z                         3.015839                492   8
   62                  map_scatter                           0.576357                492   8
   63          m_sumb_d                              0.081152                        205   4
   64          pothar                                0.316447                         41   4
   65            m_sumb_d                              0.055484                       41   5
   66          m_bcast_d                             1.061363                         82   4
   67        potlok_metagga                        0.000015                           41   3
   68        vectorpot                             0.000011                           41   3
   69        setdij_                               0.543267                           41   3
   70          m_alltoall_d                          0.195365                         82   4
   71          m_sumb_d                              0.010357                         41   4
   72        set_dd_magatom                        0.000006                           41   3
   73        set_dd_paw                            0.404193                           41   3
   74          set_rsgf_all                          0.000045                         41   4
   75          m_alltoall_d                          0.234926                        246   4
   76          m_sumb_d                              0.044504                        287   4
   77        eddav                              9443.394030                           45   3
   78          m_sumb_d                             12.778951                      15656   4
   79          phase                                 0.000031                         90   4
   80          redis_proj                          433.449753                      23572   4
   81            m_alltoall_d                        433.303307                    28432   5
   82          redis_pw                            185.620504                      18354   4
   83            m_alltoall_d                        175.015435                    23214   5
   84          newband                             183.644271                       7828   4
   85            w1_copy                               1.598125                     5040   5
   86            redis_pw                              6.218272                     2520   5
   87              m_alltoall_d                          5.389822                   2520   6
   88            redis_proj                            0.754979                     2520   5
   89              m_alltoall_d                          0.737466                   2520   6
   90            fftwav_mpi                          151.943028                     2520   5
   91              fft3d_mpi                           133.854716                   2520   6
   92                fftbas_mpi                          133.846302                 2520   7
   93                  fftbas_plan_mpi                     133.842164               2520   8
   94                    dfftw_execute                        81.709663             7560   9
   95                    map_forward                          52.014237             5040   9
   96                      map_gather                           12.639057           2520  10
   97                      m_alltoallv_z                        15.711496           2520  10
   98                      map_scatter                          12.613569           2520  10
   99            eccp                                 21.270419                     2520   5
  100              m_sumb_d                              0.540488                   2520   6
  101            truncate_high_frequency_w1            0.000808                     2520   5
  102            setup_precond                         1.796407                     2520   5
  103              m_sumb_d                              0.130606                   2520   6
  104          hamiltmu                           4481.449466                       7738   4
  105            vhamil                              162.810252                     7738   5
  106            overl1                                0.504177                     7738   5
  107            vnlac0                             3745.348714                     7738   5
  108              m_sumb_d                              3.285519                   7738   6
  109              gemm                               2360.669957                2824370   6
  110              work_mul_crexp                     1371.855238                2824370   6
  111            kinhamil                            569.704032                     7738   5
  112              fftext_mpi                          568.139205                   7738   6
  113                fft3d_mpi                           535.967515                 7738   7
  114                  fftbas_mpi                          535.956979               7738   8
  115                    fftbas_plan_mpi                     535.951807             7738   9
  116                      dfftw_execute                       183.710064          23214  10
  117                      map_backward                        351.986503          15476  10
  118                        map_gather                           14.776360         7738  11
  119                        m_alltoallv_z                       327.403568         7738  11
  120                        map_scatter                           9.738280         7738  11
  121          overl                                 0.255888                      12956   4
  122          truncate_high_frequency_w1            0.002450                       7738   4
  123          w1_copy                               5.391477                      18174   4
  124          orth1                               192.488693                      23214   4
  125          m_alltoall_d                         87.254298                      42108   4
  126          lapack                               14.497376                       7738   4
  127          m_bcast_z                             1.231288                       7783   4
  128          m_bcast_d                             0.284547                      15476   4
  129          apply_precond                         3.450640                       5218   4
  130          w1_projall                         3269.690144                       5218   4
  131            proj1                              3269.661292                     5218   5
  132              crexp_mul_wave                     1074.263727                1904570   6
  133              m_sumb_d                             68.369623                   5218   6
  134          ggemm                               174.584795                      10258   4
  135          fftwav_mpi                          319.794868                       5218   4
  136            fft3d_mpi                           282.966664                     5218   5
  137              fftbas_mpi                          282.954187                   5218   6
  138                fftbas_plan_mpi                     282.946700                 5218   7
  139                  dfftw_execute                       169.522388              15654   8
  140                  map_forward                         113.211492              10436   8
  141                    map_gather                           27.747477             5218   9
  142                    m_alltoallv_z                        38.136932             5218   9
  143                    map_scatter                          26.766320             5218   9
  144          pdssyex_zheevx                       11.763355                         90   4
  145            FERMAT_RAZOR                          0.000012                        1   5
  146          lincom                               58.518084                         90   4
  147        m_sumb_d                              0.220523                          317   3
  148        densta                                0.093049                           45   3
  149          m_sumb_d                              0.090166                        751   4
  150        set_charge                          142.664055                           40   3
  151          soft_charge                         137.571690                         40   4
  152            fftwav_mpi                          103.262737                     1841   5
  153              fft3d_mpi                            94.266714                   1841   6
  154                fftbas_mpi                           94.263113                 1841   7
  155                  fftbas_plan_mpi                      94.260697               1841   8
  156                    dfftw_execute                        69.338441             5523   9
  157                    map_forward                          24.847815             3682   9
  158                      map_gather                            4.765023           1841  10
  159                      m_alltoallv_z                         6.978508           1841  10
  160                      map_scatter                           7.794467           1841  10
  161            pw_charge                            21.478003                     1841   5
  162            m_alltoall_d                          9.433180                    21760   5
  163            m_sumb_d                              0.030454                       80   5
  164            fft_gq                                1.169589                       40   5
  165              fft3d_mpi                             1.074480                     80   6
  166                fftbrc_mpi                            0.993366                   80   7
  167                  fftbas_plan_mpi                       0.993304                 80   8
  168                    dfftw_execute                         0.378343              240   9
  169                    map_backward                          0.613394              160   9
  170                      map_gather                            0.231219            160  10
  171                      m_alltoallv_z                         0.366750            160  10
  172                      map_scatter                           0.014326            160  10
  173          depsum                                3.202757                         40   4
  174            m_alltoall_d                          3.174156                      240   5
  175            m_sumb_d                              0.003480                       40   5
  176          augmentation_charge                   1.802825                         40   4
  177            m_alltoall_d                          0.046541                      320   5
  178            m_sumb_d                              0.000615                       40   5
  179            fft3d_mpi                             1.147278                       80   5
  180              fftbrc_mpi                            1.110361                     80   6
  181                fftbas_plan_mpi                       1.110290                   80   7
  182                  dfftw_execute                         0.298933                240   8
  183                  map_backward                          0.808829                160   8
  184                    map_gather                            0.142869               80   9
  185                    m_alltoallv_z                         0.558246               80   9
  186                    map_scatter                           0.106470               80   9
  187        brmix                                 1.450355                           40   3
  188          m_sumb_d                              0.665433                        240   4
  189          brpre                                 0.002572                         80   4
  190          setg0                                 0.064717                         42   4
  191          broyd                                 0.342252                         40   4
  192            m_sumb_d                              0.031832                     1054   5
  193            brsav                                 0.014578                      987   5
  194            brget                                 0.086678                     4254   5
  195          m_bcast_z                             0.066344                         40   4
  196          m_bcast_d                             0.003354                         40   4
  197        m_bcast_z                             0.000066                            1   3
  198      rotate_active_occupied_orbital        0.000001                              1   2
  199      sphpro_fast                           2.018881                              2   2
  200        m_sumb_d                              0.003010                            4   3
  201        m_alltoall_d                          0.513674                           12   3
  202      force_and_stress                    411.713531                              1   2
  203        set_charge                            3.521497                            1   3
  204          soft_charge                           3.393689                          1   4
  205            fftwav_mpi                            2.523640                       46   5
  206              fft3d_mpi                             2.316590                     46   6
  207                fftbas_mpi                            2.316515                   46   7
  208                  fftbas_plan_mpi                       2.316435                 46   8
  209                    dfftw_execute                         1.785866              138   9
  210                    map_forward                           0.528884               92   9
  211                      map_gather                            0.095191             46  10
  212                      m_alltoallv_z                         0.140325             46  10
  213                      map_scatter                           0.190990             46  10
  214            pw_charge                             0.545406                       46   5
  215            m_alltoall_d                          0.238234                      544   5
  216            m_sumb_d                              0.000073                        2   5
  217            fft_gq                                0.025948                        1   5
  218              fft3d_mpi                             0.023115                      2   6
  219                fftbrc_mpi                            0.020704                    2   7
  220                  fftbas_plan_mpi                       0.020703                  2   8
  221                    dfftw_execute                         0.009470                6   9
  222                    map_backward                          0.011193                4   9
  223                      map_gather                            0.006890              4  10
  224                      m_alltoallv_z                         0.003942              4  10
  225                      map_scatter                           0.000281              4  10
  226          depsum                                0.081483                          1   4
  227            m_alltoall_d                          0.080775                        6   5
  228            m_sumb_d                              0.000070                        1   5
  229          augmentation_charge                   0.043766                          1   4
  230            m_alltoall_d                          0.001856                        8   5
  231            m_sumb_d                              0.000071                        1   5
  232            fft3d_mpi                             0.027041                        2   5
  233              fftbrc_mpi                            0.026427                      2   6
  234                fftbas_plan_mpi                       0.026426                    2   7
  235                  dfftw_execute                         0.008534                  6   8
  236                  map_backward                          0.017843                  4   8
  237                    map_gather                            0.003268                2   9
  238                    m_alltoallv_z                         0.013327                2   9
  239                    map_scatter                           0.001220                2   9
  240        forloc                                0.271308                            1   3
  241          m_sumb_d                              0.000547                          1   4
  242        fornl                                77.342314                            1   3
  243          phase                                 0.000000                          1   4
  244          m_sumb_d                              0.009943                        226   4
  245        fordep                                0.072594                            1   3
  246          setdij_                               0.071862                          6   4
  247            m_alltoall_d                          0.013474                       12   5
  248            m_sumb_d                              0.002892                        6   5
  249          m_sumb_d                              0.000037                          1   4
  250        setdij_                               0.225092                           20   3
  251          m_alltoall_d                          0.045651                         40   4
  252          m_sumb_d                              0.007972                         20   4
  253        set_dd_magatom                        0.000000                            1   3
  254        set_dd_paw                            0.007625                            1   3
  255          set_rsgf_all                          0.000000                          1   4
  256          m_alltoall_d                          0.003612                          6   4
  257          m_sumb_d                              0.001054                          7   4
  258        strkin                                0.081712                            1   3
  259          m_sumb_d                              0.041415                          1   4
  260        strelo                                0.015286                            1   3
  261          m_sumb_d                              0.000037                          2   4
  262        strenl                              326.487029                            1   3
  263          spher                                 1.109666                         19   4
  264          phase                                 0.000005                          9   4
  265          proj1                               312.670130                        504   4
  266            crexp_mul_wave                      102.501872                   183960   5
  267            m_sumb_d                              0.298664                      504   5
  268          m_sumb_d                             12.680399                          1   4
  269        m_sumb_d                              0.003161                            6   3
  270        fft3d_mpi                             0.314301                           22   3
  271          fftbrc_mpi                            0.299691                         22   4
  272            fftbas_plan_mpi                       0.299671                       22   5
  273              dfftw_execute                         0.091800                     66   6
  274              map_forward                           0.100133                     20   6
  275                map_gather                            0.016846                   10   7
  276                m_alltoallv_z                         0.063770                   10   7
  277                map_scatter                           0.019320                   10   7
  278              map_backward                          0.107241                     24   6
  279                map_gather                            0.025011                   12   7
  280                m_alltoallv_z                         0.067985                   12   7
  281                map_scatter                           0.013969                   12   7
  282        forhar                                0.277816                            2   3
  283          m_sumb_d                              0.000235                          2   4
  284        strehar                               0.010424                            1   3
  285          m_sumb_d                              0.000216                          1   4
  286        chggra                                0.065873                            1   3
  287          fft3d_mpi                             0.042266                          3   4
  288            fftbrc_mpi                            0.041952                        3   5
  289              fftbas_plan_mpi                       0.041951                      3   6
  290                dfftw_execute                         0.011219                    9   7
  291                map_backward                          0.009012                    2   7
  292                  map_gather                            0.001000                  1   8
  293                  m_alltoallv_z                         0.007089                  1   8
  294                  map_scatter                           0.000907                  1   8
  295                map_forward                           0.021661                    4   7
  296                  map_gather                            0.003904                  2   8
  297                  m_alltoallv_z                         0.014550                  2   8
  298                  map_scatter                           0.003175                  2   8
  299          m_sumb_d                              0.000028                          2   4
  300          pothar                                0.007700                          1   4
  301            m_sumb_d                              0.001117                        1   5
  302        brmix                                 0.046518                            1   3
  303          m_sumb_d                              0.015450                          6   4
  304          brpre                                 0.000056                          2   4
  305          setg0                                 0.001657                          1   4
  306          broyd                                 0.021270                          1   4
  307            m_sumb_d                              0.001374                       47   5
  308            brsav                                 0.000635                       46   5
  309            brget                                 0.004659                      209   5
  310          m_bcast_z                             0.000800                          1   4
  311          m_bcast_d                             0.000047                          1   4
  312        m_bcast_d                             0.009320                            2   3
  313      potlok                                0.803910                              1   2
  314        fft3d_mpi                             0.354174                           26   3
  315          fftbrc_mpi                            0.338080                         26   4
  316            fftbas_plan_mpi                       0.338065                       26   5
  317              dfftw_execute                         0.113434                     78   6
  318              map_forward                           0.112275                     28   6
  319                map_gather                            0.018017                   16   7
  320                m_alltoallv_z                         0.064996                   16   7
  321                map_scatter                           0.028973                   16   7
  322              map_backward                          0.111764                     24   6
  323                map_gather                            0.025349                   12   7
  324                m_alltoallv_z                         0.071356                   12   7
  325                map_scatter                           0.014766                   12   7
  326        m_sumb_d                              0.000481                            5   3
  327        pothar                                0.007653                            1   3
  328          m_sumb_d                              0.001680                          1   4
  329        m_bcast_d                             0.029135                            2   3
  330      potlok_metagga                        0.000000                              1   2
  331      set_dd_magatom                        0.000000                              1   2
  332      set_dd_paw                            0.005068                              1   2
  333        set_rsgf_all                          0.000001                            1   3
  334        m_alltoall_d                          0.000669                            6   3
  335        m_sumb_d                              0.001295                            7   3
  336      m_alltoall_d                         98.262588                          39714   2
  337      densta                                0.041928                              1   2
  338        m_sumb_d                              0.000676                           11   3
  339        m_alltoall_d                          0.030384                          264   3
 
 Flat profile
 ============
 
             routine name                   CPU           calls
 ---------------------------------------------------------------
 proj1                                2360.681324        5778
 gemm                                 2360.669957     2824370
 work_mul_crexp                       1371.855238     2824370
 crexp_mul_wave                       1188.683837     2108970
 m_alltoall_d                          814.787096      162348
 dfftw_execute                         511.421648       55947
 m_alltoallv_z                         396.291641       18815
 orth1                                 193.137442       23270
 ggemm                                 174.584795       10258
 vhamil                                162.810252        7738
 total_time                            152.414410           1
 m_sumb_d                              100.405687       40487
 fornl                                  77.332371           1
 fftwav_mpi                             64.119590        9625
 map_gather                             62.151789       18815
 lincom                                 59.137593          92
 map_scatter                            58.959469       18815
 wfinit                                 37.201244           1
 map_forward                            37.033367       20460
 fftext_mpi                             32.171689        7738
 pw_charge                              22.023409        1887
 eccp                                   20.729931        2520
 m_bcast_z                              19.336485       11523
 potlok                                 17.198973          42
 lapack                                 14.497376        7738
 pdssyex_zheevx                         11.763344          90
 redis_pw                               11.481255       20878
 vnlac0                                  9.538000        7738
 eddav                                   7.243152          45
 w1_copy                                 6.989602       23214
 apply_precond                           3.450640        5218
 hamiltmu                                3.082291        7738
 force_and_stress                        2.961661           1
 soft_charge                             2.258116          41
 setup_precond                           1.665801        2520
 kinhamil                                1.564827        7738
 m_bcast_d                               1.553053       15606
 sphpro_fast                             1.502197           2
 spher                                   1.183642          20
 fft3d_mpi                               0.783937       18649
 phase                                   0.712666         102
 fftbas_plan_mpi                         0.693712       18649
 augmentation_charge                     0.623189          41
 setdij_                                 0.582968          69
 elmin                                   0.581437           1
 overl1                                  0.504177        7738
 brmix                                   0.312921          41
 forhar                                  0.277581           2
 pothar                                  0.273519          43
 forloc                                  0.270761           1
 overl                                   0.256400       12958
 stufak                                  0.226299           1
 broyd                                   0.223765          41
 redis_proj                              0.164205       26098
 choleski                                0.131783           2
 set_dd_paw                              0.130780          43
 fft_gq                                  0.097942          41
 brgrid                                  0.092995           1
 brget                                   0.091336        4463
 set_charge                              0.089341          41
 map_backward                            0.080731       16838
 setg0                                   0.066374          43
 newband                                 0.062232        7828
 strkin                                  0.040297           1
 w1_projall                              0.028852        5218
 strenl                                  0.026828           1
 depsum                                  0.025759          41
 orthch                                  0.021932           1
 fftbas_mpi                              0.019293       17363
 chggra                                  0.015879           1
 strelo                                  0.015249           1
 brsav                                   0.015214        1033
 densta                                  0.013750          46
 strehar                                 0.010208           1
 inisym                                  0.006453           1
 rsp                                     0.005173           1
 truncate_high_frequency_w1              0.003258       10258
 fewald                                  0.002721           1
 brpre                                   0.002628          82
 fftbrc_mpi                              0.001020        1286
 fordep                                  0.000695           1
 proj                                    0.000312           1
 rcp                                     0.000298           1
 posmap                                  0.000127           2
 set_rsgf_all                            0.000046          43
 crpa_reader                             0.000028           1
 proall                                  0.000017           1
 potlok_metagga                          0.000015          42
 FERMAT_RAZOR                            0.000012           1
 vectorpot                               0.000011          42
 set_dd_magatom                          0.000006          43
 rotate_active_occupied_orbital          0.000001           1
 redis_pw_over_bands                     0.000000           1
 ---------------------------------------------------------------
  summed up times     10383.46132588387     
 
 Accumulative profile
 ====================
 
             routine name                   CPU           calls
 ---------------------------------------------------------------
 total_time                          10383.461326           1
 elmin                                9622.599228           1
 eddav                                9443.394030          45
 hamiltmu                             4481.449466        7738
 vnlac0                               3745.348714        7738
 proj1                                3618.109632        5778
 w1_projall                           3269.690144        5218
 gemm                                 2360.669957     2824370
 work_mul_crexp                       1371.855238     2824370
 crexp_mul_wave                       1188.683837     2108970
 fft3d_mpi                            1067.436608       18649
 fftbas_plan_mpi                      1066.632358       18649
 fftbas_mpi                           1049.337096       17363
 m_alltoall_d                          814.787096      162348
 fftwav_mpi                            577.524273        9625
 kinhamil                              569.704032        7738
 fftext_mpi                            568.139205        7738
 dfftw_execute                         511.421648       55947
 redis_proj                            434.340171       26098
 force_and_stress                      411.713531           1
 m_alltoallv_z                         396.291641       18815
 map_backward                          358.176576       16838
 strenl                                326.487029           1
 map_forward                           196.340422       20460
 orth1                                 193.137442       23270
 redis_pw                              192.378985       20878
 newband                               183.644271        7828
 ggemm                                 174.584795       10258
 vhamil                                162.810252        7738
 set_charge                            146.185552          41
 soft_charge                           140.965379          41
 m_sumb_d                              100.405687       40487
 fornl                                  77.342314           1
 map_gather                             62.151789       18815
 lincom                                 59.137593          92
 map_scatter                            58.959469       18815
 wfinit                                 55.253349           1
 proall                                 36.491168           1
 proj                                   35.778521           1
 potlok                                 34.052133          42
 pw_charge                              22.023409        1887
 eccp                                   21.270419        2520
 m_bcast_z                              19.336485       11523
 fftbrc_mpi                             17.315575        1286
 lapack                                 14.497376        7738
 pdssyex_zheevx                         11.763355          90
 w1_copy                                 6.989602       23214
 apply_precond                           3.450640        5218
 depsum                                  3.284240          41
 orthch                                  2.204869           1
 sphpro_fast                             2.018881           2
 augmentation_charge                     1.846591          41
 setup_precond                           1.796407        2520
 m_bcast_d                               1.553053       15606
 brmix                                   1.496873          41
 fft_gq                                  1.195537          41
 spher                                   1.183642          20
 setdij_                                 0.889212          69
 phase                                   0.712666         102
 overl1                                  0.504177        7738
 set_dd_paw                              0.416886          43
 broyd                                   0.363522          41
 pothar                                  0.331800          43
 forhar                                  0.277816           2
 forloc                                  0.271308           1
 overl                                   0.256400       12958
 stufak                                  0.226299           1
 fewald                                  0.184992           1
 densta                                  0.134977          46
 choleski                                0.131783           2
 brgrid                                  0.092995           1
 brget                                   0.091336        4463
 strkin                                  0.081712           1
 fordep                                  0.072594           1
 setg0                                   0.066374          43
 chggra                                  0.065873           1
 strelo                                  0.015286           1
 brsav                                   0.015214        1033
 strehar                                 0.010424           1
 inisym                                  0.006580           1
 rsp                                     0.005173           1
 truncate_high_frequency_w1              0.003258       10258
 brpre                                   0.002628          82
 rcp                                     0.000298           1
 posmap                                  0.000127           2
 set_rsgf_all                            0.000046          43
 crpa_reader                             0.000028           1
 potlok_metagga                          0.000015          42
 FERMAT_RAZOR                            0.000012           1
 vectorpot                               0.000011          42
 set_dd_magatom                          0.000006          43
 rotate_active_occupied_orbital          0.000001           1
 redis_pw_over_bands                     0.000000           1
 ---------------------------------------------------------------
 
Profiling took   4.900012  2.125753  0.005317  0.005279 seconds
Profiling took   5.824157 seconds
