 C Se 
 1.0000000000000000
    32.3722991942999982    0.0000000000000000    0.0000000000000000
     0.0000000000000000   19.9214134216000005    0.0000000000000000
     0.0000000000000000    0.0000000000000000   40.4480476378999967
 C   Se 
 364   1
Cartesian
 12.0089880780452134 10.7241538795261846  0.0998590238055326
 11.9385343994301572 10.8340502737179634  2.5442796198905637
 10.9437793164351636 11.8536499342184971  2.4712210496646674
 10.3752036884582193 12.1805610041824881  1.2110548179548604
  8.9936504000363993 12.5267335053820332  1.1375948692492845
 11.8634390412461137 10.9415642955374803  4.9883386613627474
 10.8345573927524406 11.9264920432698318  4.9154785893266144
 10.2553414641090352 12.2336144873747532  3.6553398014578091
  8.8625302625270947 12.5318348469991552  3.5817448677087276
  8.2081901253189624 12.4888776705399422  2.3218470681985868
  6.8662033299390215 12.0115933409939526  2.2487041325456065
  6.3317810081085364 11.6314664097314768  0.9885906457546668
  5.4396623158743367 10.5210238577608202  0.9154712798860567
 11.7837292695727029 11.0465634167466433  7.4322190082800939
 10.7223068171396818 11.9966102815345703  7.3597363406937255
 10.1332864610707993 12.2831665302492787  6.0996492726385423
  8.7311548476270353 12.5334000042487368  6.0261225648724936
  8.0788613484186378 12.4671635397742762  4.7659765048104266
  6.7544436700838899 11.9436732127594567  4.6930663945031039
  6.2333021659574213 11.5453890379390618  3.4330095839420083
  5.3800865719949362 10.4047615596311189  3.3597516199943334
  5.1453284403788357  9.7922656441678271  2.0999183026570449
  5.0173467611434130  8.3735603101361757  2.0266424835057548
  5.1389508814489115  7.7287872340036836  0.7666123209214656
  5.7744400433896930  6.4539621852299129  0.6936468762586632
 11.7005508185464162 11.1490716469183901  9.8761534933946180
 10.6079746748051349 12.0628754439793244  9.8045666519804602
 10.0092235599044894 12.3291385668009550  8.5440101080523849
  8.5997734454052601 12.5308551474573893  8.4707249245191356
  7.9501862752082637 12.4422599711582755  7.2104353415323468
  6.6446686011963454 11.8725554589620934  7.1376033927365237
  6.1378313224012198 11.4561335082974214  5.8777004610532160
  5.3246271139214203 10.2866294649924583  5.8042422981377202
  5.1113112228886575  9.6662055682535666  4.5442051495694287
  5.0322948771016538  8.2440674767679241  4.4710504636335928
  5.1759755316703000  7.6038330354863213  3.2109964732479015
  5.8548598788280994  6.3514817078006365  3.1378978906323440
  6.3131767470188320  5.8818997406068201  1.8779749073820446
  7.5481149124649054  5.1721464574591973  1.8044084758843528
  8.1847923237052456  5.0127653948306383  0.5444717396661225
  9.6085240837456336  5.0568538624676336  0.4714485984069441
 12.0021924492398231 10.7130871892428328 13.5779014806298548
 11.6143302631419978 11.2466593950928733 12.3190713854954801
 10.4918894243377068 12.1203732770758403 12.2493768294731300
  9.8846788804685222 12.3701972572500356 10.9893230820817145
  8.4683522638536122 12.5233238963910463 10.9161822488928308
  7.8224696208676470 12.4126995380588045  9.6560106937418766
  6.5374207654526781 11.7976952822011558  9.5826826045027449
  6.0458976910556306 11.3634684980993885  8.3223501052431494
  5.2742314082317128 10.1665141418275429  8.2486330901757050
  5.0818756320905267  9.5392206265074631  6.9886324242194426
  5.0518791546677422  8.1150160558559641  6.9155954622238784
  5.2173533743413865  7.4801977279591148  5.6555759140387920
  5.9388301080202472  6.2519683804055122  5.5822495782368353
  6.4130335476194809  5.7984078853225780  4.3221335482189573
  7.6715904878857417  5.1315070650358106  4.2487393578503978
  8.3134751948860242  4.9943508846018609  2.9887462468182422
  9.7348723463923434  5.0875775645473196  2.9157219090787310
 10.3532139926120141  5.3076566115558537  1.6557665006048543
 11.5141693266930734  6.1328416989844410  1.5820723292498511
 11.9253505866342628  6.6443782533927074  0.3221010278289033
 12.4811814221027415  7.9558217487915988  0.2490069277438721
 11.9312090326556195 10.7895343393262380 16.0209839922839947
 11.5214856413954099 11.3207947578619326 14.7662634115854061
 10.3706216884342499 12.1579422489239697 14.6958925072374882
  9.7585962425039323 12.3974112527362959 13.4378164384657275
  8.3375654855564019 12.5057932262254905 13.3633807335034334
  7.6960249569710388 12.3760433762096103 12.1017419012428622
  6.4331452526930502 11.7181179747423005 12.0275838288355974
  5.9565273388647926 11.2682381689912958 10.7670433119313564
  5.2268574768621452 10.0446563046203341 10.6931661867182743
  5.0570638847050464  9.4111648406983210  9.4333187740837747
  5.0760692214956515  7.9867555652783615  9.3602555866956774
  5.2634193988561213  7.3580780766498526  8.1000442261236323
  6.0263730322968909  6.1554072739261834  8.0264567760057144
  6.5154235633068183  5.7181717865313528  6.7666016303632111
  7.7961999714004007  5.0942253047114940  6.6936220894050855
  8.4424210374134621  4.9797584499328122  5.4331864134823551
  9.8595244933333603  5.1218148117886768  5.3599844009179067
 10.4703174540821529  5.3632539105530306  4.1000633413361349
 11.6022194811555206  6.2279678302527000  4.0263910963116274
 11.9956538553591567  6.7536753620666685  2.7665294281895494
 12.5059867317003217  8.0834849191435332  2.6935399394176072
 12.5653143540818277  8.7371657060212655  1.4335003416584216
 12.3014636138436710 10.1368236573646939  1.3598811218997291
 11.8952756458183657 10.9496192060001523 18.4726071498738413
 11.4357076915700464 11.3987230735143665 17.2249953230064072
 10.2471608461385113 12.1860146164496683 17.1443165135156406
  9.6266485874512302 12.4018455650314046 15.8837506180966592
  8.2076808316921532 12.4752888772870225 15.8083540816753629
  7.5693624249811906 12.3326465620924370 14.5466341215292037
  6.3272654678471181 11.6351559200102983 14.4721928064382208
  5.8686547091805270 11.1689043138513533 13.2120427262632099
  5.1823633587434381  9.9203921060656608 13.1380893489599053
  5.0360403371953071  9.2816753392131819 11.8775907252258719
  5.1040167154088856  7.8592240575946350 11.8043915160578017
  5.3124439759289208  7.2372683443050976 10.5444298425618648
  6.1162400008468962  6.0608583748436367 10.4707492052423436
  6.6209657211498838  5.6414172648451721  9.2111850245067242
  7.9220948638723545  5.0612928378356390  9.1386197943951650
  8.5715812076395750  4.9683388541512823  7.8778024782308975
  9.9833011589905070  5.1586572417032821  7.8046006847663074
 10.5849438074236630  5.4220207394482847  6.5446363561745642
 11.6859706232034632  6.3258840066934470  6.4708840719481060
 12.0612959815924565  6.8651984232206429  5.2108758669489044
 12.5248836442434559  8.2118689606770356  5.1376841855338977
 12.5626036488730293  8.8673256217342757  3.8778395264832035
 12.2508573135692664 10.2572233296354813  3.8042093844784213
 11.8003908134180602 11.0496191411747464 20.9251842973387845
 11.3452800334581791 11.5046230285643283 19.6516116275363864
 10.1270031029813961 12.2447824171942106 19.5808057357643506
  9.4990354376532427 12.4302865599880139 18.3248014694489640
  8.0712779082284865 12.4602464965780388 18.2511388402153543
  7.4416181118391114 12.2861325045443301 16.9930373766046188
  6.2232016701181276 11.5486320901817763 16.9178919159689478
  5.7825411464232586 11.0656753206003309 15.6565747233628034
  5.1418950552026752  9.7948167656877416 15.5827574913315168
  5.0172229344033665  9.1516050318434026 14.3222541898989508
  5.1343454238814079  7.7315861806600203 14.2489465648253937
  5.3648856837865564  7.1177591565415588 12.9891987980298289
  6.2073568969742627  5.9687896303685068 12.9153814172801162
  6.7273973521873156  5.5674283634859609 11.6553826422060265
  8.0478766115670712  5.0333457758877653 11.5829867332118486
  8.7006010173050061  4.9615940603221089 10.3234689812476947
 10.1062612383489459  5.2000875943483305 10.2507315617359023
 10.6977393059694013  5.4841300443616037  8.9893278677560104
 11.7655828730974932  6.4261618640948175  8.9151071623624443
 12.1220811176757834  6.9784338833417268  7.6550966690472420
 12.5383531120166456  8.3408004852353486  7.5812242679548767
 12.5536591751539301  8.9972359034954561  6.3218695567356979
 12.1943737651533191 10.3756217060248321  6.2485463980046898
 11.7033843214589730 11.1468245077660804 23.3662885866708834
 11.2527869589492973 11.6174634916317263 22.0995462604562753
 10.0098151816242336 12.3226525382004120 22.0259560869846354
  9.3717252766206460 12.4668690671616353 20.7669942114320065
  7.9482607794714211 12.4342694895111539 20.6948077720993986
  7.3191468550959637 12.2406589790345208 19.4352925462280446
  6.1280225959161978 11.4589961714182422 19.3616786320501078
  5.6998465043748903 10.9629044646737857 18.1022410059264196
  5.1036525984592549  9.6671666392827014 18.0284628260947954
  5.0038384868373100  9.0202369820422543 16.7684568646897922
  5.1697319636345789  7.6052318614996564 16.6946388376076129
  5.4206183465687507  6.9994857451122909 15.4337123148453035
  6.2999563818670801  5.8795281427014014 15.3596076370149230
  6.8327834881839040  5.4951323286798015 14.1000693369589918
  8.1730504748125448  5.0090483752586685 14.0275604345789464
  8.8295555918377033  4.9635793091459401 12.7692318041067558
 10.2253527820940384  5.2520931038944498 12.6972411564217449
 10.8085227583767285  5.5502711875914201 11.4343296719765899
 11.8448941211529934  6.5284315295006019 11.3597470539631473
 12.1791732821484882  7.0935114141797433 10.0994916988216641
 12.5463537957953353  8.4697356530143963 10.0239329450495838
 12.5388757181919424  9.1266572814150209  8.7646503053676454
 12.1330239999746698 10.4917275865621740  8.6920672348089294
 11.6164499841365529 11.2454385971423054 25.8085481285753247
 11.1448942919830838 11.7016955680537844 24.5484000624449408
  9.8865079510269460 12.3701308478468981 24.4732559248586163
  9.2456063890072411 12.5024769308674859 23.2099771182504000
  7.8233998170080312 12.4089799256535045 23.1384974711880069
  7.2031854032251195 12.1900610370753792 21.8800684193937265
  6.0401425498420309 11.3654418085323279 21.8068760912661190
  5.6288031979529904 10.8528836236362718 20.5475130326594631
  5.0780399017857940  9.5399210306275410 20.4740493754631743
  4.9965190800546102  8.8890922106211345 19.2131472035020430
  5.2117047302518023  7.4807638492826198 19.1391805247861662
  5.4793230591729021  6.8833997964219176 17.8793172303415382
  6.3974544204705071  5.7917495028702817 17.8053121908217200
  6.9419708680925112  5.4273895290549667 16.5455372542130199
  8.2978912337706863  4.9900788929589552 16.4724612372496750
  8.9560192778628274  4.9713948176286653 15.2129936244348247
 10.3367087878100712  5.3191720204458983 15.1402969379500867
 10.9137533001585094  5.6282949496645607 13.8815510337323893
 11.9254644641507461  6.6376758312732980 13.8089025913132915
 12.2361768005222569  7.2109216982730198 12.5421770637747372
 12.5514736674051175  8.5972881302205657 12.4630392540352339
 12.5205967112718728  9.2550686129741937 11.2058141608327855
 12.0698318096038033 10.6066933964413490 11.1349628531748372
 11.5307946291737320 11.3421733094888584 28.2526241908519253
 11.0407166405342245 11.7797036106236614 26.9927505073403040
  9.7614359017922130 12.4049612724866414 26.9184012896390605
  9.1160907138113654 12.5213724442326768 25.6566883813399720
  7.6976804843447697 12.3771812124079101 25.5842359198081404
  7.0880085014186980 12.1341622545223338 24.3246271591071306
  5.9566665021956320 11.2687240594744171 24.2516395528559343
  5.5624268061115067 10.7431940500481371 22.9916183199488593
  5.0550471861324198  9.4119998395360032 22.9186642477868787
  4.9961037825444921  8.7585376851786645 21.6590076709942281
  5.2597748428803692  7.3583996427658871 21.5853270099391068
  5.5501727690622040  6.7707753840001281 20.3250315074031143
  6.5045437384823206  5.7148864647300099 20.2514575995617321
  7.0572484573226735  5.3656160101430581 18.9898135917261826
  8.4277107188379841  4.9776664327960285 18.9149700561155285
  9.0811415051305246  4.9777739061349520 17.6568107155299323
 10.4493843279691170  5.3868016930593212 17.5827607072099248
 11.0055618050190329  5.7334189391432240 16.3268123753731302
 11.9841732765709406  6.7700054786971995 16.2571179513173441
 12.3031980008159003  7.3295719797471328 14.9836513050280633
 12.5778431296040942  8.7299757303338765 14.9002879470068663
 12.5017607185794475  9.3822293840907314 13.6450120407449855
 11.4422843800659990 11.4363321045356638 30.6966715707580882
 10.9372972818552157 11.8561857988998156 29.4367115000399586
  9.6359256233232227 12.4356586123735102 29.3633112977950645
  8.9860363354643908 12.5293071880729538 28.1031042407729856
  7.5744912249909362 12.3373316467393810 28.0298385568624688
  6.9733265356003171 12.0745818351099992 26.7690668972302461
  5.8729955950619086 11.1696476151523072 26.6962126852058397
  5.4981233031681152 10.6310041630516015 25.4364338478546372
  5.0353788354979381  9.2835058232479319 25.3635492258434816
  4.9999213413735548  8.6281697613033774 24.1036885587467467
  5.3121446842120230  7.2388114930261134 24.0299969557589037
  5.6226703484221501  6.6612351281587436 22.7697196342409107
  6.6152534916763033  5.6391008822405801 22.6964423226165870
  7.1809244977938667  5.3106696383976724 21.4360824815001543
  8.5633312818655671  4.9669301788227891 21.3615730858973016
  9.2165469003004592  4.9986408861510672 20.0997943330150122
 10.5648054454877354  5.4469184183213866 20.0243065903431336
 11.1054922773447622  5.8205464087472043 18.7635956659571050
 12.0422809327683549  6.8953100800635907 18.6839219300978776
 12.3671074525616280  7.4503444613966305 17.4365571773751959
 12.8019077427800045  8.8550660087411117 17.3454422278314055
 12.5196824856108098  9.5145681513274916 16.0729464836183809
 11.3495624875942269 11.5271693408446989 33.1409564678316073
 10.8304690577280684 11.9291154624932929 31.8810598542190036
  9.5095402220050804 12.4622229903472572 31.8081043261706604
  8.8566500249937281 12.5325062885699161 30.5480152984103945
  7.4527136007801591 12.2924409784906867 30.4745806264033732
  6.8604986667652481 12.0102010396672529 29.2141658701250648
  5.7915842288257391 11.0680650521598736 29.1412703798373158
  5.4362354909559425 10.5165395578896188 27.8812191761635333
  5.0196794875055648  9.1545067328963885 27.8081468568423951
  5.0061870609445469  8.4984754521698722 26.5480149784781183
  5.3663781530108849  7.1202262315953861 26.4744607516316215
  5.6984240465275917  6.5543058073087179 25.2147203053768401
  6.7262765299598586  5.5677906331823044 25.1417551794931882
  7.3049200880217455  5.2594482690043662 23.8811858804678643
  8.6968646247858281  4.9592614959674384 23.8066663843946351
  9.3498518875229362  5.0039686994732628 22.5450434364506940
 10.6908433715764293  5.4863082993317880 22.4707785080440559
 11.2171213448800042  5.8798334894587798 21.2123783373040347
 12.1037112415236017  6.9930428289239535 21.1425497926229049
 12.3580072557433382  7.6140591854012003 19.8881156954001845
 12.5877021201561110  8.9993607388729480 19.8359423616349524
 12.6861549289407236  9.7100277795521919 18.5634890091786282
 11.2532447181201860 11.6145413634825374 35.5855827366002586
 10.7207293208940388 11.9982347510379981 34.3254397037132364
  9.3822024018637293 12.4850652969925555 34.2525871885216802
  8.7273745839461974 12.5325145334090546 32.9925828372227556
  7.3324407085341718 12.2439417548839398 32.9191025975186378
  6.7500655376069822 11.9411201781610448 31.6591384506449387
  5.7140248607250825 10.9634831956432048 31.5862579231249256
  5.3776838191279950 10.4003216709175490 30.3258222718504449
  5.0078482424144699  9.0246636441643329 30.2526629825018674
  5.0166898700691585  8.3687111493185107 28.9927804928925994
  5.4237518657905817  7.0035290344109731 28.9194585336528327
  5.7759202576072113  6.4497680512952629 27.6594191812734600
  6.8374826589046434  5.5002734377139699 27.5865531022283967
  7.4265390018779627  5.2115271950567923 26.3263471538040683
  8.8285402228230794  4.9589372484983691 26.2525056319991954
  9.4805922720847207  5.0228696512037603 24.9923475318248478
 10.8051738500667103  5.5470132392933884 24.9197072631453551
 11.3239825044407088  5.9488805085414400 23.6593072354962004
 12.1733529895287518  7.0897898196685754 23.5895298440441827
 12.4054137820936550  7.7069530707554206 22.3308770643997256
 12.5338896996941447  9.1226090798551187 22.2637076576046518
 12.4351666025006100  9.7715899961221151 21.0083372424745676
 11.1532759729496931 11.6979163198780824 38.0301571709361710
 10.6081167438634001 12.0633119087369156 36.7700020737513498
  9.2535635501935865 12.5037297899938942 36.6969846573238954
  8.5976400171745091 12.5284318576437670 35.4370610315218002
  7.2137126732031422 12.1917047722175411 35.3635435277942420
  6.6422583131607427 11.8687246202991989 34.1035892746333431
  5.6402124640827846 10.8563804167601283 34.0307939545886811
  5.3228104723137912 10.2820559271456737 32.7706257407486063
  5.0005144003101023  8.8944211355603588 32.6973245336390832
  5.0319754891646120  8.2391279787565814 31.4373748067559227
  5.4856853291646805  6.8889826674095227 31.3643139677159688
  5.8560719925328506  6.3475729748996352 30.1041028129225801
  6.9503579374608941  5.4355917241922924 30.0312349462246857
  7.5495090052403393  5.1682869984285293 28.7715015890793531
  8.9594360040805103  4.9655676649916938 28.6981137311256660
  9.6092639553293147  5.0519367409973617 27.4378574835194442
 10.9143978628690324  5.6211459415569971 27.3652061282544672
 11.4207665257131232  6.0361425742866031 26.1043778292644326
 12.2308841977275549  7.2076465367362754 26.0322386782085253
 12.4423238367828706  7.8282540292637188 24.7734716817251233
 12.5180541476136451  9.2510174346965375 24.7027257412138432
 12.3737889450797578  9.8931737059926146 23.4453895220339099
 11.0500894515793071 11.7774986713605241  0.0267101967821138
 10.4929941755219236 12.1241189479834919 39.2146248261754025
  9.1240768058210460 12.5176812929561425 39.1413688608485231
  8.4678327920091903 12.5199121713966068 37.8814400428548765
  7.0963400790430171 12.1357168803686246 37.8079390783309108
  6.5365048029484898 11.7932216254665061 36.5479700991114029
  5.5700501670016553 10.7467996622390363 36.4751733593962655
  5.2727933811269505 10.1618409292188741 35.2152588250495100
  4.9984475573401008  8.7641679336532938 35.1418124259580864
  5.0520714023498474  8.1102486386136761 33.8818053022011583
  5.5520774415792022  6.7765474690287295 33.8089510517481600
  5.9406829825339003  6.2481675505985548 32.5489262150787297
  7.0662450048608703  5.3751171005751690 32.4758780118947143
  7.6741689886039328  5.1293365155138897 31.2159743192308525
  9.0901250344380760  4.9766873100520268 31.1427217624202193
  9.7363784210283306  5.0857604124226556 29.8824209995837649
 11.0214609781163375  5.6998490596110791 29.8094301332777398
 11.5132423721740871  6.1319921651434655 28.5492707089235935
 12.2841243302948708  7.3299045944830006 28.4759521553297184
 12.4733255122797395  7.9569169827413369 27.2160424530660805
 12.5019904400616149  9.3807405660216840 27.1437797619217029
 12.3348155564328454 10.0155728799752204 25.8843862157748177
  8.3380826918534261 12.5066541364970547 40.3257067870746866
  6.9805347937249342 12.0754966132992898 40.2523361848043919
  6.4330854549093592 11.7140477083864045 38.9923503680899941
  5.5032692915059886 10.6349674129302834 38.9194231529886707
  5.2265840135956836 10.0400503307041333 37.6595577720164769
  5.0006646716534524  8.6337322690840903 37.5860914003600399
  5.0770176585487148  7.9821892014683513 36.3261863565753700
  5.6228370510883749  6.6665439411967693 36.2534325891343343
  6.0295524411650980  6.1520407129538635 34.9934312746346947
  7.1845193140947208  5.3186374603010043 34.9200964033864949
  7.8006105194062245  5.0942245368773991 33.6601242998258599
  9.2211117244013536  4.9908697240477400 33.5869134748270142
  9.8630555728343570  5.1230429618025015 32.3267720345170630
 11.1264437616882024  5.7807130017230612 32.2535507901218068
 11.6028465317764038  6.2303970454048931 30.9933765228312090
 12.3330557593250845  7.4532583010049063 30.9196616652957630
 12.5018819288226517  8.0862582640484906 29.6593981518073271
 12.4823676745635730  9.5106688104267629 29.5865815801671168
 12.2932957582919293 10.1388277488072500 28.3270366548383450
  5.1840497121000784  9.9168261479623094 40.1037197468885083
  5.0069004375399899  8.5034025607361450 40.0303177394267635
  5.1060269049206637  7.8548375366913348 38.7704199342001559
  5.6970237269915973  6.5588637757207557 38.6976128995924711
  6.1213810412575667  6.0586799827162121 37.4376700981161861
  7.3045195586041078  5.2655293129715233 37.3641490721810356
  7.9281352883613065  5.0627364510538904 36.1042303537943212
  9.3514597945623610  5.0085554755881585 36.0311358250713880
  9.9885494275039655  5.1633101183792611 34.7709725223779884
 11.2285197765771976  5.8640891637150405 34.6975534387729923
 11.6894567961782574  6.3302588578253189 33.4374237595144805
 12.3773662165174674  7.5775083110555084 33.3637139430897065
 12.5249329693295639  8.2162404541584113 32.1035700627625502
 12.4566749625778179  9.6391164627332859 32.0305077279122798
 12.2465717366243165 10.2607239316066501 30.7705722943957802
  6.2160747275645090  5.9687201067265248 39.8818911814790198
  7.4258721504303056  5.2167199968541125 39.8082784197503869
  8.0562676873038210  5.0354493358397674 38.5483617387765136
  9.4806665287108416  5.0304518336510053 38.4753646433582119
 10.1121847657002313  5.2073305349736403 37.2152461341551941
 11.3271923241142591  5.9506807590559170 37.1416597500663812
 11.7720056634229486  6.4325497691235682 35.8816142713603838
 12.4164704706419791  7.7027587220115219 35.8081363207582939
 12.5421860390534139  8.3464952611032963 34.5478779801309344
 12.4248134191265773  9.7659938736478722 34.4747204095715034
 12.1941842214576077 10.3801446053495798 33.2146133296823152
 10.2340520614855244  5.2551479476263516 39.6595864469260206
 11.4227866728513199  6.0400646125704398 39.5858720518933183
 11.8506725968652340  6.5372777542821225 38.3258596018981379
 12.4512077211811398  7.8287864363388140 38.2525748213584293
 12.5548073393446256  8.4766732242648928 36.9923648051547715
 12.3885750715446719  9.8913463292113466 36.9190336131366195
 12.1369472192977081 10.4974069416355551 35.6590659998943380
 12.5626619935042338  8.6068994840036872 39.4369760584353699
 12.3474371641498486 10.0149583606551928 39.3634889287243368
 12.0751683987381817 10.6120439620882188 38.1035000651679709
 14.6783884833444276  9.5431234694673126 17.9551690690244747
