 running  256 mpi-ranks, with    1 threads/rank, on    7 nodes
 distrk:  each k-point on  128 cores,    2 groups
 distr:  one band on    4 cores,   32 groups
 vasp.6.4.1 05Apr23 (build Jun 14 2024 13:23:31) complex                         
 POSCAR found type information on POSCAR C Se
 POSCAR found :  2 types and     365 ions
 Reading from existing POTCAR
 -----------------------------------------------------------------------------
|                                                                             |
|           W    W    AA    RRRRR   N    N  II  N    N   GGGG   !!!           |
|           W    W   A  A   R    R  NN   N  II  NN   N  G    G  !!!           |
|           W    W  A    A  R    R  N N  N  II  N N  N  G       !!!           |
|           W WW W  AAAAAA  RRRRR   N  N N  II  N  N N  G  GGG   !            |
|           WW  WW  A    A  R   R   N   NN  II  N   NN  G    G                |
|           W    W  A    A  R    R  N    N  II  N    N   GGGG   !!!           |
|                                                                             |
|     You use a magnetic or noncollinear calculation, but did not specify     |
|     the initial magnetic moment with the MAGMOM tag. Note that a            |
|     default of 1 will be used for all atoms. This ferromagnetic setup       |
|     may break the symmetry of the crystal, in particular it may rule        |
|     out finding an antiferromagnetic solution. Thence, we recommend         |
|     setting the initial magnetic moment manually or verifying carefully     |
|     that this magnetic setup is desired.                                    |
|                                                                             |
 -----------------------------------------------------------------------------

 scaLAPACK will be used
 Reading from existing POTCAR
 -----------------------------------------------------------------------------
|                                                                             |
|               ----> ADVICE to this user running VASP <----                  |
|                                                                             |
|     You have a (more or less) 'large supercell' and for larger cells it     |
|     might be more efficient to use real-space projection operators.         |
|     Therefore, try LREAL= Auto in the INCAR file.                           |
|     Mind: If you want to do very accurate calculations, keep the            |
|     reciprocal projection scheme (i.e. LREAL=.FALSE.).                      |
|                                                                             |
 -----------------------------------------------------------------------------

 LDA part: xc-table for Pade appr. of Perdew
 POSCAR, INCAR and KPOINTS ok, starting setup
 FFT: planning ... GRIDC
 FFT: planning ... GRID_SOFT
 FFT: planning ... GRID
 WAVECAR not read
 WARNING: random wavefunctions but no delay for mixing, default for NELMDL
 entering main loop
       N       E                     dE             d eps       ncg     rms          rms(c)
DAV:   1     0.130515988635E+05    0.13052E+05   -0.45065E+05  9152   0.923E+02
DAV:   2     0.186990217776E+03   -0.12865E+05   -0.12096E+05 10624   0.237E+02
DAV:   3    -0.320279186866E+04   -0.33898E+04   -0.33435E+04  8992   0.129E+02
DAV:   4    -0.338997931487E+04   -0.18719E+03   -0.18386E+03  8768   0.388E+01
DAV:   5    -0.339509318505E+04   -0.51139E+01   -0.50469E+01  9504   0.568E+00    0.116E+02
DAV:   6    -0.230467507319E+04    0.10904E+04   -0.17580E+03  7648   0.360E+01    0.643E+01
DAV:   7    -0.249524175626E+04   -0.19057E+03   -0.21071E+02  7968   0.156E+01    0.428E+01
DAV:   8    -0.263668171178E+04   -0.14144E+03   -0.13405E+02  7872   0.133E+01    0.325E+01
DAV:   9    -0.273611464709E+04   -0.99433E+02   -0.51392E+01  8064   0.881E+00    0.279E+01
DAV:  10    -0.294223164534E+04   -0.20612E+03   -0.11925E+02  8128   0.102E+01    0.222E+01
DAV:  11    -0.308704775914E+04   -0.14482E+03   -0.10967E+02  7712   0.928E+00    0.178E+01
DAV:  12    -0.317629803577E+04   -0.89250E+02   -0.64994E+01  7744   0.664E+00    0.146E+01
DAV:  13    -0.323614884379E+04   -0.59851E+02   -0.19396E+01  8352   0.364E+00    0.125E+01
DAV:  14    -0.327085934493E+04   -0.34711E+02   -0.11445E+01  7968   0.302E+00    0.101E+01
DAV:  15    -0.327846059644E+04   -0.76013E+01   -0.47032E+00  7680   0.230E+00    0.830E+00
DAV:  16    -0.328932050993E+04   -0.10860E+02   -0.31087E+00  7872   0.180E+00    0.654E+00
DAV:  17    -0.330164429778E+04   -0.12324E+02   -0.31911E+00  7776   0.143E+00    0.486E+00
DAV:  18    -0.330207760913E+04   -0.43331E+00   -0.49974E-01  7872   0.130E+00    0.365E+00
DAV:  19    -0.329892145512E+04    0.31562E+01   -0.89342E-01  7648   0.101E+00    0.257E+00
DAV:  20    -0.330125697665E+04   -0.23355E+01   -0.23378E-01  7840   0.913E-01    0.179E+00
DAV:  21    -0.330430776689E+04   -0.30508E+01   -0.35562E-01  7680   0.863E-01    0.897E-01
DAV:  22    -0.330502545748E+04   -0.71769E+00   -0.13320E-01  7488   0.509E-01    0.630E-01
DAV:  23    -0.330660557736E+04   -0.15801E+01   -0.37798E-02  9248   0.382E-01    0.441E-01
DAV:  24    -0.330837760694E+04   -0.17720E+01   -0.74872E-02  7680   0.281E-01    0.268E-01
DAV:  25    -0.330910286728E+04   -0.72526E+00   -0.24277E-02  8096   0.169E-01    0.182E-01
DAV:  26    -0.330967511547E+04   -0.57225E+00   -0.12660E-02  8416   0.126E-01    0.116E-01
DAV:  27    -0.331008841621E+04   -0.41330E+00   -0.98813E-03  8064   0.821E-02    0.709E-02
DAV:  28    -0.331017132124E+04   -0.82905E-01   -0.14897E-03  8384   0.430E-02    0.384E-02
DAV:  29    -0.331019640984E+04   -0.25089E-01   -0.43631E-04  8256   0.275E-02    0.201E-02
DAV:  30    -0.331021730075E+04   -0.20891E-01   -0.24042E-04  7840   0.181E-02    0.133E-02
DAV:  31    -0.331022284637E+04   -0.55456E-02   -0.71896E-05  8352   0.106E-02    0.773E-03
DAV:  32    -0.331022524030E+04   -0.23939E-02   -0.25728E-05  8192   0.614E-03    0.422E-03
DAV:  33    -0.331022729259E+04   -0.20523E-02   -0.24687E-05  7392   0.404E-03    0.237E-03
DAV:  34    -0.331022797902E+04   -0.68643E-03   -0.60127E-06  6880   0.228E-03    0.161E-03
DAV:  35    -0.331022829835E+04   -0.31933E-03   -0.27804E-06  6528   0.157E-03    0.943E-04
DAV:  36    -0.331022839911E+04   -0.10076E-03   -0.70949E-07  5760   0.106E-03    0.692E-04
DAV:  37    -0.331022844407E+04   -0.44966E-04    0.31956E-07  5280   0.597E-04    0.467E-04
DAV:  38    -0.331022849308E+04   -0.49002E-04    0.39765E-07  5344   0.551E-04    0.335E-04
DAV:  39    -0.331022853406E+04   -0.40983E-04    0.51813E-07  5216   0.397E-04    0.314E-04
DAV:  40    -0.331022855670E+04   -0.22640E-04    0.63968E-07  5216   0.291E-04    0.155E-04
DAV:  41    -0.331022857611E+04   -0.19414E-04    0.62718E-07  5088   0.299E-04    0.148E-04
DAV:  42    -0.331022858220E+04   -0.60869E-05    0.70035E-07  5120   0.179E-04    0.101E-04
DAV:  43    -0.331022858458E+04   -0.23802E-05    0.72743E-07  4896   0.124E-04    0.518E-05
DAV:  44    -0.331022858593E+04   -0.13459E-05    0.74098E-07  4704   0.971E-05    0.596E-05
DAV:  45    -0.331022858643E+04   -0.50478E-06    0.74875E-07  4576   0.590E-05
   1 F= -.33243117E+04 E0= -.33243117E+04  d E =-.122532E-13  mag=     0.0000
 writing wavefunctions
 PROFILE, used timers:     339
