Ge Se                                   
    1.000000000000000     
     4.7500000000000000    0.0000000000000000    0.0000000000000000
     0.0000000000000000    4.2000000000000002    0.0000000000000000
     0.0000000000000000    0.0000000000000000   11.1422209999999993
   Ge   Se
     4     4
Selective dynamics
Direct
  0.1152019675180895  0.2500000000000000  0.1292602398747462   T   T   T
  0.6152019675180895  0.7500000000000000  0.3707397601252538   T   T   T
  0.8847980324819105  0.7500000000000000  0.8707397601252538   T   T   T
  0.3847980324819105  0.2500000000000000  0.6292602398747462   T   T   T
  0.9620035949085022  0.2500000000000000  0.3502546637861883   T   T   T
  0.4620035949085022  0.7500000000000000  0.1497453362138117   T   T   T
  0.0379964050914978  0.7500000000000000  0.6497453362138117   T   T   T
  0.5379964050914978  0.2500000000000000  0.8502546637861883   T   T   T
 
  0.00000000E+00  0.00000000E+00  0.00000000E+00
  0.00000000E+00  0.00000000E+00  0.00000000E+00
  0.00000000E+00  0.00000000E+00  0.00000000E+00
  0.00000000E+00  0.00000000E+00  0.00000000E+00
  0.00000000E+00  0.00000000E+00  0.00000000E+00
  0.00000000E+00  0.00000000E+00  0.00000000E+00
  0.00000000E+00  0.00000000E+00  0.00000000E+00
  0.00000000E+00  0.00000000E+00  0.00000000E+00
