Ge Se 
 1.0000000000000000
    12.4077978171643437    0.0000059506816027   -0.0000024876807288
     0.0000060043452554   12.5196833812385560   -0.0000025194593763
    -0.0000028591804140   -0.0000028698244770   11.0782654106336746
 Ge  Se 
  36  36
Cartesian
  1.0240826237149916  0.5058025225912740  1.5806960073654861
  3.0578150652176586 10.7938296231716997  4.2442616933656270
  7.0017873608347667  2.6235320393866428  4.0970775068477909
  7.3130764278012945  6.9432250992248941  4.2643714267409587
  7.0382080484803877 11.1944668139457182  4.1528236547106969
 10.9995020936296815  2.5368047396087641  3.9528296051341929
 11.4987636934510924  6.7063179845941292  4.0568957808895343
 11.2414104176423848 10.8694454403255545  3.9792463858350002
  0.8724295990212971  2.0480437574028030  6.9286865188109203
  0.8654376774788182  5.8808814006557162  6.9707792141287088
  1.0628256156384652 10.2234566633612154  6.8853645097066201
  5.1975966173271724  2.0108231655312325  6.8471423552512896
  5.1519608057983364  5.9550520226655550  6.9186477401483719
  4.8967399233324933 10.0882584284173529  6.7612561767249177
  8.9632573202729215  1.7102157587475204  6.8376178028027237
  9.2037523150462270  5.9938201065983119  7.0712831716643256
  2.9538014508208015  6.6625130212583183  4.2510193716856026
  2.9180601672172397  2.6557265784741380  3.8931147778726820
  9.5256529921047992 10.4616381630053272  6.9553214741045943
 11.3609888719004939  8.2938970411530750  9.9163287323143674
 11.6873198525073612 12.5307217064674123  9.7895542121446919
  0.8869932599276886  4.7944804709911137  1.2021686763648376
  0.9606785409889153  8.7852866180362899  1.4461950471390368
  4.9585675470148542  0.6097270947536442  1.5865144649978324
  5.1056230378603455  4.6718342569041607  1.5866232920970325
  9.1523505608859672  0.4160648047402685  1.4358043781418557
  9.1923013810319389  4.8290428235229532  1.3754242103766898
  4.8162131176484033  8.9156539440330000  1.1147751553895957
  3.1766238609710080  4.1281250811793360  9.4643129491901998
  2.8917356838105794  7.9202626545387202  9.6568828801163722
  3.1524458323882354 12.3336422366139580  9.6757734171759182
  7.1785500283677637  3.7218926030483543  9.9033892071583658
  7.2069994068571575  8.3519966389715883  9.4162522095864993
  7.1307802041993273 12.0532233946300877  9.8216751422527171
 11.0731989242678992  3.8319216441099067  9.8610577292677171
  9.3891083573380367  8.8305476904152744  1.6321777010171623
 11.2022666089385794  0.1330079002031986  7.2262192018061722
  2.7040145181868995  4.1989939897706421  6.9413983292541781
  2.8111214600474139  8.4328262501155322  7.0988939574241652
  6.9830176003226319  0.0743174947599410  7.0486497728850122
  7.2199482263068884  4.4246525864928001  7.1472518914046512
  6.8123858408015332  8.3353182334951157  7.0070343161603619
 11.1115144879174448  4.3847311852050153  7.3218552220594040
  9.2657120036010419  0.1651908684891843  3.9661172832514007
  1.0077742327509271  0.0723936565316788  4.0843133435299288
  0.8316177452890211  4.4210700028159486  3.7026584390299533
  0.8600307300655217  8.3663431856382608  3.9432852110153420
  4.9873001675457411  0.3112136302672978  4.1021489598095551
  4.9756524901439745  4.3230945941445507  4.0838644291218067
  4.9909062977235523  8.4187846930157111  3.6900882455895219
  3.0296000329133506  0.2784491700031260  7.1129077711271815
 11.3851107798214102  8.6736622766826450  7.3135146439015903
 11.4813445243364001 10.6327258038034191  1.4809106965910102
  2.9755709620862105  2.3610983419707594  1.4050857784995630
 11.0179052305487115  2.1148084601827688  1.4278911904851894
  9.2349874744853366  4.3425568863510069  3.9521616365961312
  0.6152091657751908  2.2994846231688824  9.5277609736425148
  0.7406962435723848  6.5069551417879614  9.4016803086654317
  1.1115675095770003 10.7307903190710014  9.4448702322556031
  5.0573018783900654  2.3102973142143912  9.2980400197951436
  4.8908896870697758  6.2422107348830833  9.4035311090484974
  4.9711104975937053 10.5950187021049356  9.3126846961453786
  9.0626892195140574  2.0245216897686484  9.3851188386338098
  9.2106896160632701  6.6727081719455086  9.5357357639179074
  8.9582707778776633 10.4994078649864555  9.3817603233045386
  2.8570165801114471  6.5316049999241663  1.6319013603103281
  2.9012284708340976 10.6089079967217934  1.7289506310130829
  7.0514347862615301  2.2363499301306398  1.5595849479492085
  7.1696585632125167  6.3828069333172541  1.4905086407373005
  6.9977254852125030 10.3936371832548993  1.6314819140632042
 11.1282368647455243  6.4894571995952752  1.5609322924577280
  9.0861933333062144  8.6630683585562487  4.1778896091898519
